<?xml version="1.0"?>
<VTKFile type="UnstructuredGrid" version="0.1" byte_order="LittleEndian">
<UnstructuredGrid>
<Piece NumberOfPoints="31344" NumberOfCells="10965">
<Points>
<DataArray type="Float64" NumberOfComponents="3" format="ascii">
-0.5 -0.5 0 -0.48688419296792901 -0.47571949389293638 0 -0.4741777626132318 -0.49999999999999989 0 -0.5 -0.5 0 -0.48688419296792901 -0.47571949389293638 0 -0.5 -0.4514389877858731 0 -0.48688419296792901 -0.47571949389293638 0 -0.4741777626132318 -0.49999999999999989 0 -0.4658685091641917 -0.47139354606788259 0 -0.48688419296792901 -0.47571949389293638 0 -0.4741777626132318 -0.49999999999999989 0 -0.4741777626132318 -0.49999999999999989 0 -0.4658685091641917 -0.47139354606788259 0 -0.44818111661754628 -0.5 0 -0.4658685091641917 -0.47139354606788259 0 -0.44446177588704461 -0.46993595877209798 0 -0.44818111661754628 -0.5 0 -0.44446177588704461 -0.46993595877209798 0 -0.44818111661754628 -0.5 0 -0.43333186174723909 -0.48578260218183761 0 -0.44955274873398782 -0.45275627857676359 0 -0.43029306238260318 -0.45715144342928771 0 -0.43622019783270038 -0.44078537624624231 0 -0.44955274873398782 -0.45275627857676359 0 -0.45796129597687479 -0.432289038222399 0 -0.43622019783270038 -0.44078537624624231 0 -0.44446177588704461 -0.46993595877209798 0 -0.44955274873398782 -0.45275627857676359 0 -0.43029306238260318 -0.45715144342928771 0 -0.4658685091641917 -0.47139354606788259 0 -0.44446177588704461 -0.46993595877209798 0 -0.44955274873398782 -0.45275627857676359 0 -0.4658685091641917 -0.47139354606788259 0 -0.44955274873398782 -0.45275627857676359 0 -0.4672903457171379 -0.45104919414956712 0 -0.4672903457171379 -0.45104919414956712 0 -0.48049953312669968 -0.44079253367357518 0 -0.45796129597687479 -0.432289038222399 0 -0.44955274873398782 -0.45275627857676359 0 -0.4672903457171379 -0.45104919414956712 0 -0.45796129597687479 -0.432289038222399 0 -0.4672903457171379 -0.45104919414956712 0 -0.48049953312669968 -0.44079253367357518 0 -0.48040693148534358 -0.45798088886365651 0 -0.4658685091641917 -0.47139354606788259 0 -0.4672903457171379 -0.45104919414956712 0 -0.48040693148534358 -0.45798088886365651 0 -0.48688419296792901 -0.47571949389293638 0 -0.4658685091641917 -0.47139354606788259 0 -0.48040693148534358 -0.45798088886365651 0 -0.48688419296792901 -0.47571949389293638 0 -0.48040693148534358 -0.45798088886365651 0 -0.5 -0.4514389877858731 0 -0.48688419296792901 -0.47571949389293638 0 -0.5 -0.4514389877858731 0 -0.48049953312669968 -0.44079253367357518 0 -0.5 -0.4514389877858731 0 -0.5 -0.43664789664639703 0 -0.48049953312669968 -0.44079253367357518 0 -0.48040693148534358 -0.45798088886365651 0 -0.5 -0.4514389877858731 0 -0.48049953312669968 -0.44079253367357518 0 -0.5 -0.43664789664639703 0 -0.47774800225821651 -0.41534919637355888 0 -0.5 -0.43664789664639703 0 -0.47774800225821651 -0.41534919637355888 0 -0.5 -0.38851993436381149 0 -0.48049953312669968 -0.44079253367357518 0 -0.47774800225821651 -0.41534919637355888 0 -0.45796129597687479 -0.432289038222399 0 -0.47774800225821651 -0.41534919637355888 0 -0.5 -0.38851993436381149 0 -0.4684882626455445 -0.3890652094605781 0 -0.5 -0.38851993436381149 0 -0.4684882626455445 -0.3890652094605781 0 -0.47699608999532539 -0.35979817425092198 0 -0.4684882626455445 -0.3890652094605781 0 -0.44656461479083492 -0.39319922157509463 0 -0.45173682326990211 -0.36940614423952062 0 -0.4684882626455445 -0.3890652094605781 0 -0.44656461479083492 -0.39319922157509463 0 -0.45808334251148769 -0.40857791793865839 0 -0.47774800225821651 -0.41534919637355888 0 -0.4684882626455445 -0.3890652094605781 0 -0.45808334251148769 -0.40857791793865839 0 -0.44656461479083492 -0.39319922157509463 0 -0.44139240631176763 -0.41699229891066841 0 -0.44656461479083492 -0.39319922157509463 0 -0.44139240631176763 -0.41699229891066841 0 -0.43237479213090962 -0.40049551809254252 0 -0.44656461479083492 -0.39319922157509463 0 -0.45173682326990211 -0.36940614423952062 0 -0.44656461479083492 -0.39319922157509463 0 -0.42971851657775212 -0.38424309814665458 0 -0.45173682326990211 -0.36940614423952062 0 -0.47774800225821651 -0.41534919637355888 0 -0.45796129597687479 -0.432289038222399 0 -0.45808334251148769 -0.40857791793865839 0 -0.45796129597687479 -0.432289038222399 0 -0.45808334251148769 -0.40857791793865839 0 -0.44139240631176763 -0.41699229891066841 0 -0.44656461479083492 -0.39319922157509463 0 -0.45808334251148769 -0.40857791793865839 0 -0.44139240631176763 -0.41699229891066841 0 -0.44139240631176763 -0.41699229891066841 0 -0.43622019783270038 -0.44078537624624231 0 -0.45796129597687479 -0.432289038222399 0 -0.44139240631176763 -0.41699229891066841 0 -0.43622019783270038 -0.44078537624624231 0 -0.44139240631176763 -0.41699229891066841 0 -0.42381241854158008 -0.42137687841261762 0 -0.43622019783270038 -0.44078537624624231 0 -0.42381241854158008 -0.42137687841261762 0 -0.43622019783270038 -0.44078537624624231 0 -0.41328520704643068 -0.44614503061695221 0 -0.42381241854158008 -0.42137687841261762 0 -0.43237479213090962 -0.40049551809254252 0 -0.41807322010583259 -0.40419135809102258 0 -0.44139240631176763 -0.41699229891066841 0 -0.42381241854158008 -0.42137687841261762 0 -0.43237479213090962 -0.40049551809254252 0 -0.41807322010583259 -0.40419135809102258 0 -0.40295740806698138 -0.4043270310936371 0 -0.40519189979673109 -0.42288710554775871 0 -0.42381241854158008 -0.42137687841261762 0 -0.41807322010583259 -0.40419135809102258 0 -0.40519189979673109 -0.42288710554775871 0 -0.42381241854158008 -0.42137687841261762 0 -0.40519189979673109 -0.42288710554775871 0 -0.41328520704643068 -0.44614503061695221 0 -0.44656461479083492 -0.39319922157509463 0 -0.42971851657775212 -0.38424309814665458 0 -0.43237479213090962 -0.40049551809254252 0 -0.42971851657775212 -0.38424309814665458 0 -0.43237479213090962 -0.40049551809254252 0 -0.41807322010583259 -0.40419135809102258 0 -0.42971851657775212 -0.38424309814665458 0 -0.41807322010583259 -0.40419135809102258 0 -0.41276035601858713 -0.39555222310926358 0 -0.41807322010583259 -0.40419135809102258 0 -0.41276035601858713 -0.39555222310926358 0 -0.40295740806698138 -0.4043270310936371 0 -0.42971851657775212 -0.38424309814665458 0 -0.40215010430089171 -0.38131932627237219 0 -0.40029227932378231 -0.38944740510574011 0 -0.42971851657775212 -0.38424309814665458 0 -0.41276035601858713 -0.39555222310926358 0 -0.40029227932378231 -0.38944740510574011 0 -0.42971851657775212 -0.38424309814665458 0 -0.40215010430089171 -0.38131932627237219 0 -0.418221727774575 -0.36945213776531349 0 -0.42971851657775212 -0.38424309814665458 0 -0.40029227932378231 -0.38944740510574011 0 -0.40215010430089171 -0.38131932627237219 0 -0.38905109648381142 -0.38293612577500602 0 -0.39210888806352417 -0.37085032147219388 0 -0.40215010430089171 -0.38131932627237219 0 -0.40029227932378231 -0.38944740510574011 0 -0.38905109648381142 -0.38293612577500602 0 -0.40029227932378231 -0.38944740510574011 0 -0.40295740806698138 -0.4043270310936371 0 -0.38857171782147748 -0.4089701008667414 0 -0.41276035601858713 -0.39555222310926358 0 -0.40029227932378231 -0.38944740510574011 0 -0.40295740806698138 -0.4043270310936371 0 -0.40029227932378231 -0.38944740510574011 0 -0.38857171782147748 -0.4089701008667414 0 -0.37086604206981227 -0.39465171206482558 0 -0.38857171782147748 -0.4089701008667414 0 -0.3736076487831192 -0.41403429292464861 0 -0.37086604206981227 -0.39465171206482558 0 -0.40029227932378231 -0.38944740510574011 0 -0.37086604206981227 -0.39465171206482558 0 -0.38905109648381142 -0.38293612577500602 0 -0.37983816866104619 -0.37841186395989812 0 -0.37086604206981227 -0.39465171206482558 0 -0.40029227932378231 -0.38944740510574011 0 -0.38905109648381142 -0.38293612577500602 0 -0.37086604206981227 -0.39465171206482558 0 -0.38905109648381142 -0.38293612577500602 0 -0.37983816866104619 -0.37841186395989812 0 -0.39210888806352417 -0.37085032147219388 0 -0.40519189979673109 -0.42288710554775871 0 -0.38925863360994528 -0.42403147679031222 0 -0.391143174238758 -0.43978758075558289 0 -0.40519189979673109 -0.42288710554775871 0 -0.391143174238758 -0.43978758075558289 0 -0.41328520704643068 -0.44614503061695221 0 -0.40295740806698138 -0.4043270310936371 0 -0.40519189979673109 -0.42288710554775871 0 -0.38857171782147748 -0.4089701008667414 0 -0.40519189979673109 -0.42288710554775871 0 -0.38857171782147748 -0.4089701008667414 0 -0.38925863360994528 -0.42403147679031222 0 -0.38857171782147748 -0.4089701008667414 0 -0.38925863360994528 -0.42403147679031222 0 -0.3736076487831192 -0.41403429292464861 0 -0.38925863360994528 -0.42403147679031222 0 -0.37165182833615512 -0.43017869423626398 0 -0.3736076487831192 -0.41403429292464861 0 -0.38925863360994528 -0.42403147679031222 0 -0.391143174238758 -0.43978758075558289 0 -0.37165182833615512 -0.43017869423626398 0 -0.37569954516590282 -0.44589569233336712 0 -0.391143174238758 -0.43978758075558289 0 -0.37165182833615512 -0.43017869423626398 0 -0.37569954516590282 -0.44589569233336712 0 -0.391143174238758 -0.43978758075558289 0 -0.39214939938061982 -0.46005410572250449 0 -0.391143174238758 -0.43978758075558289 0 -0.39214939938061982 -0.46005410572250449 0 -0.41328520704643068 -0.44614503061695221 0 -0.39214939938061982 -0.46005410572250449 0 -0.38003836276132341 -0.48052034468410648 0 -0.36671375067195577 -0.46125268182926987 0 -0.37569954516590282 -0.44589569233336712 0 -0.39214939938061982 -0.46005410572250449 0 -0.36671375067195577 -0.46125268182926987 0 -0.39214939938061982 -0.46005410572250449 0 -0.38003836276132341 -0.48052034468410648 0 -0.39962143308624642 -0.48046706443336362 0 -0.38003836276132341 -0.48052034468410648 0 -0.3961878246261753 -0.5 0 -0.37019117863048978 -0.5 0 -0.3961878246261753 -0.5 0 -0.39962143308624642 -0.48046706443336362 0 -0.42218447062186082 -0.5 0 -0.38003836276132341 -0.48052034468410648 0 -0.3961878246261753 -0.5 0 -0.39962143308624642 -0.48046706443336362 0 -0.39214939938061982 -0.46005410572250449 0 -0.39962143308624642 -0.48046706443336362 0 -0.41850008386250509 -0.47319444995525239 0 -0.39962143308624642 -0.48046706443336362 0 -0.41850008386250509 -0.47319444995525239 0 -0.42218447062186082 -0.5 0 -0.44818111661754628 -0.5 0 -0.42218447062186082 -0.5 0 -0.43333186174723909 -0.48578260218183761 0 -0.41850008386250509 -0.47319444995525239 0 -0.42218447062186082 -0.5 0 -0.43333186174723909 -0.48578260218183761 0 -0.44446177588704461 -0.46993595877209798 0 -0.41850008386250509 -0.47319444995525239 0 -0.43333186174723909 -0.48578260218183761 0 -0.44446177588704461 -0.46993595877209798 0 -0.41850008386250509 -0.47319444995525239 0 -0.43029306238260318 -0.45715144342928771 0 -0.43029306238260318 -0.45715144342928771 0 -0.43622019783270038 -0.44078537624624231 0 -0.41328520704643068 -0.44614503061695221 0 -0.41850008386250509 -0.47319444995525239 0 -0.43029306238260318 -0.45715144342928771 0 -0.41328520704643068 -0.44614503061695221 0 -0.39214939938061982 -0.46005410572250449 0 -0.41850008386250509 -0.47319444995525239 0 -0.41328520704643068 -0.44614503061695221 0 -0.44183250848516281 -0.25396601693913079 0 -0.45659448694856603 -0.26051399847008849 0 -0.45410120744398008 -0.2435675030109988 0 -0.44183250848516281 -0.25396601693913079 0 -0.44137914391351302 -0.26570676768549162 0 -0.45659448694856603 -0.26051399847008849 0 -0.44183250848516281 -0.25396601693913079 0 -0.44137914391351302 -0.26570676768549162 0 -0.4305116279018753 -0.25264715867606929 0 -0.44137914391351302 -0.26570676768549162 0 -0.44670829100031129 -0.27462252509688623 0 -0.43544773064287068 -0.26775466514571289 0 -0.44670829100031129 -0.27462252509688623 0 -0.44038383338386577 -0.28286217161535637 0 -0.43544773064287068 -0.26775466514571289 0 -0.44038383338386577 -0.28286217161535637 0 -0.43544773064287068 -0.26775466514571289 0 -0.44670829100031129 -0.27462252509688623 0 -0.45858417875502921 -0.27731096978539849 0 -0.45135150769728921 -0.28954720782697713 0 -0.44137914391351302 -0.26570676768549162 0 -0.44670829100031129 -0.27462252509688623 0 -0.45659448694856603 -0.26051399847008849 0 -0.45858417875502921 -0.27731096978539849 0 -0.47383867966239263 -0.26773368062275771 0 -0.46795995994521461 -0.29477683509556529 0 -0.44670829100031129 -0.27462252509688623 0 -0.45858417875502921 -0.27731096978539849 0 -0.45659448694856603 -0.26051399847008849 0 -0.45858417875502921 -0.27731096978539849 0 -0.45659448694856603 -0.26051399847008849 0 -0.47383867966239263 -0.26773368062275771 0 -0.45659448694856603 -0.26051399847008849 0 -0.47383867966239263 -0.26773368062275771 0 -0.47971739937957247 -0.2406905261499506 0 -0.48896078750815541 -0.25574798812015442 0 -0.47383867966239263 -0.26773368062275771 0 -0.47971739937957247 -0.2406905261499506 0 -0.47383867966239263 -0.26773368062275771 0 -0.47971739937957247 -0.2406905261499506 0 -0.48896078750815541 -0.25574798812015442 0 -0.5 -0.26704660925218437 0 -0.5 -0.23847965605337371 0 -0.48896078750815541 -0.25574798812015442 0 -0.5 -0.26704660925218437 0 -0.48699036843676752 -0.27999044852775118 0 -0.5 -0.26704660925218437 0 -0.48699036843676752 -0.27999044852775118 0 -0.5 -0.29561356245099518 0 -0.48896078750815541 -0.25574798812015442 0 -0.48699036843676752 -0.27999044852775118 0 -0.47383867966239263 -0.26773368062275771 0 -0.48699036843676752 -0.27999044852775118 0 -0.47383867966239263 -0.26773368062275771 0 -0.46795995994521461 -0.29477683509556529 0 -0.47383867966239263 -0.26773368062275771 0 -0.46795995994521461 -0.29477683509556529 0 -0.48699036843676752 -0.27999044852775118 0 -0.5 -0.29561356245099518 0 -0.46795995994521461 -0.29477683509556529 0 -0.5 -0.29561356245099518 0 -0.46795995994521461 -0.29477683509556529 0 -0.48104062011401422 -0.32300025260908549 0 -0.46795995994521461 -0.29477683509556529 0 -0.46208124022803532 -0.32181998956837271 0 -0.46795995994521461 -0.29477683509556529 0 -0.45239061527607699 -0.30533946869775502 0 -0.46208124022803532 -0.32181998956837271 0 -0.45858417875502921 -0.27731096978539849 0 -0.46795995994521461 -0.29477683509556529 0 -0.45135150769728921 -0.28954720782697713 0 -0.46795995994521461 -0.29477683509556529 0 -0.45135150769728921 -0.28954720782697713 0 -0.45239061527607699 -0.30533946869775502 0 -0.45135150769728921 -0.28954720782697713 0 -0.44038383338386577 -0.28286217161535637 0 -0.43930383738468082 -0.3000297053110198 0 -0.44670829100031129 -0.27462252509688623 0 -0.45135150769728921 -0.28954720782697713 0 -0.44038383338386577 -0.28286217161535637 0 -0.45135150769728921 -0.28954720782697713 0 -0.45239061527607699 -0.30533946869775502 0 -0.43930383738468082 -0.3000297053110198 0 -0.45239061527607699 -0.30533946869775502 0 -0.43930383738468082 -0.3000297053110198 0 -0.44125653112516389 -0.32052360568683957 0 -0.5 -0.38851993436381149 0 -0.49999999999999278 -0.3241805156498061 0 -0.47699608999532539 -0.35979817425092198 0 -0.44125653112516389 -0.32052360568683957 0 -0.44048703717944709 -0.3363618358704733 0 -0.46208124022803532 -0.32181998956837271 0 -0.45239061527607699 -0.30533946869775502 0 -0.44125653112516389 -0.32052360568683957 0 -0.46208124022803532 -0.32181998956837271 0 -0.44125653112516389 -0.32052360568683957 0 -0.46208124022803532 -0.32181998956837271 0 -0.44048703717944709 -0.3363618358704733 0 -0.46208124022803532 -0.32181998956837271 0 -0.45690903174896919 -0.34561306690394678 0 -0.46208124022803532 -0.32181998956837271 0 -0.45690903174896919 -0.34561306690394678 0 -0.46208124022803532 -0.32181998956837271 0 -0.47540539641726892 -0.33488239979642498 0 -0.45690903174896919 -0.34561306690394678 0 -0.46795995994521461 -0.29477683509556529 0 -0.46208124022803532 -0.32181998956837271 0 -0.48104062011401422 -0.32300025260908549 0 -0.46208124022803532 -0.32181998956837271 0 -0.48104062011401422 -0.32300025260908549 0 -0.47540539641726892 -0.33488239979642498 0 -0.46208124022803532 -0.32181998956837271 0 -0.48104062011401422 -0.32300025260908549 0 -0.49999999999999278 -0.3241805156498061 0 -0.47540539641726892 -0.33488239979642498 0 -0.47699608999532539 -0.35979817425092198 0 -0.5 -0.29561356245099518 0 -0.48104062011401422 -0.32300025260908549 0 -0.49999999999999278 -0.3241805156498061 0 -0.48104062011401422 -0.32300025260908549 0 -0.49999999999999278 -0.3241805156498061 0 -0.47540539641726892 -0.33488239979642498 0 -0.48104062011401422 -0.32300025260908549 0 -0.49999999999999278 -0.3241805156498061 0 -0.47540539641726892 -0.33488239979642498 0 -0.47699608999532539 -0.35979817425092198 0 -0.45690903174896919 -0.34561306690394678 0 -0.4684882626455445 -0.3890652094605781 0 -0.47699608999532539 -0.35979817425092198 0 -0.45173682326990211 -0.36940614423952062 0 -0.45690903174896919 -0.34561306690394678 0 -0.45173682326990211 -0.36940614423952062 0 -0.47699608999532539 -0.35979817425092198 0 -0.45690903174896919 -0.34561306690394678 0 -0.45173682326990211 -0.36940614423952062 0 -0.44048703717944709 -0.3363618358704733 0 -0.45690903174896919 -0.34561306690394678 0 -0.4280181305056811 -0.35072900405838409 0 -0.45690903174896919 -0.34561306690394678 0 -0.43509995206094287 -0.36657624154645518 0 -0.4280181305056811 -0.35072900405838409 0 -0.42971851657775212 -0.38424309814665458 0 -0.45173682326990211 -0.36940614423952062 0 -0.43509995206094287 -0.36657624154645518 0 -0.45690903174896919 -0.34561306690394678 0 -0.45173682326990211 -0.36940614423952062 0 -0.43509995206094287 -0.36657624154645518 0 -0.43509995206094287 -0.36657624154645518 0 -0.4280181305056811 -0.35072900405838409 0 -0.418221727774575 -0.36945213776531349 0 -0.42971851657775212 -0.38424309814665458 0 -0.43509995206094287 -0.36657624154645518 0 -0.418221727774575 -0.36945213776531349 0 -0.4280181305056811 -0.35072900405838409 0 -0.40130244050706781 -0.36018983015617922 0 -0.41698715026550492 -0.33573511892515889 0 -0.40215010430089171 -0.38131932627237219 0 -0.418221727774575 -0.36945213776531349 0 -0.40130244050706781 -0.36018983015617922 0 -0.4280181305056811 -0.35072900405838409 0 -0.418221727774575 -0.36945213776531349 0 -0.40130244050706781 -0.36018983015617922 0 -0.40215010430089171 -0.38131932627237219 0 -0.40130244050706781 -0.36018983015617922 0 -0.39210888806352417 -0.37085032147219388 0 -0.40130244050706781 -0.36018983015617922 0 -0.39210888806352417 -0.37085032147219388 0 -0.38611629478804982 -0.35067206178386912 0 -0.40215010430089171 -0.38131932627237219 0 -0.40130244050706781 -0.36018983015617922 0 -0.37983816866104619 -0.37841186395989812 0 -0.39210888806352417 -0.37085032147219388 0 -0.37592796613717022 -0.36513281525435992 0 -0.39210888806352417 -0.37085032147219388 0 -0.37592796613717022 -0.36513281525435992 0 -0.38611629478804982 -0.35067206178386912 0 -0.38611629478804982 -0.35067206178386912 0 -0.3746186530786868 -0.33771974198690158 0 -0.36663867081018958 -0.34852223688394751 0 -0.37592796613717022 -0.36513281525435992 0 -0.38611629478804982 -0.35067206178386912 0 -0.36663867081018958 -0.34852223688394751 0 -0.40130244050706781 -0.36018983015617922 0 -0.40045477671324381 -0.33906033403998609 0 -0.40130244050706781 -0.36018983015617922 0 -0.40045477671324381 -0.33906033403998609 0 -0.41698715026550492 -0.33573511892515889 0 -0.40130244050706781 -0.36018983015617922 0 -0.38611629478804982 -0.35067206178386912 0 -0.40045477671324381 -0.33906033403998609 0 -0.38611629478804982 -0.35067206178386912 0 -0.40045477671324381 -0.33906033403998609 0 -0.38732263751220708 -0.32987224685413841 0 -0.40045477671324381 -0.33906033403998609 0 -0.39960711291942019 -0.31793083792379301 0 -0.40045477671324381 -0.33906033403998609 0 -0.38732263751220708 -0.32987224685413841 0 -0.39960711291942019 -0.31793083792379301 0 -0.40045477671324381 -0.33906033403998609 0 -0.39960711291942019 -0.31793083792379301 0 -0.41698715026550492 -0.33573511892515889 0 -0.38732263751220708 -0.32987224685413841 0 -0.36901098225689338 -0.32528956251558711 0 -0.3746186530786868 -0.33771974198690158 0 -0.38611629478804982 -0.35067206178386912 0 -0.38732263751220708 -0.32987224685413841 0 -0.3746186530786868 -0.33771974198690158 0 -0.38732263751220708 -0.32987224685413841 0 -0.37959265307946971 -0.31668489383853232 0 -0.39960711291942019 -0.31793083792379301 0 -0.38732263751220708 -0.32987224685413841 0 -0.37959265307946971 -0.31668489383853232 0 -0.36901098225689338 -0.32528956251558711 0 -0.37959265307946971 -0.31668489383853232 0 -0.39960711291942019 -0.31793083792379301 0 -0.39960711291942019 -0.31793083792379301 0 -0.42043182202229212 -0.31922722180531482 0 -0.41698715026550492 -0.33573511892515889 0 -0.39960711291942019 -0.31793083792379301 0 -0.42043182202229212 -0.31922722180531482 0 -0.39960711291942019 -0.31793083792379301 0 -0.42043182202229212 -0.31922722180531482 0 -0.4119085562265612 -0.30582521819753378 0 -0.44048703717944709 -0.3363618358704733 0 -0.42043182202229212 -0.31922722180531482 0 -0.41698715026550492 -0.33573511892515889 0 -0.44048703717944709 -0.3363618358704733 0 -0.4280181305056811 -0.35072900405838409 0 -0.41698715026550492 -0.33573511892515889 0 -0.44125653112516389 -0.32052360568683957 0 -0.42043182202229212 -0.31922722180531482 0 -0.44125653112516389 -0.32052360568683957 0 -0.42043182202229212 -0.31922722180531482 0 -0.42892718910091349 -0.30862624913488501 0 -0.44125653112516389 -0.32052360568683957 0 -0.44048703717944709 -0.3363618358704733 0 -0.42043182202229212 -0.31922722180531482 0 -0.43930383738468082 -0.3000297053110198 0 -0.44125653112516389 -0.32052360568683957 0 -0.42892718910091349 -0.30862624913488501 0 -0.43930383738468082 -0.3000297053110198 0 -0.42421950512871531 -0.29738461041634101 0 -0.42892718910091349 -0.30862624913488501 0 -0.43930383738468082 -0.3000297053110198 0 -0.42421950512871531 -0.29738461041634101 0 -0.4287655375228161 -0.28632858441943532 0 -0.4287655375228161 -0.28632858441943532 0 -0.4118017367485951 -0.28462037393021311 0 -0.42652153915016799 -0.27441366571443659 0 -0.44038383338386577 -0.28286217161535637 0 -0.43930383738468082 -0.3000297053110198 0 -0.4287655375228161 -0.28632858441943532 0 -0.4118017367485951 -0.28462037393021311 0 -0.4119085562265612 -0.30582521819753378 0 -0.39868459828714009 -0.29493555431971868 0 -0.42421950512871531 -0.29738461041634101 0 -0.4287655375228161 -0.28632858441943532 0 -0.4118017367485951 -0.28462037393021311 0 -0.42421950512871531 -0.29738461041634101 0 -0.4118017367485951 -0.28462037393021311 0 -0.4119085562265612 -0.30582521819753378 0 -0.42421950512871531 -0.29738461041634101 0 -0.42892718910091349 -0.30862624913488501 0 -0.4119085562265612 -0.30582521819753378 0 -0.42043182202229212 -0.31922722180531482 0 -0.42892718910091349 -0.30862624913488501 0 -0.4119085562265612 -0.30582521819753378 0 -0.39960711291942019 -0.31793083792379301 0 -0.38137484790683612 -0.29899504609247191 0 -0.39868459828714009 -0.29493555431971868 0 -0.39960711291942019 -0.31793083792379301 0 -0.39868459828714009 -0.29493555431971868 0 -0.39960711291942019 -0.31793083792379301 0 -0.4119085562265612 -0.30582521819753378 0 -0.39868459828714009 -0.29493555431971868 0 -0.37959265307946971 -0.31668489383853232 0 -0.39960711291942019 -0.31793083792379301 0 -0.38137484790683612 -0.29899504609247191 0 -0.38137484790683612 -0.29899504609247191 0 -0.38729946346805788 -0.28233933094784502 0 -0.36421559221882521 -0.29434027693439668 0 -0.38137484790683612 -0.29899504609247191 0 -0.38729946346805788 -0.28233933094784502 0 -0.39868459828714009 -0.29493555431971868 0 -0.4118017367485951 -0.28462037393021311 0 -0.38729946346805788 -0.28233933094784502 0 -0.39868459828714009 -0.29493555431971868 0 -0.4118017367485951 -0.28462037393021311 0 -0.38729946346805788 -0.28233933094784502 0 -0.40422933902234959 -0.26821870898567751 0 -0.38729946346805788 -0.28233933094784502 0 -0.40422933902234959 -0.26821870898567751 0 -0.38193713889453101 -0.26202375225691882 0 -0.38729946346805788 -0.28233933094784502 0 -0.38193713889453101 -0.26202375225691882 0 -0.36885299119812698 -0.27324160411551751 0 -0.38193713889453101 -0.26202375225691882 0 -0.36885299119812698 -0.27324160411551751 0 -0.38193713889453101 -0.26202375225691882 0 -0.39583073424927501 -0.25011191068426442 0 -0.37263251334075131 -0.25604599479770351 0 -0.39583073424927501 -0.25011191068426442 0 -0.36696179939019241 -0.25335420594037988 0 -0.39583073424927501 -0.25011191068426442 0 -0.36696179939019241 -0.25335420594037988 0 -0.37263251334075131 -0.25604599479770351 0 -0.38193713889453101 -0.26202375225691882 0 -0.37192987893063501 -0.25924275522233559 0 -0.38193713889453101 -0.26202375225691882 0 -0.37192987893063501 -0.25924275522233559 0 -0.37263251334075131 -0.25604599479770351 0 -0.38193713889453101 -0.26202375225691882 0 -0.39583073424927501 -0.25011191068426442 0 -0.40422933902234959 -0.26821870898567751 0 -0.38193713889453101 -0.26202375225691882 0 -0.39583073424927501 -0.25011191068426442 0 -0.40422933902234959 -0.26821870898567751 0 -0.38193713889453101 -0.26202375225691882 0 -0.40422933902234959 -0.26821870898567751 0 -0.39583073424927501 -0.25011191068426442 0 -0.41363172911696638 -0.26205055034470709 0 -0.39583073424927501 -0.25011191068426442 0 -0.41824730384137299 -0.25477636622968941 0 -0.42561803245824431 -0.24676647323924369 0 -0.39583073424927501 -0.25011191068426442 0 -0.41824730384137299 -0.25477636622968941 0 -0.41363172911696638 -0.26205055034470709 0 -0.41824730384137299 -0.25477636622968941 0 -0.41363172911696638 -0.26205055034470709 0 -0.42564439548050431 -0.26230573820416198 0 -0.4118017367485951 -0.28462037393021311 0 -0.40422933902234959 -0.26821870898567751 0 -0.42652153915016799 -0.27441366571443659 0 -0.40422933902234959 -0.26821870898567751 0 -0.41363172911696638 -0.26205055034470709 0 -0.42652153915016799 -0.27441366571443659 0 -0.40422933902234959 -0.26821870898567751 0 -0.42652153915016799 -0.27441366571443659 0 -0.42652153915016799 -0.27441366571443659 0 -0.43544773064287068 -0.26775466514571289 0 -0.42564439548050431 -0.26230573820416198 0 -0.41363172911696638 -0.26205055034470709 0 -0.42652153915016799 -0.27441366571443659 0 -0.42564439548050431 -0.26230573820416198 0 -0.44038383338386577 -0.28286217161535637 0 -0.4287655375228161 -0.28632858441943532 0 -0.42652153915016799 -0.27441366571443659 0 -0.44038383338386577 -0.28286217161535637 0 -0.42652153915016799 -0.27441366571443659 0 -0.43544773064287068 -0.26775466514571289 0 -0.44137914391351302 -0.26570676768549162 0 -0.4305116279018753 -0.25264715867606929 0 -0.43544773064287068 -0.26775466514571289 0 -0.4305116279018753 -0.25264715867606929 0 -0.43544773064287068 -0.26775466514571289 0 -0.4305116279018753 -0.25264715867606929 0 -0.42564439548050431 -0.26230573820416198 0 -0.44137914391351302 -0.26570676768549162 0 -0.43544773064287068 -0.26775466514571289 0 -0.4305116279018753 -0.25264715867606929 0 -0.44183250848516281 -0.25396601693913079 0 -0.4305116279018753 -0.25264715867606929 0 -0.42848501550838702 -0.2464444798720398 0 -0.41824730384137299 -0.25477636622968941 0 -0.4305116279018753 -0.25264715867606929 0 -0.42564439548050431 -0.26230573820416198 0 -0.41824730384137299 -0.25477636622968941 0 -0.4305116279018753 -0.25264715867606929 0 -0.42561803245824431 -0.24676647323924369 0 -0.32809249781428779 -0.25928734373566842 0 -0.32838933311015278 -0.26175386451157501 0 -0.31007471701843659 -0.2721091232829872 0 -0.32809249781428779 -0.25928734373566842 0 -0.31606970326012263 -0.25434846417547619 0 -0.31007471701843659 -0.2721091232829872 0 -0.32809249781428779 -0.25928734373566842 0 -0.32483892789167967 -0.246156276439185 0 -0.32657012761773702 -0.24663737329504989 0 -0.32809249781428779 -0.25928734373566842 0 -0.31606970326012263 -0.25434846417547619 0 -0.32483892789167967 -0.246156276439185 0 -0.32809249781428779 -0.25928734373566842 0 -0.32657012761773702 -0.24663737329504989 0 -0.32655078727325049 -0.27048274474458778 0 -0.32838933311015278 -0.26175386451157501 0 -0.31007471701843659 -0.2721091232829872 0 -0.32655078727325049 -0.27048274474458778 0 -0.32697678062985502 -0.28164728965666208 0 -0.31007471701843659 -0.2721091232829872 0 -0.32697678062985502 -0.28164728965666208 0 -0.31325098541874757 -0.28559080178657198 0 -0.31007471701843659 -0.2721091232829872 0 -0.32809249781428779 -0.25928734373566842 0 -0.31007471701843659 -0.2721091232829872 0 -0.33553482399775558 -0.27204630243844158 0 -0.33929175444732551 -0.26314934110558102 0 -0.33177828161005218 -0.26485714383327302 0 -0.32655078727325049 -0.27048274474458778 0 -0.32838933311015278 -0.26175386451157501 0 -0.33177828161005218 -0.26485714383327302 0 -0.32655078727325049 -0.27048274474458778 0 -0.33553482399775558 -0.27204630243844158 0 -0.33177828161005218 -0.26485714383327302 0 -0.32655078727325049 -0.27048274474458778 0 -0.33553482399775558 -0.27204630243844158 0 -0.32697678062985502 -0.28164728965666208 0 -0.33553482399775558 -0.27204630243844158 0 -0.33850821805646047 -0.28216555681491629 0 -0.32697678062985502 -0.28164728965666208 0 -0.33553482399775558 -0.27204630243844158 0 -0.34738920297115877 -0.27266323677026849 0 -0.33850821805646047 -0.28216555681491629 0 -0.33553482399775558 -0.27204630243844158 0 -0.33929175444732551 -0.26314934110558102 0 -0.34738920297115877 -0.27266323677026849 0 -0.3380047868792731 -0.25223357908836791 0 -0.34925000327418609 -0.25294006425869198 0 -0.32657012761773702 -0.24663737329504989 0 -0.33929175444732551 -0.26314934110558102 0 -0.3380047868792731 -0.25223357908836791 0 -0.34846191157012402 -0.26213268532648132 0 -0.32809249781428779 -0.25928734373566842 0 -0.33929175444732551 -0.26314934110558102 0 -0.33177828161005218 -0.26485714383327302 0 -0.32809249781428779 -0.25928734373566842 0 -0.33929175444732551 -0.26314934110558102 0 -0.3380047868792731 -0.25223357908836791 0 -0.32809249781428779 -0.25928734373566842 0 -0.32838933311015278 -0.26175386451157501 0 -0.32809249781428779 -0.25928734373566842 0 -0.32838933311015278 -0.26175386451157501 0 -0.33177828161005218 -0.26485714383327302 0 -0.32809249781428779 -0.25928734373566842 0 -0.3380047868792731 -0.25223357908836791 0 -0.32809249781428779 -0.25928734373566842 0 -0.3380047868792731 -0.25223357908836791 0 -0.32657012761773702 -0.24663737329504989 0 -0.34925000327418609 -0.25294006425869198 0 -0.36696179939019241 -0.25335420594037988 0 -0.36123010500485891 -0.24536424269572571 0 -0.3380047868792731 -0.25223357908836791 0 -0.34925000327418609 -0.25294006425869198 0 -0.34846191157012402 -0.26213268532648132 0 -0.34925000327418609 -0.25294006425869198 0 -0.34846191157012402 -0.26213268532648132 0 -0.35725481541627169 -0.26451339165320231 0 -0.34925000327418609 -0.25294006425869198 0 -0.35725481541627169 -0.26451339165320231 0 -0.37192987893063501 -0.25924275522233559 0 -0.34925000327418609 -0.25294006425869198 0 -0.36696179939019241 -0.25335420594037988 0 -0.37192987893063501 -0.25924275522233559 0 -0.34925000327418609 -0.25294006425869198 0 -0.37192987893063501 -0.25924275522233559 0 -0.38193713889453101 -0.26202375225691882 0 -0.37192987893063501 -0.25924275522233559 0 -0.36885299119812698 -0.27324160411551751 0 -0.37192987893063501 -0.25924275522233559 0 -0.37263251334075131 -0.25604599479770351 0 -0.36696179939019241 -0.25335420594037988 0 -0.37192987893063501 -0.25924275522233559 0 -0.37263251334075131 -0.25604599479770351 0 -0.37192987893063501 -0.25924275522233559 0 -0.36885299119812698 -0.27324160411551751 0 -0.35725481541627169 -0.26451339165320231 0 -0.37192987893063501 -0.25924275522233559 0 -0.36885299119812698 -0.27324160411551751 0 -0.36885299119812698 -0.27324160411551751 0 -0.34738920297115877 -0.27266323677026849 0 -0.34665571346216539 -0.29227270794313293 0 -0.35725481541627169 -0.26451339165320231 0 -0.36885299119812698 -0.27324160411551751 0 -0.34738920297115877 -0.27266323677026849 0 -0.34846191157012402 -0.26213268532648132 0 -0.35725481541627169 -0.26451339165320231 0 -0.34738920297115877 -0.27266323677026849 0 -0.33929175444732551 -0.26314934110558102 0 -0.34846191157012402 -0.26213268532648132 0 -0.34738920297115877 -0.27266323677026849 0 -0.34738920297115877 -0.27266323677026849 0 -0.34665571346216539 -0.29227270794313293 0 -0.33850821805646047 -0.28216555681491629 0 -0.36885299119812698 -0.27324160411551751 0 -0.34665571346216539 -0.29227270794313293 0 -0.36885299119812698 -0.27324160411551751 0 -0.36421559221882521 -0.29434027693439668 0 -0.38729946346805788 -0.28233933094784502 0 -0.36885299119812698 -0.27324160411551751 0 -0.36421559221882521 -0.29434027693439668 0 -0.36885299119812698 -0.27324160411551751 0 -0.34665571346216539 -0.29227270794313293 0 -0.36421559221882521 -0.29434027693439668 0 -0.38137484790683612 -0.29899504609247191 0 -0.36421559221882521 -0.29434027693439668 0 -0.3595781932395189 -0.31543894975327502 0 -0.37959265307946971 -0.31668489383853232 0 -0.38137484790683612 -0.29899504609247191 0 -0.3595781932395189 -0.31543894975327502 0 -0.36421559221882521 -0.29434027693439668 0 -0.3595781932395189 -0.31543894975327502 0 -0.34525411572792469 -0.3044955337234716 0 -0.33521307477555817 -0.31392216761278519 0 -0.3595781932395189 -0.31543894975327502 0 -0.34665571346216539 -0.29227270794313293 0 -0.36421559221882521 -0.29434027693439668 0 -0.34525411572792469 -0.3044955337234716 0 -0.36421559221882521 -0.29434027693439668 0 -0.34525411572792469 -0.3044955337234716 0 -0.3595781932395189 -0.31543894975327502 0 -0.34525411572792469 -0.3044955337234716 0 -0.33200007980338803 -0.30662222205148248 0 -0.33521307477555817 -0.31392216761278519 0 -0.33200007980338803 -0.30662222205148248 0 -0.33593988456000851 -0.29418982165141849 0 -0.32511798520987301 -0.29349013072200841 0 -0.34525411572792469 -0.3044955337234716 0 -0.33200007980338803 -0.30662222205148248 0 -0.33593988456000851 -0.29418982165141849 0 -0.34665571346216539 -0.29227270794313293 0 -0.34525411572792469 -0.3044955337234716 0 -0.33593988456000851 -0.29418982165141849 0 -0.34665571346216539 -0.29227270794313293 0 -0.33593988456000851 -0.29418982165141849 0 -0.33850821805646047 -0.28216555681491629 0 -0.33593988456000851 -0.29418982165141849 0 -0.33850821805646047 -0.28216555681491629 0 -0.32697678062985502 -0.28164728965666208 0 -0.33593988456000851 -0.29418982165141849 0 -0.32511798520987301 -0.29349013072200841 0 -0.32697678062985502 -0.28164728965666208 0 -0.32511798520987301 -0.29349013072200841 0 -0.32697678062985502 -0.28164728965666208 0 -0.31325098541874757 -0.28559080178657198 0 -0.32511798520987301 -0.29349013072200841 0 -0.31325098541874757 -0.28559080178657198 0 -0.31202850801298709 -0.29577656244089512 0 -0.33200007980338803 -0.30662222205148248 0 -0.31202850801298709 -0.29577656244089512 0 -0.33200007980338803 -0.30662222205148248 0 -0.3108479563115974 -0.31240538547229602 0 -0.31202850801298709 -0.29577656244089512 0 -0.33200007980338803 -0.30662222205148248 0 -0.33521307477555817 -0.31392216761278519 0 -0.3108479563115974 -0.31240538547229602 0 -0.33200007980338803 -0.30662222205148248 0 -0.32511798520987301 -0.29349013072200841 0 -0.31202850801298709 -0.29577656244089512 0 -0.33521307477555817 -0.31392216761278519 0 -0.3108479563115974 -0.31240538547229602 0 -0.32236273805247012 -0.32389074730787021 0 -0.33521307477555817 -0.31392216761278519 0 -0.3108479563115974 -0.31240538547229602 0 -0.32236273805247012 -0.32389074730787021 0 -0.31024013118161869 -0.32433010586711841 0 -0.3108479563115974 -0.31240538547229602 0 -0.32236273805247012 -0.32389074730787021 0 -0.31063264551853781 -0.33534306982854301 0 -0.31024013118161869 -0.32433010586711841 0 -0.32236273805247012 -0.32389074730787021 0 -0.32390649747098887 -0.33749210385651313 0 -0.31063264551853781 -0.33534306982854301 0 -0.32390649747098887 -0.33749210385651313 0 -0.31550627992416092 -0.34461795436833442 0 -0.31063264551853781 -0.33534306982854301 0 -0.32390649747098887 -0.33749210385651313 0 -0.32554236043639401 -0.34803195329269998 0 -0.31550627992416092 -0.34461795436833442 0 -0.32236273805247012 -0.32389074730787021 0 -0.32390649747098887 -0.33749210385651313 0 -0.331105096768463 -0.33168283448608521 0 -0.331105096768463 -0.33168283448608521 0 -0.33932751459616778 -0.32905924259735692 0 -0.33363737889496942 -0.32393428809421437 0 -0.331105096768463 -0.33168283448608521 0 -0.33511640797822101 -0.33973272047298569 0 -0.33932751459616778 -0.32905924259735692 0 -0.32390649747098887 -0.33749210385651313 0 -0.33511640797822101 -0.33973272047298569 0 -0.32554236043639401 -0.34803195329269998 0 -0.32390649747098887 -0.33749210385651313 0 -0.331105096768463 -0.33168283448608521 0 -0.33511640797822101 -0.33973272047298569 0 -0.33511640797822101 -0.33973272047298569 0 -0.3462658959737146 -0.33669482084635183 0 -0.33924977566393028 -0.35117504617479028 0 -0.33511640797822101 -0.33973272047298569 0 -0.33932751459616778 -0.32905924259735692 0 -0.3462658959737146 -0.33669482084635183 0 -0.33932751459616778 -0.32905924259735692 0 -0.33912030448983349 -0.32191344721345971 0 -0.34830324969263882 -0.32073809054948221 0 -0.33932751459616778 -0.32905924259735692 0 -0.33912030448983349 -0.32191344721345971 0 -0.33363737889496942 -0.32393428809421437 0 -0.32236273805247012 -0.32389074730787021 0 -0.33363737889496942 -0.32393428809421437 0 -0.33521307477555817 -0.31392216761278519 0 -0.32236273805247012 -0.32389074730787021 0 -0.331105096768463 -0.33168283448608521 0 -0.33363737889496942 -0.32393428809421437 0 -0.33912030448983349 -0.32191344721345971 0 -0.33521307477555817 -0.31392216761278519 0 -0.34830324969263882 -0.32073809054948221 0 -0.33912030448983349 -0.32191344721345971 0 -0.33363737889496942 -0.32393428809421437 0 -0.33521307477555817 -0.31392216761278519 0 -0.33521307477555817 -0.31392216761278519 0 -0.3595781932395189 -0.31543894975327502 0 -0.33521307477555817 -0.31392216761278519 0 -0.34830324969263882 -0.32073809054948221 0 -0.3595781932395189 -0.31543894975327502 0 -0.3595781932395189 -0.31543894975327502 0 -0.35631690036117042 -0.33027678270963617 0 -0.34830324969263882 -0.32073809054948221 0 -0.3595781932395189 -0.31543894975327502 0 -0.35631690036117042 -0.33027678270963617 0 -0.37959265307946971 -0.31668489383853232 0 -0.3595781932395189 -0.31543894975327502 0 -0.36901098225689338 -0.32528956251558711 0 -0.37959265307946971 -0.31668489383853232 0 -0.3595781932395189 -0.31543894975327502 0 -0.3595781932395189 -0.31543894975327502 0 -0.36901098225689338 -0.32528956251558711 0 -0.35631690036117042 -0.33027678270963617 0 -0.3746186530786868 -0.33771974198690158 0 -0.35631690036117042 -0.33027678270963617 0 -0.36663867081018958 -0.34852223688394751 0 -0.36901098225689338 -0.32528956251558711 0 -0.3746186530786868 -0.33771974198690158 0 -0.35631690036117042 -0.33027678270963617 0 -0.34830324969263882 -0.32073809054948221 0 -0.35631690036117042 -0.33027678270963617 0 -0.3462658959737146 -0.33669482084635183 0 -0.35631690036117042 -0.33027678270963617 0 -0.35305560748281839 -0.34511461566599672 0 -0.35631690036117042 -0.33027678270963617 0 -0.3462658959737146 -0.33669482084635183 0 -0.35305560748281839 -0.34511461566599672 0 -0.35631690036117042 -0.33027678270963617 0 -0.35305560748281839 -0.34511461566599672 0 -0.36663867081018958 -0.34852223688394751 0 -0.33932751459616778 -0.32905924259735692 0 -0.34830324969263882 -0.32073809054948221 0 -0.3462658959737146 -0.33669482084635183 0 -0.35305560748281839 -0.34511461566599672 0 -0.35706441772460051 -0.36032434190227108 0 -0.33924977566393028 -0.35117504617479028 0 -0.3462658959737146 -0.33669482084635183 0 -0.35305560748281839 -0.34511461566599672 0 -0.33924977566393028 -0.35117504617479028 0 -0.35305560748281839 -0.34511461566599672 0 -0.36663867081018958 -0.34852223688394751 0 -0.35706441772460051 -0.36032434190227108 0 -0.37592796613717022 -0.36513281525435992 0 -0.36663867081018958 -0.34852223688394751 0 -0.35706441772460051 -0.36032434190227108 0 -0.37592796613717022 -0.36513281525435992 0 -0.35706441772460051 -0.36032434190227108 0 -0.36122940469120313 -0.37876471572263692 0 -0.37983816866104619 -0.37841186395989812 0 -0.37592796613717022 -0.36513281525435992 0 -0.36122940469120313 -0.37876471572263692 0 -0.35706441772460051 -0.36032434190227108 0 -0.35026039206769782 -0.37178963616959709 0 -0.36122940469120313 -0.37876471572263692 0 -0.35706441772460051 -0.36032434190227108 0 -0.35026039206769782 -0.37178963616959709 0 -0.33822763592473992 -0.36676133997054261 0 -0.35706441772460051 -0.36032434190227108 0 -0.33822763592473992 -0.36676133997054261 0 -0.33924977566393028 -0.35117504617479028 0 -0.35026039206769782 -0.37178963616959709 0 -0.33822763592473992 -0.36676133997054261 0 -0.34146026942915397 -0.38094135704742799 0 -0.33822763592473992 -0.36676133997054261 0 -0.32515071285935537 -0.36057444685933182 0 -0.32261171153738122 -0.38095896775665772 0 -0.33822763592473992 -0.36676133997054261 0 -0.33924977566393028 -0.35117504617479028 0 -0.32515071285935537 -0.36057444685933182 0 -0.33511640797822101 -0.33973272047298569 0 -0.33924977566393028 -0.35117504617479028 0 -0.32554236043639401 -0.34803195329269998 0 -0.33924977566393028 -0.35117504617479028 0 -0.32554236043639401 -0.34803195329269998 0 -0.32515071285935537 -0.36057444685933182 0 -0.32554236043639401 -0.34803195329269998 0 -0.31432448872170748 -0.35459944802424531 0 -0.32515071285935537 -0.36057444685933182 0 -0.32554236043639401 -0.34803195329269998 0 -0.31550627992416092 -0.34461795436833442 0 -0.31432448872170748 -0.35459944802424531 0 -0.31646763284434082 -0.36454869478241031 0 -0.30378361825891892 -0.36206191648940628 0 -0.32261171153738122 -0.38095896775665772 0 -0.31646763284434082 -0.36454869478241031 0 -0.32515071285935537 -0.36057444685933182 0 -0.32261171153738122 -0.38095896775665772 0 -0.30378361825891892 -0.36206191648940628 0 -0.32261171153738122 -0.38095896775665772 0 -0.31432448872170748 -0.35459944802424531 0 -0.31646763284434082 -0.36454869478241031 0 -0.32515071285935537 -0.36057444685933182 0 -0.29712785834793748 -0.36368319481309958 0 -0.30440616471459098 -0.37118236700266349 0 -0.30076167477923033 -0.3484317939312141 0 -0.30378361825891892 -0.36206191648940628 0 -0.30440616471459098 -0.37118236700266349 0 -0.32261171153738122 -0.38095896775665772 0 -0.30440616471459098 -0.37118236700266349 0 -0.30076167477923033 -0.3484317939312141 0 -0.30378361825891892 -0.36206191648940628 0 -0.30440616471459098 -0.37118236700266349 0 -0.30076167477923033 -0.3484317939312141 0 -0.29712785834793748 -0.36368319481309958 0 -0.30440616471459098 -0.37118236700266349 0 -0.29275275956263552 -0.37339032562807961 0 -0.31432448872170748 -0.35459944802424531 0 -0.31646763284434082 -0.36454869478241031 0 -0.30378361825891892 -0.36206191648940628 0 -0.31432448872170748 -0.35459944802424531 0 -0.30378361825891892 -0.36206191648940628 0 -0.30076167477923033 -0.3484317939312141 0 -0.31550627992416092 -0.34461795436833442 0 -0.31432448872170748 -0.35459944802424531 0 -0.30076167477923033 -0.3484317939312141 0 -0.30076167477923033 -0.3484317939312141 0 -0.28714113473937969 -0.35051753609137359 0 -0.29059083433529309 -0.36172829269044132 0 -0.29712785834793748 -0.36368319481309958 0 -0.30076167477923033 -0.3484317939312141 0 -0.29059083433529309 -0.36172829269044132 0 -0.30076167477923033 -0.3484317939312141 0 -0.28714113473937969 -0.35051753609137359 0 -0.28567816189823991 -0.33547861377319671 0 -0.28714113473937969 -0.35051753609137359 0 -0.29059083433529309 -0.36172829269044132 0 -0.27994465675384822 -0.36357683817352138 0 -0.29059083433529309 -0.36172829269044132 0 -0.29275275956263552 -0.37339032562807961 0 -0.27994465675384822 -0.36357683817352138 0 -0.29712785834793748 -0.36368319481309958 0 -0.29059083433529309 -0.36172829269044132 0 -0.29275275956263552 -0.37339032562807961 0 -0.29275275956263552 -0.37339032562807961 0 -0.27994465675384822 -0.36357683817352138 0 -0.28007726847900072 -0.37514598820023182 0 -0.27994465675384822 -0.36357683817352138 0 -0.26369637158820669 -0.36602398052943602 0 -0.27659128771324298 -0.35254920945913693 0 -0.27994465675384822 -0.36357683817352138 0 -0.26369637158820669 -0.36602398052943602 0 -0.28007726847900072 -0.37514598820023182 0 -0.26369637158820669 -0.36602398052943602 0 -0.28007726847900072 -0.37514598820023182 0 -0.26175458469506752 -0.37928759588444783 0 -0.26369637158820669 -0.36602398052943602 0 -0.25230187942312721 -0.37793085699904821 0 -0.26369637158820669 -0.36602398052943602 0 -0.26175458469506752 -0.37928759588444783 0 -0.26369637158820669 -0.36602398052943602 0 -0.25447134471891442 -0.35684089221954768 0 -0.25230187942312721 -0.37793085699904821 0 -0.26369637158820669 -0.36602398052943602 0 -0.25230187942312721 -0.37793085699904821 0 -0.26175458469506752 -0.37928759588444783 0 -0.26369637158820669 -0.36602398052943602 0 -0.25447134471891442 -0.35684089221954768 0 -0.26651814946640912 -0.34674947799465172 0 -0.26369637158820669 -0.36602398052943602 0 -0.26651814946640912 -0.34674947799465172 0 -0.25447134471891442 -0.35684089221954768 0 -0.26651814946640912 -0.34674947799465172 0 -0.25058837569247089 -0.33863748773642921 0 -0.26651814946640912 -0.34674947799465172 0 -0.27659128771324298 -0.35254920945913693 0 -0.27705373223237673 -0.3425539625556453 0 -0.26369637158820669 -0.36602398052943602 0 -0.26651814946640912 -0.34674947799465172 0 -0.27659128771324298 -0.35254920945913693 0 -0.26369637158820669 -0.36602398052943602 0 -0.27659128771324298 -0.35254920945913693 0 -0.28714113473937969 -0.35051753609137359 0 -0.27994465675384822 -0.36357683817352138 0 -0.27659128771324298 -0.35254920945913693 0 -0.28714113473937969 -0.35051753609137359 0 -0.27659128771324298 -0.35254920945913693 0 -0.27705373223237673 -0.3425539625556453 0 -0.26651814946640912 -0.34674947799465172 0 -0.26933992734461182 -0.32747497545986748 0 -0.26651814946640912 -0.34674947799465172 0 -0.27705373223237673 -0.3425539625556453 0 -0.26933992734461182 -0.32747497545986748 0 -0.27705373223237673 -0.3425539625556453 0 -0.26933992734461182 -0.32747497545986748 0 -0.28567816189823991 -0.33547861377319671 0 -0.26651814946640912 -0.34674947799465172 0 -0.25058837569247089 -0.33863748773642921 0 -0.26933992734461182 -0.32747497545986748 0 -0.26933992734461182 -0.32747497545986748 0 -0.27010529595692129 -0.30055208811263923 0 -0.24815365569125639 -0.31617327339497148 0 -0.25058837569247089 -0.33863748773642921 0 -0.26933992734461182 -0.32747497545986748 0 -0.24815365569125639 -0.31617327339497148 0 -0.26933992734461182 -0.32747497545986748 0 -0.28327822857080681 -0.31911990312290112 0 -0.27010529595692129 -0.30055208811263923 0 -0.26933992734461182 -0.32747497545986748 0 -0.28327822857080681 -0.31911990312290112 0 -0.28567816189823991 -0.33547861377319671 0 -0.28327822857080681 -0.31911990312290112 0 -0.28567816189823991 -0.33547861377319671 0 -0.29711718484386962 -0.3256812208597647 0 -0.28327822857080681 -0.31911990312290112 0 -0.29711718484386962 -0.3256812208597647 0 -0.2941505728103912 -0.30641261740903719 0 -0.30076167477923033 -0.3484317939312141 0 -0.28567816189823991 -0.33547861377319671 0 -0.29711718484386962 -0.3256812208597647 0 -0.28714113473937969 -0.35051753609137359 0 -0.27705373223237673 -0.3425539625556453 0 -0.28567816189823991 -0.33547861377319671 0 -0.30076167477923033 -0.3484317939312141 0 -0.29711718484386962 -0.3256812208597647 0 -0.30076167477923033 -0.3484317939312141 0 -0.31063264551853781 -0.33534306982854301 0 -0.29711718484386962 -0.3256812208597647 0 -0.31550627992416092 -0.34461795436833442 0 -0.30076167477923033 -0.3484317939312141 0 -0.31063264551853781 -0.33534306982854301 0 -0.31063264551853781 -0.33534306982854301 0 -0.31024013118161869 -0.32433010586711841 0 -0.29711718484386962 -0.3256812208597647 0 -0.31024013118161869 -0.32433010586711841 0 -0.29711718484386962 -0.3256812208597647 0 -0.3108479563115974 -0.31240538547229602 0 -0.29711718484386962 -0.3256812208597647 0 -0.3108479563115974 -0.31240538547229602 0 -0.2941505728103912 -0.30641261740903719 0 -0.3108479563115974 -0.31240538547229602 0 -0.31202850801298709 -0.29577656244089512 0 -0.2941505728103912 -0.30641261740903719 0 -0.31202850801298709 -0.29577656244089512 0 -0.29205693622258638 -0.2849309028303072 0 -0.2941505728103912 -0.30641261740903719 0 -0.31325098541874757 -0.28559080178657198 0 -0.31202850801298709 -0.29577656244089512 0 -0.29205693622258638 -0.2849309028303072 0 -0.31202850801298709 -0.29577656244089512 0 -0.29205693622258638 -0.2849309028303072 0 -0.29205693622258638 -0.2849309028303072 0 -0.2941505728103912 -0.30641261740903719 0 -0.27010529595692129 -0.30055208811263923 0 -0.28327822857080681 -0.31911990312290112 0 -0.2941505728103912 -0.30641261740903719 0 -0.27010529595692129 -0.30055208811263923 0 -0.27010529595692129 -0.30055208811263923 0 -0.24815365569125639 -0.31617327339497148 0 -0.27010529595692129 -0.30055208811263923 0 -0.24815365569125639 -0.31617327339497148 0 -0.24088152209008559 -0.300662444260688 0 -0.27010529595692129 -0.30055208811263923 0 -0.25246583902296788 -0.28388466478671021 0 -0.27041024128220881 -0.27317555941109811 0 -0.27010529595692129 -0.30055208811263923 0 -0.25246583902296788 -0.28388466478671021 0 -0.24088152209008559 -0.300662444260688 0 -0.29205693622258638 -0.2849309028303072 0 -0.27010529595692129 -0.30055208811263923 0 -0.29205693622258638 -0.2849309028303072 0 -0.27010529595692129 -0.30055208811263923 0 -0.27041024128220881 -0.27317555941109811 0 -0.29205693622258638 -0.2849309028303072 0 -0.27041024128220881 -0.27317555941109811 0 -0.27041024128220881 -0.27317555941109811 0 -0.24876354634183129 -0.26142021599188858 0 -0.25246583902296788 -0.28388466478671021 0 -0.27041024128220881 -0.27317555941109811 0 -0.24876354634183129 -0.26142021599188858 0 -0.27041024128220881 -0.27317555941109811 0 -0.26748862787598288 -0.25324993960889569 0 -0.24876354634183129 -0.26142021599188858 0 -0.26748862787598288 -0.25324993960889569 0 -0.24876354634183129 -0.26142021599188858 0 -0.24989835989336101 -0.23830645409789369 0 -0.27041024128220881 -0.27317555941109811 0 -0.26748862787598288 -0.25324993960889569 0 -0.28749171923164679 -0.26057093096312017 0 -0.29205693622258638 -0.2849309028303072 0 -0.27041024128220881 -0.27317555941109811 0 -0.28749171923164679 -0.26057093096312017 0 -0.29205693622258638 -0.2849309028303072 0 -0.28749171923164679 -0.26057093096312017 0 -0.31007471701843659 -0.2721091232829872 0 -0.31325098541874757 -0.28559080178657198 0 -0.29205693622258638 -0.2849309028303072 0 -0.31007471701843659 -0.2721091232829872 0 -0.29205693622258638 -0.2849309028303072 0 -0.31007471701843659 -0.2721091232829872 0 -0.28749171923164679 -0.26057093096312017 0 -0.31007471701843659 -0.2721091232829872 0 -0.30314319538791812 -0.24933846585515801 0 -0.31606970326012263 -0.25434846417547619 0 -0.31007471701843659 -0.2721091232829872 0 -0.30314319538791812 -0.24933846585515801 0 -0.34206656041709432 -0.46413630925293359 0 -0.32606048711220981 -0.44753229611082312 0 -0.31987163269002478 -0.47031386007364528 0 -0.34206656041709432 -0.46413630925293359 0 -0.32606048711220981 -0.44753229611082312 0 -0.35367274792525261 -0.44153041395965792 0 -0.32606048711220981 -0.44753229611082312 0 -0.35367274792525261 -0.44153041395965792 0 -0.33505429545006921 -0.42949416135264251 0 -0.32606048711220981 -0.44753229611082312 0 -0.32067187773109179 -0.42821308864835278 0 -0.30875753425761282 -0.43735706098930149 0 -0.32606048711220981 -0.44753229611082312 0 -0.31987163269002478 -0.47031386007364528 0 -0.30232876131432318 -0.46168117849922852 0 -0.31987163269002478 -0.47031386007364528 0 -0.32986581117066349 -0.48574734982353568 0 -0.31154629319252058 -0.48766405558472592 0 -0.31987163269002478 -0.47031386007364528 0 -0.31154629319252058 -0.48766405558472592 0 -0.30741166889197552 -0.47641609754168879 0 -0.31819788663911869 -0.5 0 -0.32986581117066349 -0.48574734982353568 0 -0.31154629319252058 -0.48766405558472592 0 -0.32986581117066349 -0.48574734982353568 0 -0.35536659017245359 -0.48134821611950113 0 -0.34419453263480432 -0.5 0 -0.31819788663911869 -0.5 0 -0.32986581117066349 -0.48574734982353568 0 -0.34419453263480432 -0.5 0 -0.34206656041709432 -0.46413630925293359 0 -0.31987163269002478 -0.47031386007364528 0 -0.32986581117066349 -0.48574734982353568 0 -0.34206656041709432 -0.46413630925293359 0 -0.32986581117066349 -0.48574734982353568 0 -0.35536659017245359 -0.48134821611950113 0 -0.34206656041709432 -0.46413630925293359 0 -0.35536659017245359 -0.48134821611950113 0 -0.36671375067195577 -0.46125268182926987 0 -0.35536659017245359 -0.48134821611950113 0 -0.34419453263480432 -0.5 0 -0.37019117863048978 -0.5 0 -0.38003836276132341 -0.48052034468410648 0 -0.35536659017245359 -0.48134821611950113 0 -0.37019117863048978 -0.5 0 -0.38003836276132341 -0.48052034468410648 0 -0.35536659017245359 -0.48134821611950113 0 -0.36671375067195577 -0.46125268182926987 0 -0.34206656041709432 -0.46413630925293359 0 -0.36671375067195577 -0.46125268182926987 0 -0.35367274792525261 -0.44153041395965792 0 -0.37569954516590282 -0.44589569233336712 0 -0.36671375067195577 -0.46125268182926987 0 -0.35367274792525261 -0.44153041395965792 0 -0.37569954516590282 -0.44589569233336712 0 -0.35367274792525261 -0.44153041395965792 0 -0.37165182833615512 -0.43017869423626398 0 -0.35367274792525261 -0.44153041395965792 0 -0.37165182833615512 -0.43017869423626398 0 -0.35654581657599932 -0.41501735663008649 0 -0.37165182833615512 -0.43017869423626398 0 -0.35654581657599932 -0.41501735663008649 0 -0.37165182833615512 -0.43017869423626398 0 -0.3736076487831192 -0.41403429292464861 0 -0.35654581657599932 -0.41501735663008649 0 -0.3736076487831192 -0.41403429292464861 0 -0.35654581657599932 -0.41501735663008649 0 -0.37086604206981227 -0.39465171206482558 0 -0.35654581657599932 -0.41501735663008649 0 -0.34143980481584219 -0.39985601902391033 0 -0.35367274792525261 -0.44153041395965792 0 -0.35654581657599932 -0.41501735663008649 0 -0.33505429545006921 -0.42949416135264251 0 -0.37983816866104619 -0.37841186395989812 0 -0.36122940469120313 -0.37876471572263692 0 -0.37086604206981227 -0.39465171206482558 0 -0.37086604206981227 -0.39465171206482558 0 -0.34143980481584219 -0.39985601902391033 0 -0.36122940469120313 -0.37876471572263692 0 -0.37086604206981227 -0.39465171206482558 0 -0.34143980481584219 -0.39985601902391033 0 -0.35654581657599932 -0.41501735663008649 0 -0.37086604206981227 -0.39465171206482558 0 -0.34143980481584219 -0.39985601902391033 0 -0.35026039206769782 -0.37178963616959709 0 -0.36122940469120313 -0.37876471572263692 0 -0.34146026942915397 -0.38094135704742799 0 -0.36122940469120313 -0.37876471572263692 0 -0.34146026942915397 -0.38094135704742799 0 -0.34143980481584219 -0.39985601902391033 0 -0.33822763592473992 -0.36676133997054261 0 -0.34146026942915397 -0.38094135704742799 0 -0.32261171153738122 -0.38095896775665772 0 -0.34146026942915397 -0.38094135704742799 0 -0.34143980481584219 -0.39985601902391033 0 -0.32261171153738122 -0.38095896775665772 0 -0.34143980481584219 -0.39985601902391033 0 -0.32261171153738122 -0.38095896775665772 0 -0.34143980481584219 -0.39985601902391033 0 -0.32180706011581139 -0.39471401426021779 0 -0.32261171153738122 -0.38095896775665772 0 -0.34143980481584219 -0.39985601902391033 0 -0.31259237708304111 -0.40495795807258378 0 -0.33070080745694158 -0.41342732035537882 0 -0.34143980481584219 -0.39985601902391033 0 -0.31259237708304111 -0.40495795807258378 0 -0.34143980481584219 -0.39985601902391033 0 -0.31259237708304111 -0.40495795807258378 0 -0.32180706011581139 -0.39471401426021779 0 -0.31259237708304111 -0.40495795807258378 0 -0.32180706011581139 -0.39471401426021779 0 -0.30805065464995179 -0.39393294007411278 0 -0.32180706011581139 -0.39471401426021779 0 -0.32261171153738122 -0.38095896775665772 0 -0.30805065464995179 -0.39393294007411278 0 -0.35654581657599932 -0.41501735663008649 0 -0.34143980481584219 -0.39985601902391033 0 -0.33070080745694158 -0.41342732035537882 0 -0.33505429545006921 -0.42949416135264251 0 -0.33070080745694158 -0.41342732035537882 0 -0.32482701386147822 -0.42023147992029092 0 -0.35654581657599932 -0.41501735663008649 0 -0.33505429545006921 -0.42949416135264251 0 -0.33070080745694158 -0.41342732035537882 0 -0.33070080745694158 -0.41342732035537882 0 -0.32482701386147822 -0.42023147992029092 0 -0.31518630720090252 -0.41303294347937441 0 -0.31259237708304111 -0.40495795807258378 0 -0.33070080745694158 -0.41342732035537882 0 -0.31518630720090252 -0.41303294347937441 0 -0.31259237708304111 -0.40495795807258378 0 -0.31518630720090252 -0.41303294347937441 0 -0.3116951445853125 -0.41668351314556229 0 -0.32482701386147822 -0.42023147992029092 0 -0.31518630720090252 -0.41303294347937441 0 -0.32067187773109179 -0.42821308864835278 0 -0.31518630720090252 -0.41303294347937441 0 -0.32067187773109179 -0.42821308864835278 0 -0.30875753425761282 -0.43735706098930149 0 -0.32606048711220981 -0.44753229611082312 0 -0.33505429545006921 -0.42949416135264251 0 -0.32067187773109179 -0.42821308864835278 0 -0.33505429545006921 -0.42949416135264251 0 -0.32482701386147822 -0.42023147992029092 0 -0.32067187773109179 -0.42821308864835278 0 -0.30875753425761282 -0.43735706098930149 0 -0.3116951445853125 -0.41668351314556229 0 -0.29995720998912978 -0.42161452035189351 0 -0.30875753425761282 -0.43735706098930149 0 -0.29269226791920988 -0.42989635704394069 0 -0.29234148977983598 -0.44061752260534992 0 -0.31518630720090252 -0.41303294347937441 0 -0.30875753425761282 -0.43735706098930149 0 -0.31518630720090252 -0.41303294347937441 0 -0.30875753425761282 -0.43735706098930149 0 -0.3116951445853125 -0.41668351314556229 0 -0.30875753425761282 -0.43735706098930149 0 -0.29995720998912978 -0.42161452035189351 0 -0.29269226791920988 -0.42989635704394069 0 -0.3116951445853125 -0.41668351314556229 0 -0.29995720998912978 -0.42161452035189351 0 -0.30315756759197909 -0.41488804914237509 0 -0.3116951445853125 -0.41668351314556229 0 -0.30131262238160561 -0.40643126090967657 0 -0.30315756759197909 -0.41488804914237509 0 -0.30131262238160561 -0.40643126090967657 0 -0.30315756759197909 -0.41488804914237509 0 -0.29523673534065992 -0.41289550407915288 0 -0.29995720998912978 -0.42161452035189351 0 -0.30315756759197909 -0.41488804914237509 0 -0.29523673534065992 -0.41289550407915288 0 -0.28928106521850572 -0.4196383925127567 0 -0.29523673534065992 -0.41289550407915288 0 -0.28636252477805202 -0.41173530181114848 0 -0.29995720998912978 -0.42161452035189351 0 -0.28928106521850572 -0.4196383925127567 0 -0.29523673534065992 -0.41289550407915288 0 -0.29523673534065992 -0.41289550407915288 0 -0.28636252477805202 -0.41173530181114848 0 -0.29134885079954748 -0.40297644154976181 0 -0.30131262238160561 -0.40643126090967657 0 -0.29523673534065992 -0.41289550407915288 0 -0.29134885079954748 -0.40297644154976181 0 -0.28636252477805202 -0.41173530181114848 0 -0.28201181938697523 -0.40161178128649788 0 -0.27828412726607599 -0.40905688908826421 0 -0.28928106521850572 -0.4196383925127567 0 -0.28329777199820028 -0.42594321666539181 0 -0.27878759067274222 -0.4178676644233269 0 -0.28928106521850572 -0.4196383925127567 0 -0.28636252477805202 -0.41173530181114848 0 -0.27878759067274222 -0.4178676644233269 0 -0.28928106521850572 -0.4196383925127567 0 -0.28329777199820028 -0.42594321666539181 0 -0.29269226791920988 -0.42989635704394069 0 -0.28329777199820028 -0.42594321666539181 0 -0.28251853627197482 -0.43420742913895077 0 -0.29269226791920988 -0.42989635704394069 0 -0.28251853627197482 -0.43420742913895077 0 -0.29269226791920988 -0.42989635704394069 0 -0.29234148977983598 -0.44061752260534992 0 -0.29995720998912978 -0.42161452035189351 0 -0.28928106521850572 -0.4196383925127567 0 -0.29269226791920988 -0.42989635704394069 0 -0.30440616471459098 -0.37118236700266349 0 -0.30805065464995179 -0.39393294007411278 0 -0.30440616471459098 -0.37118236700266349 0 -0.30805065464995179 -0.39393294007411278 0 -0.29671619426973661 -0.38518005593359789 0 -0.30440616471459098 -0.37118236700266349 0 -0.32261171153738122 -0.38095896775665772 0 -0.30805065464995179 -0.39393294007411278 0 -0.30440616471459098 -0.37118236700266349 0 -0.29275275956263552 -0.37339032562807961 0 -0.29671619426973661 -0.38518005593359789 0 -0.3116951445853125 -0.41668351314556229 0 -0.30805065464995179 -0.39393294007411278 0 -0.3116951445853125 -0.41668351314556229 0 -0.30131262238160561 -0.40643126090967657 0 -0.30805065464995179 -0.39393294007411278 0 -0.31259237708304111 -0.40495795807258378 0 -0.3116951445853125 -0.41668351314556229 0 -0.30805065464995179 -0.39393294007411278 0 -0.29701193748520338 -0.39624070962620972 0 -0.30805065464995179 -0.39393294007411278 0 -0.29671619426973661 -0.38518005593359789 0 -0.30131262238160561 -0.40643126090967657 0 -0.29701193748520338 -0.39624070962620972 0 -0.30805065464995179 -0.39393294007411278 0 -0.30131262238160561 -0.40643126090967657 0 -0.29701193748520338 -0.39624070962620972 0 -0.29134885079954748 -0.40297644154976181 0 -0.29134885079954748 -0.40297644154976181 0 -0.28201181938697523 -0.40161178128649788 0 -0.28763136532517569 -0.39268284966389932 0 -0.28636252477805202 -0.41173530181114848 0 -0.29134885079954748 -0.40297644154976181 0 -0.28201181938697523 -0.40161178128649788 0 -0.28201181938697523 -0.40161178128649788 0 -0.28763136532517569 -0.39268284966389932 0 -0.27658561798805442 -0.38945502193089082 0 -0.29701193748520338 -0.39624070962620972 0 -0.29134885079954748 -0.40297644154976181 0 -0.28763136532517569 -0.39268284966389932 0 -0.29701193748520338 -0.39624070962620972 0 -0.28763136532517569 -0.39268284966389932 0 -0.29671619426973661 -0.38518005593359789 0 -0.28763136532517569 -0.39268284966389932 0 -0.29671619426973661 -0.38518005593359789 0 -0.28792569882741831 -0.38270757672901401 0 -0.28763136532517569 -0.39268284966389932 0 -0.28792569882741831 -0.38270757672901401 0 -0.27658561798805442 -0.38945502193089082 0 -0.28792569882741831 -0.38270757672901401 0 -0.28007726847900072 -0.37514598820023182 0 -0.27658561798805442 -0.38945502193089082 0 -0.29275275956263552 -0.37339032562807961 0 -0.28792569882741831 -0.38270757672901401 0 -0.28007726847900072 -0.37514598820023182 0 -0.29275275956263552 -0.37339032562807961 0 -0.29671619426973661 -0.38518005593359789 0 -0.28792569882741831 -0.38270757672901401 0 -0.28007726847900072 -0.37514598820023182 0 -0.26175458469506752 -0.37928759588444783 0 -0.28007726847900072 -0.37514598820023182 0 -0.27658561798805442 -0.38945502193089082 0 -0.26175458469506752 -0.37928759588444783 0 -0.27658561798805442 -0.38945502193089082 0 -0.26725788762039793 -0.39211877531456241 0 -0.26175458469506752 -0.37928759588444783 0 -0.27658561798805442 -0.38945502193089082 0 -0.26725788762039793 -0.39211877531456241 0 -0.27131348913075271 -0.40277255216291302 0 -0.26725788762039793 -0.39211877531456241 0 -0.27131348913075271 -0.40277255216291302 0 -0.26406762060408012 -0.39872900835057218 0 -0.28201181938697523 -0.40161178128649788 0 -0.27658561798805442 -0.38945502193089082 0 -0.27131348913075271 -0.40277255216291302 0 -0.28201181938697523 -0.40161178128649788 0 -0.27131348913075271 -0.40277255216291302 0 -0.27828412726607599 -0.40905688908826421 0 -0.27131348913075271 -0.40277255216291302 0 -0.26406762060408012 -0.39872900835057218 0 -0.26713356277313449 -0.40777640776194818 0 -0.25996903769243868 -0.39148399535801559 0 -0.25738685213278961 -0.40912193295018218 0 -0.25738685213278961 -0.40912193295018218 0 -0.24458043244855829 -0.38599951981971758 0 -0.26406762060408012 -0.39872900835057218 0 -0.25996903769243868 -0.39148399535801559 0 -0.25738685213278961 -0.40912193295018218 0 -0.25996903769243868 -0.39148399535801559 0 -0.25738685213278961 -0.40912193295018218 0 -0.24458043244855829 -0.38599951981971758 0 -0.26406762060408012 -0.39872900835057218 0 -0.26713356277313449 -0.40777640776194818 0 -0.25738685213278961 -0.40912193295018218 0 -0.26406762060408012 -0.39872900835057218 0 -0.25996903769243868 -0.39148399535801559 0 -0.26725788762039793 -0.39211877531456241 0 -0.26406762060408012 -0.39872900835057218 0 -0.25996903769243868 -0.39148399535801559 0 -0.25996903769243868 -0.39148399535801559 0 -0.25405407824138032 -0.38102819661068388 0 -0.26175458469506752 -0.37928759588444783 0 -0.26725788762039793 -0.39211877531456241 0 -0.25996903769243868 -0.39148399535801559 0 -0.26175458469506752 -0.37928759588444783 0 -0.25996903769243868 -0.39148399535801559 0 -0.26175458469506752 -0.37928759588444783 0 -0.25996903769243868 -0.39148399535801559 0 -0.25405407824138032 -0.38102819661068388 0 -0.2480360699284121 -0.38238849020995008 0 -0.25996903769243868 -0.39148399535801559 0 -0.24458043244855829 -0.38599951981971758 0 -0.2480360699284121 -0.38238849020995008 0 -0.25996903769243868 -0.39148399535801559 0 -0.25405407824138032 -0.38102819661068388 0 -0.25405407824138032 -0.38102819661068388 0 -0.25230187942312721 -0.37793085699904821 0 -0.26175458469506752 -0.37928759588444783 0 -0.25405407824138032 -0.38102819661068388 0 -0.2480360699284121 -0.38238849020995008 0 -0.25405407824138032 -0.38102819661068388 0 -0.25230187942312721 -0.37793085699904821 0 -0.2480360699284121 -0.38238849020995008 0 -0.25230187942312721 -0.37793085699904821 0 -0.2480360699284121 -0.38238849020995008 0 -0.25405407824138032 -0.38102819661068388 0 -0.25230187942312721 -0.37793085699904821 0 -0.25405407824138032 -0.38102819661068388 0 -0.26175458469506752 -0.37928759588444783 0 -0.26979764402330841 -0.43153002705022081 0 -0.27626229921195478 -0.42556994368399542 0 -0.26995463963619343 -0.41696139958863843 0 -0.28251853627197482 -0.43420742913895077 0 -0.26979764402330841 -0.43153002705022081 0 -0.27626229921195478 -0.42556994368399542 0 -0.28329777199820028 -0.42594321666539181 0 -0.28251853627197482 -0.43420742913895077 0 -0.27626229921195478 -0.42556994368399542 0 -0.28329777199820028 -0.42594321666539181 0 -0.27626229921195478 -0.42556994368399542 0 -0.27878759067274222 -0.4178676644233269 0 -0.26979764402330841 -0.43153002705022081 0 -0.26995463963619343 -0.41696139958863843 0 -0.25738685213278961 -0.40912193295018218 0 -0.27878759067274222 -0.4178676644233269 0 -0.27294521236185798 -0.41129714575743459 0 -0.26995463963619343 -0.41696139958863843 0 -0.27626229921195478 -0.42556994368399542 0 -0.27878759067274222 -0.4178676644233269 0 -0.26995463963619343 -0.41696139958863843 0 -0.28636252477805202 -0.41173530181114848 0 -0.27878759067274222 -0.4178676644233269 0 -0.27828412726607599 -0.40905688908826421 0 -0.27878759067274222 -0.4178676644233269 0 -0.27828412726607599 -0.40905688908826421 0 -0.27294521236185798 -0.41129714575743459 0 -0.27131348913075271 -0.40277255216291302 0 -0.27828412726607599 -0.40905688908826421 0 -0.27294521236185798 -0.41129714575743459 0 -0.27131348913075271 -0.40277255216291302 0 -0.27294521236185798 -0.41129714575743459 0 -0.26713356277313449 -0.40777640776194818 0 -0.27294521236185798 -0.41129714575743459 0 -0.26713356277313449 -0.40777640776194818 0 -0.26995463963619343 -0.41696139958863843 0 -0.26979764402330841 -0.43153002705022081 0 -0.25738685213278961 -0.40912193295018218 0 -0.25738685213278961 -0.40912193295018218 0 -0.25359642475074717 -0.4350129156343473 0 -0.24542586034633471 -0.4164215479987281 0 -0.26713356277313449 -0.40777640776194818 0 -0.26995463963619343 -0.41696139958863843 0 -0.25738685213278961 -0.40912193295018218 0 -0.26979764402330841 -0.43153002705022081 0 -0.25738685213278961 -0.40912193295018218 0 -0.25359642475074717 -0.4350129156343473 0 -0.25738685213278961 -0.40912193295018218 0 -0.25359642475074717 -0.4350129156343473 0 -0.26979764402330841 -0.43153002705022081 0 -0.25359642475074717 -0.4350129156343473 0 -0.26897852498926073 -0.44281429733419581 0 -0.26897852498926073 -0.44281429733419581 0 -0.24344958729357161 -0.45547676369049728 0 -0.25359642475074717 -0.4350129156343473 0 -0.26897852498926073 -0.44281429733419581 0 -0.24344958729357161 -0.45547676369049728 0 -0.26316449590497359 -0.4631583885676957 0 -0.25105289267960701 -0.48125078366497542 0 -0.24344958729357161 -0.45547676369049728 0 -0.26316449590497359 -0.4631583885676957 0 -0.26897852498926073 -0.44281429733419581 0 -0.24344958729357161 -0.45547676369049728 0 -0.26316449590497359 -0.4631583885676957 0 -0.27370124274091862 -0.45736545542868678 0 -0.28045351415561198 -0.46955101466259669 0 -0.26316449590497359 -0.4631583885676957 0 -0.27370124274091862 -0.45736545542868678 0 -0.26897852498926073 -0.44281429733419581 0 -0.27370124274091862 -0.45736545542868678 0 -0.28220843591382788 -0.453938121150259 0 -0.28045351415561198 -0.46955101466259669 0 -0.26979764402330841 -0.43153002705022081 0 -0.28220843591382788 -0.453938121150259 0 -0.26979764402330841 -0.43153002705022081 0 -0.26897852498926073 -0.44281429733419581 0 -0.28220843591382788 -0.453938121150259 0 -0.28251853627197482 -0.43420742913895077 0 -0.26979764402330841 -0.43153002705022081 0 -0.28220843591382788 -0.453938121150259 0 -0.27370124274091862 -0.45736545542868678 0 -0.26897852498926073 -0.44281429733419581 0 -0.28220843591382788 -0.453938121150259 0 -0.28251853627197482 -0.43420742913895077 0 -0.29234148977983598 -0.44061752260534992 0 -0.28220843591382788 -0.453938121150259 0 -0.29234148977983598 -0.44061752260534992 0 -0.29427298430507681 -0.45260125596770739 0 -0.28220843591382788 -0.453938121150259 0 -0.28220843591382788 -0.453938121150259 0 -0.29461922780434752 -0.47634621525029719 0 -0.28045351415561198 -0.46955101466259669 0 -0.29427298430507681 -0.45260125596770739 0 -0.28220843591382788 -0.453938121150259 0 -0.29461922780434752 -0.47634621525029719 0 -0.28220843591382788 -0.453938121150259 0 -0.29461922780434752 -0.47634621525029719 0 -0.29427298430507681 -0.45260125596770739 0 -0.30232876131432318 -0.46168117849922852 0 -0.29461922780434752 -0.47634621525029719 0 -0.32606048711220981 -0.44753229611082312 0 -0.30875753425761282 -0.43735706098930149 0 -0.30232876131432318 -0.46168117849922852 0 -0.30875753425761282 -0.43735706098930149 0 -0.29427298430507681 -0.45260125596770739 0 -0.30232876131432318 -0.46168117849922852 0 -0.30875753425761282 -0.43735706098930149 0 -0.29234148977983598 -0.44061752260534992 0 -0.29427298430507681 -0.45260125596770739 0 -0.30875753425761282 -0.43735706098930149 0 -0.30232876131432318 -0.46168117849922852 0 -0.31819788663911869 -0.5 0 -0.31154629319252058 -0.48766405558472592 0 -0.29220124064343328 -0.50000000000000266 0 -0.31154629319252058 -0.48766405558472592 0 -0.29589998837103348 -0.48600529600915549 0 -0.31154629319252058 -0.48766405558472592 0 -0.29589998837103348 -0.48600529600915549 0 -0.29220124064343328 -0.50000000000000266 0 -0.30232876131432318 -0.46168117849922852 0 -0.30741166889197552 -0.47641609754168879 0 -0.29589998837103348 -0.48600529600915549 0 -0.31987163269002478 -0.47031386007364528 0 -0.30232876131432318 -0.46168117849922852 0 -0.30741166889197552 -0.47641609754168879 0 -0.31154629319252058 -0.48766405558472592 0 -0.30741166889197552 -0.47641609754168879 0 -0.29589998837103348 -0.48600529600915549 0 -0.30232876131432318 -0.46168117849922852 0 -0.29589998837103348 -0.48600529600915549 0 -0.30232876131432318 -0.46168117849922852 0 -0.29461922780434752 -0.47634621525029719 0 -0.29589998837103348 -0.48600529600915549 0 -0.29461922780434752 -0.47634621525029719 0 -0.28045351415561198 -0.46955101466259669 0 -0.27347644052532061 -0.48362803983706321 0 -0.29461922780434752 -0.47634621525029719 0 -0.29589998837103348 -0.48600529600915549 0 -0.27347644052532061 -0.48362803983706321 0 -0.29589998837103348 -0.48600529600915549 0 -0.27347644052532061 -0.48362803983706321 0 -0.28507950621279188 -0.49206878165667312 0 -0.29589998837103348 -0.48600529600915549 0 -0.27347644052532061 -0.48362803983706321 0 -0.28507950621279188 -0.49206878165667312 0 -0.29589998837103348 -0.48600529600915549 0 -0.29220124064343328 -0.50000000000000266 0 -0.29589998837103348 -0.48600529600915549 0 -0.29220124064343328 -0.50000000000000266 0 -0.28507950621279188 -0.49206878165667312 0 -0.29220124064343328 -0.50000000000000266 0 -0.2824432847898693 -0.49999999999999772 0 -0.28507950621279188 -0.49206878165667312 0 -0.2824432847898693 -0.49999999999999772 0 -0.27712848226869757 -0.49223022442300152 0 -0.2824432847898693 -0.49999999999999772 0 -0.26751469754680879 -0.4932240761982698 0 -0.25658388930664427 -0.50000000000000644 0 -0.2824432847898693 -0.49999999999999772 0 -0.27712848226869757 -0.49223022442300152 0 -0.26751469754680879 -0.4932240761982698 0 -0.2824432847898693 -0.49999999999999772 0 -0.26751469754680879 -0.4932240761982698 0 -0.28507950621279188 -0.49206878165667312 0 -0.27712848226869757 -0.49223022442300152 0 -0.27347644052532061 -0.48362803983706321 0 -0.27712848226869757 -0.49223022442300152 0 -0.26751469754680879 -0.4932240761982698 0 -0.27347644052532061 -0.48362803983706321 0 -0.26316449590497359 -0.4631583885676957 0 -0.28045351415561198 -0.46955101466259669 0 -0.27347644052532061 -0.48362803983706321 0 -0.27347644052532061 -0.48362803983706321 0 -0.25105289267960701 -0.48125078366497542 0 -0.25258611030374822 -0.48644815239654221 0 -0.26316449590497359 -0.4631583885676957 0 -0.27347644052532061 -0.48362803983706321 0 -0.25105289267960701 -0.48125078366497542 0 -0.27347644052532061 -0.48362803983706321 0 -0.25105289267960701 -0.48125078366497542 0 -0.25105289267960701 -0.48125078366497542 0 -0.25258611030374822 -0.48644815239654221 0 -0.26751469754680879 -0.4932240761982698 0 -0.27347644052532061 -0.48362803983706321 0 -0.25258611030374822 -0.48644815239654221 0 -0.26751469754680879 -0.4932240761982698 0 -0.25258611030374822 -0.48644815239654221 0 -0.25658388930664427 -0.50000000000000644 0 -0.26751469754680879 -0.4932240761982698 0 -0.25258611030374822 -0.48644815239654221 0 -0.25258611030374822 -0.48644815239654221 0 -0.25658388930664427 -0.50000000000000644 0 -0.25258611030374822 -0.48644815239654221 0 -0.25658388930664427 -0.50000000000000644 0 -0.2434282079081895 -0.49188220225189072 0 -0.2434282079081895 -0.49188220225189072 0 -0.23811294998840549 -0.47987894193676162 0 -0.2302328964463074 -0.5 0 -0.25658388930664427 -0.50000000000000644 0 -0.2434282079081895 -0.49188220225189072 0 -0.2302328964463074 -0.5 0 -0.25258611030374822 -0.48644815239654221 0 -0.2434282079081895 -0.49188220225189072 0 -0.23811294998840549 -0.47987894193676162 0 -0.25258611030374822 -0.48644815239654221 0 -0.23811294998840549 -0.47987894193676162 0 -0.25105289267960701 -0.48125078366497542 0 -0.24048632996807129 -0.46977167138168108 0 -0.24344958729357161 -0.45547676369049728 0 -0.25105289267960701 -0.48125078366497542 0 -0.25258611030374822 -0.48644815239654221 0 -0.23811294998840549 -0.47987894193676162 0 -0.24048632996807129 -0.46977167138168108 0 -0.23811294998840549 -0.47987894193676162 0 -0.2293298899107015 -0.46248019623449149 0 -0.25105289267960701 -0.48125078366497542 0 -0.24048632996807129 -0.46977167138168108 0 -0.23811294998840549 -0.47987894193676162 0 -0.25105289267960701 -0.48125078366497542 0 -0.23811294998840549 -0.47987894193676162 0 -0.23811294998840549 -0.47987894193676162 0 -0.2293298899107015 -0.46248019623449149 0 -0.21521019252783161 -0.46948362877848598 0 -0.23811294998840549 -0.47987894193676162 0 -0.21521019252783161 -0.46948362877848598 0 -0.23811294998840549 -0.47987894193676162 0 -0.22279002309946941 -0.47825446561518048 0 -0.21521019252783161 -0.46948362877848598 0 -0.23811294998840549 -0.47987894193676162 0 -0.22279002309946941 -0.47825446561518048 0 -0.22279002309946941 -0.47825446561518048 0 -0.2302328964463074 -0.5 0 -0.21499095848250371 -0.48913597737061709 0 -0.23811294998840549 -0.47987894193676162 0 -0.22279002309946941 -0.47825446561518048 0 -0.2302328964463074 -0.5 0 -0.25359642475074717 -0.4350129156343473 0 -0.24344958729357161 -0.45547676369049728 0 -0.2357496498602579 -0.42937517613976628 0 -0.24344958729357161 -0.45547676369049728 0 -0.2357496498602579 -0.42937517613976628 0 -0.24344958729357161 -0.45547676369049728 0 -0.22755597834577571 -0.44694313643532568 0 -0.2357496498602579 -0.42937517613976628 0 -0.25105289267960701 -0.48125078366497542 0 -0.24344958729357161 -0.45547676369049728 0 -0.24344958729357161 -0.45547676369049728 0 -0.2293298899107015 -0.46248019623449149 0 -0.24048632996807129 -0.46977167138168108 0 -0.24344958729357161 -0.45547676369049728 0 -0.2293298899107015 -0.46248019623449149 0 -0.24344958729357161 -0.45547676369049728 0 -0.2293298899107015 -0.46248019623449149 0 -0.22755597834577571 -0.44694313643532568 0 -0.2293298899107015 -0.46248019623449149 0 -0.21521019252783161 -0.46948362877848598 0 -0.2293298899107015 -0.46248019623449149 0 -0.2177052431936973 -0.45710038121625501 0 -0.21521019252783161 -0.46948362877848598 0 -0.2293298899107015 -0.46248019623449149 0 -0.22755597834577571 -0.44694313643532568 0 -0.2177052431936973 -0.45710038121625501 0 -0.22755597834577571 -0.44694313643532568 0 -0.21231997942962 -0.44499656128475412 0 -0.2177052431936973 -0.45710038121625501 0 -0.22755597834577571 -0.44694313643532568 0 -0.21231997942962 -0.44499656128475412 0 -0.22342805118784109 -0.43408371360706238 0 -0.21231997942962 -0.44499656128475412 0 -0.20019169685887489 -0.44873902271374583 0 -0.20801796451004409 -0.43324835015395602 0 -0.21231997942962 -0.44499656128475412 0 -0.20399995032615681 -0.45511964522233622 0 -0.20019169685887489 -0.44873902271374583 0 -0.21231997942962 -0.44499656128475412 0 -0.20899611251397379 -0.4666631252716113 0 -0.21231997942962 -0.44499656128475412 0 -0.20399995032615681 -0.45511964522233622 0 -0.20899611251397379 -0.4666631252716113 0 -0.21231997942962 -0.44499656128475412 0 -0.2177052431936973 -0.45710038121625501 0 -0.20899611251397379 -0.4666631252716113 0 -0.2177052431936973 -0.45710038121625501 0 -0.20899611251397379 -0.4666631252716113 0 -0.21521019252783161 -0.46948362877848598 0 -0.20899611251397379 -0.4666631252716113 0 -0.21521019252783161 -0.46948362877848598 0 -0.194492012502158 -0.46007987161923491 0 -0.20019169685887489 -0.44873902271374583 0 -0.17998791249034179 -0.45349661796685953 0 -0.20899611251397379 -0.4666631252716113 0 -0.194492012502158 -0.46007987161923491 0 -0.2015728534466171 -0.47021716181134238 0 -0.20899611251397379 -0.4666631252716113 0 -0.194492012502158 -0.46007987161923491 0 -0.194492012502158 -0.46007987161923491 0 -0.2015728534466171 -0.47021716181134238 0 -0.19438414042291269 -0.47524298588051839 0 -0.194492012502158 -0.46007987161923491 0 -0.19438414042291269 -0.47524298588051839 0 -0.18253640351576481 -0.46565183058942677 0 -0.20399995032615681 -0.45511964522233622 0 -0.194492012502158 -0.46007987161923491 0 -0.20019169685887489 -0.44873902271374583 0 -0.20399995032615681 -0.45511964522233622 0 -0.20899611251397379 -0.4666631252716113 0 -0.194492012502158 -0.46007987161923491 0 -0.20019169685887489 -0.44873902271374583 0 -0.17998791249034179 -0.45349661796685953 0 -0.19600851246920839 -0.43675560817425102 0 -0.17998791249034179 -0.45349661796685953 0 -0.19600851246920839 -0.43675560817425102 0 -0.20019169685887489 -0.44873902271374583 0 -0.19600851246920839 -0.43675560817425102 0 -0.20801796451004409 -0.43324835015395602 0 -0.20388190358597039 -0.49999999999999778 0 -0.20746709621053311 -0.47662998929359918 0 -0.20388190358597039 -0.49999999999999778 0 -0.21499095848250371 -0.48913597737061709 0 -0.20746709621053311 -0.47662998929359918 0 -0.2302328964463074 -0.5 0 -0.20388190358597039 -0.49999999999999778 0 -0.21499095848250371 -0.48913597737061709 0 -0.22279002309946941 -0.47825446561518048 0 -0.21499095848250371 -0.48913597737061709 0 -0.20746709621053311 -0.47662998929359918 0 -0.22279002309946941 -0.47825446561518048 0 -0.20746709621053311 -0.47662998929359918 0 -0.22279002309946941 -0.47825446561518048 0 -0.21521019252783161 -0.46948362877848598 0 -0.20746709621053311 -0.47662998929359918 0 -0.21521019252783161 -0.46948362877848598 0 -0.20801599835189469 -0.47305198100682488 0 -0.20899611251397379 -0.4666631252716113 0 -0.20801599835189469 -0.47305198100682488 0 -0.20899611251397379 -0.4666631252716113 0 -0.21521019252783161 -0.46948362877848598 0 -0.20801599835189469 -0.47305198100682488 0 -0.21521019252783161 -0.46948362877848598 0 -0.20801599835189469 -0.47305198100682488 0 -0.20746709621053311 -0.47662998929359918 0 -0.20801599835189469 -0.47305198100682488 0 -0.20746709621053311 -0.47662998929359918 0 -0.20746709621053311 -0.47662998929359918 0 -0.201976003442147 -0.47604784527852151 0 -0.20801599835189469 -0.47305198100682488 0 -0.20746709621053311 -0.47662998929359918 0 -0.201976003442147 -0.47604784527852151 0 -0.20801599835189469 -0.47305198100682488 0 -0.2015728534466171 -0.47021716181134238 0 -0.201976003442147 -0.47604784527852151 0 -0.20801599835189469 -0.47305198100682488 0 -0.201976003442147 -0.47604784527852151 0 -0.20899611251397379 -0.4666631252716113 0 -0.20801599835189469 -0.47305198100682488 0 -0.2015728534466171 -0.47021716181134238 0 -0.201976003442147 -0.47604784527852151 0 -0.19398795152211651 -0.48814035144227691 0 -0.17783090215000999 -0.4880239226392627 0 -0.201976003442147 -0.47604784527852151 0 -0.19438414042291269 -0.47524298588051839 0 -0.17783090215000999 -0.4880239226392627 0 -0.20746709621053311 -0.47662998929359918 0 -0.201976003442147 -0.47604784527852151 0 -0.19398795152211651 -0.48814035144227691 0 -0.201976003442147 -0.47604784527852151 0 -0.17783090215000999 -0.4880239226392627 0 -0.2015728534466171 -0.47021716181134238 0 -0.201976003442147 -0.47604784527852151 0 -0.19438414042291269 -0.47524298588051839 0 -0.201976003442147 -0.47604784527852151 0 -0.19438414042291269 -0.47524298588051839 0 -0.20388190358597039 -0.49999999999999778 0 -0.20746709621053311 -0.47662998929359918 0 -0.19398795152211651 -0.48814035144227691 0 -0.20388190358597039 -0.49999999999999778 0 -0.19398795152211651 -0.48814035144227691 0 -0.17878385222192111 -0.5 0 -0.19398795152211651 -0.48814035144227691 0 -0.17878385222192111 -0.5 0 -0.17783090215000999 -0.4880239226392627 0 -0.17783090215000999 -0.4880239226392627 0 -0.1536858008578719 -0.50000000000000155 0 -0.17783090215000999 -0.4880239226392627 0 -0.16205650417525391 -0.48033942343831648 0 -0.1536858008578719 -0.50000000000000155 0 -0.17878385222192111 -0.5 0 -0.17783090215000999 -0.4880239226392627 0 -0.1536858008578719 -0.50000000000000155 0 -0.16205650417525391 -0.48033942343831648 0 -0.17566192023866509 -0.47502572788091718 0 -0.16990718481826381 -0.46403065295290519 0 -0.17783090215000999 -0.4880239226392627 0 -0.16205650417525391 -0.48033942343831648 0 -0.17566192023866509 -0.47502572788091718 0 -0.16205650417525391 -0.48033942343831648 0 -0.16990718481826381 -0.46403065295290519 0 -0.15020080168725769 -0.46973310770108101 0 -0.19438414042291269 -0.47524298588051839 0 -0.17566192023866509 -0.47502572788091718 0 -0.18253640351576481 -0.46565183058942677 0 -0.19438414042291269 -0.47524298588051839 0 -0.17783090215000999 -0.4880239226392627 0 -0.17566192023866509 -0.47502572788091718 0 -0.194492012502158 -0.46007987161923491 0 -0.17998791249034179 -0.45349661796685953 0 -0.194492012502158 -0.46007987161923491 0 -0.18253640351576481 -0.46565183058942677 0 -0.17998791249034179 -0.45349661796685953 0 -0.17998791249034179 -0.45349661796685953 0 -0.16990718481826381 -0.46403065295290519 0 -0.17566192023866509 -0.47502572788091718 0 -0.18253640351576481 -0.46565183058942677 0 -0.16990718481826381 -0.46403065295290519 0 -0.18253640351576481 -0.46565183058942677 0 -0.17998791249034179 -0.45349661796685953 0 -0.16990718481826381 -0.46403065295290519 0 -0.17998791249034179 -0.45349661796685953 0 -0.17552041920861261 -0.43442353039386677 0 -0.19600851246920839 -0.43675560817425102 0 -0.17998791249034179 -0.45349661796685953 0 -0.1580432456841106 -0.44353617176305721 0 -0.15781916475027169 -0.45734705506613721 0 -0.17998791249034179 -0.45349661796685953 0 -0.1580432456841106 -0.44353617176305721 0 -0.17998791249034179 -0.45349661796685953 0 -0.1580432456841106 -0.44353617176305721 0 -0.17552041920861261 -0.43442353039386677 0 -0.15781916475027169 -0.45734705506613721 0 -0.16990718481826381 -0.46403065295290519 0 -0.15020080168725769 -0.46973310770108101 0 -0.17998791249034179 -0.45349661796685953 0 -0.15781916475027169 -0.45734705506613721 0 -0.16990718481826381 -0.46403065295290519 0 -0.15781916475027169 -0.45734705506613721 0 -0.13337449039046359 -0.45534149403357199 0 -0.15020080168725769 -0.46973310770108101 0 -0.1580432456841106 -0.44353617176305721 0 -0.15781916475027169 -0.45734705506613721 0 -0.13337449039046359 -0.45534149403357199 0 -0.1580432456841106 -0.44353617176305721 0 -0.13337449039046359 -0.45534149403357199 0 -0.13609857887787999 -0.43357572555925372 0 -0.1580432456841106 -0.44353617176305721 0 -0.13609857887787999 -0.43357572555925372 0 -0.13337449039046359 -0.45534149403357199 0 -0.13609857887787999 -0.43357572555925372 0 -0.13337449039046359 -0.45534149403357199 0 -0.13609857887787999 -0.43357572555925372 0 -0.1223809996006878 -0.44295171606440931 0 -0.13337449039046359 -0.45534149403357199 0 -0.1306504019030445 -0.47710726250788982 0 -0.15020080168725769 -0.46973310770108101 0 -0.13337449039046359 -0.45534149403357199 0 -0.1306504019030445 -0.47710726250788982 0 -0.1536858008578719 -0.50000000000000155 0 -0.14411635523855251 -0.48543595872945761 0 -0.1239882675693347 -0.5 0 -0.1306504019030445 -0.47710726250788982 0 -0.14411635523855251 -0.48543595872945761 0 -0.1239882675693347 -0.5 0 -0.16205650417525391 -0.48033942343831648 0 -0.1536858008578719 -0.50000000000000155 0 -0.14411635523855251 -0.48543595872945761 0 -0.1306504019030445 -0.47710726250788982 0 -0.14411635523855251 -0.48543595872945761 0 -0.15020080168725769 -0.46973310770108101 0 -0.16205650417525391 -0.48033942343831648 0 -0.14411635523855251 -0.48543595872945761 0 -0.15020080168725769 -0.46973310770108101 0 -0.15155426859158211 -0.40295379087663002 0 -0.141759733538178 -0.38834247333475269 0 -0.1389291562080304 -0.41095909944700337 0 -0.15155426859158211 -0.40295379087663002 0 -0.15444471591474321 -0.38536560351542942 0 -0.141759733538178 -0.38834247333475269 0 -0.15444471591474321 -0.38536560351542942 0 -0.14451436086626299 -0.37801853746572928 0 -0.15365948563096429 -0.37249238902559628 0 -0.15444471591474321 -0.38536560351542942 0 -0.14451436086626299 -0.37801853746572928 0 -0.141759733538178 -0.38834247333475269 0 -0.141759733538178 -0.38834247333475269 0 -0.1299336665645533 -0.38523634039258559 0 -0.12361785996247571 -0.39568344747118372 0 -0.141759733538178 -0.38834247333475269 0 -0.13373289906440289 -0.37640674939516039 0 -0.1299336665645533 -0.38523634039258559 0 -0.14451436086626299 -0.37801853746572928 0 -0.141759733538178 -0.38834247333475269 0 -0.13373289906440289 -0.37640674939516039 0 -0.13373289906440289 -0.37640674939516039 0 -0.12527923359331369 -0.37114931313921401 0 -0.1206241736931566 -0.38051269136924559 0 -0.13373289906440289 -0.37640674939516039 0 -0.1299336665645533 -0.38523634039258559 0 -0.1206241736931566 -0.38051269136924559 0 -0.141759733538178 -0.38834247333475269 0 -0.1389291562080304 -0.41095909944700337 0 -0.12361785996247571 -0.39568344747118372 0 -0.1389291562080304 -0.41095909944700337 0 -0.11878942837292231 -0.41125384351471928 0 -0.12361785996247571 -0.39568344747118372 0 -0.141759733538178 -0.38834247333475269 0 -0.1389291562080304 -0.41095909944700337 0 -0.1389291562080304 -0.41095909944700337 0 -0.1211669532752216 -0.42679842267906809 0 -0.11878942837292231 -0.41125384351471928 0 -0.13609857887787999 -0.43357572555925372 0 -0.1223809996006878 -0.44295171606440931 0 -0.1211669532752216 -0.42679842267906809 0 -0.1389291562080304 -0.41095909944700337 0 -0.13609857887787999 -0.43357572555925372 0 -0.1389291562080304 -0.41095909944700337 0 -0.13609857887787999 -0.43357572555925372 0 -0.1211669532752216 -0.42679842267906809 0 -0.13609857887787999 -0.43357572555925372 0 -0.1211669532752216 -0.42679842267906809 0 -0.1389291562080304 -0.41095909944700337 0 -0.13609857887787999 -0.43357572555925372 0 -0.14751905023529899 -0.42308360293081471 0 -0.1580432456841106 -0.44353617176305721 0 -0.13609857887787999 -0.43357572555925372 0 -0.14751905023529899 -0.42308360293081471 0 -0.1580432456841106 -0.44353617176305721 0 -0.14751905023529899 -0.42308360293081471 0 -0.16293439964762951 -0.41944555459527222 0 -0.15155426859158211 -0.40295379087663002 0 -0.14751905023529899 -0.42308360293081471 0 -0.16293439964762951 -0.41944555459527222 0 -0.15155426859158211 -0.40295379087663002 0 -0.1389291562080304 -0.41095909944700337 0 -0.14751905023529899 -0.42308360293081471 0 -0.15155426859158211 -0.40295379087663002 0 -0.16293439964762951 -0.41944555459527222 0 -0.16510013313521951 -0.40203876168483521 0 -0.16293439964762951 -0.41944555459527222 0 -0.18090299525891149 -0.41426994963160152 0 -0.16510013313521951 -0.40203876168483521 0 -0.1580432456841106 -0.44353617176305721 0 -0.16293439964762951 -0.41944555459527222 0 -0.17552041920861261 -0.43442353039386677 0 -0.17552041920861261 -0.43442353039386677 0 -0.18090299525891149 -0.41426994963160152 0 -0.19600851246920839 -0.43675560817425102 0 -0.16293439964762951 -0.41944555459527222 0 -0.17552041920861261 -0.43442353039386677 0 -0.18090299525891149 -0.41426994963160152 0 -0.1771936407613823 -0.39979861795610622 0 -0.17099661710287481 -0.38794232236513732 0 -0.1897111635477762 -0.39557208729079812 0 -0.18090299525891149 -0.41426994963160152 0 -0.1771936407613823 -0.39979861795610622 0 -0.16510013313521951 -0.40203876168483521 0 -0.18090299525891149 -0.41426994963160152 0 -0.1771936407613823 -0.39979861795610622 0 -0.1897111635477762 -0.39557208729079812 0 -0.15155426859158211 -0.40295379087663002 0 -0.15444471591474321 -0.38536560351542942 0 -0.16510013313521951 -0.40203876168483521 0 -0.15444471591474321 -0.38536560351542942 0 -0.16510013313521951 -0.40203876168483521 0 -0.17099661710287481 -0.38794232236513732 0 -0.1771936407613823 -0.39979861795610622 0 -0.16510013313521951 -0.40203876168483521 0 -0.17099661710287481 -0.38794232236513732 0 -0.15444471591474321 -0.38536560351542942 0 -0.1617226747168462 -0.37593029292987429 0 -0.17099661710287481 -0.38794232236513732 0 -0.15444471591474321 -0.38536560351542942 0 -0.1617226747168462 -0.37593029292987429 0 -0.15365948563096429 -0.37249238902559628 0 -0.1617226747168462 -0.37593029292987429 0 -0.17099661710287481 -0.38794232236513732 0 -0.17129961643905581 -0.37794583911751822 0 -0.17099661710287481 -0.38794232236513732 0 -0.18105409722608351 -0.37715189720488218 0 -0.1897111635477762 -0.39557208729079812 0 -0.17099661710287481 -0.38794232236513732 0 -0.17129961643905581 -0.37794583911751822 0 -0.18105409722608351 -0.37715189720488218 0 -0.18105409722608351 -0.37715189720488218 0 -0.19223125216666789 -0.38314329728959939 0 -0.1897111635477762 -0.39557208729079812 0 -0.19223125216666789 -0.38314329728959939 0 -0.2066231855614277 -0.39174934160827041 0 -0.19999969909034851 -0.37311948065445821 0 -0.19223125216666789 -0.38314329728959939 0 -0.1897111635477762 -0.39557208729079812 0 -0.2066231855614277 -0.39174934160827041 0 -0.18105409722608351 -0.37715189720488218 0 -0.19223125216666789 -0.38314329728959939 0 -0.19999969909034851 -0.37311948065445821 0 -0.1897111635477762 -0.39557208729079812 0 -0.2066231855614277 -0.39174934160827041 0 -0.1897111635477762 -0.39557208729079812 0 -0.2066231855614277 -0.39174934160827041 0 -0.20037389120113319 -0.40942623143071699 0 -0.2066231855614277 -0.39174934160827041 0 -0.21412222184253199 -0.4024780711870819 0 -0.22353209857598069 -0.38791284155504718 0 -0.2066231855614277 -0.39174934160827041 0 -0.21412222184253199 -0.4024780711870819 0 -0.20037389120113319 -0.40942623143071699 0 -0.22353209857598069 -0.38791284155504718 0 -0.19999969909034851 -0.37311948065445821 0 -0.2066231855614277 -0.39174934160827041 0 -0.22353209857598069 -0.38791284155504718 0 -0.2066231855614277 -0.39174934160827041 0 -0.22353209857598069 -0.38791284155504718 0 -0.19999969909034851 -0.37311948065445821 0 -0.22125553329392211 -0.380242380477053 0 -0.22353209857598069 -0.38791284155504718 0 -0.19999969909034851 -0.37311948065445821 0 -0.19600851246920839 -0.43675560817425102 0 -0.20037389120113319 -0.40942623143071699 0 -0.21202911244807621 -0.42001459838164329 0 -0.18090299525891149 -0.41426994963160152 0 -0.1897111635477762 -0.39557208729079812 0 -0.20037389120113319 -0.40942623143071699 0 -0.18090299525891149 -0.41426994963160152 0 -0.19600851246920839 -0.43675560817425102 0 -0.20037389120113319 -0.40942623143071699 0 -0.21412222184253199 -0.4024780711870819 0 -0.21202911244807621 -0.42001459838164329 0 -0.22804971242694369 -0.40327358858903561 0 -0.21202911244807621 -0.42001459838164329 0 -0.21564384634526659 -0.423329997297897 0 -0.22804971242694369 -0.40327358858903561 0 -0.21412222184253199 -0.4024780711870819 0 -0.20037389120113319 -0.40942623143071699 0 -0.21202911244807621 -0.42001459838164329 0 -0.21231997942962 -0.44499656128475412 0 -0.21564384634526659 -0.423329997297897 0 -0.21231997942962 -0.44499656128475412 0 -0.21564384634526659 -0.423329997297897 0 -0.22342805118784109 -0.43408371360706238 0 -0.19600851246920839 -0.43675560817425102 0 -0.21202911244807621 -0.42001459838164329 0 -0.20801796451004409 -0.43324835015395602 0 -0.19600851246920839 -0.43675560817425102 0 -0.21202911244807621 -0.42001459838164329 0 -0.21231997942962 -0.44499656128475412 0 -0.21564384634526659 -0.423329997297897 0 -0.20801796451004409 -0.43324835015395602 0 -0.21202911244807621 -0.42001459838164329 0 -0.21564384634526659 -0.423329997297897 0 -0.20801796451004409 -0.43324835015395602 0 -0.22755597834577571 -0.44694313643532568 0 -0.22342805118784109 -0.43408371360706238 0 -0.2357496498602579 -0.42937517613976628 0 -0.21564384634526659 -0.423329997297897 0 -0.22342805118784109 -0.43408371360706238 0 -0.22571781495507731 -0.4225156189084403 0 -0.22342805118784109 -0.43408371360706238 0 -0.22571781495507731 -0.4225156189084403 0 -0.2357496498602579 -0.42937517613976628 0 -0.21202911244807621 -0.42001459838164329 0 -0.22804971242694369 -0.40327358858903561 0 -0.2376470846372723 -0.40898827895317219 0 -0.2357496498602579 -0.42937517613976628 0 -0.22804971242694369 -0.40327358858903561 0 -0.22571781495507731 -0.4225156189084403 0 -0.2357496498602579 -0.42937517613976628 0 -0.22804971242694369 -0.40327358858903561 0 -0.2357496498602579 -0.42937517613976628 0 -0.22804971242694369 -0.40327358858903561 0 -0.21564384634526659 -0.423329997297897 0 -0.22571781495507731 -0.4225156189084403 0 -0.22804971242694369 -0.40327358858903561 0 -0.25738685213278961 -0.40912193295018218 0 -0.24542586034633471 -0.4164215479987281 0 -0.24346918979569371 -0.40042565836636729 0 -0.24542586034633471 -0.4164215479987281 0 -0.2376470846372723 -0.40898827895317219 0 -0.24346918979569371 -0.40042565836636729 0 -0.24542586034633471 -0.4164215479987281 0 -0.2376470846372723 -0.40898827895317219 0 -0.2357496498602579 -0.42937517613976628 0 -0.25359642475074717 -0.4350129156343473 0 -0.24542586034633471 -0.4164215479987281 0 -0.2357496498602579 -0.42937517613976628 0 -0.23078761119148611 -0.37983397536074209 0 -0.22353209857598069 -0.38791284155504718 0 -0.24318745713615289 -0.38348445694904892 0 -0.22353209857598069 -0.38791284155504718 0 -0.23554101075713119 -0.39544542367196373 0 -0.24318745713615289 -0.38348445694904892 0 -0.22353209857598069 -0.38791284155504718 0 -0.24318745713615289 -0.38348445694904892 0 -0.23078761119148611 -0.37983397536074209 0 -0.22125553329392211 -0.380242380477053 0 -0.22777862789452241 -0.37451120448623831 0 -0.23078761119148611 -0.37983397536074209 0 -0.22125553329392211 -0.380242380477053 0 -0.22353209857598069 -0.38791284155504718 0 -0.22125553329392211 -0.380242380477053 0 -0.22353209857598069 -0.38791284155504718 0 -0.22353209857598069 -0.38791284155504718 0 -0.22804971242694369 -0.40327358858903561 0 -0.21412222184253199 -0.4024780711870819 0 -0.22353209857598069 -0.38791284155504718 0 -0.22804971242694369 -0.40327358858903561 0 -0.2376470846372723 -0.40898827895317219 0 -0.22804971242694369 -0.40327358858903561 0 -0.23554101075713119 -0.39544542367196373 0 -0.22804971242694369 -0.40327358858903561 0 -0.23554101075713119 -0.39544542367196373 0 -0.22353209857598069 -0.38791284155504718 0 -0.23554101075713119 -0.39544542367196373 0 -0.22353209857598069 -0.38791284155504718 0 -0.22804971242694369 -0.40327358858903561 0 -0.23554101075713119 -0.39544542367196373 0 -0.23554101075713119 -0.39544542367196373 0 -0.24346918979569371 -0.40042565836636729 0 -0.23554101075713119 -0.39544542367196373 0 -0.24346918979569371 -0.40042565836636729 0 -0.24458043244855829 -0.38599951981971758 0 -0.25738685213278961 -0.40912193295018218 0 -0.24346918979569371 -0.40042565836636729 0 -0.24458043244855829 -0.38599951981971758 0 -0.23554101075713119 -0.39544542367196373 0 -0.24458043244855829 -0.38599951981971758 0 -0.2376470846372723 -0.40898827895317219 0 -0.23554101075713119 -0.39544542367196373 0 -0.24346918979569371 -0.40042565836636729 0 -0.25230187942312721 -0.37793085699904821 0 -0.2480360699284121 -0.38238849020995008 0 -0.23563088171412341 -0.36984081078814668 0 -0.24458043244855829 -0.38599951981971758 0 -0.2480360699284121 -0.38238849020995008 0 -0.24458043244855829 -0.38599951981971758 0 -0.24318745713615289 -0.38348445694904892 0 -0.2480360699284121 -0.38238849020995008 0 -0.24318745713615289 -0.38348445694904892 0 -0.2480360699284121 -0.38238849020995008 0 -0.24458043244855829 -0.38599951981971758 0 -0.24318745713615289 -0.38348445694904892 0 -0.23554101075713119 -0.39544542367196373 0 -0.24458043244855829 -0.38599951981971758 0 -0.24318745713615289 -0.38348445694904892 0 -0.24318745713615289 -0.38348445694904892 0 -0.23563088171412341 -0.36984081078814668 0 -0.23078761119148611 -0.37983397536074209 0 -0.24318745713615289 -0.38348445694904892 0 -0.23563088171412341 -0.36984081078814668 0 -0.24318745713615289 -0.38348445694904892 0 -0.2480360699284121 -0.38238849020995008 0 -0.23563088171412341 -0.36984081078814668 0 -0.25230187942312721 -0.37793085699904821 0 -0.23563088171412341 -0.36984081078814668 0 -0.23925194742435929 -0.35486265783817528 0 -0.25230187942312721 -0.37793085699904821 0 -0.23925194742435929 -0.35486265783817528 0 -0.25447134471891442 -0.35684089221954768 0 -0.25230187942312721 -0.37793085699904821 0 -0.23925194742435929 -0.35486265783817528 0 -0.23563088171412341 -0.36984081078814668 0 -0.22777862789452241 -0.37451120448623831 0 -0.22344048537855771 -0.36812765131901148 0 -0.23078761119148611 -0.37983397536074209 0 -0.23563088171412341 -0.36984081078814668 0 -0.22777862789452241 -0.37451120448623831 0 -0.23563088171412341 -0.36984081078814668 0 -0.22344048537855771 -0.36812765131901148 0 -0.22782530226872691 -0.35847491520654351 0 -0.23563088171412341 -0.36984081078814668 0 -0.22782530226872691 -0.35847491520654351 0 -0.23925194742435929 -0.35486265783817528 0 -0.22344048537855771 -0.36812765131901148 0 -0.22782530226872691 -0.35847491520654351 0 -0.21792931088480841 -0.35537144206460669 0 -0.22125553329392211 -0.380242380477053 0 -0.22344048537855771 -0.36812765131901148 0 -0.21304050955757409 -0.36694529903630613 0 -0.22125553329392211 -0.380242380477053 0 -0.22777862789452241 -0.37451120448623831 0 -0.22344048537855771 -0.36812765131901148 0 -0.22519754008870799 -0.34674342167141109 0 -0.23925194742435929 -0.35486265783817528 0 -0.2262020154255909 -0.33179445867730267 0 -0.22519754008870799 -0.34674342167141109 0 -0.21792931088480841 -0.35537144206460669 0 -0.21811320719304511 -0.34403611657086669 0 -0.22519754008870799 -0.34674342167141109 0 -0.22782530226872691 -0.35847491520654351 0 -0.21792931088480841 -0.35537144206460669 0 -0.22519754008870799 -0.34674342167141109 0 -0.22782530226872691 -0.35847491520654351 0 -0.23925194742435929 -0.35486265783817528 0 -0.25447134471891442 -0.35684089221954768 0 -0.25058837569247089 -0.33863748773642921 0 -0.23925194742435929 -0.35486265783817528 0 -0.25058837569247089 -0.33863748773642921 0 -0.24815365569125639 -0.31617327339497148 0 -0.2262020154255909 -0.33179445867730267 0 -0.25058837569247089 -0.33863748773642921 0 -0.23925194742435929 -0.35486265783817528 0 -0.2262020154255909 -0.33179445867730267 0 -0.24815365569125639 -0.31617327339497148 0 -0.2262020154255909 -0.33179445867730267 0 -0.24815365569125639 -0.31617327339497148 0 -0.23048252201681649 -0.31457528969094539 0 -0.2262020154255909 -0.33179445867730267 0 -0.23048252201681649 -0.31457528969094539 0 -0.2262020154255909 -0.33179445867730267 0 -0.2135186769644371 -0.30937428225996511 0 -0.2262020154255909 -0.33179445867730267 0 -0.2135186769644371 -0.30937428225996511 0 -0.23925194742435929 -0.35486265783817528 0 -0.2262020154255909 -0.33179445867730267 0 -0.2262020154255909 -0.33179445867730267 0 -0.2208186162842431 -0.33562538312841572 0 -0.2262020154255909 -0.33179445867730267 0 -0.2208186162842431 -0.33562538312841572 0 -0.21089556453400771 -0.32741435475082259 0 -0.22519754008870799 -0.34674342167141109 0 -0.2208186162842431 -0.33562538312841572 0 -0.21811320719304511 -0.34403611657086669 0 -0.22519754008870799 -0.34674342167141109 0 -0.2262020154255909 -0.33179445867730267 0 -0.2208186162842431 -0.33562538312841572 0 -0.2208186162842431 -0.33562538312841572 0 -0.2112739990224442 -0.3358862109559983 0 -0.21811320719304511 -0.34403611657086669 0 -0.2112739990224442 -0.3358862109559983 0 -0.21811320719304511 -0.34403611657086669 0 -0.21033133263794429 -0.34513545362963027 0 -0.2208186162842431 -0.33562538312841572 0 -0.2112739990224442 -0.3358862109559983 0 -0.21089556453400771 -0.32741435475082259 0 -0.2112739990224442 -0.3358862109559983 0 -0.21089556453400771 -0.32741435475082259 0 -0.20048748115237541 -0.33496082109837588 0 -0.2112739990224442 -0.3358862109559983 0 -0.20048748115237541 -0.33496082109837588 0 -0.21033133263794429 -0.34513545362963027 0 -0.21089556453400771 -0.32741435475082259 0 -0.1967600103157178 -0.32137199753958468 0 -0.2135186769644371 -0.30937428225996511 0 -0.2262020154255909 -0.33179445867730267 0 -0.21089556453400771 -0.32741435475082259 0 -0.2135186769644371 -0.30937428225996511 0 -0.1967600103157178 -0.32137199753958468 0 -0.19380309572396351 -0.30504978148795642 0 -0.17519147111442049 -0.31764408191947091 0 -0.21089556453400771 -0.32741435475082259 0 -0.1967600103157178 -0.32137199753958468 0 -0.20048748115237541 -0.33496082109837588 0 -0.20048748115237541 -0.33496082109837588 0 -0.1952926727088285 -0.35365536337601311 0 -0.18537199661736559 -0.33698046812525417 0 -0.1967600103157178 -0.32137199753958468 0 -0.20048748115237541 -0.33496082109837588 0 -0.18537199661736559 -0.33698046812525417 0 -0.20048748115237541 -0.33496082109837588 0 -0.18537199661736559 -0.33698046812525417 0 -0.20048748115237541 -0.33496082109837588 0 -0.1952926727088285 -0.35365536337601311 0 -0.21033133263794429 -0.34513545362963027 0 -0.1952926727088285 -0.35365536337601311 0 -0.18414005878305259 -0.34900199066391407 0 -0.18537199661736559 -0.33698046812525417 0 -0.1952926727088285 -0.35365536337601311 0 -0.19999969909034851 -0.37311948065445821 0 -0.1764623260353958 -0.35833403732210722 0 -0.19999969909034851 -0.37311948065445821 0 -0.1764623260353958 -0.35833403732210722 0 -0.1952926727088285 -0.35365536337601311 0 -0.19999969909034851 -0.37311948065445821 0 -0.20702412767550649 -0.35789826341879671 0 -0.22125553329392211 -0.380242380477053 0 -0.19999969909034851 -0.37311948065445821 0 -0.21304050955757409 -0.36694529903630613 0 -0.19999969909034851 -0.37311948065445821 0 -0.21304050955757409 -0.36694529903630613 0 -0.20702412767550649 -0.35789826341879671 0 -0.22344048537855771 -0.36812765131901148 0 -0.21304050955757409 -0.36694529903630613 0 -0.21792931088480841 -0.35537144206460669 0 -0.21304050955757409 -0.36694529903630613 0 -0.21792931088480841 -0.35537144206460669 0 -0.20702412767550649 -0.35789826341879671 0 -0.21792931088480841 -0.35537144206460669 0 -0.21033133263794429 -0.34513545362963027 0 -0.20702412767550649 -0.35789826341879671 0 -0.21792931088480841 -0.35537144206460669 0 -0.21811320719304511 -0.34403611657086669 0 -0.21033133263794429 -0.34513545362963027 0 -0.1952926727088285 -0.35365536337601311 0 -0.21033133263794429 -0.34513545362963027 0 -0.20702412767550649 -0.35789826341879671 0 -0.22885107166608509 -0.26730542427604059 0 -0.21415183608817731 -0.26553696361966472 0 -0.22711685140145391 -0.24966487257267911 0 -0.24876354634183129 -0.26142021599188858 0 -0.22885107166608509 -0.26730542427604059 0 -0.22711685140145391 -0.24966487257267911 0 -0.24876354634183129 -0.26142021599188858 0 -0.22711685140145391 -0.24966487257267911 0 -0.25246583902296788 -0.28388466478671021 0 -0.24876354634183129 -0.26142021599188858 0 -0.23250586813196039 -0.28449493818209809 0 -0.24876354634183129 -0.26142021599188858 0 -0.22885107166608509 -0.26730542427604059 0 -0.23250586813196039 -0.28449493818209809 0 -0.22885107166608509 -0.26730542427604059 0 -0.2154664777355019 -0.28117964564282399 0 -0.21415183608817731 -0.26553696361966472 0 -0.22885107166608509 -0.26730542427604059 0 -0.23250586813196039 -0.28449493818209809 0 -0.2154664777355019 -0.28117964564282399 0 -0.23250586813196039 -0.28449493818209809 0 -0.2135186769644371 -0.30937428225996511 0 -0.2154664777355019 -0.28117964564282399 0 -0.25246583902296788 -0.28388466478671021 0 -0.23250586813196039 -0.28449493818209809 0 -0.24088152209008559 -0.300662444260688 0 -0.24815365569125639 -0.31617327339497148 0 -0.23048252201681649 -0.31457528969094539 0 -0.24088152209008559 -0.300662444260688 0 -0.23250586813196039 -0.28449493818209809 0 -0.24088152209008559 -0.300662444260688 0 -0.2135186769644371 -0.30937428225996511 0 -0.23048252201681649 -0.31457528969094539 0 -0.24088152209008559 -0.300662444260688 0 -0.2135186769644371 -0.30937428225996511 0 -0.2135186769644371 -0.30937428225996511 0 -0.20083533850328339 -0.28695410584262748 0 -0.2135186769644371 -0.30937428225996511 0 -0.19380309572396351 -0.30504978148795642 0 -0.20083533850328339 -0.28695410584262748 0 -0.1967600103157178 -0.32137199753958468 0 -0.2135186769644371 -0.30937428225996511 0 -0.19380309572396351 -0.30504978148795642 0 -0.19380309572396351 -0.30504978148795642 0 -0.20083533850328339 -0.28695410584262748 0 -0.18012643014648441 -0.29628804868680758 0 -0.20083533850328339 -0.28695410584262748 0 -0.18506138917854831 -0.27493201545414431 0 -0.18012643014648441 -0.29628804868680758 0 -0.2135186769644371 -0.30937428225996511 0 -0.20083533850328339 -0.28695410584262748 0 -0.2154664777355019 -0.28117964564282399 0 -0.2154664777355019 -0.28117964564282399 0 -0.20453709061340761 -0.27091179572466589 0 -0.21415183608817731 -0.26553696361966472 0 -0.20083533850328339 -0.28695410584262748 0 -0.2154664777355019 -0.28117964564282399 0 -0.20453709061340761 -0.27091179572466589 0 -0.20083533850328339 -0.28695410584262748 0 -0.20453709061340761 -0.27091179572466589 0 -0.18815200004212959 -0.26453392942528992 0 -0.20083533850328339 -0.28695410584262748 0 -0.18815200004212959 -0.26453392942528992 0 -0.20083533850328339 -0.28695410584262748 0 -0.18815200004212959 -0.26453392942528992 0 -0.18506138917854831 -0.27493201545414431 0 -0.20453709061340761 -0.27091179572466589 0 -0.18815200004212959 -0.26453392942528992 0 -0.20417370410649149 -0.25620768174026509 0 -0.18815200004212959 -0.26453392942528992 0 -0.20417370410649149 -0.25620768174026509 0 -0.190939978598095 -0.24849318492040501 0 -0.20417370410649149 -0.25620768174026509 0 -0.21415183608817731 -0.26553696361966472 0 -0.22711685140145391 -0.24966487257267911 0 -0.20453709061340761 -0.27091179572466589 0 -0.20417370410649149 -0.25620768174026509 0 -0.21415183608817731 -0.26553696361966472 0 -0.16444483756057329 -0.25604921891725108 0 -0.14997343636106389 -0.25739905731514767 0 -0.16633186216588799 -0.24409735769854621 0 -0.14997343636106389 -0.25739905731514767 0 -0.16633186216588799 -0.24409735769854621 0 -0.15701462516195919 -0.26393965982072898 0 -0.16675800370009419 -0.26400168492131149 0 -0.16444483756057329 -0.25604921891725108 0 -0.15701462516195919 -0.26393965982072898 0 -0.16444483756057329 -0.25604921891725108 0 -0.14997343636106389 -0.25739905731514767 0 -0.16675800370009419 -0.26400168492131149 0 -0.16444483756057329 -0.25604921891725108 0 -0.17406937283141971 -0.25770298561977001 0 -0.16444483756057329 -0.25604921891725108 0 -0.1700786835347142 -0.24999082881087981 0 -0.16633186216588799 -0.24409735769854621 0 -0.16444483756057329 -0.25604921891725108 0 -0.17406937283141971 -0.25770298561977001 0 -0.1700786835347142 -0.24999082881087981 0 -0.18815200004212959 -0.26453392942528992 0 -0.17546866158097579 -0.2421137530079521 0 -0.18815200004212959 -0.26453392942528992 0 -0.17546866158097579 -0.2421137530079521 0 -0.190939978598095 -0.24849318492040501 0 -0.18815200004212959 -0.26453392942528992 0 -0.17406937283141971 -0.25770298561977001 0 -0.17546866158097579 -0.2421137530079521 0 -0.18815200004212959 -0.26453392942528992 0 -0.17406937283141971 -0.25770298561977001 0 -0.17700956248417499 -0.2668442658114451 0 -0.16675800370009419 -0.26400168492131149 0 -0.17406937283141971 -0.25770298561977001 0 -0.17700956248417499 -0.2668442658114451 0 -0.17700956248417499 -0.2668442658114451 0 -0.18506138917854831 -0.27493201545414431 0 -0.17095233493463191 -0.27351892620607698 0 -0.18815200004212959 -0.26453392942528992 0 -0.17700956248417499 -0.2668442658114451 0 -0.18506138917854831 -0.27493201545414431 0 -0.18506138917854831 -0.27493201545414431 0 -0.17095233493463191 -0.27351892620607698 0 -0.17536653605729149 -0.28321086610618879 0 -0.17095233493463191 -0.27351892620607698 0 -0.16532598996950129 -0.28810447407772688 0 -0.15598708316938731 -0.27400451866667591 0 -0.16675800370009419 -0.26400168492131149 0 -0.17095233493463191 -0.27351892620607698 0 -0.15598708316938731 -0.27400451866667591 0 -0.16675800370009419 -0.26400168492131149 0 -0.17700956248417499 -0.2668442658114451 0 -0.17095233493463191 -0.27351892620607698 0 -0.15701462516195919 -0.26393965982072898 0 -0.16675800370009419 -0.26400168492131149 0 -0.15598708316938731 -0.27400451866667591 0 -0.16532598996950129 -0.28810447407772688 0 -0.18012643014648441 -0.29628804868680758 0 -0.158322892348598 -0.30500977555819703 0 -0.17095233493463191 -0.27351892620607698 0 -0.16532598996950129 -0.28810447407772688 0 -0.17536653605729149 -0.28321086610618879 0 -0.18506138917854831 -0.27493201545414431 0 -0.17536653605729149 -0.28321086610618879 0 -0.18012643014648441 -0.29628804868680758 0 -0.18506138917854831 -0.27493201545414431 0 -0.18012643014648441 -0.29628804868680758 0 -0.16532598996950129 -0.28810447407772688 0 -0.17536653605729149 -0.28321086610618879 0 -0.18012643014648441 -0.29628804868680758 0 -0.18012643014648441 -0.29628804868680758 0 -0.17519147111442049 -0.31764408191947091 0 -0.19380309572396351 -0.30504978148795642 0 -0.18012643014648441 -0.29628804868680758 0 -0.17519147111442049 -0.31764408191947091 0 -0.18012643014648441 -0.29628804868680758 0 -0.158322892348598 -0.30500977555819703 0 -0.17519147111442049 -0.31764408191947091 0 -0.158322892348598 -0.30500977555819703 0 -0.14253990796694899 -0.31037608874337569 0 -0.14131758585339529 -0.29041814846971531 0 -0.1266480885373921 -0.30683177827274472 0 -0.14131758585339529 -0.29041814846971531 0 -0.14253990796694899 -0.31037608874337569 0 -0.1266480885373921 -0.30683177827274472 0 -0.14131758585339529 -0.29041814846971531 0 -0.1297093174246127 -0.28798828505564261 0 -0.14131758585339529 -0.29041814846971531 0 -0.13361501055623981 -0.27070075693174911 0 -0.1266480885373921 -0.30683177827274472 0 -0.1297093174246127 -0.28798828505564261 0 -0.14131758585339529 -0.29041814846971531 0 -0.16532598996950129 -0.28810447407772688 0 -0.158322892348598 -0.30500977555819703 0 -0.14131758585339529 -0.29041814846971531 0 -0.14131758585339529 -0.29041814846971531 0 -0.15598708316938731 -0.27400451866667591 0 -0.16532598996950129 -0.28810447407772688 0 -0.14131758585339529 -0.29041814846971531 0 -0.15598708316938731 -0.27400451866667591 0 -0.14131758585339529 -0.29041814846971531 0 -0.15598708316938731 -0.27400451866667591 0 -0.14595768701465539 -0.26919047688912751 0 -0.14595768701465539 -0.26919047688912751 0 -0.13361501055623981 -0.27070075693174911 0 -0.14997343636106389 -0.25739905731514767 0 -0.15701462516195919 -0.26393965982072898 0 -0.15598708316938731 -0.27400451866667591 0 -0.14595768701465539 -0.26919047688912751 0 -0.14131758585339529 -0.29041814846971531 0 -0.14595768701465539 -0.26919047688912751 0 -0.13361501055623981 -0.27070075693174911 0 -0.1297093174246127 -0.28798828505564261 0 -0.13361501055623981 -0.27070075693174911 0 -0.1172565847514152 -0.28400245654834982 0 -0.13361501055623981 -0.27070075693174911 0 -0.1172565847514152 -0.28400245654834982 0 -0.13361501055623981 -0.27070075693174911 0 -0.13504482410774779 -0.25844509162394158 0 -0.14997343636106389 -0.25739905731514767 0 -0.13361501055623981 -0.27070075693174911 0 -0.13504482410774779 -0.25844509162394158 0 -0.121861598733736 -0.26437691445257527 0 -0.13504482410774779 -0.25844509162394158 0 -0.121861598733736 -0.26437691445257527 0 -0.12819177684182431 -0.24894498476986929 0 -0.121861598733736 -0.26437691445257527 0 -0.12819177684182431 -0.24894498476986929 0 -0.13504482410774779 -0.25844509162394158 0 -0.14997343636106389 -0.25739905731514767 0 -0.14782351302482491 -0.2386644030812291 0 -0.13361501055623981 -0.27070075693174911 0 -0.14997343636106389 -0.25739905731514767 0 -0.15701462516195919 -0.26393965982072898 0 -0.14595768701465539 -0.26919047688912751 0 -0.14997343636106389 -0.25739905731514767 0 -0.1659895933996014 -0.35746520404100429 0 -0.17025651208235601 -0.33900011515213407 0 -0.1659895933996014 -0.35746520404100429 0 -0.1567080781508631 -0.35147782231500507 0 -0.17025651208235601 -0.33900011515213407 0 -0.1659895933996014 -0.35746520404100429 0 -0.17574019135148811 -0.34824532932034402 0 -0.17025651208235601 -0.33900011515213407 0 -0.1659895933996014 -0.35746520404100429 0 -0.1567080781508631 -0.35147782231500507 0 -0.15683069683014819 -0.36252228834577799 0 -0.1617226747168462 -0.37593029292987429 0 -0.1659895933996014 -0.35746520404100429 0 -0.17130566156339649 -0.36936545412307731 0 -0.1617226747168462 -0.37593029292987429 0 -0.1659895933996014 -0.35746520404100429 0 -0.15683069683014819 -0.36252228834577799 0 -0.1617226747168462 -0.37593029292987429 0 -0.1659895933996014 -0.35746520404100429 0 -0.1617226747168462 -0.37593029292987429 0 -0.15683069683014819 -0.36252228834577799 0 -0.15365948563096429 -0.37249238902559628 0 -0.1617226747168462 -0.37593029292987429 0 -0.17129961643905581 -0.37794583911751822 0 -0.17130566156339649 -0.36936545412307731 0 -0.1659895933996014 -0.35746520404100429 0 -0.17130566156339649 -0.36936545412307731 0 -0.1764623260353958 -0.35833403732210722 0 -0.18105409722608351 -0.37715189720488218 0 -0.19999969909034851 -0.37311948065445821 0 -0.1764623260353958 -0.35833403732210722 0 -0.18105409722608351 -0.37715189720488218 0 -0.17130566156339649 -0.36936545412307731 0 -0.1764623260353958 -0.35833403732210722 0 -0.17129961643905581 -0.37794583911751822 0 -0.18105409722608351 -0.37715189720488218 0 -0.17130566156339649 -0.36936545412307731 0 -0.1952926727088285 -0.35365536337601311 0 -0.1764623260353958 -0.35833403732210722 0 -0.18414005878305259 -0.34900199066391407 0 -0.1659895933996014 -0.35746520404100429 0 -0.1764623260353958 -0.35833403732210722 0 -0.17574019135148811 -0.34824532932034402 0 -0.1764623260353958 -0.35833403732210722 0 -0.17574019135148811 -0.34824532932034402 0 -0.18414005878305259 -0.34900199066391407 0 -0.17574019135148811 -0.34824532932034402 0 -0.18414005878305259 -0.34900199066391407 0 -0.18537199661736559 -0.33698046812525417 0 -0.17519147111442049 -0.31764408191947091 0 -0.17025651208235601 -0.33900011515213407 0 -0.18537199661736559 -0.33698046812525417 0 -0.17519147111442049 -0.31764408191947091 0 -0.17025651208235601 -0.33900011515213407 0 -0.18537199661736559 -0.33698046812525417 0 -0.17025651208235601 -0.33900011515213407 0 -0.17574019135148811 -0.34824532932034402 0 -0.18537199661736559 -0.33698046812525417 0 -0.17025651208235601 -0.33900011515213407 0 -0.1967600103157178 -0.32137199753958468 0 -0.18537199661736559 -0.33698046812525417 0 -0.17519147111442049 -0.31764408191947091 0 -0.17519147111442049 -0.31764408191947091 0 -0.17025651208235601 -0.33900011515213407 0 -0.15334177234710419 -0.32348380803297477 0 -0.158322892348598 -0.30500977555819703 0 -0.17519147111442049 -0.31764408191947091 0 -0.15334177234710419 -0.32348380803297477 0 -0.17025651208235601 -0.33900011515213407 0 -0.14146407720566501 -0.34284720026281212 0 -0.17025651208235601 -0.33900011515213407 0 -0.14146407720566501 -0.34284720026281212 0 -0.15334177234710419 -0.32348380803297477 0 -0.14146407720566501 -0.34284720026281212 0 -0.15334177234710419 -0.32348380803297477 0 -0.1340560828715251 -0.32483948926777978 0 -0.158322892348598 -0.30500977555819703 0 -0.14253990796694899 -0.31037608874337569 0 -0.15334177234710419 -0.32348380803297477 0 -0.14253990796694899 -0.31037608874337569 0 -0.15334177234710419 -0.32348380803297477 0 -0.1340560828715251 -0.32483948926777978 0 -0.1266480885373921 -0.30683177827274472 0 -0.1340560828715251 -0.32483948926777978 0 -0.14253990796694899 -0.31037608874337569 0 -0.1266480885373921 -0.30683177827274472 0 -0.1340560828715251 -0.32483948926777978 0 -0.1340560828715251 -0.32483948926777978 0 -0.12518403410248191 -0.34502244913257801 0 -0.118838061020607 -0.33641067092451599 0 -0.14146407720566501 -0.34284720026281212 0 -0.1340560828715251 -0.32483948926777978 0 -0.12518403410248191 -0.34502244913257801 0 -0.14146407720566501 -0.34284720026281212 0 -0.1340560828715251 -0.32483948926777978 0 -0.13748941444903739 -0.36087671652850711 0 -0.112628799064938 -0.3556055164232344 0 -0.14146407720566501 -0.34284720026281212 0 -0.12518403410248191 -0.34502244913257801 0 -0.1342286487296013 -0.35070499912009218 0 -0.1342286487296013 -0.35070499912009218 0 -0.13748941444903739 -0.36087671652850711 0 -0.112628799064938 -0.3556055164232344 0 -0.14146407720566501 -0.34284720026281212 0 -0.12518403410248191 -0.34502244913257801 0 -0.1342286487296013 -0.35070499912009218 0 -0.1475617814183143 -0.35766979464420429 0 -0.13748941444903739 -0.36087671652850711 0 -0.14146407720566501 -0.34284720026281212 0 -0.1342286487296013 -0.35070499912009218 0 -0.1475617814183143 -0.35766979464420429 0 -0.1567080781508631 -0.35147782231500507 0 -0.17025651208235601 -0.33900011515213407 0 -0.14146407720566501 -0.34284720026281212 0 -0.14146407720566501 -0.34284720026281212 0 -0.1475617814183143 -0.35766979464420429 0 -0.1567080781508631 -0.35147782231500507 0 -0.15683069683014819 -0.36252228834577799 0 -0.1475617814183143 -0.35766979464420429 0 -0.1567080781508631 -0.35147782231500507 0 -0.14146407720566501 -0.34284720026281212 0 -0.1475617814183143 -0.35766979464420429 0 -0.15683069683014819 -0.36252228834577799 0 -0.1475617814183143 -0.35766979464420429 0 -0.15365948563096429 -0.37249238902559628 0 -0.1475617814183143 -0.35766979464420429 0 -0.15365948563096429 -0.37249238902559628 0 -0.1475617814183143 -0.35766979464420429 0 -0.15365948563096429 -0.37249238902559628 0 -0.14244924280015281 -0.36822786876245411 0 -0.1475617814183143 -0.35766979464420429 0 -0.14244924280015281 -0.36822786876245411 0 -0.13748941444903739 -0.36087671652850711 0 -0.14451436086626299 -0.37801853746572928 0 -0.15365948563096429 -0.37249238902559628 0 -0.14244924280015281 -0.36822786876245411 0 -0.13373289906440289 -0.37640674939516039 0 -0.14244924280015281 -0.36822786876245411 0 -0.13261099193116291 -0.36788110871089358 0 -0.14451436086626299 -0.37801853746572928 0 -0.13373289906440289 -0.37640674939516039 0 -0.14244924280015281 -0.36822786876245411 0 -0.14244924280015281 -0.36822786876245411 0 -0.13748941444903739 -0.36087671652850711 0 -0.13261099193116291 -0.36788110871089358 0 -0.13748941444903739 -0.36087671652850711 0 -0.13261099193116291 -0.36788110871089358 0 -0.1241041697489077 -0.36274489572913221 0 -0.12527923359331369 -0.37114931313921401 0 -0.13261099193116291 -0.36788110871089358 0 -0.1241041697489077 -0.36274489572913221 0 -0.13373289906440289 -0.37640674939516039 0 -0.12527923359331369 -0.37114931313921401 0 -0.13261099193116291 -0.36788110871089358 0 -0.12527923359331369 -0.37114931313921401 0 -0.11686949349365119 -0.36992984763640291 0 -0.1206241736931566 -0.38051269136924559 0 -0.12527923359331369 -0.37114931313921401 0 -0.1241041697489077 -0.36274489572913221 0 -0.11686949349365119 -0.36992984763640291 0 -0.13748941444903739 -0.36087671652850711 0 -0.1241041697489077 -0.36274489572913221 0 -0.112628799064938 -0.3556055164232344 0 -0.1241041697489077 -0.36274489572913221 0 -0.1160550841485867 -0.36253624571352788 0 -0.112628799064938 -0.3556055164232344 0 -0.1241041697489077 -0.36274489572913221 0 -0.1160550841485867 -0.36253624571352788 0 -0.11686949349365119 -0.36992984763640291 0 -0.1160550841485867 -0.36253624571352788 0 -0.11061787428684999 -0.36186472306534251 0 -0.11686949349365119 -0.36992984763640291 0 -0.1160550841485867 -0.36253624571352788 0 -0.11061787428684999 -0.36186472306534251 0 -0.112628799064938 -0.3556055164232344 0 -0.11686949349365119 -0.36992984763640291 0 -0.1086555563507164 -0.37340927348755248 0 -0.1104730580573271 -0.37818174545655298 0 -0.11061787428684999 -0.36186472306534251 0 -0.11686949349365119 -0.36992984763640291 0 -0.1086555563507164 -0.37340927348755248 0 -0.11061787428684999 -0.36186472306534251 0 -0.1086555563507164 -0.37340927348755248 0 -0.09666179956503744 -0.38366077779191171 0 -0.11061787428684999 -0.36186472306534251 0 -0.09666179956503744 -0.38366077779191171 0 -0.11061787428684999 -0.36186472306534251 0 -0.096303434710918706 -0.36926960263172282 0 -0.092208667382025822 -0.36286807335327859 0 -0.11061787428684999 -0.36186472306534251 0 -0.096303434710918706 -0.36926960263172282 0 -0.09666179956503744 -0.38366077779191171 0 -0.11061787428684999 -0.36186472306534251 0 -0.112628799064938 -0.3556055164232344 0 -0.087768183680838566 -0.35033431631796258 0 -0.11061787428684999 -0.36186472306534251 0 -0.092208667382025822 -0.36286807335327859 0 -0.087768183680838566 -0.35033431631796258 0 -0.1089039909992993 -0.34719769800234718 0 -0.112628799064938 -0.3556055164232344 0 -0.087768183680838566 -0.35033431631796258 0 -0.112628799064938 -0.3556055164232344 0 -0.087768183680838566 -0.35033431631796258 0 -0.12518403410248191 -0.34502244913257801 0 -0.1342286487296013 -0.35070499912009218 0 -0.112628799064938 -0.3556055164232344 0 -0.12518403410248191 -0.34502244913257801 0 -0.1089039909992993 -0.34719769800234718 0 -0.12518403410248191 -0.34502244913257801 0 -0.1089039909992993 -0.34719769800234718 0 -0.112628799064938 -0.3556055164232344 0 -0.12518403410248191 -0.34502244913257801 0 -0.1089039909992993 -0.34719769800234718 0 -0.118838061020607 -0.33641067092451599 0 -0.1340560828715251 -0.32483948926777978 0 -0.118838061020607 -0.33641067092451599 0 -0.1072081361091216 -0.3285830472953592 0 -0.1089039909992993 -0.34719769800234718 0 -0.118838061020607 -0.33641067092451599 0 -0.1072081361091216 -0.3285830472953592 0 -0.1266480885373921 -0.30683177827274472 0 -0.1340560828715251 -0.32483948926777978 0 -0.1072081361091216 -0.3285830472953592 0 -0.1266480885373921 -0.30683177827274472 0 -0.1072081361091216 -0.3285830472953592 0 -0.1038663555367291 -0.30824634796576272 0 -0.1266480885373921 -0.30683177827274472 0 -0.1072081361091216 -0.3285830472953592 0 -0.095645884868055031 -0.32828649899336809 0 -0.086980576865718584 -0.31885874608962461 0 -0.1038663555367291 -0.30824634796576272 0 -0.095645884868055031 -0.32828649899336809 0 -0.1038663555367291 -0.30824634796576272 0 -0.1072081361091216 -0.3285830472953592 0 -0.095645884868055031 -0.32828649899336809 0 -0.1038663555367291 -0.30824634796576272 0 -0.1072081361091216 -0.3285830472953592 0 -0.087768183680838566 -0.35033431631796258 0 -0.087425414199380921 -0.34832665002097352 0 -0.1072081361091216 -0.3285830472953592 0 -0.087768183680838566 -0.35033431631796258 0 -0.1089039909992993 -0.34719769800234718 0 -0.1072081361091216 -0.3285830472953592 0 -0.087768183680838566 -0.35033431631796258 0 -0.1072081361091216 -0.3285830472953592 0 -0.095645884868055031 -0.32828649899336809 0 -0.087425414199380921 -0.34832665002097352 0 -0.095645884868055031 -0.32828649899336809 0 -0.085761351552033599 -0.33677405880908889 0 -0.087425414199380921 -0.34832665002097352 0 -0.095645884868055031 -0.32828649899336809 0 -0.087425414199380921 -0.34832665002097352 0 -0.095645884868055031 -0.32828649899336809 0 -0.085567586486708147 -0.32885360293358618 0 -0.085761351552033599 -0.33677405880908889 0 -0.085567586486708147 -0.32885360293358618 0 -0.079084802234259025 -0.33512309866459011 0 -0.085761351552033599 -0.33677405880908889 0 -0.085567586486708147 -0.32885360293358618 0 -0.079084802234259025 -0.33512309866459011 0 -0.074289541263516154 -0.32056394488537282 0 -0.079084802234259025 -0.33512309866459011 0 -0.085761351552033599 -0.33677405880908889 0 -0.081083069971764857 -0.34328044343292669 0 -0.079084802234259025 -0.33512309866459011 0 -0.081083069971764857 -0.34328044343292669 0 -0.074504753600823745 -0.34030946153696462 0 -0.085761351552033599 -0.33677405880908889 0 -0.081083069971764857 -0.34328044343292669 0 -0.087425414199380921 -0.34832665002097352 0 -0.095645884868055031 -0.32828649899336809 0 -0.085567586486708147 -0.32885360293358618 0 -0.086980576865718584 -0.31885874608962461 0 -0.085567586486708147 -0.32885360293358618 0 -0.086980576865718584 -0.31885874608962461 0 -0.074289541263516154 -0.32056394488537282 0 -0.086980576865718584 -0.31885874608962461 0 -0.074289541263516154 -0.32056394488537282 0 -0.089762022752539583 -0.30635940025201808 0 -0.074289541263516154 -0.32056394488537282 0 -0.058801042559680633 -0.32485680876747292 0 -0.056474340990598927 -0.31312979120528711 0 -0.074289541263516154 -0.32056394488537282 0 -0.071682683659680654 -0.33707978077812017 0 -0.063232123810139707 -0.34292067003227028 0 -0.079084802234259025 -0.33512309866459011 0 -0.074289541263516154 -0.32056394488537282 0 -0.071682683659680654 -0.33707978077812017 0 -0.074289541263516154 -0.32056394488537282 0 -0.063232123810139707 -0.34292067003227028 0 -0.074289541263516154 -0.32056394488537282 0 -0.063232123810139707 -0.34292067003227028 0 -0.058801042559680633 -0.32485680876747292 0 -0.081083069971764857 -0.34328044343292669 0 -0.074504753600823745 -0.34030946153696462 0 -0.066168458537590832 -0.34575452327222111 0 -0.071682683659680654 -0.33707978077812017 0 -0.074504753600823745 -0.34030946153696462 0 -0.066168458537590832 -0.34575452327222111 0 -0.079084802234259025 -0.33512309866459011 0 -0.071682683659680654 -0.33707978077812017 0 -0.074504753600823745 -0.34030946153696462 0 -0.071682683659680654 -0.33707978077812017 0 -0.063232123810139707 -0.34292067003227028 0 -0.066168458537590832 -0.34575452327222111 0 -0.066168458537590832 -0.34575452327222111 0 -0.087768183680838566 -0.35033431631796258 0 -0.079962942158637224 -0.35906756341628732 0 -0.063232123810139707 -0.34292067003227028 0 -0.062242260428758162 -0.34492205088306821 0 -0.066168458537590832 -0.34575452327222111 0 -0.062242260428758162 -0.34492205088306821 0 -0.066168458537590832 -0.34575452327222111 0 -0.087768183680838566 -0.35033431631796258 0 -0.063232123810139707 -0.34292067003227028 0 -0.066168458537590832 -0.34575452327222111 0 -0.062242260428758162 -0.34492205088306821 0 -0.066168458537590832 -0.34575452327222111 0 -0.06473883243905186 -0.35850994090928262 0 -0.062242260428758162 -0.34492205088306821 0 -0.063232123810139707 -0.34292067003227028 0 -0.066168458537590832 -0.34575452327222111 0 -0.066168458537590832 -0.34575452327222111 0 -0.079962942158637224 -0.35906756341628732 0 -0.066168458537590832 -0.34575452327222111 0 -0.06473883243905186 -0.35850994090928262 0 -0.079962942158637224 -0.35906756341628732 0 -0.077815595775412041 -0.36764668007232021 0 -0.07887718526358084 -0.37282277065539648 0 -0.062751526250404199 -0.37832533367375543 0 -0.079962942158637224 -0.35906756341628732 0 -0.062751526250404199 -0.37832533367375543 0 -0.06473883243905186 -0.35850994090928262 0 -0.079962942158637224 -0.35906756341628732 0 -0.062751526250404199 -0.37832533367375543 0 -0.077815595775412041 -0.36764668007232021 0 -0.079962942158637224 -0.35906756341628732 0 -0.062751526250404199 -0.37832533367375543 0 -0.077815595775412041 -0.36764668007232021 0 -0.082314250476618486 -0.36133680834696369 0 -0.079962942158637224 -0.35906756341628732 0 -0.082314250476618486 -0.36133680834696369 0 -0.079962942158637224 -0.35906756341628732 0 -0.077815595775412041 -0.36764668007232021 0 -0.085172074727821234 -0.36668092426919902 0 -0.082314250476618486 -0.36133680834696369 0 -0.077815595775412041 -0.36764668007232021 0 -0.085172074727821234 -0.36668092426919902 0 -0.07887718526358084 -0.37282277065539648 0 -0.085172074727821234 -0.36668092426919902 0 -0.07887718526358084 -0.37282277065539648 0 -0.086433069497042922 -0.37127038962468989 0 -0.07887718526358084 -0.37282277065539648 0 -0.086433069497042922 -0.37127038962468989 0 -0.082423688523432181 -0.37599393094139899 0 -0.086433069497042922 -0.37127038962468989 0 -0.090778984470310006 -0.36881211143191878 0 -0.09170418859124331 -0.37475424945023372 0 -0.085172074727821234 -0.36668092426919902 0 -0.086433069497042922 -0.37127038962468989 0 -0.090778984470310006 -0.36881211143191878 0 -0.096303434710918706 -0.36926960263172282 0 -0.090778984470310006 -0.36881211143191878 0 -0.09170418859124331 -0.37475424945023372 0 -0.085172074727821234 -0.36668092426919902 0 -0.082314250476618486 -0.36133680834696369 0 -0.092208667382025822 -0.36286807335327859 0 -0.085172074727821234 -0.36668092426919902 0 -0.090778984470310006 -0.36881211143191878 0 -0.092208667382025822 -0.36286807335327859 0 -0.096303434710918706 -0.36926960263172282 0 -0.090778984470310006 -0.36881211143191878 0 -0.092208667382025822 -0.36286807335327859 0 -0.082314250476618486 -0.36133680834696369 0 -0.092208667382025822 -0.36286807335327859 0 -0.087768183680838566 -0.35033431631796258 0 -0.081083069971764857 -0.34328044343292669 0 -0.066168458537590832 -0.34575452327222111 0 -0.087768183680838566 -0.35033431631796258 0 -0.081083069971764857 -0.34328044343292669 0 -0.087768183680838566 -0.35033431631796258 0 -0.087425414199380921 -0.34832665002097352 0 -0.082314250476618486 -0.36133680834696369 0 -0.087768183680838566 -0.35033431631796258 0 -0.079962942158637224 -0.35906756341628732 0 -0.087768183680838566 -0.35033431631796258 0 -0.079962942158637224 -0.35906756341628732 0 -0.1121542073996878 -0.2715993508502208 0 -0.1025604261618195 -0.2482783233104294 0 -0.09669325247323482 -0.26481078095440042 0 -0.1121542073996878 -0.2715993508502208 0 -0.1025604261618195 -0.2482783233104294 0 -0.1121542073996878 -0.2715993508502208 0 -0.12819177684182431 -0.24894498476986929 0 -0.121861598733736 -0.26437691445257527 0 -0.1121542073996878 -0.2715993508502208 0 -0.12819177684182431 -0.24894498476986929 0 -0.1121542073996878 -0.2715993508502208 0 -0.1025604261618195 -0.2482783233104294 0 -0.12819177684182431 -0.24894498476986929 0 -0.121861598733736 -0.26437691445257527 0 -0.1121542073996878 -0.2715993508502208 0 -0.11553142062565359 -0.27980884413528367 0 -0.1121542073996878 -0.2715993508502208 0 -0.11553142062565359 -0.27980884413528367 0 -0.11208682620540369 -0.28820619693815752 0 -0.13361501055623981 -0.27070075693174911 0 -0.11553142062565359 -0.27980884413528367 0 -0.1172565847514152 -0.28400245654834982 0 -0.13361501055623981 -0.27070075693174911 0 -0.121861598733736 -0.26437691445257527 0 -0.11553142062565359 -0.27980884413528367 0 -0.121861598733736 -0.26437691445257527 0 -0.11553142062565359 -0.27980884413528367 0 -0.1121542073996878 -0.2715993508502208 0 -0.11553142062565359 -0.27980884413528367 0 -0.09669325247323482 -0.26481078095440042 0 -0.1121542073996878 -0.2715993508502208 0 -0.097976797628347254 -0.28008394263712511 0 -0.1121542073996878 -0.2715993508502208 0 -0.094685613540958752 -0.296275154849859 0 -0.097976797628347254 -0.28008394263712511 0 -0.094685613540958752 -0.296275154849859 0 -0.090796882164410952 -0.28979837299862221 0 -0.1121542073996878 -0.2715993508502208 0 -0.094685613540958752 -0.296275154849859 0 -0.11208682620540369 -0.28820619693815752 0 -0.1121542073996878 -0.2715993508502208 0 -0.097976797628347254 -0.28008394263712511 0 -0.094685613540958752 -0.296275154849859 0 -0.1266480885373921 -0.30683177827274472 0 -0.1172565847514152 -0.28400245654834982 0 -0.11553142062565359 -0.27980884413528367 0 -0.11208682620540369 -0.28820619693815752 0 -0.1172565847514152 -0.28400245654834982 0 -0.11553142062565359 -0.27980884413528367 0 -0.11208682620540369 -0.28820619693815752 0 -0.1266480885373921 -0.30683177827274472 0 -0.1297093174246127 -0.28798828505564261 0 -0.1172565847514152 -0.28400245654834982 0 -0.1266480885373921 -0.30683177827274472 0 -0.11208682620540369 -0.28820619693815752 0 -0.1172565847514152 -0.28400245654834982 0 -0.11208682620540369 -0.28820619693815752 0 -0.1172565847514152 -0.28400245654834982 0 -0.11553142062565359 -0.27980884413528367 0 -0.1172565847514152 -0.28400245654834982 0 -0.1266480885373921 -0.30683177827274472 0 -0.11208682620540369 -0.28820619693815752 0 -0.1038663555367291 -0.30824634796576272 0 -0.11208682620540369 -0.28820619693815752 0 -0.089762022752539583 -0.30635940025201808 0 -0.11208682620540369 -0.28820619693815752 0 -0.1038663555367291 -0.30824634796576272 0 -0.11208682620540369 -0.28820619693815752 0 -0.1038663555367291 -0.30824634796576272 0 -0.089762022752539583 -0.30635940025201808 0 -0.094685613540958752 -0.296275154849859 0 -0.11208682620540369 -0.28820619693815752 0 -0.089762022752539583 -0.30635940025201808 0 -0.074289541263516154 -0.32056394488537282 0 -0.089762022752539583 -0.30635940025201808 0 -0.085346958716893934 -0.29820721973847603 0 -0.074289541263516154 -0.32056394488537282 0 -0.085346958716893934 -0.29820721973847603 0 -0.086980576865718584 -0.31885874608962461 0 -0.1038663555367291 -0.30824634796576272 0 -0.089762022752539583 -0.30635940025201808 0 -0.094685613540958752 -0.296275154849859 0 -0.089762022752539583 -0.30635940025201808 0 -0.085346958716893934 -0.29820721973847603 0 -0.074289541263516154 -0.32056394488537282 0 -0.067631059691170989 -0.30342039294635692 0 -0.056474340990598927 -0.31312979120528711 0 -0.074289541263516154 -0.32056394488537282 0 -0.085346958716893934 -0.29820721973847603 0 -0.067631059691170989 -0.30342039294635692 0 -0.085346958716893934 -0.29820721973847603 0 -0.067631059691170989 -0.30342039294635692 0 -0.074771548121531653 -0.2920758335030253 0 -0.067631059691170989 -0.30342039294635692 0 -0.074771548121531653 -0.2920758335030253 0 -0.063662980896072918 -0.29080886794779492 0 -0.063662980896072918 -0.29080886794779492 0 -0.072092067043977817 -0.2816842501083402 0 -0.060122047410343098 -0.27849743138245531 0 -0.074771548121531653 -0.2920758335030253 0 -0.063662980896072918 -0.29080886794779492 0 -0.072092067043977817 -0.2816842501083402 0 -0.074771548121531653 -0.2920758335030253 0 -0.072092067043977817 -0.2816842501083402 0 -0.085178158771443871 -0.28462717476902871 0 -0.085346958716893934 -0.29820721973847603 0 -0.074771548121531653 -0.2920758335030253 0 -0.085178158771443871 -0.28462717476902871 0 -0.085346958716893934 -0.29820721973847603 0 -0.085178158771443871 -0.28462717476902871 0 -0.090796882164410952 -0.28979837299862221 0 -0.094685613540958752 -0.296275154849859 0 -0.085346958716893934 -0.29820721973847603 0 -0.090796882164410952 -0.28979837299862221 0 -0.097976797628347254 -0.28008394263712511 0 -0.085178158771443871 -0.28462717476902871 0 -0.090796882164410952 -0.28979837299862221 0 -0.097976797628347254 -0.28008394263712511 0 -0.085178158771443871 -0.28462717476902871 0 -0.083036670578529204 -0.27209629235331922 0 -0.09669325247323482 -0.26481078095440042 0 -0.097976797628347254 -0.28008394263712511 0 -0.083036670578529204 -0.27209629235331922 0 -0.072092067043977817 -0.2816842501083402 0 -0.085178158771443871 -0.28462717476902871 0 -0.083036670578529204 -0.27209629235331922 0 -0.072092067043977817 -0.2816842501083402 0 -0.083036670578529204 -0.27209629235331922 0 -0.06611843240175154 -0.26686717308387181 0 -0.072092067043977817 -0.2816842501083402 0 -0.06611843240175154 -0.26686717308387181 0 -0.060122047410343098 -0.27849743138245531 0 -0.083036670578529204 -0.27209629235331922 0 -0.06611843240175154 -0.26686717308387181 0 -0.080531721842994633 -0.25208092119179187 0 -0.06611843240175154 -0.26686717308387181 0 -0.080531721842994633 -0.25208092119179187 0 -0.059907734871856383 -0.25358386582936943 0 -0.09669325247323482 -0.26481078095440042 0 -0.083036670578529204 -0.27209629235331922 0 -0.080531721842994633 -0.25208092119179187 0 -0.09669325247323482 -0.26481078095440042 0 -0.080531721842994633 -0.25208092119179187 0 -0.1025604261618195 -0.2482783233104294 0 -0.04758010002194131 -0.26697144668102513 0 -0.02292807286578331 -0.26740826531434658 0 -0.039216731753743531 -0.24634742686988781 0 -0.06611843240175154 -0.26686717308387181 0 -0.059907734871856383 -0.25358386582936943 0 -0.04758010002194131 -0.26697144668102513 0 -0.059907734871856383 -0.25358386582936943 0 -0.04758010002194131 -0.26697144668102513 0 -0.039216731753743531 -0.24634742686988781 0 -0.06611843240175154 -0.26686717308387181 0 -0.04758010002194131 -0.26697144668102513 0 -0.060122047410343098 -0.27849743138245531 0 -0.04758010002194131 -0.26697144668102513 0 -0.060122047410343098 -0.27849743138245531 0 -0.048317380422929733 -0.27921834707164678 0 -0.04758010002194131 -0.26697144668102513 0 -0.037154013838091367 -0.2754836565721453 0 -0.02292807286578331 -0.26740826531434658 0 -0.048317380422929733 -0.27921834707164678 0 -0.037154013838091367 -0.2754836565721453 0 -0.043773435657343283 -0.28569252233732301 0 -0.04758010002194131 -0.26697144668102513 0 -0.048317380422929733 -0.27921834707164678 0 -0.037154013838091367 -0.2754836565721453 0 -0.037154013838091367 -0.2754836565721453 0 -0.03316254253218482 -0.28827800708662071 0 -0.029146982402395601 -0.2793135859545588 0 -0.037154013838091367 -0.2754836565721453 0 -0.03316254253218482 -0.28827800708662071 0 -0.043773435657343283 -0.28569252233732301 0 -0.03316254253218482 -0.28827800708662071 0 -0.043436254050924911 -0.29447747708732491 0 -0.034370574234235507 -0.29817308091343281 0 -0.03316254253218482 -0.28827800708662071 0 -0.043436254050924911 -0.29447747708732491 0 -0.043773435657343283 -0.28569252233732301 0 -0.043436254050924911 -0.29447747708732491 0 -0.043773435657343283 -0.28569252233732301 0 -0.052957305186929607 -0.28944667838528559 0 -0.048317380422929733 -0.27921834707164678 0 -0.043773435657343283 -0.28569252233732301 0 -0.052957305186929607 -0.28944667838528559 0 -0.060122047410343098 -0.27849743138245531 0 -0.048317380422929733 -0.27921834707164678 0 -0.052957305186929607 -0.28944667838528559 0 -0.063662980896072918 -0.29080886794779492 0 -0.060122047410343098 -0.27849743138245531 0 -0.052957305186929607 -0.28944667838528559 0 -0.063662980896072918 -0.29080886794779492 0 -0.052957305186929607 -0.28944667838528559 0 -0.054403857922484387 -0.29972862136130651 0 -0.043436254050924911 -0.29447747708732491 0 -0.052957305186929607 -0.28944667838528559 0 -0.054403857922484387 -0.29972862136130651 0 -0.067631059691170989 -0.30342039294635692 0 -0.063662980896072918 -0.29080886794779492 0 -0.054403857922484387 -0.29972862136130651 0 -0.067631059691170989 -0.30342039294635692 0 -0.054403857922484387 -0.29972862136130651 0 -0.056474340990598927 -0.31312979120528711 0 -0.054403857922484387 -0.29972862136130651 0 -0.041949808772371838 -0.30554595243998101 0 -0.056474340990598927 -0.31312979120528711 0 -0.041949808772371838 -0.30554595243998101 0 -0.022572209946963701 -0.30367983431959211 0 -0.042902166878551883 -0.32330025217593111 0 -0.041949808772371838 -0.30554595243998101 0 -0.034370574234235507 -0.29817308091343281 0 -0.022572209946963701 -0.30367983431959211 0 -0.043436254050924911 -0.29447747708732491 0 -0.054403857922484387 -0.29972862136130651 0 -0.041949808772371838 -0.30554595243998101 0 -0.043436254050924911 -0.29447747708732491 0 -0.041949808772371838 -0.30554595243998101 0 -0.034370574234235507 -0.29817308091343281 0 -0.022572209946963701 -0.30367983431959211 0 -0.0087140230460490305 -0.28578668486097458 0 0.0055000267736837923 -0.30416510440760391 0 -0.022572209946963701 -0.30367983431959211 0 -0.0086654064182359533 -0.31520438646457583 0 0.0055000267736837923 -0.30416510440760391 0 -0.0087140230460490305 -0.28578668486097458 0 0.0055000267736837923 -0.30416510440760391 0 -0.022572209946963701 -0.30367983431959211 0 -0.0087140230460490305 -0.28578668486097458 0 -0.02154754563683528 -0.28348014691258577 0 -0.03316254253218482 -0.28827800708662071 0 -0.022572209946963701 -0.30367983431959211 0 -0.02154754563683528 -0.28348014691258577 0 -0.03316254253218482 -0.28827800708662071 0 -0.034370574234235507 -0.29817308091343281 0 -0.022572209946963701 -0.30367983431959211 0 -0.03316254253218482 -0.28827800708662071 0 -0.02154754563683528 -0.28348014691258577 0 -0.029146982402395601 -0.2793135859545588 0 -0.02154754563683528 -0.28348014691258577 0 -0.024992697691995278 -0.27090436277351942 0 -0.02292807286578331 -0.26740826531434658 0 -0.0087140230460490305 -0.28578668486097458 0 -0.02154754563683528 -0.28348014691258577 0 -0.02292807286578331 -0.26740826531434658 0 -0.0087140230460490305 -0.28578668486097458 0 -0.02292807286578331 -0.26740826531434658 0 -0.037154013838091367 -0.2754836565721453 0 -0.029146982402395601 -0.2793135859545588 0 -0.024992697691995278 -0.27090436277351942 0 -0.02154754563683528 -0.28348014691258577 0 -0.029146982402395601 -0.2793135859545588 0 -0.024992697691995278 -0.27090436277351942 0 -0.037154013838091367 -0.2754836565721453 0 -0.024992697691995278 -0.27090436277351942 0 -0.02292807286578331 -0.26740826531434658 0 -0.024992697691995278 -0.27090436277351942 0 -0.02292807286578331 -0.26740826531434658 0 -0.0087140230460490305 -0.28578668486097458 0 -0.0020017659465921839 -0.27159086301835061 0 0.0094597798947050598 -0.28384100493433162 0 -0.0087140230460490305 -0.28578668486097458 0 -0.0020017659465921839 -0.27159086301835061 0 -0.011720451869111319 -0.26704156771226578 0 -0.0087140230460490305 -0.28578668486097458 0 -0.02292807286578331 -0.26740826531434658 0 -0.011720451869111319 -0.26704156771226578 0 -0.0020017659465921839 -0.27159086301835061 0 -0.011720451869111319 -0.26704156771226578 0 -0.0059159562260601289 -0.26422393125684662 0 -0.011720451869111319 -0.26704156771226578 0 -0.010357037894436989 -0.25783233165809932 0 -0.015956939140542959 -0.25560381416417222 0 -0.011720451869111319 -0.26704156771226578 0 -0.010357037894436989 -0.25783233165809932 0 -0.0059159562260601289 -0.26422393125684662 0 -0.0020017659465921839 -0.27159086301835061 0 -0.0059159562260601289 -0.26422393125684662 0 0.00041543080589997669 -0.26043096263867072 0 -0.010357037894436989 -0.25783233165809932 0 -0.0059159562260601289 -0.26422393125684662 0 0.00041543080589997669 -0.26043096263867072 0 -0.010357037894436989 -0.25783233165809932 0 -0.0047016210016195704 -0.25173395998470488 0 0.00041543080589997669 -0.26043096263867072 0 -0.010357037894436989 -0.25783233165809932 0 -0.0047016210016195704 -0.25173395998470488 0 -0.015956939140542959 -0.25560381416417222 0 -0.010357037894436989 -0.25783233165809932 0 -0.015956939140542959 -0.25560381416417222 0 -0.02292807286578331 -0.26740826531434658 0 -0.015956939140542959 -0.25560381416417222 0 -0.039216731753743531 -0.24634742686988781 0 -0.02292807286578331 -0.26740826531434658 0 -0.039216731753743531 -0.24634742686988781 0 -0.015956939140542959 -0.25560381416417222 0 -0.039216731753743531 -0.24634742686988781 0 -0.02292807286578331 -0.26740826531434658 0 -0.011720451869111319 -0.26704156771226578 0 -0.015956939140542959 -0.25560381416417222 0 -0.02292807286578331 -0.26740826531434658 0 -0.015956939140542959 -0.25560381416417222 0 -0.043154497728766443 -0.35167947494775648 0 -0.033740020637661468 -0.33887871659443081 0 -0.029942928271110829 -0.35570018398219549 0 -0.043154497728766443 -0.35167947494775648 0 -0.062242260428758162 -0.34492205088306821 0 -0.033740020637661468 -0.33887871659443081 0 -0.043154497728766443 -0.35167947494775648 0 -0.033740020637661468 -0.33887871659443081 0 -0.043154497728766443 -0.35167947494775648 0 -0.037512105415109478 -0.3647225137513358 0 -0.029942928271110829 -0.35570018398219549 0 -0.037512105415109478 -0.3647225137513358 0 -0.029942928271110829 -0.35570018398219549 0 -0.029470547382482452 -0.36439101424203252 0 -0.037512105415109478 -0.3647225137513358 0 -0.030089328327550829 -0.37279015617983319 0 -0.029470547382482452 -0.36439101424203252 0 -0.037512105415109478 -0.3647225137513358 0 -0.030089328327550829 -0.37279015617983319 0 -0.040340454648902353 -0.37738193213263821 0 -0.037512105415109478 -0.3647225137513358 0 -0.045387733796531278 -0.37093442657650272 0 -0.040340454648902353 -0.37738193213263821 0 -0.045387733796531278 -0.37093442657650272 0 -0.046454272505094929 -0.36452367830669241 0 -0.048695181235109131 -0.36868118660198879 0 -0.037512105415109478 -0.3647225137513358 0 -0.045387733796531278 -0.37093442657650272 0 -0.046454272505094929 -0.36452367830669241 0 -0.043154497728766443 -0.35167947494775648 0 -0.037512105415109478 -0.3647225137513358 0 -0.046454272505094929 -0.36452367830669241 0 -0.043154497728766443 -0.35167947494775648 0 -0.046454272505094929 -0.36452367830669241 0 -0.052568974819871592 -0.36448023330108209 0 -0.06473883243905186 -0.35850994090928262 0 -0.052568974819871592 -0.36448023330108209 0 -0.062751526250404199 -0.37832533367375543 0 -0.046454272505094929 -0.36452367830669241 0 -0.051625327524150139 -0.36638817096510201 0 -0.048695181235109131 -0.36868118660198879 0 -0.046454272505094929 -0.36452367830669241 0 -0.052568974819871592 -0.36448023330108209 0 -0.051625327524150139 -0.36638817096510201 0 -0.052568974819871592 -0.36448023330108209 0 -0.051625327524150139 -0.36638817096510201 0 -0.045387733796531278 -0.37093442657650272 0 -0.051662487897009002 -0.37246876864544098 0 -0.050070856167817951 -0.37775866171347028 0 -0.045387733796531278 -0.37093442657650272 0 -0.048695181235109131 -0.36868118660198879 0 -0.051662487897009002 -0.37246876864544098 0 -0.051625327524150139 -0.36638817096510201 0 -0.048695181235109131 -0.36868118660198879 0 -0.051662487897009002 -0.37246876864544098 0 -0.052568974819871592 -0.36448023330108209 0 -0.062751526250404199 -0.37832533367375543 0 -0.052568974819871592 -0.36448023330108209 0 -0.051625327524150139 -0.36638817096510201 0 -0.062751526250404199 -0.37832533367375543 0 -0.051625327524150139 -0.36638817096510201 0 -0.051662487897009002 -0.37246876864544098 0 -0.062751526250404199 -0.37832533367375543 0 -0.043154497728766443 -0.35167947494775648 0 -0.052568974819871592 -0.36448023330108209 0 -0.062242260428758162 -0.34492205088306821 0 -0.06473883243905186 -0.35850994090928262 0 -0.052568974819871592 -0.36448023330108209 0 -0.062242260428758162 -0.34492205088306821 0 -0.052568974819871592 -0.36448023330108209 0 -0.062242260428758162 -0.34492205088306821 0 -0.043154497728766443 -0.35167947494775648 0 -0.052568974819871592 -0.36448023330108209 0 -0.062242260428758162 -0.34492205088306821 0 -0.033740020637661468 -0.33887871659443081 0 -0.063232123810139707 -0.34292067003227028 0 -0.062242260428758162 -0.34492205088306821 0 -0.042902166878551883 -0.32330025217593111 0 -0.063232123810139707 -0.34292067003227028 0 -0.058801042559680633 -0.32485680876747292 0 -0.042902166878551883 -0.32330025217593111 0 -0.063232123810139707 -0.34292067003227028 0 -0.042902166878551883 -0.32330025217593111 0 -0.041949808772371838 -0.30554595243998101 0 -0.056474340990598927 -0.31312979120528711 0 -0.042902166878551883 -0.32330025217593111 0 -0.058801042559680633 -0.32485680876747292 0 -0.056474340990598927 -0.31312979120528711 0 -0.042902166878551883 -0.32330025217593111 0 -0.022572209946963701 -0.30367983431959211 0 -0.042902166878551883 -0.32330025217593111 0 -0.062242260428758162 -0.34492205088306821 0 -0.042902166878551883 -0.32330025217593111 0 -0.033740020637661468 -0.33887871659443081 0 -0.042902166878551883 -0.32330025217593111 0 -0.033740020637661468 -0.33887871659443081 0 -0.023630421547764419 -0.32513280869678918 0 -0.033740020637661468 -0.33887871659443081 0 -0.023630421547764419 -0.32513280869678918 0 -0.0050679514727439978 -0.33279937335753129 0 -0.033740020637661468 -0.33887871659443081 0 -0.0050679514727439978 -0.33279937335753129 0 -0.016576861794014401 -0.34964098402885979 0 -0.033740020637661468 -0.33887871659443081 0 -0.0050679514727439978 -0.33279937335753129 0 -0.033740020637661468 -0.33887871659443081 0 -0.023630421547764419 -0.32513280869678918 0 -0.022572209946963701 -0.30367983431959211 0 -0.042902166878551883 -0.32330025217593111 0 -0.023630421547764419 -0.32513280869678918 0 -0.022572209946963701 -0.30367983431959211 0 -0.023630421547764419 -0.32513280869678918 0 -0.0086654064182359533 -0.31520438646457583 0 -0.023630421547764419 -0.32513280869678918 0 -0.0086654064182359533 -0.31520438646457583 0 -0.0050679514727439978 -0.33279937335753129 0 -0.0050679514727439978 -0.33279937335753129 0 -0.00033193637978440549 -0.35550806257424278 0 -0.016576861794014401 -0.34964098402885979 0 -0.00033193637978440549 -0.35550806257424278 0 -0.016576861794014401 -0.34964098402885979 0 -0.0096049736060697718 -0.36331410797041219 0 -0.016576861794014401 -0.34964098402885979 0 -0.02033782751615866 -0.3643512030547652 0 -0.0096049736060697718 -0.36331410797041219 0 -0.033740020637661468 -0.33887871659443081 0 -0.016576861794014401 -0.34964098402885979 0 -0.029942928271110829 -0.35570018398219549 0 -0.016576861794014401 -0.34964098402885979 0 -0.029942928271110829 -0.35570018398219549 0 -0.02033782751615866 -0.3643512030547652 0 -0.030089328327550829 -0.37279015617983319 0 -0.02033782751615866 -0.3643512030547652 0 -0.020959585620892399 -0.37601044712345483 0 -0.030089328327550829 -0.37279015617983319 0 -0.029470547382482452 -0.36439101424203252 0 -0.02033782751615866 -0.3643512030547652 0 -0.029942928271110829 -0.35570018398219549 0 -0.029470547382482452 -0.36439101424203252 0 -0.02033782751615866 -0.3643512030547652 0 -0.02033782751615866 -0.3643512030547652 0 -0.011213659715318579 -0.37495446852110509 0 -0.020959585620892399 -0.37601044712345483 0 -0.02033782751615866 -0.3643512030547652 0 -0.011213659715318579 -0.37495446852110509 0 -0.0096049736060697718 -0.36331410797041219 0 -0.00033193637978440549 -0.35550806257424278 0 -0.0096049736060697718 -0.36331410797041219 0 -0.00090162243785839714 -0.37373143921095381 0 -0.011213659715318579 -0.37495446852110509 0 -0.0096049736060697718 -0.36331410797041219 0 -0.00090162243785839714 -0.37373143921095381 0 -0.011213659715318579 -0.37495446852110509 0 -0.00090162243785839714 -0.37373143921095381 0 -0.0048278438730617636 -0.38549788728395212 0 -0.0048278438730617636 -0.38549788728395212 0 -0.0090285280557712774 -0.39327162802317439 0 -0.0048278438730617636 -0.38549788728395212 0 -0.0090285280557712774 -0.39327162802317439 0 -0.018232098652556601 -0.384257830345062 0 -0.011213659715318579 -0.37495446852110509 0 -0.0048278438730617636 -0.38549788728395212 0 -0.018232098652556601 -0.384257830345062 0 -0.0048278438730617636 -0.38549788728395212 0 -0.0090285280557712774 -0.39327162802317439 0 0.0079972801057326959 -0.39384444582011952 0 -0.0044778900550653984 -0.40582720601515382 0 -0.0090285280557712774 -0.39327162802317439 0 -0.0202146315511906 -0.41397251023027343 0 -0.0090285280557712774 -0.39327162802317439 0 -0.0202146315511906 -0.41397251023027343 0 -0.0090285280557712774 -0.39327162802317439 0 0.0079972801057326959 -0.39384444582011952 0 -0.0044778900550653984 -0.40582720601515382 0 -0.0090285280557712774 -0.39327162802317439 0 0.0079972801057326959 -0.39384444582011952 0 -0.0090285280557712774 -0.39327162802317439 0 -0.021285154214624388 -0.40002128379464202 0 -0.0202146315511906 -0.41397251023027343 0 -0.0090285280557712774 -0.39327162802317439 0 -0.033060406064815091 -0.39246309739208718 0 -0.021285154214624388 -0.40002128379464202 0 -0.045509194620815353 -0.40162318610240177 0 -0.0202146315511906 -0.41397251023027343 0 -0.0090285280557712774 -0.39327162802317439 0 -0.021285154214624388 -0.40002128379464202 0 -0.033060406064815091 -0.39246309739208718 0 -0.0090285280557712774 -0.39327162802317439 0 -0.018232098652556601 -0.384257830345062 0 -0.033060406064815091 -0.39246309739208718 0 -0.020959585620892399 -0.37601044712345483 0 -0.018232098652556601 -0.384257830345062 0 -0.030573504802914819 -0.38132930989454239 0 -0.011213659715318579 -0.37495446852110509 0 -0.020959585620892399 -0.37601044712345483 0 -0.018232098652556601 -0.384257830345062 0 -0.018232098652556601 -0.384257830345062 0 -0.030573504802914819 -0.38132930989454239 0 -0.033060406064815091 -0.39246309739208718 0 -0.030089328327550829 -0.37279015617983319 0 -0.020959585620892399 -0.37601044712345483 0 -0.030573504802914819 -0.38132930989454239 0 -0.030573504802914819 -0.38132930989454239 0 -0.040340454648902353 -0.37738193213263821 0 -0.040759155502771642 -0.38507239619417882 0 -0.030089328327550829 -0.37279015617983319 0 -0.030573504802914819 -0.38132930989454239 0 -0.040340454648902353 -0.37738193213263821 0 -0.040759155502771642 -0.38507239619417882 0 -0.033060406064815091 -0.39246309739208718 0 -0.052950222105083912 -0.38929196561504631 0 -0.045387733796531278 -0.37093442657650272 0 -0.040340454648902353 -0.37738193213263821 0 -0.050070856167817951 -0.37775866171347028 0 -0.040340454648902353 -0.37738193213263821 0 -0.050070856167817951 -0.37775866171347028 0 -0.047142126109576382 -0.3828755321045238 0 -0.040340454648902353 -0.37738193213263821 0 -0.040759155502771642 -0.38507239619417882 0 -0.047142126109576382 -0.3828755321045238 0 -0.030573504802914819 -0.38132930989454239 0 -0.040759155502771642 -0.38507239619417882 0 -0.033060406064815091 -0.39246309739208718 0 -0.033060406064815091 -0.39246309739208718 0 -0.045509194620815353 -0.40162318610240177 0 -0.057092284073858912 -0.39165456676099969 0 -0.033060406064815091 -0.39246309739208718 0 -0.057092284073858912 -0.39165456676099969 0 -0.021285154214624388 -0.40002128379464202 0 -0.033060406064815091 -0.39246309739208718 0 -0.045509194620815353 -0.40162318610240177 0 -0.045509194620815353 -0.40162318610240177 0 -0.057092284073858912 -0.39165456676099969 0 -0.070803757690439395 -0.38927386197452879 0 -0.033060406064815091 -0.39246309739208718 0 -0.057092284073858912 -0.39165456676099969 0 -0.052950222105083912 -0.38929196561504631 0 -0.045509194620815353 -0.40162318610240177 0 -0.062419725773611628 -0.4097968157550832 0 -0.070803757690439395 -0.38927386197452879 0 -0.045509194620815353 -0.40162318610240177 0 -0.070803757690439395 -0.38927386197452879 0 -0.052950222105083912 -0.38929196561504631 0 -0.062751526250404199 -0.37832533367375543 0 -0.057092284073858912 -0.39165456676099969 0 -0.052950222105083912 -0.38929196561504631 0 -0.062751526250404199 -0.37832533367375543 0 -0.053202880335855442 -0.38239712915757779 0 -0.052950222105083912 -0.38929196561504631 0 -0.062751526250404199 -0.37832533367375543 0 -0.051662487897009002 -0.37246876864544098 0 -0.050070856167817951 -0.37775866171347028 0 -0.062751526250404199 -0.37832533367375543 0 -0.053202880335855442 -0.38239712915757779 0 -0.050070856167817951 -0.37775866171347028 0 -0.062751526250404199 -0.37832533367375543 0 -0.053202880335855442 -0.38239712915757779 0 -0.050070856167817951 -0.37775866171347028 0 -0.047142126109576382 -0.3828755321045238 0 -0.040759155502771642 -0.38507239619417882 0 -0.047142126109576382 -0.3828755321045238 0 -0.052950222105083912 -0.38929196561504631 0 -0.053202880335855442 -0.38239712915757779 0 -0.047142126109576382 -0.3828755321045238 0 -0.052950222105083912 -0.38929196561504631 0 -0.049765611488188512 -0.43257122473401571 0 -0.062419725773611628 -0.4097968157550832 0 -0.068472702146080991 -0.42768541382197489 0 -0.049765611488188512 -0.43257122473401571 0 -0.054239679448937081 -0.44991399512546909 0 -0.068472702146080991 -0.42768541382197489 0 -0.045509194620815353 -0.40162318610240177 0 -0.062419725773611628 -0.4097968157550832 0 -0.037848109257727157 -0.41801084867043409 0 -0.049765611488188512 -0.43257122473401571 0 -0.062419725773611628 -0.4097968157550832 0 -0.037848109257727157 -0.41801084867043409 0 -0.045509194620815353 -0.40162318610240177 0 -0.037848109257727157 -0.41801084867043409 0 -0.0202146315511906 -0.41397251023027343 0 -0.045509194620815353 -0.40162318610240177 0 -0.0202146315511906 -0.41397251023027343 0 -0.049765611488188512 -0.43257122473401571 0 -0.037848109257727157 -0.41801084867043409 0 -0.031563149944502468 -0.43497395569171138 0 -0.031563149944502468 -0.43497395569171138 0 -0.0202146315511906 -0.41397251023027343 0 -0.0128913587335699 -0.43987568739443877 0 -0.037848109257727157 -0.41801084867043409 0 -0.031563149944502468 -0.43497395569171138 0 -0.0202146315511906 -0.41397251023027343 0 -0.031563149944502468 -0.43497395569171138 0 -0.0202146315511906 -0.41397251023027343 0 -0.0202146315511906 -0.41397251023027343 0 0.0063040851001286702 -0.42691949122697609 0 0.0033343192809675952 -0.42222023998704789 0 -0.0044778900550653984 -0.40582720601515382 0 -0.0202146315511906 -0.41397251023027343 0 0.0033343192809675952 -0.42222023998704789 0 -0.0202146315511906 -0.41397251023027343 0 0.0063040851001286702 -0.42691949122697609 0 -0.0202146315511906 -0.41397251023027343 0 -0.0128913587335699 -0.43987568739443877 0 0.0063040851001286702 -0.42691949122697609 0 -0.0128913587335699 -0.43987568739443877 0 0.0063040851001286702 -0.42691949122697609 0 0.0024974619360900729 -0.45589828086453621 0 -0.0128913587335699 -0.43987568739443877 0 -0.013325937828159591 -0.45930513271169793 0 0.0024974619360900729 -0.45589828086453621 0 -0.013325937828159591 -0.45930513271169793 0 -0.0097576717567305835 -0.47872887805149228 0 0.0024974619360900729 -0.45589828086453621 0 -0.013325937828159591 -0.45930513271169793 0 -0.027791509726574449 -0.45426120030970119 0 -0.028960798037863961 -0.47433636588056222 0 -0.031563149944502468 -0.43497395569171138 0 -0.0128913587335699 -0.43987568739443877 0 -0.027791509726574449 -0.45426120030970119 0 -0.0128913587335699 -0.43987568739443877 0 -0.013325937828159591 -0.45930513271169793 0 -0.027791509726574449 -0.45426120030970119 0 -0.0051981344151861286 -0.5 0 -0.0097576717567305835 -0.47872887805149228 0 0.009853026158247763 -0.48113639848508782 0 -0.013325937828159591 -0.45930513271169793 0 -0.0097576717567305835 -0.47872887805149228 0 -0.028960798037863961 -0.47433636588056222 0 -0.0097576717567305835 -0.47872887805149228 0 -0.028960798037863961 -0.47433636588056222 0 -0.034895667703723147 -0.5 0 -0.0051981344151861286 -0.5 0 -0.0097576717567305835 -0.47872887805149228 0 -0.034895667703723147 -0.5 0 -0.028960798037863961 -0.47433636588056222 0 -0.034895667703723147 -0.5 0 -0.046872951798481673 -0.48370505530769309 0 -0.028960798037863961 -0.47433636588056222 0 -0.046872951798481673 -0.48370505530769309 0 -0.042402891830757669 -0.46944318241705618 0 -0.046872951798481673 -0.48370505530769309 0 -0.042402891830757669 -0.46944318241705618 0 -0.063512200427803256 -0.47474572824084732 0 -0.042402891830757669 -0.46944318241705618 0 -0.054257162239049611 -0.46252860179200511 0 -0.063512200427803256 -0.47474572824084732 0 -0.034895667703723147 -0.5 0 -0.046872951798481673 -0.48370505530769309 0 -0.064593200992260291 -0.5 0 -0.046872951798481673 -0.48370505530769309 0 -0.064593200992260291 -0.5 0 -0.063512200427803256 -0.47474572824084732 0 -0.031563149944502468 -0.43497395569171138 0 -0.042911668337814367 -0.45597540115314938 0 -0.049765611488188512 -0.43257122473401571 0 -0.031563149944502468 -0.43497395569171138 0 -0.042911668337814367 -0.45597540115314938 0 -0.031563149944502468 -0.43497395569171138 0 -0.027791509726574449 -0.45426120030970119 0 -0.042911668337814367 -0.45597540115314938 0 -0.027791509726574449 -0.45426120030970119 0 -0.028960798037863961 -0.47433636588056222 0 -0.042402891830757669 -0.46944318241705618 0 -0.027791509726574449 -0.45426120030970119 0 -0.042402891830757669 -0.46944318241705618 0 -0.042911668337814367 -0.45597540115314938 0 -0.042402891830757669 -0.46944318241705618 0 -0.042911668337814367 -0.45597540115314938 0 -0.054257162239049611 -0.46252860179200511 0 -0.042911668337814367 -0.45597540115314938 0 -0.054257162239049611 -0.46252860179200511 0 -0.054239679448937081 -0.44991399512546909 0 -0.054257162239049611 -0.46252860179200511 0 -0.054239679448937081 -0.44991399512546909 0 -0.072113098158668038 -0.45357370694950272 0 -0.054239679448937081 -0.44991399512546909 0 -0.068472702146080991 -0.42768541382197489 0 -0.049765611488188512 -0.43257122473401571 0 -0.042911668337814367 -0.45597540115314938 0 -0.054239679448937081 -0.44991399512546909 0 -0.072113098158668038 -0.45357370694950272 0 -0.085307942009700002 -0.44097415605452173 0 -0.068472702146080991 -0.42768541382197489 0 -0.054239679448937081 -0.44991399512546909 0 -0.072113098158668038 -0.45357370694950272 0 -0.068472702146080991 -0.42768541382197489 0 -0.054257162239049611 -0.46252860179200511 0 -0.072113098158668038 -0.45357370694950272 0 -0.063512200427803256 -0.47474572824084732 0 -0.072113098158668038 -0.45357370694950272 0 -0.087005175174228219 -0.46490301301896342 0 -0.063512200427803256 -0.47474572824084732 0 -0.072113098158668038 -0.45357370694950272 0 -0.087005175174228219 -0.46490301301896342 0 -0.085307942009700002 -0.44097415605452173 0 -0.087005175174228219 -0.46490301301896342 0 -0.085307942009700002 -0.44097415605452173 0 -0.097688322846575762 -0.45142231675535838 0 -0.064593200992260291 -0.5 0 -0.063512200427803256 -0.47474572824084732 0 -0.07929122726221402 -0.48465262397481179 0 -0.087005175174228219 -0.46490301301896342 0 -0.063512200427803256 -0.47474572824084732 0 -0.07929122726221402 -0.48465262397481179 0 -0.087005175174228219 -0.46490301301896342 0 -0.07929122726221402 -0.48465262397481179 0 -0.10712404725391279 -0.48242230695648158 0 -0.064593200992260291 -0.5 0 -0.07929122726221402 -0.48465262397481179 0 -0.094290734280797484 -0.5 0 -0.07929122726221402 -0.48465262397481179 0 -0.094290734280797484 -0.5 0 -0.10712404725391279 -0.48242230695648158 0 -0.094290734280797484 -0.5 0 -0.10712404725391279 -0.48242230695648158 0 -0.1239882675693347 -0.5 0 -0.087005175174228219 -0.46490301301896342 0 -0.10712404725391279 -0.48242230695648158 0 -0.1108112881995334 -0.4610497993950825 0 -0.1306504019030445 -0.47710726250788982 0 -0.10712404725391279 -0.48242230695648158 0 -0.1108112881995334 -0.4610497993950825 0 -0.1306504019030445 -0.47710726250788982 0 -0.10712404725391279 -0.48242230695648158 0 -0.1239882675693347 -0.5 0 -0.1065265399423726 -0.4378457262310721 0 -0.097688322846575762 -0.45142231675535838 0 -0.1108112881995334 -0.4610497993950825 0 -0.085307942009700002 -0.44097415605452173 0 -0.1065265399423726 -0.4378457262310721 0 -0.097688322846575762 -0.45142231675535838 0 -0.087005175174228219 -0.46490301301896342 0 -0.097688322846575762 -0.45142231675535838 0 -0.1108112881995334 -0.4610497993950825 0 -0.13337449039046359 -0.45534149403357199 0 -0.1306504019030445 -0.47710726250788982 0 -0.1108112881995334 -0.4610497993950825 0 -0.1065265399423726 -0.4378457262310721 0 -0.1108112881995334 -0.4610497993950825 0 -0.1223809996006878 -0.44295171606440931 0 -0.13337449039046359 -0.45534149403357199 0 -0.1108112881995334 -0.4610497993950825 0 -0.1223809996006878 -0.44295171606440931 0 -0.1065265399423726 -0.4378457262310721 0 -0.1211669532752216 -0.42679842267906809 0 -0.1062353276725635 -0.42002111979888168 0 -0.1065265399423726 -0.4378457262310721 0 -0.1223809996006878 -0.44295171606440931 0 -0.1211669532752216 -0.42679842267906809 0 -0.1211669532752216 -0.42679842267906809 0 -0.1062353276725635 -0.42002111979888168 0 -0.085307942009700002 -0.44097415605452173 0 -0.1065265399423726 -0.4378457262310721 0 -0.094616132392800367 -0.42165127937477692 0 -0.1065265399423726 -0.4378457262310721 0 -0.094616132392800367 -0.42165127937477692 0 -0.1062353276725635 -0.42002111979888168 0 -0.1065265399423726 -0.4378457262310721 0 -0.094616132392800367 -0.42165127937477692 0 -0.099488160362717765 -0.40898313196950042 0 -0.094616132392800367 -0.42165127937477692 0 -0.1062353276725635 -0.42002111979888168 0 -0.099488160362717765 -0.40898313196950042 0 -0.10815640531059161 -0.41011149258565271 0 -0.1081127048341631 -0.40018787505950931 0 -0.099488160362717765 -0.40898313196950042 0 -0.1062353276725635 -0.42002111979888168 0 -0.10815640531059161 -0.41011149258565271 0 -0.10815640531059161 -0.41011149258565271 0 -0.11878942837292231 -0.41125384351471928 0 -0.1081127048341631 -0.40018787505950931 0 -0.1062353276725635 -0.42002111979888168 0 -0.10815640531059161 -0.41011149258565271 0 -0.11878942837292231 -0.41125384351471928 0 -0.1211669532752216 -0.42679842267906809 0 -0.1062353276725635 -0.42002111979888168 0 -0.11878942837292231 -0.41125384351471928 0 -0.12361785996247571 -0.39568344747118372 0 -0.1082292009993585 -0.38770449748439212 0 -0.1081127048341631 -0.40018787505950931 0 -0.11878942837292231 -0.41125384351471928 0 -0.12361785996247571 -0.39568344747118372 0 -0.1081127048341631 -0.40018787505950931 0 -0.1299336665645533 -0.38523634039258559 0 -0.12361785996247571 -0.39568344747118372 0 -0.1206241736931566 -0.38051269136924559 0 -0.12361785996247571 -0.39568344747118372 0 -0.1206241736931566 -0.38051269136924559 0 -0.1082292009993585 -0.38770449748439212 0 -0.11686949349365119 -0.36992984763640291 0 -0.1206241736931566 -0.38051269136924559 0 -0.1104730580573271 -0.37818174545655298 0 -0.1206241736931566 -0.38051269136924559 0 -0.1104730580573271 -0.37818174545655298 0 -0.1082292009993585 -0.38770449748439212 0 -0.1086555563507164 -0.37340927348755248 0 -0.1104730580573271 -0.37818174545655298 0 -0.09666179956503744 -0.38366077779191171 0 -0.1082292009993585 -0.38770449748439212 0 -0.09666179956503744 -0.38366077779191171 0 -0.10255702645806659 -0.39221947305883498 0 -0.1104730580573271 -0.37818174545655298 0 -0.1082292009993585 -0.38770449748439212 0 -0.09666179956503744 -0.38366077779191171 0 -0.096303434710918706 -0.36926960263172282 0 -0.09170418859124331 -0.37475424945023372 0 -0.09666179956503744 -0.38366077779191171 0 -0.099488160362717765 -0.40898313196950042 0 -0.1081127048341631 -0.40018787505950931 0 -0.097224400433707336 -0.39732474189952699 0 -0.1082292009993585 -0.38770449748439212 0 -0.1081127048341631 -0.40018787505950931 0 -0.10255702645806659 -0.39221947305883498 0 -0.1081127048341631 -0.40018787505950931 0 -0.10255702645806659 -0.39221947305883498 0 -0.097224400433707336 -0.39732474189952699 0 -0.09666179956503744 -0.38366077779191171 0 -0.10255702645806659 -0.39221947305883498 0 -0.097224400433707336 -0.39732474189952699 0 -0.09666179956503744 -0.38366077779191171 0 -0.097224400433707336 -0.39732474189952699 0 -0.082705724843227343 -0.40545683251848252 0 -0.082705724843227343 -0.40545683251848252 0 -0.084108230847262183 -0.39065318711836178 0 -0.070803757690439395 -0.38927386197452879 0 -0.099488160362717765 -0.40898313196950042 0 -0.097224400433707336 -0.39732474189952699 0 -0.082705724843227343 -0.40545683251848252 0 -0.09666179956503744 -0.38366077779191171 0 -0.082705724843227343 -0.40545683251848252 0 -0.09666179956503744 -0.38366077779191171 0 -0.082705724843227343 -0.40545683251848252 0 -0.084108230847262183 -0.39065318711836178 0 -0.084108230847262183 -0.39065318711836178 0 -0.087911678162387041 -0.38092142455624428 0 -0.070803757690439395 -0.38927386197452879 0 -0.087911678162387041 -0.38092142455624428 0 -0.070803757690439395 -0.38927386197452879 0 -0.087911678162387041 -0.38092142455624428 0 -0.076472821170717908 -0.37896113892926547 0 -0.070803757690439395 -0.38927386197452879 0 -0.086433069497042922 -0.37127038962468989 0 -0.09170418859124331 -0.37475424945023372 0 -0.087911678162387041 -0.38092142455624428 0 -0.09170418859124331 -0.37475424945023372 0 -0.09666179956503744 -0.38366077779191171 0 -0.087911678162387041 -0.38092142455624428 0 -0.09666179956503744 -0.38366077779191171 0 -0.084108230847262183 -0.39065318711836178 0 -0.087911678162387041 -0.38092142455624428 0 -0.087911678162387041 -0.38092142455624428 0 -0.082423688523432181 -0.37599393094139899 0 -0.076472821170717908 -0.37896113892926547 0 -0.086433069497042922 -0.37127038962468989 0 -0.087911678162387041 -0.38092142455624428 0 -0.082423688523432181 -0.37599393094139899 0 -0.07887718526358084 -0.37282277065539648 0 -0.082423688523432181 -0.37599393094139899 0 -0.076472821170717908 -0.37896113892926547 0 -0.07887718526358084 -0.37282277065539648 0 -0.076472821170717908 -0.37896113892926547 0 -0.062751526250404199 -0.37832533367375543 0 -0.057092284073858912 -0.39165456676099969 0 -0.070803757690439395 -0.38927386197452879 0 -0.062751526250404199 -0.37832533367375543 0 -0.070803757690439395 -0.38927386197452879 0 -0.062751526250404199 -0.37832533367375543 0 -0.076472821170717908 -0.37896113892926547 0 -0.070803757690439395 -0.38927386197452879 0 -0.062751526250404199 -0.37832533367375543 0 -0.062419725773611628 -0.4097968157550832 0 -0.082705724843227343 -0.40545683251848252 0 -0.070803757690439395 -0.38927386197452879 0 -0.082705724843227343 -0.40545683251848252 0 -0.070803757690439395 -0.38927386197452879 0 -0.062419725773611628 -0.4097968157550832 0 -0.082705724843227343 -0.40545683251848252 0 -0.068472702146080991 -0.42768541382197489 0 -0.082705724843227343 -0.40545683251848252 0 -0.068472702146080991 -0.42768541382197489 0 -0.085307942009700002 -0.44097415605452173 0 -0.094616132392800367 -0.42165127937477692 0 -0.068472702146080991 -0.42768541382197489 0 -0.099488160362717765 -0.40898313196950042 0 -0.094616132392800367 -0.42165127937477692 0 -0.082705724843227343 -0.40545683251848252 0 -0.094616132392800367 -0.42165127937477692 0 -0.082705724843227343 -0.40545683251848252 0 -0.068472702146080991 -0.42768541382197489 0 -0.094616132392800367 -0.42165127937477692 0 -0.082705724843227343 -0.40545683251848252 0 -0.071226223886674975 -0.079376388511734064 0 -0.086936415113776186 -0.098446809490333659 0 -0.084394435181782274 -0.074357442025637668 0 -0.071226223886674975 -0.079376388511734064 0 -0.086936415113776186 -0.098446809490333659 0 -0.084394435181782274 -0.074357442025637668 0 -0.086936415113776186 -0.098446809490333659 0 -0.096824721738336353 -0.078883074132566303 0 -0.084394435181782274 -0.074357442025637668 0 -0.073606589264327157 -0.063662045567691339 0 -0.09030422092447013 -0.057943210277751039 0 -0.084394435181782274 -0.074357442025637668 0 -0.096824721738336353 -0.078883074132566303 0 -0.09030422092447013 -0.057943210277751039 0 -0.084394435181782274 -0.074357442025637668 0 -0.073606589264327157 -0.063662045567691339 0 -0.071226223886674975 -0.079376388511734064 0 -0.071226223886674975 -0.079376388511734064 0 -0.055516032659573868 -0.060305967533134601 0 -0.073606589264327157 -0.063662045567691339 0 -0.071226223886674975 -0.079376388511734064 0 -0.055516032659573868 -0.060305967533134601 0 -0.071226223886674975 -0.079376388511734064 0 -0.086936415113776186 -0.098446809490333659 0 -0.06138383334239509 -0.096655527658670748 0 -0.073585000515549379 -0.112358165045367 0 -0.086936415113776186 -0.098446809490333659 0 -0.06138383334239509 -0.096655527658670748 0 -0.073585000515549379 -0.112358165045367 0 -0.086936415113776186 -0.098446809490333659 0 -0.10264660634087699 -0.1175172304689335 0 -0.073585000515549379 -0.112358165045367 0 -0.10264660634087699 -0.1175172304689335 0 -0.073585000515549379 -0.112358165045367 0 -0.10264660634087699 -0.1175172304689335 0 -0.091648089326660867 -0.1296324825091433 0 -0.086936415113776186 -0.098446809490333659 0 -0.10264660634087699 -0.1175172304689335 0 -0.1042923830448433 -0.092556522199166782 0 -0.10264660634087699 -0.1175172304689335 0 -0.1140714126688743 -0.1011263159468043 0 -0.1042923830448433 -0.092556522199166782 0 -0.086936415113776186 -0.098446809490333659 0 -0.10264660634087699 -0.1175172304689335 0 -0.10264660634087699 -0.1175172304689335 0 -0.1077752784716432 -0.1237428667569367 0 -0.091648089326660867 -0.1296324825091433 0 -0.10264660634087699 -0.1175172304689335 0 -0.1077752784716432 -0.1237428667569367 0 -0.10264660634087699 -0.1175172304689335 0 -0.116150963050122 -0.1121628744091648 0 -0.11915644306988329 -0.120448084611313 0 -0.10264660634087699 -0.1175172304689335 0 -0.11915644306988329 -0.120448084611313 0 -0.10264660634087699 -0.1175172304689335 0 -0.116150963050122 -0.1121628744091648 0 -0.1140714126688743 -0.1011263159468043 0 -0.10264660634087699 -0.1175172304689335 0 -0.1077752784716432 -0.1237428667569367 0 -0.11915644306988329 -0.120448084611313 0 -0.116150963050122 -0.1121628744091648 0 -0.11915644306988329 -0.120448084611313 0 -0.12872939012085319 -0.1095598666096089 0 -0.1140714126688743 -0.1011263159468043 0 -0.1286965896263278 -0.09205412922696217 0 -0.12872939012085319 -0.1095598666096089 0 -0.116150963050122 -0.1121628744091648 0 -0.1140714126688743 -0.1011263159468043 0 -0.12872939012085319 -0.1095598666096089 0 -0.1140714126688743 -0.1011263159468043 0 -0.1167573649240712 -0.083794437496563789 0 -0.1286965896263278 -0.09205412922696217 0 -0.1167573649240712 -0.083794437496563789 0 -0.1289790153712333 -0.076043975646273576 0 -0.1286965896263278 -0.09205412922696217 0 -0.1140714126688743 -0.1011263159468043 0 -0.1167573649240712 -0.083794437496563789 0 -0.1042923830448433 -0.092556522199166782 0 -0.1167573649240712 -0.083794437496563789 0 -0.1042923830448433 -0.092556522199166782 0 -0.1075360622543951 -0.075655499205530927 0 -0.096824721738336353 -0.078883074132566303 0 -0.1042923830448433 -0.092556522199166782 0 -0.1075360622543951 -0.075655499205530927 0 -0.086936415113776186 -0.098446809490333659 0 -0.096824721738336353 -0.078883074132566303 0 -0.1042923830448433 -0.092556522199166782 0 -0.096824721738336353 -0.078883074132566303 0 -0.1075360622543951 -0.075655499205530927 0 -0.09030422092447013 -0.057943210277751039 0 -0.1075360622543951 -0.075655499205530927 0 -0.11555341067046911 -0.066297042139358733 0 -0.09030422092447013 -0.057943210277751039 0 -0.1167573649240712 -0.083794437496563789 0 -0.11555341067046911 -0.066297042139358733 0 -0.1289790153712333 -0.076043975646273576 0 -0.1167573649240712 -0.083794437496563789 0 -0.1075360622543951 -0.075655499205530927 0 -0.11555341067046911 -0.066297042139358733 0 -0.11555341067046911 -0.066297042139358733 0 -0.1289790153712333 -0.076043975646273576 0 -0.12919619153410361 -0.060953576210378183 0 -0.10773457577483669 -0.054534743924033728 0 -0.1322439895030865 -0.045301615088265711 0 -0.12919619153410361 -0.060953576210378183 0 -0.11555341067046911 -0.066297042139358733 0 -0.10773457577483669 -0.054534743924033728 0 -0.12919619153410361 -0.060953576210378183 0 -0.1113983148583543 -0.034767286670790792 0 -0.10773457577483669 -0.054534743924033728 0 -0.1322439895030865 -0.045301615088265711 0 -0.1113983148583543 -0.034767286670790792 0 -0.10773457577483669 -0.054534743924033728 0 -0.1113983148583543 -0.034767286670790792 0 -0.12548489126423831 -0.02026699362628535 0 -0.1322439895030865 -0.045301615088265711 0 -0.1113983148583543 -0.034767286670790792 0 -0.099028887857886438 -0.04208313078175558 0 -0.10773457577483669 -0.054534743924033728 0 -0.1113983148583543 -0.034767286670790792 0 -0.099028887857886438 -0.04208313078175558 0 -0.099829199523179368 -0.026937541448994521 0 -0.099028887857886438 -0.04208313078175558 0 -0.099829199523179368 -0.026937541448994521 0 -0.084390074019231612 -0.036683663121452117 0 -0.11555341067046911 -0.066297042139358733 0 -0.10773457577483669 -0.054534743924033728 0 -0.09030422092447013 -0.057943210277751039 0 -0.099028887857886438 -0.04208313078175558 0 -0.10773457577483669 -0.054534743924033728 0 -0.09030422092447013 -0.057943210277751039 0 -0.11555341067046911 -0.066297042139358733 0 -0.09030422092447013 -0.057943210277751039 0 -0.12548489126423831 -0.02026699362628535 0 -0.13075612475438511 0.0058251469333105909 0 -0.1187257930253897 0.0047676278356949004 0 -0.1150620539418718 -0.014999829417547879 0 -0.1187257930253897 0.0047676278356949004 0 -0.12548489126423831 -0.02026699362628535 0 -0.1187257930253897 0.0047676278356949004 0 -0.1150620539418718 -0.014999829417547879 0 -0.12548489126423831 -0.02026699362628535 0 -0.1187257930253897 0.0047676278356949004 0 -0.1150620539418718 -0.014999829417547879 0 -0.1080847925724896 -0.0035076659761076562 0 -0.1187257930253897 0.0047676278356949004 0 -0.1113983148583543 -0.034767286670790792 0 -0.1150620539418718 -0.014999829417547879 0 -0.12548489126423831 -0.02026699362628535 0 -0.1113983148583543 -0.034767286670790792 0 -0.1150620539418718 -0.014999829417547879 0 -0.1113983148583543 -0.034767286670790792 0 -0.1150620539418718 -0.014999829417547879 0 -0.099829199523179368 -0.026937541448994521 0 -0.099829199523179368 -0.026937541448994521 0 -0.099877611553048487 -0.01245673827465167 0 -0.08921825490868357 -0.020634600427769111 0 -0.1150620539418718 -0.014999829417547879 0 -0.099829199523179368 -0.026937541448994521 0 -0.099877611553048487 -0.01245673827465167 0 -0.1150620539418718 -0.014999829417547879 0 -0.099877611553048487 -0.01245673827465167 0 -0.1080847925724896 -0.0035076659761076562 0 -0.099877611553048487 -0.01245673827465167 0 -0.09890455170599273 -0.0017819155375923539 0 -0.088566819169513283 -0.0066273278737162856 0 -0.099877611553048487 -0.01245673827465167 0 -0.09890455170599273 -0.0017819155375923539 0 -0.1080847925724896 -0.0035076659761076562 0 -0.088566819169513283 -0.0066273278737162856 0 -0.077169453611826325 -0.012958056919535469 0 -0.077030558099442079 0.0017912276607506569 0 -0.09890455170599273 -0.0017819155375923539 0 -0.088566819169513283 -0.0066273278737162856 0 -0.089200485138086566 0.006276116256500229 0 -0.099877611553048487 -0.01245673827465167 0 -0.088566819169513283 -0.0066273278737162856 0 -0.08921825490868357 -0.020634600427769111 0 -0.088566819169513283 -0.0066273278737162856 0 -0.08921825490868357 -0.020634600427769111 0 -0.077169453611826325 -0.012958056919535469 0 -0.099829199523179368 -0.026937541448994521 0 -0.08921825490868357 -0.020634600427769111 0 -0.084390074019231612 -0.036683663121452117 0 -0.08921825490868357 -0.020634600427769111 0 -0.077990385054283823 -0.025081279646721581 0 -0.084390074019231612 -0.036683663121452117 0 -0.08921825490868357 -0.020634600427769111 0 -0.077990385054283823 -0.025081279646721581 0 -0.077169453611826325 -0.012958056919535469 0 -0.077990385054283823 -0.025081279646721581 0 -0.063465129213268121 -0.021803142814746271 0 -0.069443553727464719 -0.03268415490084263 0 -0.063465129213268121 -0.021803142814746271 0 -0.069443553727464719 -0.03268415490084263 0 -0.056407012566474658 -0.034632427127328801 0 -0.077990385054283823 -0.025081279646721581 0 -0.063465129213268121 -0.021803142814746271 0 -0.077169453611826325 -0.012958056919535469 0 -0.063465129213268121 -0.021803142814746271 0 -0.077169453611826325 -0.012958056919535469 0 -0.065390898612994297 -0.0060651868138451911 0 -0.077169453611826325 -0.012958056919535469 0 -0.065390898612994297 -0.0060651868138451911 0 -0.077030558099442079 0.0017912276607506569 0 -0.09030422092447013 -0.057943210277751039 0 -0.084390074019231612 -0.036683663121452117 0 -0.065055031178471306 -0.049589378416143359 0 -0.099028887857886438 -0.04208313078175558 0 -0.09030422092447013 -0.057943210277751039 0 -0.084390074019231612 -0.036683663121452117 0 -0.084390074019231612 -0.036683663121452117 0 -0.069443553727464719 -0.03268415490084263 0 -0.065055031178471306 -0.049589378416143359 0 -0.069443553727464719 -0.03268415490084263 0 -0.065055031178471306 -0.049589378416143359 0 -0.056407012566474658 -0.034632427127328801 0 -0.077990385054283823 -0.025081279646721581 0 -0.084390074019231612 -0.036683663121452117 0 -0.069443553727464719 -0.03268415490084263 0 -0.073606589264327157 -0.063662045567691339 0 -0.065055031178471306 -0.049589378416143359 0 -0.055516032659573868 -0.060305967533134601 0 -0.073606589264327157 -0.063662045567691339 0 -0.09030422092447013 -0.057943210277751039 0 -0.065055031178471306 -0.049589378416143359 0 -0.09030422092447013 -0.057943210277751039 0 -0.065055031178471306 -0.049589378416143359 0 -0.065055031178471306 -0.049589378416143359 0 -0.055516032659573868 -0.060305967533134601 0 -0.039805841432472538 -0.041235546554535388 0 -0.055516032659573868 -0.060305967533134601 0 -0.039805841432472538 -0.041235546554535388 0 -0.02407801639348171 -0.057499484996674032 0 -0.055516032659573868 -0.060305967533134601 0 -0.039805841432472538 -0.041235546554535388 0 -0.065055031178471306 -0.049589378416143359 0 -0.039805841432472538 -0.041235546554535388 0 -0.065055031178471306 -0.049589378416143359 0 -0.056407012566474658 -0.034632427127328801 0 -0.039805841432472538 -0.041235546554535388 0 -0.056407012566474658 -0.034632427127328801 0 -0.039805841432472538 -0.041235546554535388 0 -0.045435268329606503 -0.026923588366218019 0 -0.039805841432472538 -0.041235546554535388 0 -0.045435268329606503 -0.026923588366218019 0 -0.029221509316241099 -0.028387347171344422 0 -0.039805841432472538 -0.041235546554535388 0 -0.029221509316241099 -0.028387347171344422 0 -0.063465129213268121 -0.021803142814746271 0 -0.065390898612994297 -0.0060651868138451911 0 -0.053636159067767968 -0.0119138022144364 0 -0.053636159067767968 -0.0119138022144364 0 -0.043390994995440968 -0.0017141478953263561 0 -0.055382369457228998 0.00032136448681748149 0 -0.065390898612994297 -0.0060651868138451911 0 -0.053636159067767968 -0.0119138022144364 0 -0.055382369457228998 0.00032136448681748149 0 -0.063465129213268121 -0.021803142814746271 0 -0.056407012566474658 -0.034632427127328801 0 -0.045435268329606503 -0.026923588366218019 0 -0.063465129213268121 -0.021803142814746271 0 -0.053636159067767968 -0.0119138022144364 0 -0.045435268329606503 -0.026923588366218019 0 -0.053636159067767968 -0.0119138022144364 0 -0.045435268329606503 -0.026923588366218019 0 -0.042316337997209887 -0.013876203866282079 0 -0.045435268329606503 -0.026923588366218019 0 -0.042316337997209887 -0.013876203866282079 0 -0.029221509316241099 -0.028387347171344422 0 -0.042316337997209887 -0.013876203866282079 0 -0.03184324567901857 -0.0074552811929242142 0 -0.029221509316241099 -0.028387347171344422 0 -0.053636159067767968 -0.0119138022144364 0 -0.042316337997209887 -0.013876203866282079 0 -0.043390994995440968 -0.0017141478953263561 0 -0.03184324567901857 -0.0074552811929242142 0 -0.043390994995440968 -0.0017141478953263561 0 -0.028340906092994281 0.0073682853357047613 0 -0.042316337997209887 -0.013876203866282079 0 -0.03184324567901857 -0.0074552811929242142 0 -0.043390994995440968 -0.0017141478953263561 0 -0.01863717720000806 -0.015539147788154919 0 -0.028340906092994281 0.0073682853357047613 0 -0.01863717720000806 -0.015539147788154919 0 -0.0068313307468898937 -0.001208166158769744 0 -0.028340906092994281 0.0073682853357047613 0 -0.03184324567901857 -0.0074552811929242142 0 -0.01863717720000806 -0.015539147788154919 0 -0.028340906092994281 0.0073682853357047613 0 -0.01863717720000806 -0.015539147788154919 0 -0.029221509316241099 -0.028387347171344422 0 -0.01264024708111049 -0.029696002040982869 0 -0.03184324567901857 -0.0074552811929242142 0 -0.01863717720000806 -0.015539147788154919 0 -0.029221509316241099 -0.028387347171344422 0 -0.029221509316241099 -0.028387347171344422 0 -0.01264024708111049 -0.029696002040982869 0 -0.0138553272451094 -0.032649677684112553 0 -0.01863717720000806 -0.015539147788154919 0 -0.01264024708111049 -0.029696002040982869 0 -0.01863717720000806 -0.015539147788154919 0 -0.029221509316241099 -0.028387347171344422 0 -0.01863717720000806 -0.015539147788154919 0 -0.01264024708111049 -0.029696002040982869 0 -0.0037250542218582199 -0.0080245199591880492 0 -0.0031909299914345979 -0.02912130380523718 0 -0.0037250542218582199 -0.0080245199591880492 0 -0.0031909299914345979 -0.02912130380523718 0 -0.0037250542218582199 -0.0080245199591880492 0 0.00127666635847664 -0.0116397779358997 0 -0.01264024708111049 -0.029696002040982869 0 -0.0037250542218582199 -0.0080245199591880492 0 -0.01264024708111049 -0.029696002040982869 0 -0.0031909299914345979 -0.02912130380523718 0 -0.0037250542218582199 -0.0080245199591880492 0 -0.01264024708111049 -0.029696002040982869 0 -0.0031909299914345979 -0.02912130380523718 0 -0.011692217062515969 -0.031934000906155932 0 -0.01264024708111049 -0.029696002040982869 0 -0.0138553272451094 -0.032649677684112553 0 -0.01264024708111049 -0.029696002040982869 0 -0.011692217062515969 -0.031934000906155932 0 -0.0031909299914345979 -0.02912130380523718 0 -0.011692217062515969 -0.031934000906155932 0 -0.01863717720000806 -0.015539147788154919 0 -0.0037250542218582199 -0.0080245199591880492 0 -0.0068313307468898937 -0.001208166158769744 0 -0.01863717720000806 -0.015539147788154919 0 -0.0068313307468898937 -0.001208166158769744 0 -0.0037250542218582199 -0.0080245199591880492 0 -0.0039010825712501528 -0.00107177034326255 0 -0.0037250542218582199 -0.0080245199591880492 0 -0.0039010825712501528 -0.00107177034326255 0 -0.0068313307468898937 -0.001208166158769744 0 -0.02407801639348171 -0.057499484996674032 0 -0.01502281880691958 -0.046557929679431558 0 -0.01354969927093402 -0.058456488507705358 0 -0.02407801639348171 -0.057499484996674032 0 -0.01354969927093402 -0.058456488507705358 0 -0.012710713429466249 -0.068903504945962715 0 -0.039805841432472538 -0.041235546554535388 0 -0.029221509316241099 -0.028387347171344422 0 -0.0138553272451094 -0.032649677684112553 0 -0.039805841432472538 -0.041235546554535388 0 -0.0138553272451094 -0.032649677684112553 0 -0.02407801639348171 -0.057499484996674032 0 -0.01502281880691958 -0.046557929679431558 0 -0.0138553272451094 -0.032649677684112553 0 -0.02407801639348171 -0.057499484996674032 0 -0.0138553272451094 -0.032649677684112553 0 -0.039805841432472538 -0.041235546554535388 0 -0.02407801639348171 -0.057499484996674032 0 -0.0138553272451094 -0.032649677684112553 0 -0.0079410557402549778 -0.040789305714663902 0 -0.01502281880691958 -0.046557929679431558 0 -0.002789089222654491 -0.04499316910699528 0 -0.0031909299914345979 -0.02912130380523718 0 -0.002789089222654491 -0.04499316910699528 0 -0.0031909299914345979 -0.02912130380523718 0 -0.0079410557402549778 -0.040789305714663902 0 -0.002789089222654491 -0.04499316910699528 0 -0.0079410557402549778 -0.040789305714663902 0 -0.01502281880691958 -0.046557929679431558 0 -0.0138553272451094 -0.032649677684112553 0 -0.0079410557402549778 -0.040789305714663902 0 -0.011692217062515969 -0.031934000906155932 0 -0.0079410557402549778 -0.040789305714663902 0 -0.0138553272451094 -0.032649677684112553 0 -0.011692217062515969 -0.031934000906155932 0 -0.0138553272451094 -0.032649677684112553 0 -0.011692217062515969 -0.031934000906155932 0 -0.01264024708111049 -0.029696002040982869 0 -0.0138553272451094 -0.032649677684112553 0 -0.011692217062515969 -0.031934000906155932 0 -0.0031909299914345979 -0.02912130380523718 0 -0.0079410557402549778 -0.040789305714663902 0 -0.011692217062515969 -0.031934000906155932 0 -0.01502281880691958 -0.046557929679431558 0 -0.002789089222654491 -0.04499316910699528 0 -0.00238724845386864 -0.060865034408753231 0 -0.002789089222654491 -0.04499316910699528 0 -0.00238724845386864 -0.060865034408753231 0 -0.01502281880691958 -0.046557929679431558 0 -0.00238724845386864 -0.060865034408753231 0 -0.01502281880691958 -0.046557929679431558 0 -0.01354969927093402 -0.058456488507705358 0 -0.00238724845386864 -0.060865034408753231 0 -0.00238724845386864 -0.060865034408753231 0 -0.0019974711665696979 -0.076260417561116817 0 -0.012710713429466249 -0.068903504945962715 0 -0.00238724845386864 -0.060865034408753231 0 -0.0019974711665696979 -0.076260417561116817 0 -0.0019974711665696979 -0.076260417561116817 0 -0.012710713429466249 -0.068903504945962715 0 -0.011588714658566011 -0.083104177088565531 0 -0.012710713429466249 -0.068903504945962715 0 -0.011588714658566011 -0.083104177088565531 0 -0.020734785378316439 -0.078888625648634053 0 -0.01354969927093402 -0.058456488507705358 0 -0.00238724845386864 -0.060865034408753231 0 -0.012710713429466249 -0.068903504945962715 0 -0.0019974711665696979 -0.076260417561116817 0 -0.001607693879268633 -0.091655800713480368 0 -0.011588714658566011 -0.083104177088565531 0 -0.0019974711665696979 -0.076260417561116817 0 -0.001607693879268633 -0.091655800713480368 0 -0.011588714658566011 -0.083104177088565531 0 -0.01355215922979928 -0.092992988336067117 0 -0.017916800986093519 -0.088615370229071344 0 -0.001607693879268633 -0.091655800713480368 0 -0.011588714658566011 -0.083104177088565531 0 -0.01355215922979928 -0.092992988336067117 0 -0.024890258202309341 -0.091428732975771906 0 -0.03430070554185221 -0.082349292309236405 0 -0.031650034261430232 -0.098491873266282837 0 -0.017916800986093519 -0.088615370229071344 0 -0.020734785378316439 -0.078888625648634053 0 -0.024890258202309341 -0.091428732975771906 0 -0.01355215922979928 -0.092992988336067117 0 -0.017916800986093519 -0.088615370229071344 0 -0.018818087461476531 -0.096662327096318099 0 -0.017916800986093519 -0.088615370229071344 0 -0.024890258202309341 -0.091428732975771906 0 -0.018818087461476531 -0.096662327096318099 0 -0.011588714658566011 -0.083104177088565531 0 -0.017916800986093519 -0.088615370229071344 0 -0.020734785378316439 -0.078888625648634053 0 -0.020734785378316439 -0.078888625648634053 0 -0.024890258202309341 -0.091428732975771906 0 -0.03430070554185221 -0.082349292309236405 0 -0.02407801639348171 -0.057499484996674032 0 -0.020734785378316439 -0.078888625648634053 0 -0.03430070554185221 -0.082349292309236405 0 -0.02407801639348171 -0.057499484996674032 0 -0.03430070554185221 -0.082349292309236405 0 -0.02407801639348171 -0.057499484996674032 0 -0.012710713429466249 -0.068903504945962715 0 -0.020734785378316439 -0.078888625648634053 0 -0.055516032659573868 -0.060305967533134601 0 -0.02407801639348171 -0.057499484996674032 0 -0.03430070554185221 -0.082349292309236405 0 -0.03430070554185221 -0.082349292309236405 0 -0.053161765735121672 -0.083332829509117023 0 -0.044523394690222123 -0.10719909962179899 0 -0.071226223886674975 -0.079376388511734064 0 -0.053161765735121672 -0.083332829509117023 0 -0.06138383334239509 -0.096655527658670748 0 -0.055516032659573868 -0.060305967533134601 0 -0.03430070554185221 -0.082349292309236405 0 -0.053161765735121672 -0.083332829509117023 0 -0.071226223886674975 -0.079376388511734064 0 -0.055516032659573868 -0.060305967533134601 0 -0.053161765735121672 -0.083332829509117023 0 -0.073585000515549379 -0.112358165045367 0 -0.044523394690222123 -0.10719909962179899 0 -0.073585000515549379 -0.112358165045367 0 -0.044523394690222123 -0.10719909962179899 0 -0.054212044736968577 -0.13075073885156649 0 -0.044523394690222123 -0.10719909962179899 0 -0.054212044736968577 -0.13075073885156649 0 -0.053161765735121672 -0.083332829509117023 0 -0.06138383334239509 -0.096655527658670748 0 -0.044523394690222123 -0.10719909962179899 0 -0.073585000515549379 -0.112358165045367 0 -0.06138383334239509 -0.096655527658670748 0 -0.044523394690222123 -0.10719909962179899 0 -0.03430070554185221 -0.082349292309236405 0 -0.044523394690222123 -0.10719909962179899 0 -0.03430070554185221 -0.082349292309236405 0 -0.044523394690222123 -0.10719909962179899 0 -0.031650034261430232 -0.098491873266282837 0 -0.044523394690222123 -0.10719909962179899 0 -0.039510444847701082 -0.1063091922863945 0 -0.039510444847701082 -0.1063091922863945 0 -0.031650034261430232 -0.098491873266282837 0 -0.031554413835942062 -0.1075152218504192 0 -0.044523394690222123 -0.10719909962179899 0 -0.039510444847701082 -0.1063091922863945 0 -0.031650034261430232 -0.098491873266282837 0 -0.031554413835942062 -0.1075152218504192 0 -0.03993050340892413 -0.1168961927034048 0 -0.030457770226880961 -0.1183046466915732 0 -0.039510444847701082 -0.1063091922863945 0 -0.031554413835942062 -0.1075152218504192 0 -0.03993050340892413 -0.1168961927034048 0 -0.044523394690222123 -0.10719909962179899 0 -0.03993050340892413 -0.1168961927034048 0 -0.054212044736968577 -0.13075073885156649 0 -0.044523394690222123 -0.10719909962179899 0 -0.039510444847701082 -0.1063091922863945 0 -0.03993050340892413 -0.1168961927034048 0 -0.03993050340892413 -0.1168961927034048 0 -0.030457770226880961 -0.1183046466915732 0 -0.038533073355422678 -0.13051702103419521 0 -0.030457770226880961 -0.1183046466915732 0 -0.022316782382565691 -0.1058306769048229 0 -0.019250038359534781 -0.13024086385211259 0 -0.022316782382565691 -0.1058306769048229 0 -0.018905996105462671 -0.10349607520637701 0 -0.019250038359534781 -0.13024086385211259 0 -0.018905996105462671 -0.10349607520637701 0 -0.019250038359534781 -0.13024086385211259 0 -0.031554413835942062 -0.1075152218504192 0 -0.030457770226880961 -0.1183046466915732 0 -0.022316782382565691 -0.1058306769048229 0 -0.031650034261430232 -0.098491873266282837 0 -0.023792560791257671 -0.100015775453891 0 -0.027328447817798911 -0.10296338686885401 0 -0.024890258202309341 -0.091428732975771906 0 -0.031650034261430232 -0.098491873266282837 0 -0.023792560791257671 -0.100015775453891 0 -0.031554413835942062 -0.1075152218504192 0 -0.027328447817798911 -0.10296338686885401 0 -0.022316782382565691 -0.1058306769048229 0 -0.031650034261430232 -0.098491873266282837 0 -0.031554413835942062 -0.1075152218504192 0 -0.027328447817798911 -0.10296338686885401 0 -0.023792560791257671 -0.100015775453891 0 -0.027328447817798911 -0.10296338686885401 0 -0.022316782382565691 -0.1058306769048229 0 -0.023792560791257671 -0.100015775453891 0 -0.022316782382565691 -0.1058306769048229 0 -0.018905996105462671 -0.10349607520637701 0 -0.022316782382565691 -0.1058306769048229 0 -0.018905996105462671 -0.10349607520637701 0 -0.024890258202309341 -0.091428732975771906 0 -0.023792560791257671 -0.100015775453891 0 -0.018818087461476531 -0.096662327096318099 0 -0.01355215922979928 -0.092992988336067117 0 -0.018905996105462671 -0.10349607520637701 0 -0.018818087461476531 -0.096662327096318099 0 -0.023792560791257671 -0.100015775453891 0 -0.018905996105462671 -0.10349607520637701 0 -0.018818087461476531 -0.096662327096318099 0 -0.018905996105462671 -0.10349607520637701 0 -0.018818087461476531 -0.096662327096318099 0 -0.001607693879268633 -0.091655800713480368 0 -0.01355215922979928 -0.092992988336067117 0 -0.018905996105462671 -0.10349607520637701 0 -0.001607693879268633 -0.091655800713480368 0 -0.018905996105462671 -0.10349607520637701 0 -0.001607693879268633 -0.091655800713480368 0 -0.018905996105462671 -0.10349607520637701 0 -0.0043055852748822834 -0.098769790869117108 0 -0.018905996105462671 -0.10349607520637701 0 -0.0043055852748822834 -0.098769790869117108 0 -0.0074973612121907434 -0.1101741139822448 0 -0.0043055852748822834 -0.098769790869117108 0 -0.0074973612121907434 -0.1101741139822448 0 0.0023685835584790599 -0.1031277151359595 0 -0.001607693879268633 -0.091655800713480368 0 -0.0043055852748822834 -0.098769790869117108 0 0.0023685835584790599 -0.1031277151359595 0 -0.0074973612121907434 -0.1101741139822448 0 -0.019250038359534781 -0.13024086385211259 0 0.0026411872198271171 -0.11769170123595619 0 -0.018905996105462671 -0.10349607520637701 0 -0.0074973612121907434 -0.1101741139822448 0 -0.019250038359534781 -0.13024086385211259 0 -0.0074973612121907434 -0.1101741139822448 0 0.0026411872198271171 -0.11769170123595619 0 0.0023685835584790599 -0.1031277151359595 0 -0.019250038359534781 -0.13024086385211259 0 0.001008430979222394 -0.13931442999454111 0 0.0026411872198271171 -0.11769170123595619 0 -0.030457770226880961 -0.1183046466915732 0 -0.019250038359534781 -0.13024086385211259 0 -0.038533073355422678 -0.13051702103419521 0 -0.019250038359534781 -0.13024086385211259 0 -0.019594080613606801 -0.15698565249784829 0 -0.019250038359534781 -0.13024086385211259 0 -0.019594080613606801 -0.15698565249784829 0 -0.041909827254058188 -0.14958028615964039 0 -0.019250038359534781 -0.13024086385211259 0 -0.019594080613606801 -0.15698565249784829 0 0.001008430979222394 -0.13931442999454111 0 -0.019594080613606801 -0.15698565249784829 0 0.0037535769401090542 -0.170241407768391 0 0.001008430979222394 -0.13931442999454111 0 -0.01993812286767881 -0.183730441143584 0 -0.019594080613606801 -0.15698565249784829 0 0.0037535769401090542 -0.170241407768391 0 -0.01993812286767881 -0.183730441143584 0 -0.0013498215272506791 -0.1942584164008001 0 0.0037535769401090542 -0.170241407768391 0 -0.01993812286767881 -0.183730441143584 0 -0.019594080613606801 -0.15698565249784829 0 -0.043994358316930202 -0.17038488219290371 0 -0.01993812286767881 -0.183730441143584 0 -0.019594080613606801 -0.15698565249784829 0 -0.019594080613606801 -0.15698565249784829 0 -0.043994358316930202 -0.17038488219290371 0 -0.041909827254058188 -0.14958028615964039 0 -0.01993812286767881 -0.183730441143584 0 -0.043994358316930202 -0.17038488219290371 0 -0.04524690560669295 -0.1960193539537996 0 -0.043994358316930202 -0.17038488219290371 0 -0.04524690560669295 -0.1960193539537996 0 -0.073589344830460326 -0.17785401731110201 0 -0.043994358316930202 -0.17038488219290371 0 -0.063900694783714448 -0.15430237808133421 0 -0.073589344830460326 -0.17785401731110201 0 -0.043994358316930202 -0.17038488219290371 0 -0.041909827254058188 -0.14958028615964039 0 -0.063900694783714448 -0.15430237808133421 0 -0.054212044736968577 -0.13075073885156649 0 -0.041909827254058188 -0.14958028615964039 0 -0.063900694783714448 -0.15430237808133421 0 -0.054212044736968577 -0.13075073885156649 0 -0.063900694783714448 -0.15430237808133421 0 -0.054212044736968577 -0.13075073885156649 0 -0.038533073355422678 -0.13051702103419521 0 -0.041909827254058188 -0.14958028615964039 0 -0.019250038359534781 -0.13024086385211259 0 -0.038533073355422678 -0.13051702103419521 0 -0.041909827254058188 -0.14958028615964039 0 -0.03993050340892413 -0.1168961927034048 0 -0.054212044736968577 -0.13075073885156649 0 -0.038533073355422678 -0.13051702103419521 0 -0.015956939140542959 -0.25560381416417222 0 -0.02232942886895126 -0.2377646146673098 0 -0.039216731753743531 -0.24634742686988781 0 -0.0047016210016195704 -0.25173395998470488 0 -0.015956939140542959 -0.25560381416417222 0 -0.0036306428017121571 -0.23473128915904459 0 -0.015956939140542959 -0.25560381416417222 0 -0.0036306428017121571 -0.23473128915904459 0 -0.015956939140542959 -0.25560381416417222 0 -0.02232942886895126 -0.2377646146673098 0 -0.0036306428017121571 -0.23473128915904459 0 -0.0047016210016195704 -0.25173395998470488 0 -0.0036306428017121571 -0.23473128915904459 0 0.006021084022693547 -0.25007140230353958 0 -0.0036306428017121571 -0.23473128915904459 0 -0.020282165121750829 -0.21047522978931971 0 0.0086956535371183613 -0.21385876415391669 0 -0.02232942886895126 -0.2377646146673098 0 -0.0036306428017121571 -0.23473128915904459 0 -0.020282165121750829 -0.21047522978931971 0 -0.02232942886895126 -0.2377646146673098 0 -0.020282165121750829 -0.21047522978931971 0 -0.034666839256649179 -0.22780785116426819 0 -0.020282165121750829 -0.21047522978931971 0 -0.0013498215272506791 -0.1942584164008001 0 0.0086956535371183613 -0.21385876415391669 0 -0.01993812286767881 -0.183730441143584 0 -0.020282165121750829 -0.21047522978931971 0 -0.0013498215272506791 -0.1942584164008001 0 -0.01993812286767881 -0.183730441143584 0 -0.020282165121750829 -0.21047522978931971 0 -0.01993812286767881 -0.183730441143584 0 -0.020282165121750829 -0.21047522978931971 0 -0.04524690560669295 -0.1960193539537996 0 -0.04524690560669295 -0.1960193539537996 0 -0.066048564445108648 -0.19850240250968251 0 -0.073589344830460326 -0.17785401731110201 0 -0.04524690560669295 -0.1960193539537996 0 -0.05387874572976005 -0.21236429150212741 0 -0.066048564445108648 -0.19850240250968251 0 -0.020282165121750829 -0.21047522978931971 0 -0.039317298802791237 -0.21487683016578871 0 -0.034666839256649179 -0.22780785116426819 0 -0.04524690560669295 -0.1960193539537996 0 -0.05387874572976005 -0.21236429150212741 0 -0.039317298802791237 -0.21487683016578871 0 -0.020282165121750829 -0.21047522978931971 0 -0.04524690560669295 -0.1960193539537996 0 -0.039317298802791237 -0.21487683016578871 0 -0.039317298802791237 -0.21487683016578871 0 -0.034666839256649179 -0.22780785116426819 0 -0.052188571736008618 -0.229575154329034 0 -0.05387874572976005 -0.21236429150212741 0 -0.052188571736008618 -0.229575154329034 0 -0.06803212757517571 -0.21609502968777269 0 -0.052188571736008618 -0.229575154329034 0 -0.066091688338850443 -0.2356523613202694 0 -0.06803212757517571 -0.21609502968777269 0 -0.05387874572976005 -0.21236429150212741 0 -0.039317298802791237 -0.21487683016578871 0 -0.052188571736008618 -0.229575154329034 0 -0.059907734871856383 -0.25358386582936943 0 -0.039216731753743531 -0.24634742686988781 0 -0.066091688338850443 -0.2356523613202694 0 -0.039216731753743531 -0.24634742686988781 0 -0.066091688338850443 -0.2356523613202694 0 -0.052188571736008618 -0.229575154329034 0 -0.039216731753743531 -0.24634742686988781 0 -0.066091688338850443 -0.2356523613202694 0 -0.02232942886895126 -0.2377646146673098 0 -0.034666839256649179 -0.22780785116426819 0 -0.039216731753743531 -0.24634742686988781 0 -0.052188571736008618 -0.229575154329034 0 -0.039216731753743531 -0.24634742686988781 0 -0.034666839256649179 -0.22780785116426819 0 -0.052188571736008618 -0.229575154329034 0 -0.039216731753743531 -0.24634742686988781 0 -0.080531721842994633 -0.25208092119179187 0 -0.066091688338850443 -0.2356523613202694 0 -0.092966644923951985 -0.22495729577063769 0 -0.080531721842994633 -0.25208092119179187 0 -0.092966644923951985 -0.22495729577063769 0 -0.1025604261618195 -0.2482783233104294 0 -0.080531721842994633 -0.25208092119179187 0 -0.059907734871856383 -0.25358386582936943 0 -0.066091688338850443 -0.2356523613202694 0 -0.066091688338850443 -0.2356523613202694 0 -0.092966644923951985 -0.22495729577063769 0 -0.06803212757517571 -0.21609502968777269 0 -0.066091688338850443 -0.2356523613202694 0 -0.092966644923951985 -0.22495729577063769 0 -0.092966644923951985 -0.22495729577063769 0 -0.083277994877206218 -0.20140565654086981 0 -0.092966644923951985 -0.22495729577063769 0 -0.06803212757517571 -0.21609502968777269 0 -0.083277994877206218 -0.20140565654086981 0 -0.092966644923951985 -0.22495729577063769 0 -0.083277994877206218 -0.20140565654086981 0 -0.1001241599315966 -0.2044233632933902 0 -0.06803212757517571 -0.21609502968777269 0 -0.066048564445108648 -0.19850240250968251 0 -0.083277994877206218 -0.20140565654086981 0 -0.05387874572976005 -0.21236429150212741 0 -0.06803212757517571 -0.21609502968777269 0 -0.066048564445108648 -0.19850240250968251 0 -0.066048564445108648 -0.19850240250968251 0 -0.083277994877206218 -0.20140565654086981 0 -0.073589344830460326 -0.17785401731110201 0 -0.083277994877206218 -0.20140565654086981 0 -0.073589344830460326 -0.17785401731110201 0 -0.116394074292181 -0.19540893940668819 0 -0.1001241599315966 -0.2044233632933902 0 -0.10524682565977519 -0.18404262232755231 0 -0.083277994877206218 -0.20140565654086981 0 -0.1001241599315966 -0.2044233632933902 0 -0.10524682565977519 -0.18404262232755231 0 -0.116394074292181 -0.19540893940668819 0 -0.10524682565977519 -0.18404262232755231 0 -0.1197985376291003 -0.18328202353642731 0 -0.116394074292181 -0.19540893940668819 0 -0.11660802725073149 -0.20911682613707461 0 -0.1001241599315966 -0.2044233632933902 0 -0.116394074292181 -0.19540893940668819 0 -0.1197985376291003 -0.18328202353642731 0 -0.12914624289901469 -0.189460247962492 0 -0.116394074292181 -0.19540893940668819 0 -0.128379269092041 -0.20285782081335541 0 -0.12914624289901469 -0.189460247962492 0 -0.116394074292181 -0.19540893940668819 0 -0.11660802725073149 -0.20911682613707461 0 -0.128379269092041 -0.20285782081335541 0 -0.11660802725073149 -0.20911682613707461 0 -0.12845422730504599 -0.21701462439129571 0 -0.128379269092041 -0.20285782081335541 0 -0.11660802725073149 -0.20911682613707461 0 -0.1197885853530975 -0.21808700935643141 0 -0.12845422730504599 -0.21701462439129571 0 -0.11660802725073149 -0.20911682613707461 0 -0.1078283786149411 -0.21370425391432751 0 -0.11282595783159451 -0.21981706112425201 0 -0.11660802725073149 -0.20911682613707461 0 -0.1197885853530975 -0.21808700935643141 0 -0.11282595783159451 -0.21981706112425201 0 -0.1078283786149411 -0.21370425391432751 0 -0.10175536944584181 -0.2214597651025931 0 -0.11282595783159451 -0.21981706112425201 0 -0.092966644923951985 -0.22495729577063769 0 -0.1001241599315966 -0.2044233632933902 0 -0.10175536944584181 -0.2214597651025931 0 -0.1001241599315966 -0.2044233632933902 0 -0.1078283786149411 -0.21370425391432751 0 -0.10175536944584181 -0.2214597651025931 0 -0.11660802725073149 -0.20911682613707461 0 -0.1001241599315966 -0.2044233632933902 0 -0.1078283786149411 -0.21370425391432751 0 -0.092966644923951985 -0.22495729577063769 0 -0.1093529531480387 -0.23082836694378839 0 -0.10175536944584181 -0.2214597651025931 0 -0.092966644923951985 -0.22495729577063769 0 -0.10175536944584181 -0.2214597651025931 0 -0.1093529531480387 -0.23082836694378839 0 -0.10175536944584181 -0.2214597651025931 0 -0.11282595783159451 -0.21981706112425201 0 -0.1093529531480387 -0.23082836694378839 0 -0.11282595783159451 -0.21981706112425201 0 -0.121266129025018 -0.22639952577310329 0 -0.1197885853530975 -0.21808700935643141 0 -0.11282595783159451 -0.21981706112425201 0 -0.121266129025018 -0.22639952577310329 0 -0.1197885853530975 -0.21808700935643141 0 -0.121266129025018 -0.22639952577310329 0 -0.12845422730504599 -0.21701462439129571 0 -0.1185708039783429 -0.23402639708309739 0 -0.12502304216750459 -0.2372434761085031 0 -0.12575931177034361 -0.2315746442758673 0 -0.121266129025018 -0.22639952577310329 0 -0.1185708039783429 -0.23402639708309739 0 -0.12575931177034361 -0.2315746442758673 0 -0.1093529531480387 -0.23082836694378839 0 -0.121266129025018 -0.22639952577310329 0 -0.1185708039783429 -0.23402639708309739 0 -0.1093529531480387 -0.23082836694378839 0 -0.1185708039783429 -0.23402639708309739 0 -0.11545567505698399 -0.24108161450433421 0 -0.11545567505698399 -0.24108161450433421 0 -0.1025604261618195 -0.2482783233104294 0 -0.12819177684182431 -0.24894498476986929 0 -0.11545567505698399 -0.24108161450433421 0 -0.1244430011468306 -0.2430275646548381 0 -0.12502304216750459 -0.2372434761085031 0 -0.1185708039783429 -0.23402639708309739 0 -0.11545567505698399 -0.24108161450433421 0 -0.12502304216750459 -0.2372434761085031 0 -0.11545567505698399 -0.24108161450433421 0 -0.1244430011468306 -0.2430275646548381 0 -0.12819177684182431 -0.24894498476986929 0 -0.092966644923951985 -0.22495729577063769 0 -0.1093529531480387 -0.23082836694378839 0 -0.1025604261618195 -0.2482783233104294 0 -0.1093529531480387 -0.23082836694378839 0 -0.11545567505698399 -0.24108161450433421 0 -0.1025604261618195 -0.2482783233104294 0 -0.092966644923951985 -0.22495729577063769 0 -0.1025604261618195 -0.2482783233104294 0 -0.073585000515549379 -0.112358165045367 0 -0.091648089326660867 -0.1296324825091433 0 -0.073240732308366363 -0.1363377708463793 0 -0.091009235053866377 -0.14959430847334201 0 -0.091648089326660867 -0.1296324825091433 0 -0.073240732308366363 -0.1363377708463793 0 -0.073585000515549379 -0.112358165045367 0 -0.054212044736968577 -0.13075073885156649 0 -0.073240732308366363 -0.1363377708463793 0 -0.054212044736968577 -0.13075073885156649 0 -0.073240732308366363 -0.1363377708463793 0 -0.063900694783714448 -0.15430237808133421 0 -0.091009235053866377 -0.14959430847334201 0 -0.073240732308366363 -0.1363377708463793 0 -0.063900694783714448 -0.15430237808133421 0 -0.063900694783714448 -0.15430237808133421 0 -0.073589344830460326 -0.17785401731110201 0 -0.063900694783714448 -0.15430237808133421 0 -0.073589344830460326 -0.17785401731110201 0 -0.090864898333106195 -0.17103089466378829 0 -0.083277994877206218 -0.20140565654086981 0 -0.090864898333106195 -0.17103089466378829 0 -0.10524682565977519 -0.18404262232755231 0 -0.083277994877206218 -0.20140565654086981 0 -0.073589344830460326 -0.17785401731110201 0 -0.090864898333106195 -0.17103089466378829 0 -0.091009235053866377 -0.14959430847334201 0 -0.063900694783714448 -0.15430237808133421 0 -0.090864898333106195 -0.17103089466378829 0 -0.091009235053866377 -0.14959430847334201 0 -0.090864898333106195 -0.17103089466378829 0 -0.104732468354244 -0.16444647496316531 0 -0.090864898333106195 -0.17103089466378829 0 -0.104732468354244 -0.16444647496316531 0 -0.10524682565977519 -0.18404262232755231 0 -0.104732468354244 -0.16444647496316531 0 -0.10524682565977519 -0.18404262232755231 0 -0.118202388296224 -0.1700064572652108 0 -0.10524682565977519 -0.18404262232755231 0 -0.1197985376291003 -0.18328202353642731 0 -0.118202388296224 -0.1700064572652108 0 -0.1197985376291003 -0.18328202353642731 0 -0.118202388296224 -0.1700064572652108 0 -0.13004944285990169 -0.17579401237355169 0 -0.118202388296224 -0.1700064572652108 0 -0.1122405228720544 -0.15072389605058659 0 -0.12977940616638409 -0.16083713893422219 0 -0.104732468354244 -0.16444647496316531 0 -0.118202388296224 -0.1700064572652108 0 -0.1122405228720544 -0.15072389605058659 0 -0.1122405228720544 -0.15072389605058659 0 -0.12694989378663971 -0.147880009166031 0 -0.12977940616638409 -0.16083713893422219 0 -0.1122405228720544 -0.15072389605058659 0 -0.11751618432418851 -0.13963389544699359 0 -0.12694989378663971 -0.147880009166031 0 -0.1122405228720544 -0.15072389605058659 0 -0.1058000118170476 -0.13672942692528661 0 -0.11751618432418851 -0.13963389544699359 0 -0.091009235053866377 -0.14959430847334201 0 -0.1122405228720544 -0.15072389605058659 0 -0.1058000118170476 -0.13672942692528661 0 -0.091009235053866377 -0.14959430847334201 0 -0.104732468354244 -0.16444647496316531 0 -0.1122405228720544 -0.15072389605058659 0 -0.091009235053866377 -0.14959430847334201 0 -0.091648089326660867 -0.1296324825091433 0 -0.1058000118170476 -0.13672942692528661 0 -0.1077752784716432 -0.1237428667569367 0 -0.091648089326660867 -0.1296324825091433 0 -0.1058000118170476 -0.13672942692528661 0 -0.1077752784716432 -0.1237428667569367 0 -0.11915644306988329 -0.120448084611313 0 -0.11599405992095591 -0.13085648636932901 0 -0.1077752784716432 -0.1237428667569367 0 -0.1058000118170476 -0.13672942692528661 0 -0.11599405992095591 -0.13085648636932901 0 -0.1058000118170476 -0.13672942692528661 0 -0.11599405992095591 -0.13085648636932901 0 -0.11751618432418851 -0.13963389544699359 0 -0.11599405992095591 -0.13085648636932901 0 -0.11751618432418851 -0.13963389544699359 0 -0.12972238192201679 -0.1337281581061148 0 -0.11751618432418851 -0.13963389544699359 0 -0.12972238192201679 -0.1337281581061148 0 -0.12694989378663971 -0.147880009166031 0 -0.11915644306988329 -0.120448084611313 0 -0.11599405992095591 -0.13085648636932901 0 -0.12972238192201679 -0.1337281581061148 0 -0.12972238192201679 -0.1337281581061148 0 -0.1479822246262561 -0.13128011843294871 0 -0.13566627979888959 -0.1233789387536921 0 -0.11915644306988329 -0.120448084611313 0 -0.12972238192201679 -0.1337281581061148 0 -0.13566627979888959 -0.1233789387536921 0 -0.1479822246262561 -0.13128011843294871 0 -0.14568429124884069 -0.14573109208552981 0 -0.16441868871104179 -0.14358217500502871 0 -0.12972238192201679 -0.1337281581061148 0 -0.1479822246262561 -0.13128011843294871 0 -0.14568429124884069 -0.14573109208552981 0 -0.14568429124884069 -0.14573109208552981 0 -0.16441868871104179 -0.14358217500502871 0 -0.14568429124884069 -0.14573109208552981 0 -0.15547445692720041 -0.159753475790887 0 -0.16441868871104179 -0.14358217500502871 0 -0.14568429124884069 -0.14573109208552981 0 -0.12694989378663971 -0.147880009166031 0 -0.12972238192201679 -0.1337281581061148 0 -0.14568429124884069 -0.14573109208552981 0 -0.12694989378663971 -0.147880009166031 0 -0.14568429124884069 -0.14573109208552981 0 -0.12694989378663971 -0.147880009166031 0 -0.12977940616638409 -0.16083713893422219 0 -0.14568429124884069 -0.14573109208552981 0 -0.12977940616638409 -0.16083713893422219 0 -0.14244524263294689 -0.16737679317280199 0 -0.118202388296224 -0.1700064572652108 0 -0.12977940616638409 -0.16083713893422219 0 -0.13004944285990169 -0.17579401237355169 0 -0.12977940616638409 -0.16083713893422219 0 -0.13004944285990169 -0.17579401237355169 0 -0.14244524263294689 -0.16737679317280199 0 -0.13004944285990169 -0.17579401237355169 0 -0.1407427440436643 -0.18336090019145279 0 -0.14244524263294689 -0.16737679317280199 0 -0.1197985376291003 -0.18328202353642731 0 -0.13004944285990169 -0.17579401237355169 0 -0.12914624289901469 -0.189460247962492 0 -0.13004944285990169 -0.17579401237355169 0 -0.1407427440436643 -0.18336090019145279 0 -0.12914624289901469 -0.189460247962492 0 -0.1407427440436643 -0.18336090019145279 0 -0.15310531369643871 -0.17853915413607199 0 -0.14244524263294689 -0.16737679317280199 0 -0.1407427440436643 -0.18336090019145279 0 -0.15310531369643871 -0.17853915413607199 0 -0.14945402327284571 -0.19194088701412521 0 -0.14568429124884069 -0.14573109208552981 0 -0.15547445692720041 -0.159753475790887 0 -0.14244524263294689 -0.16737679317280199 0 -0.15310531369643871 -0.17853915413607199 0 -0.15547445692720041 -0.159753475790887 0 -0.14244524263294689 -0.16737679317280199 0 -0.15310531369643871 -0.17853915413607199 0 -0.15547445692720041 -0.159753475790887 0 -0.16889978978501269 -0.17134260050041669 0 -0.15547445692720041 -0.159753475790887 0 -0.16889978978501269 -0.17134260050041669 0 -0.16441868871104179 -0.14358217500502871 0 -0.16889978978501269 -0.17134260050041669 0 -0.18127538949909161 -0.15769661922980779 0 -0.16441868871104179 -0.14358217500502871 0 -0.16889978978501269 -0.17134260050041669 0 -0.16441868871104179 -0.14358217500502871 0 -0.16889978978501269 -0.17134260050041669 0 -0.17338089085898081 -0.19910302599580529 0 -0.15310531369643871 -0.17853915413607199 0 -0.16889978978501269 -0.17134260050041669 0 -0.15916302160663851 -0.1942073760147929 0 -0.16889978978501269 -0.17134260050041669 0 -0.186532651512094 -0.17874484348148439 0 -0.17338089085898081 -0.19910302599580529 0 -0.16889978978501269 -0.17134260050041669 0 -0.186532651512094 -0.17874484348148439 0 -0.18127538949909161 -0.15769661922980779 0 -0.16441868871104179 -0.14358217500502871 0 -0.18862743076468319 -0.14080532672893739 0 -0.18127538949909161 -0.15769661922980779 0 -0.16441868871104179 -0.14358217500502871 0 -0.18862743076468319 -0.14080532672893739 0 -0.1761346070789192 -0.12917275674234299 0 -0.16441868871104179 -0.14358217500502871 0 -0.18862743076468319 -0.14080532672893739 0 -0.1761346070789192 -0.12917275674234299 0 -0.18862743076468319 -0.14080532672893739 0 -0.1890056913884601 -0.12243296769377079 0 -0.1761346070789192 -0.12917275674234299 0 -0.16154726364496261 -0.1257936939382889 0 -0.16441868871104179 -0.14358217500502871 0 -0.1479822246262561 -0.13128011843294871 0 -0.16154726364496261 -0.1257936939382889 0 -0.16441868871104179 -0.14358217500502871 0 -0.16154726364496261 -0.1257936939382889 0 -0.16441868871104179 -0.14358217500502871 0 -0.14997343636106389 -0.25739905731514767 0 -0.14782351302482491 -0.2386644030812291 0 -0.16633186216588799 -0.24409735769854621 0 -0.13504482410774779 -0.25844509162394158 0 -0.14782351302482491 -0.2386644030812291 0 -0.1291096413066386 -0.24670738266177461 0 -0.1301030933537965 -0.2380095380398474 0 -0.1419561540653323 -0.2295016868552755 0 -0.1291096413066386 -0.24670738266177461 0 -0.12819177684182431 -0.24894498476986929 0 -0.1419561540653323 -0.2295016868552755 0 -0.12819177684182431 -0.24894498476986929 0 -0.1419561540653323 -0.2295016868552755 0 -0.13504482410774779 -0.25844509162394158 0 -0.14782351302482491 -0.2386644030812291 0 -0.12819177684182431 -0.24894498476986929 0 -0.14782351302482491 -0.2386644030812291 0 -0.12819177684182431 -0.24894498476986929 0 -0.1419561540653323 -0.2295016868552755 0 -0.1244430011468306 -0.2430275646548381 0 -0.1291096413066386 -0.24670738266177461 0 -0.1301030933537965 -0.2380095380398474 0 -0.1244430011468306 -0.2430275646548381 0 -0.1291096413066386 -0.24670738266177461 0 -0.12819177684182431 -0.24894498476986929 0 -0.1291096413066386 -0.24670738266177461 0 -0.12819177684182431 -0.24894498476986929 0 -0.12502304216750459 -0.2372434761085031 0 -0.1301030933537965 -0.2380095380398474 0 -0.13063365365522181 -0.23320624652551281 0 -0.1244430011468306 -0.2430275646548381 0 -0.12502304216750459 -0.2372434761085031 0 -0.1301030933537965 -0.2380095380398474 0 -0.1301030933537965 -0.2380095380398474 0 -0.13063365365522181 -0.23320624652551281 0 -0.1419561540653323 -0.2295016868552755 0 -0.13063365365522181 -0.23320624652551281 0 -0.13088297658158421 -0.2268070729304672 0 -0.1419561540653323 -0.2295016868552755 0 -0.13063365365522181 -0.23320624652551281 0 -0.13088297658158421 -0.2268070729304672 0 -0.12575931177034361 -0.2315746442758673 0 -0.121266129025018 -0.22639952577310329 0 -0.13088297658158421 -0.2268070729304672 0 -0.12575931177034361 -0.2315746442758673 0 -0.12502304216750459 -0.2372434761085031 0 -0.13063365365522181 -0.23320624652551281 0 -0.12575931177034361 -0.2315746442758673 0 -0.121266129025018 -0.22639952577310329 0 -0.13088297658158421 -0.2268070729304672 0 -0.12845422730504599 -0.21701462439129571 0 -0.13088297658158421 -0.2268070729304672 0 -0.13702269433833369 -0.22089950705465841 0 -0.12845422730504599 -0.21701462439129571 0 -0.13088297658158421 -0.2268070729304672 0 -0.13702269433833369 -0.22089950705465841 0 -0.1419561540653323 -0.2295016868552755 0 -0.13702269433833369 -0.22089950705465841 0 -0.1419561540653323 -0.2295016868552755 0 -0.145581336977258 -0.21704348754108199 0 -0.14782351302482491 -0.2386644030812291 0 -0.1419561540653323 -0.2295016868552755 0 -0.16060220194190189 -0.2188837145385166 0 -0.1419561540653323 -0.2295016868552755 0 -0.145581336977258 -0.21704348754108199 0 -0.16060220194190189 -0.2188837145385166 0 -0.14782351302482491 -0.2386644030812291 0 -0.16060220194190189 -0.2188837145385166 0 -0.14953591008465311 -0.20543487390382259 0 -0.145581336977258 -0.21704348754108199 0 -0.16060220194190189 -0.2188837145385166 0 -0.14953591008465311 -0.20543487390382259 0 -0.13886109073762651 -0.2100270584357749 0 -0.13935321335497419 -0.19718029805350379 0 -0.14953591008465311 -0.20543487390382259 0 -0.145581336977258 -0.21704348754108199 0 -0.13886109073762651 -0.2100270584357749 0 -0.13702269433833369 -0.22089950705465841 0 -0.12845422730504599 -0.21701462439129571 0 -0.13886109073762651 -0.2100270584357749 0 -0.13702269433833369 -0.22089950705465841 0 -0.145581336977258 -0.21704348754108199 0 -0.13886109073762651 -0.2100270584357749 0 -0.12845422730504599 -0.21701462439129571 0 -0.13886109073762651 -0.2100270584357749 0 -0.128379269092041 -0.20285782081335541 0 -0.13886109073762651 -0.2100270584357749 0 -0.13935321335497419 -0.19718029805350379 0 -0.128379269092041 -0.20285782081335541 0 -0.13935321335497419 -0.19718029805350379 0 -0.128379269092041 -0.20285782081335541 0 -0.12914624289901469 -0.189460247962492 0 -0.1407427440436643 -0.18336090019145279 0 -0.13935321335497419 -0.19718029805350379 0 -0.12914624289901469 -0.189460247962492 0 -0.15310531369643871 -0.17853915413607199 0 -0.14945402327284571 -0.19194088701412521 0 -0.15916302160663851 -0.1942073760147929 0 -0.1407427440436643 -0.18336090019145279 0 -0.13935321335497419 -0.19718029805350379 0 -0.14945402327284571 -0.19194088701412521 0 -0.14953591008465311 -0.20543487390382259 0 -0.13935321335497419 -0.19718029805350379 0 -0.14945402327284571 -0.19194088701412521 0 -0.14953591008465311 -0.20543487390382259 0 -0.14945402327284571 -0.19194088701412521 0 -0.15916302160663851 -0.1942073760147929 0 -0.16889978978501269 -0.17134260050041669 0 -0.15916302160663851 -0.1942073760147929 0 -0.17338089085898081 -0.19910302599580529 0 -0.186532651512094 -0.17874484348148439 0 -0.17338089085898081 -0.19910302599580529 0 -0.186532651512094 -0.17874484348148439 0 -0.18718343819716901 -0.20228926221588259 0 -0.17338089085898081 -0.19910302599580529 0 -0.17338089085898081 -0.19910302599580529 0 -0.17508444372039811 -0.20965653762299119 0 -0.18718343819716901 -0.20228926221588259 0 -0.17338089085898081 -0.19910302599580529 0 -0.17508444372039811 -0.20965653762299119 0 -0.18718343819716901 -0.20228926221588259 0 -0.17508444372039811 -0.20965653762299119 0 -0.18912196588717631 -0.21383443330107851 0 -0.17508444372039811 -0.20965653762299119 0 -0.17624069737593251 -0.22206799207187061 0 -0.18912196588717631 -0.21383443330107851 0 -0.17338089085898081 -0.19910302599580529 0 -0.17508444372039811 -0.20965653762299119 0 -0.16060220194190189 -0.2188837145385166 0 -0.17338089085898081 -0.19910302599580529 0 -0.16060220194190189 -0.2188837145385166 0 -0.15916302160663851 -0.1942073760147929 0 -0.17338089085898081 -0.19910302599580529 0 -0.16060220194190189 -0.2188837145385166 0 -0.17508444372039811 -0.20965653762299119 0 -0.16060220194190189 -0.2188837145385166 0 -0.17624069737593251 -0.22206799207187061 0 -0.14953591008465311 -0.20543487390382259 0 -0.15916302160663851 -0.1942073760147929 0 -0.16060220194190189 -0.2188837145385166 0 -0.16060220194190189 -0.2188837145385166 0 -0.16814771319536409 -0.23042687735302811 0 -0.17624069737593251 -0.22206799207187061 0 -0.14782351302482491 -0.2386644030812291 0 -0.16060220194190189 -0.2188837145385166 0 -0.16072632258199471 -0.23301808816783001 0 -0.16060220194190189 -0.2188837145385166 0 -0.16072632258199471 -0.23301808816783001 0 -0.16814771319536409 -0.23042687735302811 0 -0.17624069737593251 -0.22206799207187061 0 -0.1892821167481343 -0.22705330201164439 0 -0.18912196588717631 -0.21383443330107851 0 -0.17624069737593251 -0.22206799207187061 0 -0.1786846381312005 -0.2321848337731415 0 -0.1892821167481343 -0.22705330201164439 0 -0.1786846381312005 -0.2321848337731415 0 -0.1872355913336172 -0.23814440055559441 0 -0.1892821167481343 -0.22705330201164439 0 -0.16814771319536409 -0.23042687735302811 0 -0.17624069737593251 -0.22206799207187061 0 -0.1786846381312005 -0.2321848337731415 0 -0.16814771319536409 -0.23042687735302811 0 -0.1786846381312005 -0.2321848337731415 0 -0.17546866158097579 -0.2421137530079521 0 -0.1786846381312005 -0.2321848337731415 0 -0.17546866158097579 -0.2421137530079521 0 -0.1872355913336172 -0.23814440055559441 0 -0.17546866158097579 -0.2421137530079521 0 -0.1872355913336172 -0.23814440055559441 0 -0.190939978598095 -0.24849318492040501 0 -0.17406937283141971 -0.25770298561977001 0 -0.17546866158097579 -0.2421137530079521 0 -0.1700786835347142 -0.24999082881087981 0 -0.17546866158097579 -0.2421137530079521 0 -0.1700786835347142 -0.24999082881087981 0 -0.16633186216588799 -0.24409735769854621 0 -0.14782351302482491 -0.2386644030812291 0 -0.16072632258199471 -0.23301808816783001 0 -0.16633186216588799 -0.24409735769854621 0 -0.16814771319536409 -0.23042687735302811 0 -0.17546866158097579 -0.2421137530079521 0 -0.16633186216588799 -0.24409735769854621 0 -0.16072632258199471 -0.23301808816783001 0 -0.16814771319536409 -0.23042687735302811 0 -0.16633186216588799 -0.24409735769854621 0 -0.20547015646107639 -0.23790952915346961 0 -0.22711685140145391 -0.24966487257267911 0 -0.20417370410649149 -0.25620768174026509 0 -0.20547015646107639 -0.23790952915346961 0 -0.22711685140145391 -0.24966487257267911 0 -0.1872355913336172 -0.23814440055559441 0 -0.20547015646107639 -0.23790952915346961 0 -0.190939978598095 -0.24849318492040501 0 -0.20417370410649149 -0.25620768174026509 0 -0.20547015646107639 -0.23790952915346961 0 -0.190939978598095 -0.24849318492040501 0 -0.1892821167481343 -0.22705330201164439 0 -0.2051556785593962 -0.21802534774739349 0 -0.18912196588717631 -0.21383443330107851 0 -0.1872355913336172 -0.23814440055559441 0 -0.20547015646107639 -0.23790952915346961 0 -0.1892821167481343 -0.22705330201164439 0 -0.20547015646107639 -0.23790952915346961 0 -0.1892821167481343 -0.22705330201164439 0 -0.2051556785593962 -0.21802534774739349 0 -0.20547015646107639 -0.23790952915346961 0 -0.2051556785593962 -0.21802534774739349 0 -0.2281284047462116 -0.22320730147165979 0 -0.21758306461001389 -0.20398987265201321 0 -0.2051556785593962 -0.21802534774739349 0 -0.2281284047462116 -0.22320730147165979 0 -0.21758306461001389 -0.20398987265201321 0 -0.2051556785593962 -0.21802534774739349 0 -0.2013483629037647 -0.20215764789449539 0 -0.2051556785593962 -0.21802534774739349 0 -0.18912196588717631 -0.21383443330107851 0 -0.2013483629037647 -0.20215764789449539 0 -0.18718343819716901 -0.20228926221588259 0 -0.18912196588717631 -0.21383443330107851 0 -0.2013483629037647 -0.20215764789449539 0 -0.186532651512094 -0.17874484348148439 0 -0.18718343819716901 -0.20228926221588259 0 -0.2001718056706018 -0.18952049536165261 0 -0.18718343819716901 -0.20228926221588259 0 -0.2013483629037647 -0.20215764789449539 0 -0.2001718056706018 -0.18952049536165261 0 -0.2013483629037647 -0.20215764789449539 0 -0.2140875043597131 -0.1830907527564373 0 -0.2013483629037647 -0.20215764789449539 0 -0.2001718056706018 -0.18952049536165261 0 -0.2140875043597131 -0.1830907527564373 0 -0.21758306461001389 -0.20398987265201321 0 -0.2013483629037647 -0.20215764789449539 0 -0.2140875043597131 -0.1830907527564373 0 -0.2363514271167643 -0.19965268103111761 0 -0.2140875043597131 -0.1830907527564373 0 -0.21758306461001389 -0.20398987265201321 0 -0.2363514271167643 -0.19965268103111761 0 -0.2140875043597131 -0.1830907527564373 0 -0.2363514271167643 -0.19965268103111761 0 -0.2140875043597131 -0.1830907527564373 0 -0.23516414575240349 -0.1811258014197086 0 -0.2363514271167643 -0.19965268103111761 0 -0.23516414575240349 -0.1811258014197086 0 -0.25212863190646589 -0.18758367788035241 0 -0.2363514271167643 -0.19965268103111761 0 -0.25861534987381563 -0.21621460930579781 0 -0.25212863190646589 -0.18758367788035241 0 -0.2363514271167643 -0.19965268103111761 0 -0.25861534987381563 -0.21621460930579781 0 -0.2363514271167643 -0.19965268103111761 0 -0.2281284047462116 -0.22320730147165979 0 -0.25861534987381563 -0.21621460930579781 0 -0.21758306461001389 -0.20398987265201321 0 -0.2363514271167643 -0.19965268103111761 0 -0.2281284047462116 -0.22320730147165979 0 -0.2281284047462116 -0.22320730147165979 0 -0.24989835989336101 -0.23830645409789369 0 -0.25861534987381563 -0.21621460930579781 0 -0.24876354634183129 -0.26142021599188858 0 -0.24989835989336101 -0.23830645409789369 0 -0.22711685140145391 -0.24966487257267911 0 -0.2281284047462116 -0.22320730147165979 0 -0.24989835989336101 -0.23830645409789369 0 -0.22711685140145391 -0.24966487257267911 0 -0.20547015646107639 -0.23790952915346961 0 -0.2281284047462116 -0.22320730147165979 0 -0.22711685140145391 -0.24966487257267911 0 -0.21283617281832459 -0.1380284784528453 0 -0.19968441216520899 -0.15838666096716461 0 -0.2165403678031953 -0.15156138336659561 0 -0.21283617281832459 -0.1380284784528453 0 -0.19968441216520899 -0.15838666096716461 0 -0.2165403678031953 -0.15156138336659561 0 -0.21283617281832459 -0.1380284784528453 0 -0.219211768396809 -0.13729716983912571 0 -0.21283617281832459 -0.1380284784528453 0 -0.21101579014764871 -0.12501844806931431 0 -0.22658892824439031 -0.11673998998173329 0 -0.21283617281832459 -0.1380284784528453 0 -0.219211768396809 -0.13729716983912571 0 -0.21283617281832459 -0.1380284784528453 0 -0.21101579014764871 -0.12501844806931431 0 -0.20110600767141479 -0.12836973722852019 0 -0.20110600767141479 -0.12836973722852019 0 -0.18862743076468319 -0.14080532672893739 0 -0.1890056913884601 -0.12243296769377079 0 -0.21283617281832459 -0.1380284784528453 0 -0.18862743076468319 -0.14080532672893739 0 -0.21283617281832459 -0.1380284784528453 0 -0.20110600767141479 -0.12836973722852019 0 -0.18862743076468319 -0.14080532672893739 0 -0.18127538949909161 -0.15769661922980779 0 -0.18862743076468319 -0.14080532672893739 0 -0.19968441216520899 -0.15838666096716461 0 -0.21283617281832459 -0.1380284784528453 0 -0.18862743076468319 -0.14080532672893739 0 -0.19968441216520899 -0.15838666096716461 0 -0.186532651512094 -0.17874484348148439 0 -0.19968441216520899 -0.15838666096716461 0 -0.186532651512094 -0.17874484348148439 0 -0.19968441216520899 -0.15838666096716461 0 -0.2115662199217262 -0.16715999780429691 0 -0.186532651512094 -0.17874484348148439 0 -0.18127538949909161 -0.15769661922980779 0 -0.19968441216520899 -0.15838666096716461 0 -0.186532651512094 -0.17874484348148439 0 -0.2001718056706018 -0.18952049536165261 0 -0.2117070713802682 -0.18131997045996351 0 -0.186532651512094 -0.17874484348148439 0 -0.2117070713802682 -0.18131997045996351 0 -0.2115662199217262 -0.16715999780429691 0 -0.2117070713802682 -0.18131997045996351 0 -0.2140875043597131 -0.1830907527564373 0 -0.2115662199217262 -0.16715999780429691 0 -0.2001718056706018 -0.18952049536165261 0 -0.2117070713802682 -0.18131997045996351 0 -0.2140875043597131 -0.1830907527564373 0 -0.2117070713802682 -0.18131997045996351 0 -0.2140875043597131 -0.1830907527564373 0 -0.2140875043597131 -0.1830907527564373 0 -0.2115662199217262 -0.16715999780429691 0 -0.22710121332326819 -0.16361290764236891 0 -0.2165403678031953 -0.15156138336659561 0 -0.19968441216520899 -0.15838666096716461 0 -0.2115662199217262 -0.16715999780429691 0 -0.2165403678031953 -0.15156138336659561 0 -0.2115662199217262 -0.16715999780429691 0 -0.22710121332326819 -0.16361290764236891 0 -0.2140875043597131 -0.1830907527564373 0 -0.22710121332326819 -0.16361290764236891 0 -0.23516414575240349 -0.1811258014197086 0 -0.2140875043597131 -0.1830907527564373 0 -0.22710121332326819 -0.16361290764236891 0 -0.23516414575240349 -0.1811258014197086 0 -0.246257151433389 -0.1704744636295033 0 -0.25212863190646589 -0.18758367788035241 0 -0.22710121332326819 -0.16361290764236891 0 -0.246257151433389 -0.1704744636295033 0 -0.24011492228682069 -0.14413506252829891 0 -0.22710121332326819 -0.16361290764236891 0 -0.23516414575240349 -0.1811258014197086 0 -0.246257151433389 -0.1704744636295033 0 -0.246257151433389 -0.1704744636295033 0 -0.24011492228682069 -0.14413506252829891 0 -0.25774570330959201 -0.156156548550547 0 -0.2165403678031953 -0.15156138336659561 0 -0.22710121332326819 -0.16361290764236891 0 -0.22718622747782741 -0.14544722865281401 0 -0.22710121332326819 -0.16361290764236891 0 -0.24011492228682069 -0.14413506252829891 0 -0.22718622747782741 -0.14544722865281401 0 -0.22710121332326819 -0.16361290764236891 0 -0.24011492228682069 -0.14413506252829891 0 -0.2165403678031953 -0.15156138336659561 0 -0.22718622747782741 -0.14544722865281401 0 -0.219211768396809 -0.13729716983912571 0 -0.219211768396809 -0.13729716983912571 0 -0.2329628655790438 -0.13062961988768071 0 -0.22658892824439031 -0.11673998998173329 0 -0.21283617281832459 -0.1380284784528453 0 -0.22658892824439031 -0.11673998998173329 0 -0.21283617281832459 -0.1380284784528453 0 -0.219211768396809 -0.13729716983912571 0 -0.22658892824439031 -0.11673998998173329 0 -0.22718622747782741 -0.14544722865281401 0 -0.219211768396809 -0.13729716983912571 0 -0.2329628655790438 -0.13062961988768071 0 -0.24011492228682069 -0.14413506252829891 0 -0.22718622747782741 -0.14544722865281401 0 -0.2329628655790438 -0.13062961988768071 0 -0.24011492228682069 -0.14413506252829891 0 -0.2329628655790438 -0.13062961988768071 0 -0.25312863125037333 -0.1246572174142288 0 -0.24011492228682069 -0.14413506252829891 0 -0.25312863125037333 -0.1246572174142288 0 -0.24011492228682069 -0.14413506252829891 0 -0.25312863125037333 -0.1246572174142288 0 -0.25668482308106672 -0.1404363802033636 0 -0.2329628655790438 -0.13062961988768071 0 -0.24549615620154941 -0.11112744676863361 0 -0.25312863125037333 -0.1246572174142288 0 -0.2329628655790438 -0.13062961988768071 0 -0.24549615620154941 -0.11112744676863361 0 -0.22658892824439031 -0.11673998998173329 0 -0.24549615620154941 -0.11112744676863361 0 -0.24034168367045661 -0.095451501510621803 0 -0.25366668772815121 -0.096726339018103652 0 -0.24549615620154941 -0.11112744676863361 0 -0.24034168367045661 -0.095451501510621803 0 -0.22658892824439031 -0.11673998998173329 0 -0.24034168367045661 -0.095451501510621803 0 -0.22408287311362521 -0.098050490248583977 0 -0.2320434380184391 -0.088062199969720589 0 -0.24034168367045661 -0.095451501510621803 0 -0.22658892824439031 -0.11673998998173329 0 -0.22408287311362521 -0.098050490248583977 0 -0.22658892824439031 -0.11673998998173329 0 -0.20814474719130771 -0.10030401076982159 0 -0.24034168367045661 -0.095451501510621803 0 -0.22408287311362521 -0.098050490248583977 0 -0.22658892824439031 -0.11673998998173329 0 -0.2488697779185696 -0.075779501886236472 0 -0.2268745240164064 -0.057539010591946431 0 -0.2488697779185696 -0.075779501886236472 0 -0.23081001933038561 -0.076635886078903551 0 -0.2268745240164064 -0.057539010591946431 0 -0.2488697779185696 -0.075779501886236472 0 -0.2268745240164064 -0.057539010591946431 0 -0.2551972689140185 -0.060653890543726822 0 -0.2488697779185696 -0.075779501886236472 0 -0.24381590757975771 -0.087860574553937365 0 -0.23081001933038561 -0.076635886078903551 0 -0.2488697779185696 -0.075779501886236472 0 -0.24381590757975771 -0.087860574553937365 0 -0.25366668772815121 -0.096726339018103652 0 -0.24381590757975771 -0.087860574553937365 0 -0.2320434380184391 -0.088062199969720589 0 -0.23081001933038561 -0.076635886078903551 0 -0.2488697779185696 -0.075779501886236472 0 -0.24381590757975771 -0.087860574553937365 0 -0.24034168367045661 -0.095451501510621803 0 -0.24381590757975771 -0.087860574553937365 0 -0.25366668772815121 -0.096726339018103652 0 -0.24034168367045661 -0.095451501510621803 0 -0.24381590757975771 -0.087860574553937365 0 -0.2320434380184391 -0.088062199969720589 0 -0.22408287311362521 -0.098050490248583977 0 -0.2320434380184391 -0.088062199969720589 0 -0.21939296814632769 -0.083499052138469573 0 -0.2320434380184391 -0.088062199969720589 0 -0.21939296814632769 -0.083499052138469573 0 -0.23081001933038561 -0.076635886078903551 0 -0.21939296814632769 -0.083499052138469573 0 -0.23081001933038561 -0.076635886078903551 0 -0.21297663117699159 -0.067668229674067965 0 -0.23081001933038561 -0.076635886078903551 0 -0.21297663117699159 -0.067668229674067965 0 -0.2268745240164064 -0.057539010591946431 0 -0.21939296814632769 -0.083499052138469573 0 -0.21297663117699159 -0.067668229674067965 0 -0.20198426042383469 -0.079125519980971587 0 -0.21297663117699159 -0.067668229674067965 0 -0.20198426042383469 -0.079125519980971587 0 -0.1970759816917039 -0.061452388398234192 0 -0.21939296814632769 -0.083499052138469573 0 -0.20198426042383469 -0.079125519980971587 0 -0.20814474719130771 -0.10030401076982159 0 -0.20198426042383469 -0.079125519980971587 0 -0.19180546408096599 -0.091313899250062627 0 -0.18250977025571119 -0.070515539655173654 0 -0.20198426042383469 -0.079125519980971587 0 -0.19180546408096599 -0.091313899250062627 0 -0.20814474719130771 -0.10030401076982159 0 -0.20198426042383469 -0.079125519980971587 0 -0.18250977025571119 -0.070515539655173654 0 -0.1970759816917039 -0.061452388398234192 0 -0.21101579014764871 -0.12501844806931431 0 -0.22658892824439031 -0.11673998998173329 0 -0.20225753361295629 -0.1161079719799597 0 -0.22658892824439031 -0.11673998998173329 0 -0.20814474719130771 -0.10030401076982159 0 -0.20225753361295629 -0.1161079719799597 0 -0.21101579014764871 -0.12501844806931431 0 -0.20110600767141479 -0.12836973722852019 0 -0.20225753361295629 -0.1161079719799597 0 -0.22408287311362521 -0.098050490248583977 0 -0.21939296814632769 -0.083499052138469573 0 -0.20814474719130771 -0.10030401076982159 0 -0.20814474719130771 -0.10030401076982159 0 -0.19029012214975971 -0.1061323617106268 0 -0.20225753361295629 -0.1161079719799597 0 -0.19180546408096599 -0.091313899250062627 0 -0.20814474719130771 -0.10030401076982159 0 -0.19029012214975971 -0.1061323617106268 0 -0.19029012214975971 -0.1061323617106268 0 -0.20225753361295629 -0.1161079719799597 0 -0.1890056913884601 -0.12243296769377079 0 -0.20110600767141479 -0.12836973722852019 0 -0.20225753361295629 -0.1161079719799597 0 -0.1890056913884601 -0.12243296769377079 0 -0.19029012214975971 -0.1061323617106268 0 -0.1890056913884601 -0.12243296769377079 0 -0.17561844705302759 -0.11400965177223769 0 -0.1761346070789192 -0.12917275674234299 0 -0.1890056913884601 -0.12243296769377079 0 -0.17561844705302759 -0.11400965177223769 0 -0.1761346070789192 -0.12917275674234299 0 -0.16154726364496261 -0.1257936939382889 0 -0.17561844705302759 -0.11400965177223769 0 -0.16154726364496261 -0.1257936939382889 0 -0.15867583857888351 -0.108005212871549 0 -0.16154726364496261 -0.1257936939382889 0 -0.17561844705302759 -0.11400965177223769 0 -0.15867583857888351 -0.108005212871549 0 -0.17561844705302759 -0.11400965177223769 0 -0.15867583857888351 -0.108005212871549 0 -0.17345333573941971 -0.093385700224457108 0 -0.15867583857888351 -0.108005212871549 0 -0.17345333573941971 -0.093385700224457108 0 -0.15284256044055031 -0.087432150532791741 0 -0.19180546408096599 -0.091313899250062627 0 -0.19029012214975971 -0.1061323617106268 0 -0.17345333573941971 -0.093385700224457108 0 -0.19029012214975971 -0.1061323617106268 0 -0.17561844705302759 -0.11400965177223769 0 -0.17345333573941971 -0.093385700224457108 0 -0.19180546408096599 -0.091313899250062627 0 -0.17345333573941971 -0.093385700224457108 0 -0.18250977025571119 -0.070515539655173654 0 -0.17345333573941971 -0.093385700224457108 0 -0.18250977025571119 -0.070515539655173654 0 -0.16175352633887771 -0.071020454360250562 0 -0.18250977025571119 -0.070515539655173654 0 -0.16175352633887771 -0.071020454360250562 0 -0.1670901020825899 -0.055883536380950831 0 -0.17345333573941971 -0.093385700224457108 0 -0.16175352633887771 -0.071020454360250562 0 -0.15284256044055031 -0.087432150532791741 0 -0.15284256044055031 -0.087432150532791741 0 -0.14363734859906491 -0.071625315802813533 0 -0.1394698713342836 -0.085445713853372962 0 -0.15284256044055031 -0.087432150532791741 0 -0.1394698713342836 -0.085445713853372962 0 -0.14319384263424159 -0.1000729980580238 0 -0.16175352633887771 -0.071020454360250562 0 -0.14363734859906491 -0.071625315802813533 0 -0.14856586735466171 -0.054225640967750482 0 -0.16175352633887771 -0.071020454360250562 0 -0.15284256044055031 -0.087432150532791741 0 -0.14363734859906491 -0.071625315802813533 0 -0.14363734859906491 -0.071625315802813533 0 -0.1289790153712333 -0.076043975646273576 0 -0.12919619153410361 -0.060953576210378183 0 -0.14363734859906491 -0.071625315802813533 0 -0.1289790153712333 -0.076043975646273576 0 -0.1394698713342836 -0.085445713853372962 0 -0.1289790153712333 -0.076043975646273576 0 -0.1394698713342836 -0.085445713853372962 0 -0.1286965896263278 -0.09205412922696217 0 -0.1394698713342836 -0.085445713853372962 0 -0.1286965896263278 -0.09205412922696217 0 -0.14319384263424159 -0.1000729980580238 0 -0.12872939012085319 -0.1095598666096089 0 -0.14719369339459509 -0.1157259519914131 0 -0.14319384263424159 -0.1000729980580238 0 -0.1286965896263278 -0.09205412922696217 0 -0.12872939012085319 -0.1095598666096089 0 -0.14319384263424159 -0.1000729980580238 0 -0.11915644306988329 -0.120448084611313 0 -0.12872939012085319 -0.1095598666096089 0 -0.13566627979888959 -0.1233789387536921 0 -0.11915644306988329 -0.120448084611313 0 -0.13566627979888959 -0.1233789387536921 0 -0.12872939012085319 -0.1095598666096089 0 -0.13566627979888959 -0.1233789387536921 0 -0.14719369339459509 -0.1157259519914131 0 -0.16154726364496261 -0.1257936939382889 0 -0.15867583857888351 -0.108005212871549 0 -0.14719369339459509 -0.1157259519914131 0 -0.1479822246262561 -0.13128011843294871 0 -0.13566627979888959 -0.1233789387536921 0 -0.14719369339459509 -0.1157259519914131 0 -0.1479822246262561 -0.13128011843294871 0 -0.16154726364496261 -0.1257936939382889 0 -0.14719369339459509 -0.1157259519914131 0 -0.15867583857888351 -0.108005212871549 0 -0.14719369339459509 -0.1157259519914131 0 -0.14319384263424159 -0.1000729980580238 0 -0.15867583857888351 -0.108005212871549 0 -0.15284256044055031 -0.087432150532791741 0 -0.14319384263424159 -0.1000729980580238 0 -0.14343688715876179 -0.026948831938323752 0 -0.15604765462018341 -0.01497278891465954 0 -0.14000901046399741 -0.0081028567396055073 0 -0.14343688715876179 -0.026948831938323752 0 -0.15490257956689449 -0.02967570323230867 0 -0.15604765462018341 -0.01497278891465954 0 -0.15604765462018341 -0.01497278891465954 0 -0.15099250442119541 -0.004428830050453466 0 -0.14000901046399741 -0.0081028567396055073 0 -0.15099250442119541 -0.004428830050453466 0 -0.14000901046399741 -0.0081028567396055073 0 -0.14607836832192481 0.0063319350441953769 0 -0.14000901046399741 -0.0081028567396055073 0 -0.12548489126423831 -0.02026699362628535 0 -0.13075612475438511 0.0058251469333105909 0 -0.14000901046399741 -0.0081028567396055073 0 -0.13075612475438511 0.0058251469333105909 0 -0.14343688715876179 -0.026948831938323752 0 -0.12548489126423831 -0.02026699362628535 0 -0.1322439895030865 -0.045301615088265711 0 -0.14343688715876179 -0.026948831938323752 0 -0.14000901046399741 -0.0081028567396055073 0 -0.12548489126423831 -0.02026699362628535 0 -0.14343688715876179 -0.026948831938323752 0 -0.1322439895030865 -0.045301615088265711 0 -0.1457972816415703 -0.040977900739995882 0 -0.12548489126423831 -0.02026699362628535 0 -0.1322439895030865 -0.045301615088265711 0 -0.1322439895030865 -0.045301615088265711 0 -0.12919619153410361 -0.060953576210378183 0 -0.14856586735466171 -0.054225640967750482 0 -0.14363734859906491 -0.071625315802813533 0 -0.12919619153410361 -0.060953576210378183 0 -0.14856586735466171 -0.054225640967750482 0 -0.1322439895030865 -0.045301615088265711 0 -0.14856586735466171 -0.054225640967750482 0 -0.1457972816415703 -0.040977900739995882 0 -0.14343688715876179 -0.026948831938323752 0 -0.15490257956689449 -0.02967570323230867 0 -0.1457972816415703 -0.040977900739995882 0 -0.14856586735466171 -0.054225640967750482 0 -0.1457972816415703 -0.040977900739995882 0 -0.1606840092303306 -0.039074759812040477 0 -0.15490257956689449 -0.02967570323230867 0 -0.1457972816415703 -0.040977900739995882 0 -0.1606840092303306 -0.039074759812040477 0 -0.1606840092303306 -0.039074759812040477 0 -0.18193733723336811 -0.044581287109538979 0 -0.16854706518362639 -0.02640423475652369 0 -0.15490257956689449 -0.02967570323230867 0 -0.1606840092303306 -0.039074759812040477 0 -0.16854706518362639 -0.02640423475652369 0 -0.1606840092303306 -0.039074759812040477 0 -0.1670901020825899 -0.055883536380950831 0 -0.18193733723336811 -0.044581287109538979 0 -0.16175352633887771 -0.071020454360250562 0 -0.14856586735466171 -0.054225640967750482 0 -0.1670901020825899 -0.055883536380950831 0 -0.14856586735466171 -0.054225640967750482 0 -0.1606840092303306 -0.039074759812040477 0 -0.1670901020825899 -0.055883536380950831 0 -0.18250977025571119 -0.070515539655173654 0 -0.1670901020825899 -0.055883536380950831 0 -0.18193733723336811 -0.044581287109538979 0 -0.18250977025571119 -0.070515539655173654 0 -0.18193733723336811 -0.044581287109538979 0 -0.1970759816917039 -0.061452388398234192 0 -0.18193733723336811 -0.044581287109538979 0 -0.18288401621207931 -0.02105802800336742 0 -0.16854706518362639 -0.02640423475652369 0 -0.18288401621207931 -0.02105802800336742 0 -0.16854706518362639 -0.02640423475652369 0 -0.17294498654234369 -0.0122263724321255 0 -0.15604765462018341 -0.01497278891465954 0 -0.16854706518362639 -0.02640423475652369 0 -0.17294498654234369 -0.0122263724321255 0 -0.15490257956689449 -0.02967570323230867 0 -0.15604765462018341 -0.01497278891465954 0 -0.16854706518362639 -0.02640423475652369 0 -0.15604765462018341 -0.01497278891465954 0 -0.16183498427867579 -0.00097160959174419749 0 -0.17294498654234369 -0.0122263724321255 0 -0.15604765462018341 -0.01497278891465954 0 -0.15099250442119541 -0.004428830050453466 0 -0.16183498427867579 -0.00097160959174419749 0 -0.16183498427867579 -0.00097160959174419749 0 -0.17294498654234369 -0.0122263724321255 0 -0.17305096232402961 0.00049290249629801335 0 -0.17294498654234369 -0.0122263724321255 0 -0.18470174963523309 -0.0019690094300132861 0 -0.2019175876605562 -0.0127588384712991 0 -0.17294498654234369 -0.0122263724321255 0 -0.18470174963523309 -0.0019690094300132861 0 -0.17305096232402961 0.00049290249629801335 0 -0.17294498654234369 -0.0122263724321255 0 -0.2019175876605562 -0.0127588384712991 0 -0.18288401621207931 -0.02105802800336742 0 -0.17294498654234369 -0.0122263724321255 0 -0.2019175876605562 -0.0127588384712991 0 -0.18470174963523309 -0.0019690094300132861 0 -0.2019175876605562 -0.0127588384712991 0 -0.19437686202530899 0.0052731115349927754 0 -0.2019175876605562 -0.0127588384712991 0 -0.19437686202530899 0.0052731115349927754 0 -0.2119586008147108 0.0066305386727853188 0 -0.18288401621207931 -0.02105802800336742 0 -0.2019175876605562 -0.0127588384712991 0 -0.20487927011424281 -0.039298519297656848 0 -0.18288401621207931 -0.02105802800336742 0 -0.20487927011424281 -0.039298519297656848 0 -0.2019175876605562 -0.0127588384712991 0 -0.20487927011424281 -0.039298519297656848 0 -0.225774011945198 -0.034665297456746347 0 -0.2019175876605562 -0.0127588384712991 0 -0.23089018877876871 -0.01329130451047569 0 -0.2119586008147108 0.0066305386727853188 0 -0.2019175876605562 -0.0127588384712991 0 -0.23089018877876871 -0.01329130451047569 0 -0.18193733723336811 -0.044581287109538979 0 -0.1970759816917039 -0.061452388398234192 0 -0.20487927011424281 -0.039298519297656848 0 -0.18193733723336811 -0.044581287109538979 0 -0.18288401621207931 -0.02105802800336742 0 -0.20487927011424281 -0.039298519297656848 0 -0.20487927011424281 -0.039298519297656848 0 -0.2268745240164064 -0.057539010591946431 0 -0.21297663117699159 -0.067668229674067965 0 -0.20487927011424281 -0.039298519297656848 0 -0.2268745240164064 -0.057539010591946431 0 -0.21297663117699159 -0.067668229674067965 0 -0.1970759816917039 -0.061452388398234192 0 -0.20487927011424281 -0.039298519297656848 0 -0.2268745240164064 -0.057539010591946431 0 -0.225774011945198 -0.034665297456746347 0 -0.2431298504914769 -0.045749333938962862 0 -0.20487927011424281 -0.039298519297656848 0 -0.2268745240164064 -0.057539010591946431 0 -0.225774011945198 -0.034665297456746347 0 -0.225774011945198 -0.034665297456746347 0 -0.2431298504914769 -0.045749333938962862 0 -0.24620747434413121 -0.029409791855848761 0 -0.2268745240164064 -0.057539010591946431 0 -0.2431298504914769 -0.045749333938962862 0 -0.2551972689140185 -0.060653890543726822 0 -0.23089018877876871 -0.01329130451047569 0 -0.24303175099561669 -3.621966391047747e-05 0 -0.2291315795601446 0.0069470735912481613 0 -0.23089018877876871 -0.01329130451047569 0 -0.2119586008147108 0.0066305386727853188 0 -0.2019175876605562 -0.0127588384712991 0 -0.225774011945198 -0.034665297456746347 0 -0.23089018877876871 -0.01329130451047569 0 -0.225774011945198 -0.034665297456746347 0 -0.23089018877876871 -0.01329130451047569 0 -0.24620747434413121 -0.029409791855848761 0 -0.23089018877876871 -0.01329130451047569 0 -0.24620747434413121 -0.029409791855848761 0 -0.25446267790770621 -0.019150425117560391 0 -0.23089018877876871 -0.01329130451047569 0 -0.24620747434413121 -0.029409791855848761 0 -0.23089018877876871 -0.01329130451047569 0 -0.2551161695535929 -0.013736535919818819 0 -0.25446267790770621 -0.019150425117560391 0 -0.23089018877876871 -0.01329130451047569 0 -0.24303175099561669 -3.621966391047747e-05 0 -0.2551161695535929 -0.013736535919818819 0 -0.23089018877876871 -0.01329130451047569 0 -0.2551161695535929 -0.013736535919818819 0 -0.24303175099561669 -3.621966391047747e-05 0 -0.2551161695535929 -0.013736535919818819 0 -0.25787057662258511 0.0090825081656799068 0 -0.2551161695535929 -0.013736535919818819 0 -0.26156658598731591 -0.01385508335970702 0 -0.26176466031880408 0.0067748989074470174 0 -0.26251651047541902 -0.01729268663862182 0 -0.26176466031880408 0.0067748989074470174 0 -0.2551161695535929 -0.013736535919818819 0 -0.25787057662258511 0.0090825081656799068 0 -0.26156658598731591 -0.01385508335970702 0 -0.26251651047541902 -0.01729268663862182 0 -0.26176466031880408 0.0067748989074470174 0 -0.2551161695535929 -0.013736535919818819 0 -0.26156658598731591 -0.01385508335970702 0 -0.2551161695535929 -0.013736535919818819 0 -0.26156658598731591 -0.01385508335970702 0 -0.26251651047541902 -0.01729268663862182 0 -0.25759595665375729 -0.0305482909995884 0 -0.26251651047541902 -0.01729268663862182 0 -0.26326836063203529 -0.041360272184690683 0 -0.26251651047541902 -0.01729268663862182 0 -0.26326836063203529 -0.041360272184690683 0 -0.24620747434413121 -0.029409791855848761 0 -0.25759595665375729 -0.0305482909995884 0 -0.25446267790770621 -0.019150425117560391 0 -0.2551161695535929 -0.013736535919818819 0 -0.25446267790770621 -0.019150425117560391 0 -0.26251651047541902 -0.01729268663862182 0 -0.2551161695535929 -0.013736535919818819 0 -0.25446267790770621 -0.019150425117560391 0 -0.25759595665375729 -0.0305482909995884 0 -0.25446267790770621 -0.019150425117560391 0 -0.26251651047541902 -0.01729268663862182 0 -0.26251651047541902 -0.01729268663862182 0 -0.2711871077279977 -0.02243082748389948 0 -0.26326836063203529 -0.041360272184690683 0 -0.2711871077279977 -0.02243082748389948 0 -0.28447663231656078 -0.03038486780875296 0 -0.27355464239612381 -0.037268902723832299 0 -0.26251651047541902 -0.01729268663862182 0 -0.27910585482396022 -0.0035013827831082982 0 -0.26176466031880408 0.0067748989074470174 0 -0.2711871077279977 -0.02243082748389948 0 -0.27910585482396022 -0.0035013827831082982 0 -0.2711871077279977 -0.02243082748389948 0 -0.27910585482396022 -0.0035013827831082982 0 -0.28822746119740639 -0.014944607521494671 0 -0.26251651047541902 -0.01729268663862182 0 -0.2711871077279977 -0.02243082748389948 0 -0.27910585482396022 -0.0035013827831082982 0 -0.27910585482396022 -0.0035013827831082982 0 -0.30033541882169118 -0.016081887531116001 0 -0.29833887850498592 0.002256491039042967 0 -0.27910585482396022 -0.0035013827831082982 0 -0.28822746119740639 -0.014944607521494671 0 -0.30033541882169118 -0.016081887531116001 0 -0.27910585482396022 -0.0035013827831082982 0 -0.30033541882169118 -0.016081887531116001 0 -0.2711871077279977 -0.02243082748389948 0 -0.28822746119740639 -0.014944607521494671 0 -0.28447663231656078 -0.03038486780875296 0 -0.28822746119740639 -0.014944607521494671 0 -0.28447663231656078 -0.03038486780875296 0 -0.30302747497662091 -0.034983678467386321 0 -0.28822746119740639 -0.014944607521494671 0 -0.30302747497662091 -0.034983678467386321 0 -0.30033541882169118 -0.016081887531116001 0 -0.31456436453017589 -0.01277254369142115 0 -0.3215649828194207 -0.02866239227912613 0 -0.30033541882169118 -0.016081887531116001 0 -0.3215649828194207 -0.02866239227912613 0 -0.30033541882169118 -0.016081887531116001 0 -0.30302747497662091 -0.034983678467386321 0 -0.3215649828194207 -0.02866239227912613 0 -0.28822746119740639 -0.014944607521494671 0 -0.30033541882169118 -0.016081887531116001 0 -0.30302747497662091 -0.034983678467386321 0 -0.30033541882169118 -0.016081887531116001 0 -0.30703939928731888 -0.0064055565165951761 0 -0.31456436453017589 -0.01277254369142115 0 -0.30033541882169118 -0.016081887531116001 0 -0.30703939928731888 -0.0064055565165951761 0 -0.29833887850498592 0.002256491039042967 0 -0.30703939928731888 -0.0064055565165951761 0 -0.31781106994819258 -0.000210754061642178 0 -0.29833887850498592 0.002256491039042967 0 -0.29854687093999299 -0.054395144317864422 0 -0.3034598201129286 -0.069150847778467181 0 -0.31782748875583539 -0.055022749413277977 0 -0.29854687093999299 -0.054395144317864422 0 -0.30302747497662091 -0.034983678467386321 0 -0.31782748875583539 -0.055022749413277977 0 -0.30302747497662091 -0.034983678467386321 0 -0.31782748875583539 -0.055022749413277977 0 -0.28447663231656078 -0.03038486780875296 0 -0.30302747497662091 -0.034983678467386321 0 -0.28537885418181708 -0.044601424994911112 0 -0.29854687093999299 -0.054395144317864422 0 -0.30302747497662091 -0.034983678467386321 0 -0.28537885418181708 -0.044601424994911112 0 -0.29854687093999299 -0.054395144317864422 0 -0.28537885418181708 -0.044601424994911112 0 -0.28234582379261641 -0.067438431185077224 0 -0.26346225712220589 -0.047567121146907317 0 -0.28234582379261641 -0.067438431185077224 0 -0.26383609867298458 -0.059534217814781049 0 -0.26346225712220589 -0.047567121146907317 0 -0.28234582379261641 -0.067438431185077224 0 -0.28537885418181708 -0.044601424994911112 0 -0.26346225712220589 -0.047567121146907317 0 -0.28234582379261641 -0.067438431185077224 0 -0.28537885418181708 -0.044601424994911112 0 -0.27355464239612381 -0.037268902723832299 0 -0.26346225712220589 -0.047567121146907317 0 -0.2711871077279977 -0.02243082748389948 0 -0.27355464239612381 -0.037268902723832299 0 -0.26326836063203529 -0.041360272184690683 0 -0.2711871077279977 -0.02243082748389948 0 -0.26326836063203529 -0.041360272184690683 0 -0.28447663231656078 -0.03038486780875296 0 -0.28537885418181708 -0.044601424994911112 0 -0.27355464239612381 -0.037268902723832299 0 -0.27355464239612381 -0.037268902723832299 0 -0.26326836063203529 -0.041360272184690683 0 -0.26346225712220589 -0.047567121146907317 0 -0.24620747434413121 -0.029409791855848761 0 -0.25759595665375729 -0.0305482909995884 0 -0.26152475990948898 -0.045528279201226103 0 -0.2431298504914769 -0.045749333938962862 0 -0.24620747434413121 -0.029409791855848761 0 -0.26152475990948898 -0.045528279201226103 0 -0.24620747434413121 -0.029409791855848761 0 -0.26152475990948898 -0.045528279201226103 0 -0.25759595665375729 -0.0305482909995884 0 -0.26326836063203529 -0.041360272184690683 0 -0.26152475990948898 -0.045528279201226103 0 -0.26326836063203529 -0.041360272184690683 0 -0.26346225712220589 -0.047567121146907317 0 -0.26326836063203529 -0.041360272184690683 0 -0.26152475990948898 -0.045528279201226103 0 -0.26346225712220589 -0.047567121146907317 0 -0.26326836063203529 -0.041360272184690683 0 -0.26152475990948898 -0.045528279201226103 0 -0.26152475990948898 -0.045528279201226103 0 -0.26346225712220589 -0.047567121146907317 0 -0.2431298504914769 -0.045749333938962862 0 -0.26152475990948898 -0.045528279201226103 0 -0.2551972689140185 -0.060653890543726822 0 -0.26383609867298458 -0.059534217814781049 0 -0.26346225712220589 -0.047567121146907317 0 -0.2551972689140185 -0.060653890543726822 0 -0.26383609867298458 -0.059534217814781049 0 -0.26346225712220589 -0.047567121146907317 0 -0.26152475990948898 -0.045528279201226103 0 -0.26346225712220589 -0.047567121146907317 0 -0.2551972689140185 -0.060653890543726822 0 -0.26152475990948898 -0.045528279201226103 0 -0.2551972689140185 -0.060653890543726822 0 -0.2488697779185696 -0.075779501886236472 0 -0.2551972689140185 -0.060653890543726822 0 -0.26160522199428432 -0.072951293048690857 0 -0.2488697779185696 -0.075779501886236472 0 -0.2551972689140185 -0.060653890543726822 0 -0.26383609867298458 -0.059534217814781049 0 -0.2551972689140185 -0.060653890543726822 0 -0.26160522199428432 -0.072951293048690857 0 -0.2488697779185696 -0.075779501886236472 0 -0.26160522199428432 -0.072951293048690857 0 -0.26657926356277772 -0.090465839227754058 0 -0.2488697779185696 -0.075779501886236472 0 -0.26657926356277772 -0.090465839227754058 0 -0.25366668772815121 -0.096726339018103652 0 -0.2488697779185696 -0.075779501886236472 0 -0.26657926356277772 -0.090465839227754058 0 -0.26160522199428432 -0.072951293048690857 0 -0.26657926356277772 -0.090465839227754058 0 -0.27354370090307062 -0.078323015770956392 0 -0.26657926356277772 -0.090465839227754058 0 -0.27354370090307062 -0.078323015770956392 0 -0.28538105434645411 -0.086795759082225366 0 -0.26383609867298458 -0.059534217814781049 0 -0.27354370090307062 -0.078323015770956392 0 -0.28234582379261641 -0.067438431185077224 0 -0.27354370090307062 -0.078323015770956392 0 -0.28234582379261641 -0.067438431185077224 0 -0.28538105434645411 -0.086795759082225366 0 -0.26383609867298458 -0.059534217814781049 0 -0.26160522199428432 -0.072951293048690857 0 -0.27354370090307062 -0.078323015770956392 0 -0.25312863125037333 -0.1246572174142288 0 -0.26656777753173577 -0.1114844994796388 0 -0.26663077665873552 -0.13183112106164169 0 -0.24549615620154941 -0.11112744676863361 0 -0.25312863125037333 -0.1246572174142288 0 -0.26656777753173577 -0.1114844994796388 0 -0.26657926356277772 -0.090465839227754058 0 -0.25366668772815121 -0.096726339018103652 0 -0.26656777753173577 -0.1114844994796388 0 -0.24549615620154941 -0.11112744676863361 0 -0.25366668772815121 -0.096726339018103652 0 -0.26656777753173577 -0.1114844994796388 0 -0.26657926356277772 -0.090465839227754058 0 -0.2842887492069851 -0.1051521765692726 0 -0.26657926356277772 -0.090465839227754058 0 -0.2842887492069851 -0.1051521765692726 0 -0.28538105434645411 -0.086795759082225366 0 -0.26657926356277772 -0.090465839227754058 0 -0.26656777753173577 -0.1114844994796388 0 -0.2842887492069851 -0.1051521765692726 0 -0.26656777753173577 -0.1114844994796388 0 -0.28313895984814208 -0.1244746284469004 0 -0.2842887492069851 -0.1051521765692726 0 -0.26656777753173577 -0.1114844994796388 0 -0.28313895984814208 -0.1244746284469004 0 -0.26663077665873552 -0.13183112106164169 0 -0.28313895984814208 -0.1244746284469004 0 -0.2842887492069851 -0.1051521765692726 0 -0.28313895984814208 -0.1244746284469004 0 -0.29224799253116451 -0.1117527145403088 0 -0.2842887492069851 -0.1051521765692726 0 -0.29356398791231259 -0.12160011130570821 0 -0.28313895984814208 -0.1244746284469004 0 -0.29224799253116451 -0.1117527145403088 0 -0.29356398791231259 -0.12160011130570821 0 -0.29224799253116451 -0.1117527145403088 0 -0.30182292679238082 -0.1151624599806782 0 -0.2842887492069851 -0.1051521765692726 0 -0.28538105434645411 -0.086795759082225366 0 -0.2842887492069851 -0.1051521765692726 0 -0.29834137642573177 -0.1018936635999038 0 -0.28538105434645411 -0.086795759082225366 0 -0.29224799253116451 -0.1117527145403088 0 -0.2842887492069851 -0.1051521765692726 0 -0.29834137642573177 -0.1018936635999038 0 -0.29224799253116451 -0.1117527145403088 0 -0.2842887492069851 -0.1051521765692726 0 -0.29834137642573177 -0.1018936635999038 0 -0.30122939046302821 -0.087309741223245918 0 -0.32011295713344012 -0.1071810512614146 0 -0.29834137642573177 -0.1018936635999038 0 -0.30182292679238082 -0.1151624599806782 0 -0.32011295713344012 -0.1071810512614146 0 -0.30122939046302821 -0.087309741223245918 0 -0.32011295713344012 -0.1071810512614146 0 -0.30182292679238082 -0.1151624599806782 0 -0.30867536852420713 -0.1231128033175841 0 -0.32011295713344012 -0.1071810512614146 0 -0.29224799253116451 -0.1117527145403088 0 -0.29834137642573177 -0.1018936635999038 0 -0.30182292679238082 -0.1151624599806782 0 -0.29356398791231259 -0.12160011130570821 0 -0.30182292679238082 -0.1151624599806782 0 -0.29974415524409809 -0.12596928950442879 0 -0.30182292679238082 -0.1151624599806782 0 -0.30867536852420713 -0.1231128033175841 0 -0.29974415524409809 -0.12596928950442879 0 -0.28234582379261641 -0.067438431185077224 0 -0.30122939046302821 -0.087309741223245918 0 -0.3034598201129286 -0.069150847778467181 0 -0.29854687093999299 -0.054395144317864422 0 -0.28234582379261641 -0.067438431185077224 0 -0.3034598201129286 -0.069150847778467181 0 -0.28234582379261641 -0.067438431185077224 0 -0.30122939046302821 -0.087309741223245918 0 -0.28234582379261641 -0.067438431185077224 0 -0.28538105434645411 -0.086795759082225366 0 -0.30122939046302821 -0.087309741223245918 0 -0.29834137642573177 -0.1018936635999038 0 -0.28538105434645411 -0.086795759082225366 0 -0.30122939046302821 -0.087309741223245918 0 -0.30122939046302821 -0.087309741223245918 0 -0.3034598201129286 -0.069150847778467181 0 -0.31734952661316979 -0.081588172752870322 0 -0.33262750253504991 -0.07506182035916964 0 -0.31782748875583539 -0.055022749413277977 0 -0.3034598201129286 -0.069150847778467181 0 -0.31734952661316979 -0.081588172752870322 0 -0.31782748875583539 -0.055022749413277977 0 -0.31734952661316979 -0.081588172752870322 0 -0.33262750253504991 -0.07506182035916964 0 -0.31782748875583539 -0.055022749413277977 0 -0.31734952661316979 -0.081588172752870322 0 -0.33116567295955462 -0.091223884010444664 0 -0.32011295713344012 -0.1071810512614146 0 -0.31734952661316979 -0.081588172752870322 0 -0.33116567295955462 -0.091223884010444664 0 -0.33262750253504991 -0.07506182035916964 0 -0.30122939046302821 -0.087309741223245918 0 -0.31734952661316979 -0.081588172752870322 0 -0.32011295713344012 -0.1071810512614146 0 -0.33262750253504991 -0.07506182035916964 0 -0.34742751631426438 -0.09510089130506133 0 -0.33262750253504991 -0.07506182035916964 0 -0.34742751631426438 -0.09510089130506133 0 -0.34644208894478229 -0.078622819010819966 0 -0.33116567295955462 -0.091223884010444664 0 -0.33262750253504991 -0.07506182035916964 0 -0.34742751631426438 -0.09510089130506133 0 -0.33262750253504991 -0.07506182035916964 0 -0.34411792900614308 -0.068943758818863998 0 -0.3361993807734549 -0.057564647105007978 0 -0.33262750253504991 -0.07506182035916964 0 -0.31782748875583539 -0.055022749413277977 0 -0.3361993807734549 -0.057564647105007978 0 -0.33262750253504991 -0.07506182035916964 0 -0.34411792900614308 -0.068943758818863998 0 -0.34644208894478229 -0.078622819010819966 0 -0.32011295713344012 -0.1071810512614146 0 -0.32454025621411581 -0.13205393756202699 0 -0.33899652380385192 -0.12705236129958331 0 -0.30867536852420713 -0.1231128033175841 0 -0.32011295713344012 -0.1071810512614146 0 -0.31312045015615569 -0.134878733569851 0 -0.32011295713344012 -0.1071810512614146 0 -0.32454025621411581 -0.13205393756202699 0 -0.31312045015615569 -0.134878733569851 0 -0.33116567295955462 -0.091223884010444664 0 -0.3425125632185797 -0.099647319057700495 0 -0.34742751631426438 -0.09510089130506133 0 -0.32011295713344012 -0.1071810512614146 0 -0.34032310743667632 -0.1016726084828995 0 -0.34280898879652028 -0.11197029877928651 0 -0.33116567295955462 -0.091223884010444664 0 -0.32011295713344012 -0.1071810512614146 0 -0.34032310743667632 -0.1016726084828995 0 -0.33116567295955462 -0.091223884010444664 0 -0.3425125632185797 -0.099647319057700495 0 -0.34032310743667632 -0.1016726084828995 0 -0.33116567295955462 -0.091223884010444664 0 -0.3425125632185797 -0.099647319057700495 0 -0.3425125632185797 -0.099647319057700495 0 -0.34032310743667632 -0.1016726084828995 0 -0.3425125632185797 -0.099647319057700495 0 -0.34032310743667632 -0.1016726084828995 0 -0.34280898879652028 -0.11197029877928651 0 -0.32011295713344012 -0.1071810512614146 0 -0.34280898879652028 -0.11197029877928651 0 -0.33899652380385192 -0.12705236129958331 0 -0.32011295713344012 -0.1071810512614146 0 -0.33899652380385192 -0.12705236129958331 0 -0.34280898879652028 -0.11197029877928651 0 -0.354992175649404 -0.12061327121371961 0 -0.36082617829906483 -0.1132425459074717 0 -0.34280898879652028 -0.11197029877928651 0 -0.354992175649404 -0.12061327121371961 0 -0.33899652380385192 -0.12705236129958331 0 -0.3425125632185797 -0.099647319057700495 0 -0.36082617829906483 -0.1132425459074717 0 -0.34742751631426438 -0.09510089130506133 0 -0.36082617829906483 -0.1132425459074717 0 -0.3425125632185797 -0.099647319057700495 0 -0.34742751631426438 -0.09510089130506133 0 -0.36082617829906483 -0.1132425459074717 0 -0.34742751631426438 -0.09510089130506133 0 -0.35865492474050198 -0.1012494657509178 0 -0.36082617829906483 -0.1132425459074717 0 -0.3425125632185797 -0.099647319057700495 0 -0.34280898879652028 -0.11197029877928651 0 -0.36082617829906483 -0.1132425459074717 0 -0.3425125632185797 -0.099647319057700495 0 -0.34742751631426438 -0.09510089130506133 0 -0.34742751631426438 -0.09510089130506133 0 -0.35865492474050198 -0.1012494657509178 0 -0.35607487001109539 -0.095478609063775546 0 -0.35865492474050198 -0.1012494657509178 0 -0.35607487001109539 -0.095478609063775546 0 -0.36420006768987861 -0.094984633917385042 0 -0.36420006768987861 -0.094984633917385042 0 -0.3711981733528355 -0.096794958232631151 0 -0.36602342226689749 -0.1036861762315565 0 -0.35865492474050198 -0.1012494657509178 0 -0.36420006768987861 -0.094984633917385042 0 -0.36602342226689749 -0.1036861762315565 0 -0.3711981733528355 -0.096794958232631151 0 -0.36602342226689749 -0.1036861762315565 0 -0.3759016461980848 -0.1018982168564106 0 -0.36420006768987861 -0.094984633917385042 0 -0.3711981733528355 -0.096794958232631151 0 -0.37213309872413158 -0.090896676644892607 0 -0.3711981733528355 -0.096794958232631151 0 -0.37213309872413158 -0.090896676644892607 0 -0.37875469769457271 -0.094733887227330005 0 -0.37190291946992438 -0.10858233498795911 0 -0.36602342226689749 -0.1036861762315565 0 -0.3759016461980848 -0.1018982168564106 0 -0.37190291946992438 -0.10858233498795911 0 -0.36602342226689749 -0.1036861762315565 0 -0.36082617829906483 -0.1132425459074717 0 -0.35865492474050198 -0.1012494657509178 0 -0.36602342226689749 -0.1036861762315565 0 -0.36082617829906483 -0.1132425459074717 0 -0.354992175649404 -0.12061327121371961 0 -0.36082617829906483 -0.1132425459074717 0 -0.3626661834004728 -0.11573389445065441 0 -0.36082617829906483 -0.1132425459074717 0 -0.3626661834004728 -0.11573389445065441 0 -0.37190291946992438 -0.10858233498795911 0 -0.36082617829906483 -0.1132425459074717 0 -0.37547377297535989 -0.1241162795505862 0 -0.3626661834004728 -0.11573389445065441 0 -0.36522578226271502 -0.12511780589446631 0 -0.37547377297535989 -0.1241162795505862 0 -0.36082617829906483 -0.1132425459074717 0 -0.37547377297535989 -0.1241162795505862 0 -0.36082617829906483 -0.1132425459074717 0 -0.3626661834004728 -0.11573389445065441 0 -0.37547377297535989 -0.1241162795505862 0 -0.354992175649404 -0.12061327121371961 0 -0.3626661834004728 -0.11573389445065441 0 -0.36522578226271502 -0.12511780589446631 0 -0.35775798005030768 -0.071153987425913737 0 -0.35155787757806323 -0.072592932762654286 0 -0.35659357081151938 -0.078251906485232753 0 -0.35775798005030768 -0.071153987425913737 0 -0.35659357081151938 -0.078251906485232753 0 -0.36094967291614211 -0.075978235288589158 0 -0.35775798005030768 -0.071153987425913737 0 -0.35287781907756371 -0.065992192072440989 0 -0.36008984172248037 -0.06271766177917891 0 -0.35775798005030768 -0.071153987425913737 0 -0.35287781907756371 -0.065992192072440989 0 -0.35155787757806323 -0.072592932762654286 0 -0.35287781907756371 -0.065992192072440989 0 -0.34411792900614308 -0.068943758818863998 0 -0.34665494672648761 -0.05752889295630316 0 -0.35287781907756371 -0.065992192072440989 0 -0.34411792900614308 -0.068943758818863998 0 -0.35155787757806323 -0.072592932762654286 0 -0.35155787757806323 -0.072592932762654286 0 -0.34644208894478229 -0.078622819010819966 0 -0.35659357081151938 -0.078251906485232753 0 -0.34411792900614308 -0.068943758818863998 0 -0.35155787757806323 -0.072592932762654286 0 -0.34644208894478229 -0.078622819010819966 0 -0.34742751631426438 -0.09510089130506133 0 -0.36501870964353073 -0.078828693382260367 0 -0.35960518221667931 -0.089861990120903415 0 -0.34742751631426438 -0.09510089130506133 0 -0.36501870964353073 -0.078828693382260367 0 -0.34742751631426438 -0.09510089130506133 0 -0.34644208894478229 -0.078622819010819966 0 -0.35659357081151938 -0.078251906485232753 0 -0.34742751631426438 -0.09510089130506133 0 -0.35659357081151938 -0.078251906485232753 0 -0.36501870964353073 -0.078828693382260367 0 -0.34742751631426438 -0.09510089130506133 0 -0.35607487001109539 -0.095478609063775546 0 -0.35960518221667931 -0.089861990120903415 0 -0.36501870964353073 -0.078828693382260367 0 -0.35960518221667931 -0.089861990120903415 0 -0.36716606577662969 -0.086737724095550972 0 -0.35607487001109539 -0.095478609063775546 0 -0.36420006768987861 -0.094984633917385042 0 -0.35960518221667931 -0.089861990120903415 0 -0.36420006768987861 -0.094984633917385042 0 -0.35960518221667931 -0.089861990120903415 0 -0.36716606577662969 -0.086737724095550972 0 -0.36420006768987861 -0.094984633917385042 0 -0.36716606577662969 -0.086737724095550972 0 -0.37213309872413158 -0.090896676644892607 0 -0.36716606577662969 -0.086737724095550972 0 -0.37213309872413158 -0.090896676644892607 0 -0.37443261964950908 -0.085602602580498288 0 -0.36501870964353073 -0.078828693382260367 0 -0.37049102039611631 -0.082046653519884674 0 -0.37534668651479552 -0.077017594021229055 0 -0.36501870964353073 -0.078828693382260367 0 -0.36716606577662969 -0.086737724095550972 0 -0.37049102039611631 -0.082046653519884674 0 -0.37049102039611631 -0.082046653519884674 0 -0.37443261964950908 -0.085602602580498288 0 -0.37534668651479552 -0.077017594021229055 0 -0.36716606577662969 -0.086737724095550972 0 -0.37049102039611631 -0.082046653519884674 0 -0.37443261964950908 -0.085602602580498288 0 -0.36501870964353073 -0.078828693382260367 0 -0.36397933240907582 -0.073928486853238357 0 -0.38260990297279718 -0.062556495459459557 0 -0.36501870964353073 -0.078828693382260367 0 -0.38260990297279718 -0.062556495459459557 0 -0.37534668651479552 -0.077017594021229055 0 -0.36501870964353073 -0.078828693382260367 0 -0.38260990297279718 -0.062556495459459557 0 -0.35659357081151938 -0.078251906485232753 0 -0.36501870964353073 -0.078828693382260367 0 -0.36094967291614211 -0.075978235288589158 0 -0.36501870964353073 -0.078828693382260367 0 -0.36397933240907582 -0.073928486853238357 0 -0.36094967291614211 -0.075978235288589158 0 -0.35775798005030768 -0.071153987425913737 0 -0.36397933240907582 -0.073928486853238357 0 -0.36094967291614211 -0.075978235288589158 0 -0.35775798005030768 -0.071153987425913737 0 -0.36397933240907582 -0.073928486853238357 0 -0.36008984172248037 -0.06271766177917891 0 -0.36397933240907582 -0.073928486853238357 0 -0.36008984172248037 -0.06271766177917891 0 -0.36854901911732918 -0.048612672786234892 0 -0.36397933240907582 -0.073928486853238357 0 -0.36854901911732918 -0.048612672786234892 0 -0.38260990297279718 -0.062556495459459557 0 -0.36397933240907582 -0.073928486853238357 0 -0.36854901911732918 -0.048612672786234892 0 -0.36008984172248037 -0.06271766177917891 0 -0.36854901911732918 -0.048612672786234892 0 -0.35728505795812587 -0.053900969758066547 0 -0.35728505795812587 -0.053900969758066547 0 -0.34665494672648761 -0.05752889295630316 0 -0.34279454681715021 -0.04124289702713628 0 -0.35287781907756371 -0.065992192072440989 0 -0.36008984172248037 -0.06271766177917891 0 -0.35728505795812587 -0.053900969758066547 0 -0.35287781907756371 -0.065992192072440989 0 -0.35728505795812587 -0.053900969758066547 0 -0.34665494672648761 -0.05752889295630316 0 -0.35728505795812587 -0.053900969758066547 0 -0.35762337679921141 -0.037561122625724933 0 -0.34279454681715021 -0.04124289702713628 0 -0.35762337679921141 -0.037561122625724933 0 -0.35131770401816947 -0.0261823137782447 0 -0.34279454681715021 -0.04124289702713628 0 -0.36854901911732918 -0.048612672786234892 0 -0.35728505795812587 -0.053900969758066547 0 -0.36748672524598092 -0.025941007205147332 0 -0.36854901911732918 -0.048612672786234892 0 -0.36748672524598092 -0.025941007205147332 0 -0.37311870582558249 -0.023296858719231459 0 -0.36854901911732918 -0.048612672786234892 0 -0.37311870582558249 -0.023296858719231459 0 -0.37626318764245797 -0.039833136549939148 0 -0.35728505795812587 -0.053900969758066547 0 -0.35762337679921141 -0.037561122625724933 0 -0.36748672524598092 -0.025941007205147332 0 -0.35728505795812587 -0.053900969758066547 0 -0.36748672524598092 -0.025941007205147332 0 -0.36854901911732918 -0.048612672786234892 0 -0.37311870582558249 -0.023296858719231459 0 -0.36748672524598092 -0.025941007205147332 0 -0.37311870582558249 -0.023296858719231459 0 -0.3776883925338359 0.0020189553477719681 0 -0.36748672524598092 -0.025941007205147332 0 -0.36211372622552013 -0.0087243620146923787 0 -0.35884966891192421 -0.020748113975035481 0 -0.36748672524598092 -0.025941007205147332 0 -0.35881936874382148 -0.027608139396038119 0 -0.35884966891192421 -0.020748113975035481 0 -0.35762337679921141 -0.037561122625724933 0 -0.36748672524598092 -0.025941007205147332 0 -0.35881936874382148 -0.027608139396038119 0 -0.36748672524598092 -0.025941007205147332 0 -0.36211372622552013 -0.0087243620146923787 0 -0.3776883925338359 0.0020189553477719681 0 -0.36748672524598092 -0.025941007205147332 0 -0.3776883925338359 0.0020189553477719681 0 -0.36211372622552013 -0.0087243620146923787 0 -0.3776883925338359 0.0020189553477719681 0 -0.36381460760115902 0.003320310193437349 0 -0.34381563335742238 -0.01531715142223777 0 -0.35109935007458659 -0.002335513993745065 0 -0.33866419666437991 0.0057182691605694403 0 -0.36211372622552013 -0.0087243620146923787 0 -0.35109935007458659 -0.002335513993745065 0 -0.36381460760115902 0.003320310193437349 0 -0.36211372622552013 -0.0087243620146923787 0 -0.35343921651752452 -0.014661491036791079 0 -0.35109935007458659 -0.002335513993745065 0 -0.36211372622552013 -0.0087243620146923787 0 -0.35343921651752452 -0.014661491036791079 0 -0.35884966891192421 -0.020748113975035481 0 -0.35343921651752452 -0.014661491036791079 0 -0.34381563335742238 -0.01531715142223777 0 -0.35109935007458659 -0.002335513993745065 0 -0.35131770401816947 -0.0261823137782447 0 -0.3374063477434891 -0.024961097223520318 0 -0.34279454681715021 -0.04124289702713628 0 -0.35762337679921141 -0.037561122625724933 0 -0.35881936874382148 -0.027608139396038119 0 -0.35131770401816947 -0.0261823137782447 0 -0.35881936874382148 -0.027608139396038119 0 -0.35884966891192421 -0.020748113975035481 0 -0.35131770401816947 -0.0261823137782447 0 -0.35343921651752452 -0.014661491036791079 0 -0.35884966891192421 -0.020748113975035481 0 -0.35131770401816947 -0.0261823137782447 0 -0.35343921651752452 -0.014661491036791079 0 -0.34381563335742238 -0.01531715142223777 0 -0.35131770401816947 -0.0261823137782447 0 -0.34381563335742238 -0.01531715142223777 0 -0.35131770401816947 -0.0261823137782447 0 -0.3374063477434891 -0.024961097223520318 0 -0.3374063477434891 -0.024961097223520318 0 -0.32787853593411259 -0.01324367068034857 0 -0.3215649828194207 -0.02866239227912613 0 -0.34381563335742238 -0.01531715142223777 0 -0.3374063477434891 -0.024961097223520318 0 -0.32787853593411259 -0.01324367068034857 0 -0.34381563335742238 -0.01531715142223777 0 -0.32787853593411259 -0.01324367068034857 0 -0.33866419666437991 0.0057182691605694403 0 -0.32787853593411259 -0.01324367068034857 0 -0.31781106994819258 -0.000210754061642178 0 -0.33866419666437991 0.0057182691605694403 0 -0.32787853593411259 -0.01324367068034857 0 -0.31456436453017589 -0.01277254369142115 0 -0.31781106994819258 -0.000210754061642178 0 -0.30703939928731888 -0.0064055565165951761 0 -0.31456436453017589 -0.01277254369142115 0 -0.31781106994819258 -0.000210754061642178 0 -0.32787853593411259 -0.01324367068034857 0 -0.31456436453017589 -0.01277254369142115 0 -0.3215649828194207 -0.02866239227912613 0 -0.30302747497662091 -0.034983678467386321 0 -0.3215649828194207 -0.02866239227912613 0 -0.3274457212598082 -0.042941328947267057 0 -0.30302747497662091 -0.034983678467386321 0 -0.3274457212598082 -0.042941328947267057 0 -0.31782748875583539 -0.055022749413277977 0 -0.3274457212598082 -0.042941328947267057 0 -0.31782748875583539 -0.055022749413277977 0 -0.3361993807734549 -0.057564647105007978 0 -0.3274457212598082 -0.042941328947267057 0 -0.3361993807734549 -0.057564647105007978 0 -0.34279454681715021 -0.04124289702713628 0 -0.34665494672648761 -0.05752889295630316 0 -0.3361993807734549 -0.057564647105007978 0 -0.34279454681715021 -0.04124289702713628 0 -0.34411792900614308 -0.068943758818863998 0 -0.34665494672648761 -0.05752889295630316 0 -0.3361993807734549 -0.057564647105007978 0 -0.3215649828194207 -0.02866239227912613 0 -0.3274457212598082 -0.042941328947267057 0 -0.34279454681715021 -0.04124289702713628 0 -0.3374063477434891 -0.024961097223520318 0 -0.3215649828194207 -0.02866239227912613 0 -0.34279454681715021 -0.04124289702713628 0 -0.3215649828194207 -0.02866239227912613 0 -0.34279454681715021 -0.04124289702713628 0 -0.30314319538791812 -0.24933846585515801 0 -0.31202662016431493 -0.23435407766267169 0 -0.28087927263086693 -0.23277653758047789 0 -0.30314319538791812 -0.24933846585515801 0 -0.31202662016431493 -0.23435407766267169 0 -0.31401961167600878 -0.24604932103312269 0 -0.31606970326012263 -0.25434846417547619 0 -0.30314319538791812 -0.24933846585515801 0 -0.31401961167600878 -0.24604932103312269 0 -0.31202662016431493 -0.23435407766267169 0 -0.28087927263086693 -0.23277653758047789 0 -0.3040050732125848 -0.2176996851177003 0 -0.28087927263086693 -0.23277653758047789 0 -0.29259142215418482 -0.20657487140489689 0 -0.3040050732125848 -0.2176996851177003 0 -0.28749171923164679 -0.26057093096312017 0 -0.30314319538791812 -0.24933846585515801 0 -0.28087927263086693 -0.23277653758047789 0 -0.30314319538791812 -0.24933846585515801 0 -0.28087927263086693 -0.23277653758047789 0 -0.26748862787598288 -0.25324993960889569 0 -0.28749171923164679 -0.26057093096312017 0 -0.28087927263086693 -0.23277653758047789 0 -0.26748862787598288 -0.25324993960889569 0 -0.24989835989336101 -0.23830645409789369 0 -0.28087927263086693 -0.23277653758047789 0 -0.24989835989336101 -0.23830645409789369 0 -0.28087927263086693 -0.23277653758047789 0 -0.25861534987381563 -0.21621460930579781 0 -0.28087927263086693 -0.23277653758047789 0 -0.25861534987381563 -0.21621460930579781 0 -0.27802763413303422 -0.20646264045996349 0 -0.25861534987381563 -0.21621460930579781 0 -0.27050522014585382 -0.19082994116795221 0 -0.28087927263086693 -0.23277653758047789 0 -0.27802763413303422 -0.20646264045996349 0 -0.25861534987381563 -0.21621460930579781 0 -0.25861534987381563 -0.21621460930579781 0 -0.25212863190646589 -0.18758367788035241 0 -0.27050522014585382 -0.19082994116795221 0 -0.27802763413303422 -0.20646264045996349 0 -0.27050522014585382 -0.19082994116795221 0 -0.28710910438052761 -0.18912211712645269 0 -0.27802763413303422 -0.20646264045996349 0 -0.28710910438052761 -0.18912211712645269 0 -0.29259142215418482 -0.20657487140489689 0 -0.28710910438052761 -0.18912211712645269 0 -0.29259142215418482 -0.20657487140489689 0 -0.30134956494293991 -0.19325842122028369 0 -0.28087927263086693 -0.23277653758047789 0 -0.27802763413303422 -0.20646264045996349 0 -0.29259142215418482 -0.20657487140489689 0 -0.29259142215418482 -0.20657487140489689 0 -0.3040050732125848 -0.2176996851177003 0 -0.30134956494293991 -0.19325842122028369 0 -0.3040050732125848 -0.2176996851177003 0 -0.30134956494293991 -0.19325842122028369 0 -0.3040050732125848 -0.2176996851177003 0 -0.30134956494293991 -0.19325842122028369 0 -0.32046216538886779 -0.19588392198432869 0 -0.30134956494293991 -0.19325842122028369 0 -0.29869405667329502 -0.1688171573228672 0 -0.31740818427443362 -0.1705071963289681 0 -0.30134956494293991 -0.19325842122028369 0 -0.29869405667329502 -0.1688171573228672 0 -0.29869405667329502 -0.1688171573228672 0 -0.29603854840365112 -0.1443758934254506 0 -0.30608595161311131 -0.15680412104343339 0 -0.29869405667329502 -0.1688171573228672 0 -0.31740818427443362 -0.1705071963289681 0 -0.30608595161311131 -0.15680412104343339 0 -0.29869405667329502 -0.1688171573228672 0 -0.29603854840365112 -0.1443758934254506 0 -0.29869405667329502 -0.1688171573228672 0 -0.28102893587038091 -0.1599340249505935 0 -0.28943767785915619 -0.1542310390058598 0 -0.29869405667329502 -0.1688171573228672 0 -0.28006870125146249 -0.1760709695766586 0 -0.28102893587038091 -0.1599340249505935 0 -0.28710910438052761 -0.18912211712645269 0 -0.29869405667329502 -0.1688171573228672 0 -0.28006870125146249 -0.1760709695766586 0 -0.28710910438052761 -0.18912211712645269 0 -0.30134956494293991 -0.19325842122028369 0 -0.29869405667329502 -0.1688171573228672 0 -0.27050522014585382 -0.19082994116795221 0 -0.28006870125146249 -0.1760709695766586 0 -0.26708189932981719 -0.16952563265848841 0 -0.27050522014585382 -0.19082994116795221 0 -0.28710910438052761 -0.18912211712645269 0 -0.28006870125146249 -0.1760709695766586 0 -0.246257151433389 -0.1704744636295033 0 -0.25212863190646589 -0.18758367788035241 0 -0.26708189932981719 -0.16952563265848841 0 -0.25212863190646589 -0.18758367788035241 0 -0.27050522014585382 -0.19082994116795221 0 -0.26708189932981719 -0.16952563265848841 0 -0.246257151433389 -0.1704744636295033 0 -0.26708189932981719 -0.16952563265848841 0 -0.25774570330959201 -0.156156548550547 0 -0.26708189932981719 -0.16952563265848841 0 -0.26942217278697689 -0.15498931463342891 0 -0.25774570330959201 -0.156156548550547 0 -0.28006870125146249 -0.1760709695766586 0 -0.26708189932981719 -0.16952563265848841 0 -0.28102893587038091 -0.1599340249505935 0 -0.26708189932981719 -0.16952563265848841 0 -0.28102893587038091 -0.1599340249505935 0 -0.26942217278697689 -0.15498931463342891 0 -0.28006870125146249 -0.1760709695766586 0 -0.28102893587038091 -0.1599340249505935 0 -0.28102893587038091 -0.1599340249505935 0 -0.2745598735622049 -0.1434910045382366 0 -0.26942217278697689 -0.15498931463342891 0 -0.28102893587038091 -0.1599340249505935 0 -0.2745598735622049 -0.1434910045382366 0 -0.28198917048929789 -0.1437970803245282 0 -0.2745598735622049 -0.1434910045382366 0 -0.28198917048929789 -0.1437970803245282 0 -0.2745598735622049 -0.1434910045382366 0 -0.26942217278697689 -0.15498931463342891 0 -0.26534953100584169 -0.14590109705787049 0 -0.26534953100584169 -0.14590109705787049 0 -0.25774570330959201 -0.156156548550547 0 -0.25668482308106672 -0.1404363802033636 0 -0.26942217278697689 -0.15498931463342891 0 -0.26534953100584169 -0.14590109705787049 0 -0.25774570330959201 -0.156156548550547 0 -0.24011492228682069 -0.14413506252829891 0 -0.25774570330959201 -0.156156548550547 0 -0.25668482308106672 -0.1404363802033636 0 -0.25312863125037333 -0.1246572174142288 0 -0.25668482308106672 -0.1404363802033636 0 -0.26663077665873552 -0.13183112106164169 0 -0.26534953100584169 -0.14590109705787049 0 -0.25668482308106672 -0.1404363802033636 0 -0.26663077665873552 -0.13183112106164169 0 -0.28313895984814208 -0.1244746284469004 0 -0.2745598735622049 -0.1434910045382366 0 -0.28198917048929789 -0.1437970803245282 0 -0.28313895984814208 -0.1244746284469004 0 -0.2745598735622049 -0.1434910045382366 0 -0.26663077665873552 -0.13183112106164169 0 -0.2745598735622049 -0.1434910045382366 0 -0.26534953100584169 -0.14590109705787049 0 -0.26663077665873552 -0.13183112106164169 0 -0.28313895984814208 -0.1244746284469004 0 -0.2887986889773243 -0.13771983241036209 0 -0.28198917048929789 -0.1437970803245282 0 -0.28313895984814208 -0.1244746284469004 0 -0.29436245917911619 -0.13171121134678301 0 -0.2887986889773243 -0.13771983241036209 0 -0.28313895984814208 -0.1244746284469004 0 -0.28198917048929789 -0.1437970803245282 0 -0.29356398791231259 -0.12160011130570821 0 -0.29436245917911619 -0.13171121134678301 0 -0.29974415524409809 -0.12596928950442879 0 -0.29356398791231259 -0.12160011130570821 0 -0.28313895984814208 -0.1244746284469004 0 -0.29436245917911619 -0.13171121134678301 0 -0.29425964887577011 -0.13702524573475819 0 -0.29572952235469419 -0.14153162165268129 0 -0.2981479249919457 -0.13713831752920619 0 -0.29436245917911619 -0.13171121134678301 0 -0.29425964887577011 -0.13702524573475819 0 -0.2981479249919457 -0.13713831752920619 0 -0.29436245917911619 -0.13171121134678301 0 -0.29425964887577011 -0.13702524573475819 0 -0.2887986889773243 -0.13771983241036209 0 -0.29425964887577011 -0.13702524573475819 0 -0.2887986889773243 -0.13771983241036209 0 -0.29572952235469419 -0.14153162165268129 0 -0.29869405667329502 -0.1688171573228672 0 -0.28943767785915619 -0.1542310390058598 0 -0.29603854840365112 -0.1443758934254506 0 -0.28198917048929789 -0.1437970803245282 0 -0.29603854840365112 -0.1443758934254506 0 -0.28102893587038091 -0.1599340249505935 0 -0.28198917048929789 -0.1437970803245282 0 -0.28102893587038091 -0.1599340249505935 0 -0.28198917048929789 -0.1437970803245282 0 -0.28943767785915619 -0.1542310390058598 0 -0.2887986889773243 -0.13771983241036209 0 -0.28198917048929789 -0.1437970803245282 0 -0.29603854840365112 -0.1443758934254506 0 -0.28198917048929789 -0.1437970803245282 0 -0.28943767785915619 -0.1542310390058598 0 -0.29603854840365112 -0.1443758934254506 0 -0.29603854840365112 -0.1443758934254506 0 -0.29572952235469419 -0.14153162165268129 0 -0.2887986889773243 -0.13771983241036209 0 -0.29603854840365112 -0.1443758934254506 0 -0.29572952235469419 -0.14153162165268129 0 -0.30608595161311131 -0.15680412104343339 0 -0.29603854840365112 -0.1443758934254506 0 -0.31435420315999918 -0.14513047067360729 0 -0.29603854840365112 -0.1443758934254506 0 -0.29572952235469419 -0.14153162165268129 0 -0.30271912161066061 -0.14022499129105831 0 -0.29603854840365112 -0.1443758934254506 0 -0.31435420315999918 -0.14513047067360729 0 -0.29603854840365112 -0.1443758934254506 0 -0.30271912161066061 -0.14022499129105831 0 -0.31435420315999918 -0.14513047067360729 0 -0.30843336553965123 -0.13880924113613369 0 -0.30271912161066061 -0.14022499129105831 0 -0.31435420315999918 -0.14513047067360729 0 -0.30843336553965123 -0.13880924113613369 0 -0.30361116521402248 -0.13436440332927019 0 -0.31312045015615569 -0.134878733569851 0 -0.30843336553965123 -0.13880924113613369 0 -0.31312045015615569 -0.134878733569851 0 -0.31435420315999918 -0.14513047067360729 0 -0.30843336553965123 -0.13880924113613369 0 -0.30271912161066061 -0.14022499129105831 0 -0.30361116521402248 -0.13436440332927019 0 -0.30867536852420713 -0.1231128033175841 0 -0.30361116521402248 -0.13436440332927019 0 -0.31312045015615569 -0.134878733569851 0 -0.30867536852420713 -0.1231128033175841 0 -0.29974415524409809 -0.12596928950442879 0 -0.30361116521402248 -0.13436440332927019 0 -0.29436245917911619 -0.13171121134678301 0 -0.29974415524409809 -0.12596928950442879 0 -0.30361116521402248 -0.13436440332927019 0 -0.29436245917911619 -0.13171121134678301 0 -0.2981479249919457 -0.13713831752920619 0 -0.30361116521402248 -0.13436440332927019 0 -0.29572952235469419 -0.14153162165268129 0 -0.2981479249919457 -0.13713831752920619 0 -0.30271912161066061 -0.14022499129105831 0 -0.2981479249919457 -0.13713831752920619 0 -0.30271912161066061 -0.14022499129105831 0 -0.30361116521402248 -0.13436440332927019 0 -0.32454025621411581 -0.13205393756202699 0 -0.31312045015615569 -0.134878733569851 0 -0.31435420315999918 -0.14513047067360729 0 -0.31312045015615569 -0.134878733569851 0 -0.31435420315999918 -0.14513047067360729 0 -0.32454025621411581 -0.13205393756202699 0 -0.31435420315999918 -0.14513047067360729 0 -0.33611714681713228 -0.14602707100567791 0 -0.31435420315999918 -0.14513047067360729 0 -0.33611714681713228 -0.14602707100567791 0 -0.32748527925756582 -0.16034125771776739 0 -0.31435420315999918 -0.14513047067360729 0 -0.33611714681713228 -0.14602707100567791 0 -0.33611714681713228 -0.14602707100567791 0 -0.35360572704990623 -0.15944384835454559 0 -0.34055865053857731 -0.16301177373453449 0 -0.32454025621411581 -0.13205393756202699 0 -0.33611714681713228 -0.14602707100567791 0 -0.33899652380385192 -0.12705236129958331 0 -0.33899652380385192 -0.12705236129958331 0 -0.35788009047426528 -0.1469236713377505 0 -0.354992175649404 -0.12061327121371961 0 -0.33899652380385192 -0.12705236129958331 0 -0.35821990808961263 -0.13172982644012141 0 -0.33611714681713228 -0.14602707100567791 0 -0.33899652380385192 -0.12705236129958331 0 -0.35788009047426528 -0.1469236713377505 0 -0.33899652380385192 -0.12705236129958331 0 -0.35821990808961263 -0.13172982644012141 0 -0.35788009047426528 -0.1469236713377505 0 -0.354992175649404 -0.12061327121371961 0 -0.35821990808961263 -0.13172982644012141 0 -0.36522578226271502 -0.12511780589446631 0 -0.35821990808961263 -0.13172982644012141 0 -0.36522578226271502 -0.12511780589446631 0 -0.37235789271035141 -0.13572996879578139 0 -0.35821990808961263 -0.13172982644012141 0 -0.37235789271035141 -0.13572996879578139 0 -0.35788009047426528 -0.1469236713377505 0 -0.36522578226271502 -0.12511780589446631 0 -0.37235789271035141 -0.13572996879578139 0 -0.37547377297535989 -0.1241162795505862 0 -0.35788009047426528 -0.1469236713377505 0 -0.38278376380786733 -0.147949664977787 0 -0.35788009047426528 -0.1469236713377505 0 -0.3738498331650969 -0.1637287439057678 0 -0.35788009047426528 -0.1469236713377505 0 -0.3738498331650969 -0.1637287439057678 0 -0.38278376380786733 -0.147949664977787 0 -0.37235789271035141 -0.13572996879578139 0 -0.35788009047426528 -0.1469236713377505 0 -0.38278376380786733 -0.147949664977787 0 -0.33611714681713228 -0.14602707100567791 0 -0.35788009047426528 -0.1469236713377505 0 -0.35360572704990623 -0.15944384835454559 0 -0.33611714681713228 -0.14602707100567791 0 -0.35788009047426528 -0.1469236713377505 0 -0.3489043535627428 -0.1691005538234106 0 -0.35360572704990623 -0.15944384835454559 0 -0.34055865053857731 -0.16301177373453449 0 -0.3489043535627428 -0.1691005538234106 0 -0.35360572704990623 -0.15944384835454559 0 -0.36104093479306382 -0.16916349151210311 0 -0.35788009047426528 -0.1469236713377505 0 -0.35360572704990623 -0.15944384835454559 0 -0.3738498331650969 -0.1637287439057678 0 -0.35360572704990623 -0.15944384835454559 0 -0.36104093479306382 -0.16916349151210311 0 -0.3738498331650969 -0.1637287439057678 0 -0.3738498331650969 -0.1637287439057678 0 -0.36683231736385952 -0.1761230572415301 0 -0.36104093479306382 -0.16916349151210311 0 -0.3738498331650969 -0.1637287439057678 0 -0.36683231736385952 -0.1761230572415301 0 -0.36683231736385952 -0.1761230572415301 0 -0.38283482802991242 -0.19535344367426619 0 -0.36104093479306382 -0.16916349151210311 0 -0.36683231736385952 -0.1761230572415301 0 -0.3514945906798122 -0.1802833640814436 0 -0.36104093479306382 -0.16916349151210311 0 -0.36683231736385952 -0.1761230572415301 0 -0.36683231736385952 -0.1761230572415301 0 -0.3514945906798122 -0.1802833640814436 0 -0.35260155137108701 -0.20125738934958751 0 -0.3489043535627428 -0.1691005538234106 0 -0.36104093479306382 -0.16916349151210311 0 -0.3514945906798122 -0.1802833640814436 0 -0.3489043535627428 -0.1691005538234106 0 -0.3514945906798122 -0.1802833640814436 0 -0.33782186475235471 -0.1736002914344264 0 -0.3514945906798122 -0.1802833640814436 0 -0.33853677870013199 -0.1859840500842114 0 -0.33782186475235471 -0.1736002914344264 0 -0.33853677870013199 -0.1859840500842114 0 -0.32447200602918203 -0.1707107108188306 0 -0.32611877038441789 -0.18397747820985599 0 -0.33853677870013199 -0.1859840500842114 0 -0.33782186475235471 -0.1736002914344264 0 -0.32447200602918203 -0.1707107108188306 0 -0.33853677870013199 -0.1859840500842114 0 -0.32447200602918203 -0.1707107108188306 0 -0.3489043535627428 -0.1691005538234106 0 -0.33782186475235471 -0.1736002914344264 0 -0.34055865053857731 -0.16301177373453449 0 -0.33611714681713228 -0.14602707100567791 0 -0.34055865053857731 -0.16301177373453449 0 -0.32748527925756582 -0.16034125771776739 0 -0.33782186475235471 -0.1736002914344264 0 -0.34055865053857731 -0.16301177373453449 0 -0.33258445014442001 -0.16691600842638971 0 -0.34055865053857731 -0.16301177373453449 0 -0.33258445014442001 -0.16691600842638971 0 -0.32748527925756582 -0.16034125771776739 0 -0.33258445014442001 -0.16691600842638971 0 -0.32447200602918203 -0.1707107108188306 0 -0.32748527925756582 -0.16034125771776739 0 -0.33782186475235471 -0.1736002914344264 0 -0.33258445014442001 -0.16691600842638971 0 -0.32447200602918203 -0.1707107108188306 0 -0.30608595161311131 -0.15680412104343339 0 -0.31435420315999918 -0.14513047067360729 0 -0.31740818427443362 -0.1705071963289681 0 -0.32447200602918203 -0.1707107108188306 0 -0.32748527925756582 -0.16034125771776739 0 -0.31740818427443362 -0.1705071963289681 0 -0.31435420315999918 -0.14513047067360729 0 -0.32748527925756582 -0.16034125771776739 0 -0.31740818427443362 -0.1705071963289681 0 -0.31435420315999918 -0.14513047067360729 0 -0.31740818427443362 -0.1705071963289681 0 -0.31740818427443362 -0.1705071963289681 0 -0.32046216538886779 -0.19588392198432869 0 -0.31740818427443362 -0.1705071963289681 0 -0.32611877038441789 -0.18397747820985599 0 -0.32046216538886779 -0.19588392198432869 0 -0.30134956494293991 -0.19325842122028369 0 -0.31740818427443362 -0.1705071963289681 0 -0.32046216538886779 -0.19588392198432869 0 -0.32447200602918203 -0.1707107108188306 0 -0.31740818427443362 -0.1705071963289681 0 -0.32611877038441789 -0.18397747820985599 0 -0.32611877038441789 -0.18397747820985599 0 -0.32046216538886779 -0.19588392198432869 0 -0.33724055545986209 -0.199399577109377 0 -0.32046216538886779 -0.19588392198432869 0 -0.32351614650330213 -0.22126064763968931 0 -0.3040050732125848 -0.2176996851177003 0 -0.32046216538886779 -0.19588392198432869 0 -0.32351614650330213 -0.22126064763968931 0 -0.32046216538886779 -0.19588392198432869 0 -0.33362638555130619 -0.21169222200510321 0 -0.32351614650330213 -0.22126064763968931 0 -0.33362638555130619 -0.21169222200510321 0 -0.34652731527884939 -0.21198568516463451 0 -0.34038574512564951 -0.22993127812748651 0 -0.33362638555130619 -0.21169222200510321 0 -0.33724055545986209 -0.199399577109377 0 -0.34652731527884939 -0.21198568516463451 0 -0.32046216538886779 -0.19588392198432869 0 -0.33362638555130619 -0.21169222200510321 0 -0.33724055545986209 -0.199399577109377 0 -0.33853677870013199 -0.1859840500842114 0 -0.33724055545986209 -0.199399577109377 0 -0.35260155137108701 -0.20125738934958751 0 -0.33853677870013199 -0.1859840500842114 0 -0.32611877038441789 -0.18397747820985599 0 -0.33724055545986209 -0.199399577109377 0 -0.33853677870013199 -0.1859840500842114 0 -0.35260155137108701 -0.20125738934958751 0 -0.3514945906798122 -0.1802833640814436 0 -0.33853677870013199 -0.1859840500842114 0 -0.35260155137108701 -0.20125738934958751 0 -0.36683231736385952 -0.1761230572415301 0 -0.3676560738776905 -0.19777476265973121 0 -0.38283482802991242 -0.19535344367426619 0 -0.36683231736385952 -0.1761230572415301 0 -0.35260155137108701 -0.20125738934958751 0 -0.36683231736385952 -0.1761230572415301 0 -0.35260155137108701 -0.20125738934958751 0 -0.3676560738776905 -0.19777476265973121 0 -0.35260155137108701 -0.20125738934958751 0 -0.3676560738776905 -0.19777476265973121 0 -0.3683555987459024 -0.21836516037354151 0 -0.35260155137108701 -0.20125738934958751 0 -0.3683555987459024 -0.21836516037354151 0 -0.3676560738776905 -0.19777476265973121 0 -0.3683555987459024 -0.21836516037354151 0 -0.38283482802991242 -0.19535344367426619 0 -0.35260155137108701 -0.20125738934958751 0 -0.34652731527884939 -0.21198568516463451 0 -0.35450263176935332 -0.22121045619812349 0 -0.35260155137108701 -0.20125738934958751 0 -0.3683555987459024 -0.21836516037354151 0 -0.35450263176935332 -0.22121045619812349 0 -0.35260155137108701 -0.20125738934958751 0 -0.34652731527884939 -0.21198568516463451 0 -0.33724055545986209 -0.199399577109377 0 -0.35260155137108701 -0.20125738934958751 0 -0.34652731527884939 -0.21198568516463451 0 -0.34652731527884939 -0.21198568516463451 0 -0.35450263176935332 -0.22121045619812349 0 -0.34038574512564951 -0.22993127812748651 0 -0.35450263176935332 -0.22121045619812349 0 -0.35715524150029898 -0.23507360193126459 0 -0.34038574512564951 -0.22993127812748651 0 -0.3683555987459024 -0.21836516037354151 0 -0.37155337585475789 -0.24008909865256639 0 -0.38410964612072279 -0.23547293139749079 0 -0.3683555987459024 -0.21836516037354151 0 -0.35450263176935332 -0.22121045619812349 0 -0.35715524150029898 -0.23507360193126459 0 -0.3683555987459024 -0.21836516037354151 0 -0.37155337585475789 -0.24008909865256639 0 -0.35715524150029898 -0.23507360193126459 0 -0.37155337585475789 -0.24008909865256639 0 -0.36123010500485891 -0.24536424269572571 0 -0.35715524150029898 -0.23507360193126459 0 -0.36696179939019241 -0.25335420594037988 0 -0.37155337585475789 -0.24008909865256639 0 -0.36123010500485891 -0.24536424269572571 0 -0.34925000327418609 -0.25294006425869198 0 -0.36123010500485891 -0.24536424269572571 0 -0.35715524150029898 -0.23507360193126459 0 -0.34925000327418609 -0.25294006425869198 0 -0.35715524150029898 -0.23507360193126459 0 -0.34038574512564951 -0.22993127812748651 0 -0.34925000327418609 -0.25294006425869198 0 -0.32657012761773702 -0.24663737329504989 0 -0.34925000327418609 -0.25294006425869198 0 -0.34038574512564951 -0.22993127812748651 0 -0.32657012761773702 -0.24663737329504989 0 -0.34038574512564951 -0.22993127812748651 0 -0.32351614650330213 -0.22126064763968931 0 -0.32657012761773702 -0.24663737329504989 0 -0.33362638555130619 -0.21169222200510321 0 -0.34038574512564951 -0.22993127812748651 0 -0.32351614650330213 -0.22126064763968931 0 -0.31202662016431493 -0.23435407766267169 0 -0.32351614650330213 -0.22126064763968931 0 -0.32483892789167967 -0.246156276439185 0 -0.31202662016431493 -0.23435407766267169 0 -0.3040050732125848 -0.2176996851177003 0 -0.32351614650330213 -0.22126064763968931 0 -0.32351614650330213 -0.22126064763968931 0 -0.32657012761773702 -0.24663737329504989 0 -0.32351614650330213 -0.22126064763968931 0 -0.32483892789167967 -0.246156276439185 0 -0.32657012761773702 -0.24663737329504989 0 -0.31202662016431493 -0.23435407766267169 0 -0.31401961167600878 -0.24604932103312269 0 -0.32483892789167967 -0.246156276439185 0 -0.31606970326012263 -0.25434846417547619 0 -0.31401961167600878 -0.24604932103312269 0 -0.32483892789167967 -0.246156276439185 0 -0.32483892789167967 -0.246156276439185 0 -0.32657012761773702 -0.24663737329504989 0 -0.42848501550838702 -0.2464444798720398 0 -0.43288621209123662 -0.22945743516904399 0 -0.44299781172752739 -0.23446701788950619 0 -0.42561803245824431 -0.24676647323924369 0 -0.42848501550838702 -0.2464444798720398 0 -0.41844271224854512 -0.23072525858346549 0 -0.42848501550838702 -0.2464444798720398 0 -0.42062710634949108 -0.22239445099602789 0 -0.4305116279018753 -0.25264715867606929 0 -0.42561803245824431 -0.24676647323924369 0 -0.42848501550838702 -0.2464444798720398 0 -0.4305116279018753 -0.25264715867606929 0 -0.42561803245824431 -0.24676647323924369 0 -0.4305116279018753 -0.25264715867606929 0 -0.42848501550838702 -0.2464444798720398 0 -0.42561803245824431 -0.24676647323924369 0 -0.42848501550838702 -0.2464444798720398 0 -0.42848501550838702 -0.2464444798720398 0 -0.41844271224854512 -0.23072525858346549 0 -0.42062710634949108 -0.22239445099602789 0 -0.42848501550838702 -0.2464444798720398 0 -0.43288621209123662 -0.22945743516904399 0 -0.42062710634949108 -0.22239445099602789 0 -0.43288621209123662 -0.22945743516904399 0 -0.4331381716740258 -0.21904924422415159 0 -0.44140136572889371 -0.2245718097948074 0 -0.43288621209123662 -0.22945743516904399 0 -0.4331381716740258 -0.21904924422415159 0 -0.42062710634949108 -0.22239445099602789 0 -0.41844271224854512 -0.23072525858346549 0 -0.41483984936201679 -0.23381421653974019 0 -0.42062710634949108 -0.22239445099602789 0 -0.41483984936201679 -0.23381421653974019 0 -0.42062710634949108 -0.22239445099602789 0 -0.3988373386959646 -0.21458383010700319 0 -0.41483984936201679 -0.23381421653974019 0 -0.3988373386959646 -0.21458383010700319 0 -0.41844271224854512 -0.23072525858346549 0 -0.41483984936201679 -0.23381421653974019 0 -0.39583073424927501 -0.25011191068426442 0 -0.42561803245824431 -0.24676647323924369 0 -0.42561803245824431 -0.24676647323924369 0 -0.41844271224854512 -0.23072525858346549 0 -0.41483984936201679 -0.23381421653974019 0 -0.39583073424927501 -0.25011191068426442 0 -0.42561803245824431 -0.24676647323924369 0 -0.41483984936201679 -0.23381421653974019 0 -0.42561803245824431 -0.24676647323924369 0 -0.41483984936201679 -0.23381421653974019 0 -0.39583073424927501 -0.25011191068426442 0 -0.38410964612072279 -0.23547293139749079 0 -0.39747290746868202 -0.2329095217508661 0 -0.39583073424927501 -0.25011191068426442 0 -0.41483984936201679 -0.23381421653974019 0 -0.39747290746868202 -0.2329095217508661 0 -0.39583073424927501 -0.25011191068426442 0 -0.41483984936201679 -0.23381421653974019 0 -0.39583073424927501 -0.25011191068426442 0 -0.36696179939019241 -0.25335420594037988 0 -0.37155337585475789 -0.24008909865256639 0 -0.39583073424927501 -0.25011191068426442 0 -0.37155337585475789 -0.24008909865256639 0 -0.38410964612072279 -0.23547293139749079 0 -0.3683555987459024 -0.21836516037354151 0 -0.38410964612072279 -0.23547293139749079 0 -0.3683555987459024 -0.21836516037354151 0 -0.38410964612072279 -0.23547293139749079 0 -0.38460765471176461 -0.2196515906552948 0 -0.38410964612072279 -0.23547293139749079 0 -0.38460765471176461 -0.2196515906552948 0 -0.39747290746868202 -0.2329095217508661 0 -0.38460765471176461 -0.2196515906552948 0 -0.39747290746868202 -0.2329095217508661 0 -0.3988373386959646 -0.21458383010700319 0 -0.41483984936201679 -0.23381421653974019 0 -0.39747290746868202 -0.2329095217508661 0 -0.3988373386959646 -0.21458383010700319 0 -0.3988373386959646 -0.21458383010700319 0 -0.38283482802991242 -0.19535344367426619 0 -0.3988373386959646 -0.21458383010700319 0 -0.3978954583847566 -0.1965222331525617 0 -0.41276919719059491 -0.1983444221200161 0 -0.38460765471176461 -0.2196515906552948 0 -0.3988373386959646 -0.21458383010700319 0 -0.38283482802991242 -0.19535344367426619 0 -0.3683555987459024 -0.21836516037354151 0 -0.38460765471176461 -0.2196515906552948 0 -0.38283482802991242 -0.19535344367426619 0 -0.3978954583847566 -0.1965222331525617 0 -0.41276919719059491 -0.1983444221200161 0 -0.40491128803169879 -0.1742943932440045 0 -0.3988373386959646 -0.21458383010700319 0 -0.38283482802991242 -0.19535344367426619 0 -0.3978954583847566 -0.1965222331525617 0 -0.38283482802991242 -0.19535344367426619 0 -0.3978954583847566 -0.1965222331525617 0 -0.39264044944575149 -0.18350224159496739 0 -0.41276919719059491 -0.1983444221200161 0 -0.42715747736315951 -0.19335669819371429 0 -0.41974896468502859 -0.1827551813129637 0 -0.42062710634949108 -0.22239445099602789 0 -0.41276919719059491 -0.1983444221200161 0 -0.42062710634949108 -0.22239445099602789 0 -0.41276919719059491 -0.1983444221200161 0 -0.42922470467280488 -0.20689460985791641 0 -0.42062710634949108 -0.22239445099602789 0 -0.3988373386959646 -0.21458383010700319 0 -0.41276919719059491 -0.1983444221200161 0 -0.4331381716740258 -0.21904924422415159 0 -0.42062710634949108 -0.22239445099602789 0 -0.42922470467280488 -0.20689460985791641 0 -0.4331381716740258 -0.21904924422415159 0 -0.42922470467280488 -0.20689460985791641 0 -0.44311253236681908 -0.21281414064642329 0 -0.42922470467280488 -0.20689460985791641 0 -0.42715747736315951 -0.19335669819371429 0 -0.44069873426584022 -0.19815726891301261 0 -0.41276919719059491 -0.1983444221200161 0 -0.42922470467280488 -0.20689460985791641 0 -0.42715747736315951 -0.19335669819371429 0 -0.42715747736315951 -0.19335669819371429 0 -0.436040808296835 -0.1846394130608649 0 -0.44069873426584022 -0.19815726891301261 0 -0.436040808296835 -0.1846394130608649 0 -0.43045808671506208 -0.17301103558473921 0 -0.41974896468502859 -0.1827551813129637 0 -0.42715747736315951 -0.19335669819371429 0 -0.436040808296835 -0.1846394130608649 0 -0.41974896468502859 -0.1827551813129637 0 -0.43045808671506208 -0.17301103558473921 0 -0.4190956910214223 -0.1644260989179907 0 -0.41974896468502859 -0.1827551813129637 0 -0.436040808296835 -0.1846394130608649 0 -0.43045808671506208 -0.17301103558473921 0 -0.44317239393201607 -0.17315565577761141 0 -0.43045808671506208 -0.17301103558473921 0 -0.43479216870312309 -0.16317635673650319 0 -0.4190956910214223 -0.1644260989179907 0 -0.43479216870312309 -0.16317635673650319 0 -0.4190956910214223 -0.1644260989179907 0 -0.43310126269561372 -0.15002266975702691 0 -0.43045808671506208 -0.17301103558473921 0 -0.43479216870312309 -0.16317635673650319 0 -0.44317239393201607 -0.17315565577761141 0 -0.4190956910214223 -0.1644260989179907 0 -0.40491128803169879 -0.1742943932440045 0 -0.4017804043662288 -0.16165293731940539 0 -0.4190956910214223 -0.1644260989179907 0 -0.4017804043662288 -0.16165293731940539 0 -0.40794251325174058 -0.148986167367405 0 -0.4190956910214223 -0.1644260989179907 0 -0.41974896468502859 -0.1827551813129637 0 -0.40491128803169879 -0.1742943932440045 0 -0.41276919719059491 -0.1983444221200161 0 -0.40491128803169879 -0.1742943932440045 0 -0.41276919719059491 -0.1983444221200161 0 -0.41974896468502859 -0.1827551813129637 0 -0.40491128803169879 -0.1742943932440045 0 -0.40491128803169879 -0.1742943932440045 0 -0.39264044944575149 -0.18350224159496739 0 -0.38999703953694198 -0.16719921117851361 0 -0.3978954583847566 -0.1965222331525617 0 -0.40491128803169879 -0.1742943932440045 0 -0.39264044944575149 -0.18350224159496739 0 -0.36683231736385952 -0.1761230572415301 0 -0.38283482802991242 -0.19535344367426619 0 -0.39264044944575149 -0.18350224159496739 0 -0.3738498331650969 -0.1637287439057678 0 -0.36683231736385952 -0.1761230572415301 0 -0.39264044944575149 -0.18350224159496739 0 -0.3738498331650969 -0.1637287439057678 0 -0.39264044944575149 -0.18350224159496739 0 -0.3738498331650969 -0.1637287439057678 0 -0.38999703953694198 -0.16719921117851361 0 -0.38278376380786733 -0.147949664977787 0 -0.3738498331650969 -0.1637287439057678 0 -0.39264044944575149 -0.18350224159496739 0 -0.38999703953694198 -0.16719921117851361 0 -0.38999703953694198 -0.16719921117851361 0 -0.4017804043662288 -0.16165293731940539 0 -0.38278376380786733 -0.147949664977787 0 -0.40491128803169879 -0.1742943932440045 0 -0.38999703953694198 -0.16719921117851361 0 -0.4017804043662288 -0.16165293731940539 0 -0.40157905355887691 -0.14349569808428811 0 -0.38278376380786733 -0.147949664977787 0 -0.40794251325174058 -0.148986167367405 0 -0.40157905355887691 -0.14349569808428811 0 -0.38278376380786733 -0.147949664977787 0 -0.39012136765165539 -0.13499001319370019 0 -0.38278376380786733 -0.147949664977787 0 -0.40794251325174058 -0.148986167367405 0 -0.4017804043662288 -0.16165293731940539 0 -0.38278376380786733 -0.147949664977787 0 -0.40794251325174058 -0.148986167367405 0 -0.3738498331650969 -0.1637287439057678 0 -0.38278376380786733 -0.147949664977787 0 -0.38278376380786733 -0.147949664977787 0 -0.39012136765165539 -0.13499001319370019 0 -0.37235789271035141 -0.13572996879578139 0 -0.39012136765165539 -0.13499001319370019 0 -0.37547377297535989 -0.1241162795505862 0 -0.37235789271035141 -0.13572996879578139 0 -0.38278376380786733 -0.147949664977787 0 -0.39012136765165539 -0.13499001319370019 0 -0.39012136765165539 -0.13499001319370019 0 -0.37547377297535989 -0.1241162795505862 0 -0.39012136765165539 -0.13499001319370019 0 -0.3893897453643807 -0.1223927972795272 0 -0.37547377297535989 -0.1241162795505862 0 -0.40139760655285922 -0.13362746087292879 0 -0.41566375589884003 -0.13534893399025069 0 -0.39822624910206461 -0.1206751982234766 0 -0.39012136765165539 -0.13499001319370019 0 -0.3893897453643807 -0.1223927972795272 0 -0.39822624910206461 -0.1206751982234766 0 -0.39012136765165539 -0.13499001319370019 0 -0.39822624910206461 -0.1206751982234766 0 -0.39012136765165539 -0.13499001319370019 0 -0.40139760655285922 -0.13362746087292879 0 -0.39822624910206461 -0.1206751982234766 0 -0.40157905355887691 -0.14349569808428811 0 -0.39012136765165539 -0.13499001319370019 0 -0.40139760655285922 -0.13362746087292879 0 -0.40157905355887691 -0.14349569808428811 0 -0.39012136765165539 -0.13499001319370019 0 -0.40157905355887691 -0.14349569808428811 0 -0.40139760655285922 -0.13362746087292879 0 -0.41566375589884003 -0.13534893399025069 0 -0.41566375589884003 -0.13534893399025069 0 -0.39822624910206461 -0.1206751982234766 0 -0.41238964442926851 -0.122111606191786 0 -0.41566375589884003 -0.13534893399025069 0 -0.39822624910206461 -0.1206751982234766 0 -0.41566375589884003 -0.13534893399025069 0 -0.41238964442926851 -0.122111606191786 0 -0.43199479843362981 -0.1213684953931497 0 -0.40794251325174058 -0.148986167367405 0 -0.43310126269561372 -0.15002266975702691 0 -0.40157905355887691 -0.14349569808428811 0 -0.41566375589884003 -0.13534893399025069 0 -0.40794251325174058 -0.148986167367405 0 -0.4190956910214223 -0.1644260989179907 0 -0.40794251325174058 -0.148986167367405 0 -0.43310126269561372 -0.15002266975702691 0 -0.41566375589884003 -0.13534893399025069 0 -0.40794251325174058 -0.148986167367405 0 -0.43310126269561372 -0.15002266975702691 0 -0.41566375589884003 -0.13534893399025069 0 -0.43310126269561372 -0.15002266975702691 0 -0.41566375589884003 -0.13534893399025069 0 -0.43310126269561372 -0.15002266975702691 0 -0.43380800848284862 -0.135646929261274 0 -0.41566375589884003 -0.13534893399025069 0 -0.43380800848284862 -0.135646929261274 0 -0.43199479843362981 -0.1213684953931497 0 -0.44818442543974152 -0.13633977837223141 0 -0.45380882685363871 -0.12931330414002071 0 -0.43199479843362981 -0.1213684953931497 0 -0.43380800848284862 -0.135646929261274 0 -0.44818442543974152 -0.13633977837223141 0 -0.43199479843362981 -0.1213684953931497 0 -0.44818442543974152 -0.13633977837223141 0 -0.43199479843362981 -0.1213684953931497 0 -0.45380882685363871 -0.12931330414002071 0 -0.43199479843362981 -0.1213684953931497 0 -0.44818442543974152 -0.13633977837223141 0 -0.45682741745808841 -0.1392183703373398 0 -0.45380882685363871 -0.12931330414002071 0 -0.43310126269561372 -0.15002266975702691 0 -0.43380800848284862 -0.135646929261274 0 -0.44818442543974152 -0.13633977837223141 0 -0.43310126269561372 -0.15002266975702691 0 -0.44873765757073297 -0.15066686555417111 0 -0.44626311174858069 -0.1610984214373736 0 -0.43310126269561372 -0.15002266975702691 0 -0.44873765757073297 -0.15066686555417111 0 -0.43310126269561372 -0.15002266975702691 0 -0.44818442543974152 -0.13633977837223141 0 -0.44873765757073297 -0.15066686555417111 0 -0.43310126269561372 -0.15002266975702691 0 -0.44626311174858069 -0.1610984214373736 0 -0.44818442543974152 -0.13633977837223141 0 -0.46437405244585223 -0.1513110613513142 0 -0.44873765757073297 -0.15066686555417111 0 -0.46437405244585223 -0.1513110613513142 0 -0.45953003968876288 -0.1599897066388197 0 -0.44818442543974152 -0.13633977837223141 0 -0.46437405244585223 -0.1513110613513142 0 -0.45682741745808841 -0.1392183703373398 0 -0.44873765757073297 -0.15066686555417111 0 -0.46437405244585223 -0.1513110613513142 0 -0.44818442543974152 -0.13633977837223141 0 -0.44873765757073297 -0.15066686555417111 0 -0.46437405244585223 -0.1513110613513142 0 -0.46437405244585223 -0.1513110613513142 0 -0.46543824963478148 -0.1422706448877242 0 -0.45682741745808841 -0.1392183703373398 0 -0.46437405244585223 -0.1513110613513142 0 -0.46543824963478148 -0.1422706448877242 0 -0.47231534649927759 -0.1439853086022598 0 -0.46543824963478148 -0.1422706448877242 0 -0.46823618213590679 -0.13456783925998389 0 -0.45682741745808841 -0.1392183703373398 0 -0.46543824963478148 -0.1422706448877242 0 -0.46823618213590679 -0.13456783925998389 0 -0.47231534649927759 -0.1439853086022598 0 -0.45682741745808841 -0.1392183703373398 0 -0.45380882685363871 -0.12931330414002071 0 -0.46823618213590679 -0.13456783925998389 0 -0.45682741745808841 -0.1392183703373398 0 -0.45380882685363871 -0.12931330414002071 0 -0.46823618213590679 -0.13456783925998389 0 -0.45380882685363871 -0.12931330414002071 0 -0.46888427883893269 -0.12221818041217961 0 -0.46823618213590679 -0.13456783925998389 0 -0.45380882685363871 -0.12931330414002071 0 -0.47857485713481929 -0.12881556759225229 0 -0.48917374364305161 -0.1340171272761996 0 -0.48378162351052301 -0.11619724423483969 0 -0.46823618213590679 -0.13456783925998389 0 -0.47857485713481929 -0.12881556759225229 0 -0.46888427883893269 -0.12221818041217961 0 -0.46823618213590679 -0.13456783925998389 0 -0.48266353741817519 -0.13982237437994621 0 -0.47231534649927759 -0.1439853086022598 0 -0.46823618213590679 -0.13456783925998389 0 -0.48266353741817519 -0.13982237437994621 0 -0.47857485713481929 -0.12881556759225229 0 -0.46823618213590679 -0.13456783925998389 0 -0.48266353741817519 -0.13982237437994621 0 -0.48266353741817519 -0.13982237437994621 0 -0.47857485713481929 -0.12881556759225229 0 -0.48917374364305161 -0.1340171272761996 0 -0.5 -0.1252752465844259 0 -0.48917374364305161 -0.1340171272761996 0 -0.48378162351052301 -0.11619724423483969 0 -0.5 -0.1252752465844259 0 -0.48917374364305161 -0.1340171272761996 0 -0.49999999999999678 -0.14738696209575819 0 -0.48266353741817519 -0.13982237437994621 0 -0.48917374364305161 -0.1340171272761996 0 -0.49002244379479232 -0.14660536876997551 0 -0.49883831124264583 -0.15273093663880161 0 -0.48160618184424903 -0.15202099899505861 0 -0.48815542206808582 -0.16188372737077661 0 -0.49883831124264583 -0.15273093663880161 0 -0.48160618184424903 -0.15202099899505861 0 -0.49883831124264583 -0.15273093663880161 0 -0.49002244379479232 -0.14660536876997551 0 -0.48160618184424903 -0.15202099899505861 0 -0.49883831124264583 -0.15273093663880161 0 -0.49999999999999678 -0.14738696209575819 0 -0.49002244379479232 -0.14660536876997551 0 -0.48917374364305161 -0.1340171272761996 0 -0.49999999999999678 -0.14738696209575819 0 -0.49002244379479232 -0.14660536876997551 0 -0.48266353741817519 -0.13982237437994621 0 -0.49002244379479232 -0.14660536876997551 0 -0.48160618184424903 -0.15202099899505861 0 -0.46437405244585223 -0.1513110613513142 0 -0.48160618184424903 -0.15202099899505861 0 -0.46437405244585223 -0.1513110613513142 0 -0.48160618184424903 -0.15202099899505861 0 -0.47231534649927759 -0.1439853086022598 0 -0.46437405244585223 -0.1513110613513142 0 -0.48160618184424903 -0.15202099899505861 0 -0.47885041587710048 -0.16469801173351989 0 -0.48266353741817519 -0.13982237437994621 0 -0.48160618184424903 -0.15202099899505861 0 -0.47231534649927759 -0.1439853086022598 0 -0.46437405244585223 -0.1513110613513142 0 -0.47885041587710048 -0.16469801173351989 0 -0.48160618184424903 -0.15202099899505861 0 -0.47885041587710048 -0.16469801173351989 0 -0.48815542206808582 -0.16188372737077661 0 -0.49883831124264583 -0.15273093663880161 0 -0.49332677930834778 -0.17808496211572661 0 -0.49883831124264583 -0.15273093663880161 0 -0.48815542206808582 -0.16188372737077661 0 -0.49332677930834778 -0.17808496211572661 0 -0.47885041587710048 -0.16469801173351989 0 -0.48815542206808582 -0.16188372737077661 0 -0.49332677930834778 -0.17808496211572661 0 -0.49883831124264583 -0.15273093663880161 0 -0.5 -0.18134574965575251 0 -0.49332677930834778 -0.17808496211572661 0 -0.47885041587710048 -0.16469801173351989 0 -0.49332677930834778 -0.17808496211572661 0 -0.5 -0.18134574965575251 0 -0.4972653732831796 -0.18172715874660919 0 -0.48879031933208861 -0.19895348346046779 0 -0.4972653732831796 -0.18172715874660919 0 -0.49332677930834778 -0.17808496211572661 0 -0.48879031933208861 -0.19895348346046779 0 -0.49332677930834778 -0.17808496211572661 0 -0.47788907036906658 -0.18042881106278269 0 -0.48879031933208861 -0.19895348346046779 0 -0.4972653732831796 -0.18172715874660919 0 -0.49332677930834778 -0.17808496211572661 0 -0.5 -0.18134574965575251 0 -0.4972653732831796 -0.18172715874660919 0 -0.49332677930834778 -0.17808496211572661 0 -0.47885041587710048 -0.16469801173351989 0 -0.49332677930834778 -0.17808496211572661 0 -0.47788907036906658 -0.18042881106278269 0 -0.47885041587710048 -0.16469801173351989 0 -0.47788907036906658 -0.18042881106278269 0 -0.45942496080154749 -0.1721741731177204 0 -0.47788907036906658 -0.18042881106278269 0 -0.45942496080154749 -0.1721741731177204 0 -0.46743976114210078 -0.1924007007415833 0 -0.45942496080154749 -0.1721741731177204 0 -0.45112007862548797 -0.18775058362458 0 -0.46743976114210078 -0.1924007007415833 0 -0.46437405244585223 -0.1513110613513142 0 -0.47885041587710048 -0.16469801173351989 0 -0.45953003968876288 -0.1599897066388197 0 -0.47885041587710048 -0.16469801173351989 0 -0.45942496080154749 -0.1721741731177204 0 -0.45953003968876288 -0.1599897066388197 0 -0.45942496080154749 -0.1721741731177204 0 -0.45953003968876288 -0.1599897066388197 0 -0.44626311174858069 -0.1610984214373736 0 -0.45942496080154749 -0.1721741731177204 0 -0.44626311174858069 -0.1610984214373736 0 -0.45942496080154749 -0.1721741731177204 0 -0.44626311174858069 -0.1610984214373736 0 -0.44317239393201607 -0.17315565577761141 0 -0.44873765757073297 -0.15066686555417111 0 -0.45953003968876288 -0.1599897066388197 0 -0.44626311174858069 -0.1610984214373736 0 -0.43479216870312309 -0.16317635673650319 0 -0.43310126269561372 -0.15002266975702691 0 -0.44626311174858069 -0.1610984214373736 0 -0.43479216870312309 -0.16317635673650319 0 -0.44626311174858069 -0.1610984214373736 0 -0.44317239393201607 -0.17315565577761141 0 -0.45942496080154749 -0.1721741731177204 0 -0.44317239393201607 -0.17315565577761141 0 -0.45112007862548797 -0.18775058362458 0 -0.436040808296835 -0.1846394130608649 0 -0.44317239393201607 -0.17315565577761141 0 -0.45112007862548797 -0.18775058362458 0 -0.45112007862548797 -0.18775058362458 0 -0.44069873426584022 -0.19815726891301261 0 -0.4556888462847839 -0.20436822074283009 0 -0.436040808296835 -0.1846394130608649 0 -0.45112007862548797 -0.18775058362458 0 -0.44069873426584022 -0.19815726891301261 0 -0.44311253236681908 -0.21281414064642329 0 -0.4556888462847839 -0.20436822074283009 0 -0.45852337157456619 -0.22384369034582169 0 -0.42922470467280488 -0.20689460985791641 0 -0.44069873426584022 -0.19815726891301261 0 -0.44311253236681908 -0.21281414064642329 0 -0.44069873426584022 -0.19815726891301261 0 -0.44311253236681908 -0.21281414064642329 0 -0.4556888462847839 -0.20436822074283009 0 -0.4556888462847839 -0.20436822074283009 0 -0.46926740859492522 -0.20878878673992909 0 -0.45852337157456619 -0.22384369034582169 0 -0.4556888462847839 -0.20436822074283009 0 -0.46743976114210078 -0.1924007007415833 0 -0.46926740859492522 -0.20878878673992909 0 -0.45112007862548797 -0.18775058362458 0 -0.4556888462847839 -0.20436822074283009 0 -0.46743976114210078 -0.1924007007415833 0 -0.47788907036906658 -0.18042881106278269 0 -0.46743976114210078 -0.1924007007415833 0 -0.48879031933208861 -0.19895348346046779 0 -0.46743976114210078 -0.1924007007415833 0 -0.48879031933208861 -0.19895348346046779 0 -0.46926740859492522 -0.20878878673992909 0 -0.49332677930834778 -0.17808496211572661 0 -0.48879031933208861 -0.19895348346046779 0 -0.5 -0.18134574965575251 0 -0.48879031933208861 -0.19895348346046779 0 -0.5 -0.20991270285456309 0 -0.48879031933208861 -0.19895348346046779 0 -0.4842538593558296 -0.21982200480520911 0 -0.48879031933208861 -0.19895348346046779 0 -0.5 -0.20991270285456309 0 -0.4842538593558296 -0.21982200480520911 0 -0.48879031933208861 -0.19895348346046779 0 -0.46926740859492522 -0.20878878673992909 0 -0.4842538593558296 -0.21982200480520911 0 -0.46926740859492522 -0.20878878673992909 0 -0.4842538593558296 -0.21982200480520911 0 -0.45852337157456619 -0.22384369034582169 0 -0.4842538593558296 -0.21982200480520911 0 -0.47971739937957247 -0.2406905261499506 0 -0.4842538593558296 -0.21982200480520911 0 -0.47971739937957247 -0.2406905261499506 0 -0.45852337157456619 -0.22384369034582169 0 -0.4842538593558296 -0.21982200480520911 0 -0.49292320331146899 -0.23920737079107071 0 -0.47971739937957247 -0.2406905261499506 0 -0.5 -0.20991270285456309 0 -0.4842538593558296 -0.21982200480520911 0 -0.5 -0.23847965605337371 0 -0.4842538593558296 -0.21982200480520911 0 -0.5 -0.23847965605337371 0 -0.49292320331146899 -0.23920737079107071 0 -0.48896078750815541 -0.25574798812015442 0 -0.49292320331146899 -0.23920737079107071 0 -0.47971739937957247 -0.2406905261499506 0 -0.48896078750815541 -0.25574798812015442 0 -0.5 -0.23847965605337371 0 -0.49292320331146899 -0.23920737079107071 0 -0.49292320331146899 -0.23920737079107071 0 -0.47971739937957247 -0.2406905261499506 0 -0.47971739937957247 -0.2406905261499506 0 -0.45410120744398008 -0.2435675030109988 0 -0.47971739937957247 -0.2406905261499506 0 -0.45410120744398008 -0.2435675030109988 0 -0.45852337157456619 -0.22384369034582169 0 -0.45659448694856603 -0.26051399847008849 0 -0.47971739937957247 -0.2406905261499506 0 -0.45410120744398008 -0.2435675030109988 0 -0.45852337157456619 -0.22384369034582169 0 -0.44140136572889371 -0.2245718097948074 0 -0.44299781172752739 -0.23446701788950619 0 -0.44311253236681908 -0.21281414064642329 0 -0.45852337157456619 -0.22384369034582169 0 -0.44140136572889371 -0.2245718097948074 0 -0.45410120744398008 -0.2435675030109988 0 -0.45852337157456619 -0.22384369034582169 0 -0.44299781172752739 -0.23446701788950619 0 -0.4331381716740258 -0.21904924422415159 0 -0.44311253236681908 -0.21281414064642329 0 -0.44140136572889371 -0.2245718097948074 0 -0.43288621209123662 -0.22945743516904399 0 -0.44140136572889371 -0.2245718097948074 0 -0.44299781172752739 -0.23446701788950619 0 -0.44183250848516281 -0.25396601693913079 0 -0.42848501550838702 -0.2464444798720398 0 -0.45410120744398008 -0.2435675030109988 0 -0.42848501550838702 -0.2464444798720398 0 -0.45410120744398008 -0.2435675030109988 0 -0.44299781172752739 -0.23446701788950619 0 -0.42848501550838702 -0.2464444798720398 0 -0.45410120744398008 -0.2435675030109988 0 -0.42179612121025378 -0.044367199423327952 0 -0.41466523391121718 -0.041544986408488943 0 -0.41838958928315861 -0.052810272362928123 0 -0.42179612121025378 -0.044367199423327952 0 -0.41466523391121718 -0.041544986408488943 0 -0.42390918977232678 -0.03120199214897788 0 -0.41466523391121718 -0.041544986408488943 0 -0.40663793353347022 -0.02871690164065754 0 -0.40450417648056758 -0.037826904619184538 0 -0.41466523391121718 -0.041544986408488943 0 -0.40020109630206357 -0.046284297536658789 0 -0.40450417648056758 -0.037826904619184538 0 -0.41466523391121718 -0.041544986408488943 0 -0.41214003844454589 -0.066370716854937908 0 -0.41466523391121718 -0.041544986408488943 0 -0.40020109630206357 -0.046284297536658789 0 -0.40613590942500338 -0.055942714038039659 0 -0.41466523391121718 -0.041544986408488943 0 -0.40613590942500338 -0.055942714038039659 0 -0.41214003844454589 -0.066370716854937908 0 -0.41466523391121718 -0.041544986408488943 0 -0.41838958928315861 -0.052810272362928123 0 -0.41214003844454589 -0.066370716854937908 0 -0.41838958928315861 -0.052810272362928123 0 -0.43022047187431212 -0.051911546772917018 0 -0.41443496152187231 -0.063996800414181182 0 -0.40613590942500338 -0.055942714038039659 0 -0.40573324112272979 -0.06330779741726883 0 -0.41214003844454589 -0.066370716854937908 0 -0.41838958928315861 -0.052810272362928123 0 -0.41443496152187231 -0.063996800414181182 0 -0.41214003844454589 -0.066370716854937908 0 -0.43264849282907492 -0.059878744527382489 0 -0.44231950971488859 -0.042797826300332631 0 -0.43022047187431212 -0.051911546772917018 0 -0.41443496152187231 -0.063996800414181182 0 -0.43264849282907492 -0.059878744527382489 0 -0.43022047187431212 -0.051911546772917018 0 -0.44231950971488859 -0.042797826300332631 0 -0.43264849282907492 -0.059878744527382489 0 -0.43022047187431212 -0.051911546772917018 0 -0.41443496152187231 -0.063996800414181182 0 -0.42179612121025378 -0.044367199423327952 0 -0.41838958928315861 -0.052810272362928123 0 -0.43022047187431212 -0.051911546772917018 0 -0.43264849282907492 -0.059878744527382489 0 -0.43022047187431212 -0.051911546772917018 0 -0.43022047187431212 -0.051911546772917018 0 -0.44231950971488859 -0.042797826300332631 0 -0.42179612121025378 -0.044367199423327952 0 -0.43022047187431212 -0.051911546772917018 0 -0.42390918977232678 -0.03120199214897788 0 -0.43022047187431212 -0.051911546772917018 0 -0.42390918977232678 -0.03120199214897788 0 -0.43022047187431212 -0.051911546772917018 0 -0.43152000989859329 -0.038885278983121073 0 -0.44231950971488859 -0.042797826300332631 0 -0.43022047187431212 -0.051911546772917018 0 -0.43152000989859329 -0.038885278983121073 0 -0.42390918977232678 -0.03120199214897788 0 -0.43152000989859329 -0.038885278983121073 0 -0.42971360244187462 -0.02971561099087628 0 -0.42390918977232678 -0.03120199214897788 0 -0.42971360244187462 -0.02971561099087628 0 -0.44231950971488859 -0.042797826300332631 0 -0.43152000989859329 -0.038885278983121073 0 -0.42971360244187462 -0.02971561099087628 0 -0.44231950971488859 -0.042797826300332631 0 -0.42971360244187462 -0.02971561099087628 0 -0.43700678220441502 -0.021290710840274441 0 -0.42870841033949758 -0.013817265842265411 0 -0.42971360244187462 -0.02971561099087628 0 -0.42870841033949758 -0.013817265842265411 0 -0.4171904293778893 -0.016719255962039981 0 -0.42971360244187462 -0.02971561099087628 0 -0.43700678220441502 -0.021290710840274441 0 -0.44117677777450581 -0.031064699801896491 0 -0.42971360244187462 -0.02971561099087628 0 -0.4171904293778893 -0.016719255962039981 0 -0.42971360244187462 -0.02971561099087628 0 -0.42390918977232678 -0.03120199214897788 0 -0.4171904293778893 -0.016719255962039981 0 -0.43322202861242248 -0.0020834325917515511 0 -0.42870841033949758 -0.013817265842265411 0 -0.44004068473229607 -0.010639400370727451 0 -0.43700678220441502 -0.021290710840274441 0 -0.42870841033949758 -0.013817265842265411 0 -0.44004068473229607 -0.010639400370727451 0 -0.43322202861242248 -0.0020834325917515511 0 -0.42870841033949758 -0.013817265842265411 0 -0.41821614571227672 -0.0066352218474045252 0 -0.43322202861242248 -0.0020834325917515511 0 -0.41821614571227672 -0.0066352218474045252 0 -0.42193710493546682 0.0042008097164545517 0 -0.41821614571227672 -0.0066352218474045252 0 -0.40135365240832938 -0.00028409412587191048 0 -0.42193710493546682 0.0042008097164545517 0 -0.4171904293778893 -0.016719255962039981 0 -0.40432614423380298 -0.016959652534442479 0 -0.40135365240832938 -0.00028409412587191048 0 -0.41821614571227672 -0.0066352218474045252 0 -0.4171904293778893 -0.016719255962039981 0 -0.40135365240832938 -0.00028409412587191048 0 -0.4171904293778893 -0.016719255962039981 0 -0.40135365240832938 -0.00028409412587191048 0 -0.41821614571227672 -0.0066352218474045252 0 -0.4171904293778893 -0.016719255962039981 0 -0.42870841033949758 -0.013817265842265411 0 -0.41821614571227672 -0.0066352218474045252 0 -0.4171904293778893 -0.016719255962039981 0 -0.41466523391121718 -0.041544986408488943 0 -0.4171904293778893 -0.016719255962039981 0 -0.41466523391121718 -0.041544986408488943 0 -0.42390918977232678 -0.03120199214897788 0 -0.4171904293778893 -0.016719255962039981 0 -0.41466523391121718 -0.041544986408488943 0 -0.4171904293778893 -0.016719255962039981 0 -0.40663793353347022 -0.02871690164065754 0 -0.4171904293778893 -0.016719255962039981 0 -0.40663793353347022 -0.02871690164065754 0 -0.40432614423380298 -0.016959652534442479 0 -0.40663793353347022 -0.02871690164065754 0 -0.39576060684853182 -0.024068684765636339 0 -0.3954139395375747 -0.035113937059318187 0 -0.40663793353347022 -0.02871690164065754 0 -0.40432614423380298 -0.016959652534442479 0 -0.39576060684853182 -0.024068684765636339 0 -0.39576060684853182 -0.024068684765636339 0 -0.39417203188913641 -0.01202698307508532 0 -0.38809881963062032 -0.019464461186230419 0 -0.40432614423380298 -0.016959652534442479 0 -0.39576060684853182 -0.024068684765636339 0 -0.39417203188913641 -0.01202698307508532 0 -0.39576060684853182 -0.024068684765636339 0 -0.38478844089755559 -0.026882560123294159 0 -0.3954139395375747 -0.035113937059318187 0 -0.40432614423380298 -0.016959652534442479 0 -0.40135365240832938 -0.00028409412587191048 0 -0.39417203188913641 -0.01202698307508532 0 -0.40135365240832938 -0.00028409412587191048 0 -0.39417203188913641 -0.01202698307508532 0 -0.3889798473242797 -0.00087519795435856524 0 -0.38616828435132772 -0.01023493562890287 0 -0.3813727969204429 -0.01733431668938441 0 -0.3776883925338359 0.0020189553477719681 0 -0.37311870582558249 -0.023296858719231459 0 -0.3776883925338359 0.0020189553477719681 0 -0.37311870582558249 -0.023296858719231459 0 -0.3813727969204429 -0.01733431668938441 0 -0.3776883925338359 0.0020189553477719681 0 -0.39417203188913641 -0.01202698307508532 0 -0.3889798473242797 -0.00087519795435856524 0 -0.38616828435132772 -0.01023493562890287 0 -0.3889798473242797 -0.00087519795435856524 0 -0.38616828435132772 -0.01023493562890287 0 -0.3776883925338359 0.0020189553477719681 0 -0.39417203188913641 -0.01202698307508532 0 -0.38616828435132772 -0.01023493562890287 0 -0.38809881963062032 -0.019464461186230419 0 -0.39576060684853182 -0.024068684765636339 0 -0.38478844089755559 -0.026882560123294159 0 -0.38809881963062032 -0.019464461186230419 0 -0.38616828435132772 -0.01023493562890287 0 -0.38809881963062032 -0.019464461186230419 0 -0.3813727969204429 -0.01733431668938441 0 -0.38478844089755559 -0.026882560123294159 0 -0.38809881963062032 -0.019464461186230419 0 -0.3813727969204429 -0.01733431668938441 0 -0.38478844089755559 -0.026882560123294159 0 -0.3813727969204429 -0.01733431668938441 0 -0.37891205721897192 -0.02542134558954124 0 -0.37311870582558249 -0.023296858719231459 0 -0.3813727969204429 -0.01733431668938441 0 -0.37891205721897192 -0.02542134558954124 0 -0.37311870582558249 -0.023296858719231459 0 -0.37891205721897192 -0.02542134558954124 0 -0.37843389394361288 -0.031388820956642367 0 -0.38478844089755559 -0.026882560123294159 0 -0.37891205721897192 -0.02542134558954124 0 -0.37843389394361288 -0.031388820956642367 0 -0.37311870582558249 -0.023296858719231459 0 -0.37843389394361288 -0.031388820956642367 0 -0.37626318764245797 -0.039833136549939148 0 -0.37843389394361288 -0.031388820956642367 0 -0.37626318764245797 -0.039833136549939148 0 -0.38422015450812669 -0.038192195745036572 0 -0.38478844089755559 -0.026882560123294159 0 -0.37843389394361288 -0.031388820956642367 0 -0.38422015450812669 -0.038192195745036572 0 -0.37626318764245797 -0.039833136549939148 0 -0.38422015450812669 -0.038192195745036572 0 -0.38342248935631318 -0.050276243903206688 0 -0.36854901911732918 -0.048612672786234892 0 -0.37626318764245797 -0.039833136549939148 0 -0.38342248935631318 -0.050276243903206688 0 -0.38422015450812669 -0.038192195745036572 0 -0.39081441992601951 -0.042466668561055063 0 -0.38342248935631318 -0.050276243903206688 0 -0.38422015450812669 -0.038192195745036572 0 -0.3954139395375747 -0.035113937059318187 0 -0.39081441992601951 -0.042466668561055063 0 -0.38478844089755559 -0.026882560123294159 0 -0.38422015450812669 -0.038192195745036572 0 -0.3954139395375747 -0.035113937059318187 0 -0.39081441992601951 -0.042466668561055063 0 -0.40020109630206357 -0.046284297536658789 0 -0.38342248935631318 -0.050276243903206688 0 -0.3954139395375747 -0.035113937059318187 0 -0.39081441992601951 -0.042466668561055063 0 -0.40020109630206357 -0.046284297536658789 0 -0.3954139395375747 -0.035113937059318187 0 -0.40020109630206357 -0.046284297536658789 0 -0.40450417648056758 -0.037826904619184538 0 -0.40663793353347022 -0.02871690164065754 0 -0.3954139395375747 -0.035113937059318187 0 -0.40450417648056758 -0.037826904619184538 0 -0.40020109630206357 -0.046284297536658789 0 -0.40613590942500338 -0.055942714038039659 0 -0.39776239954408421 -0.06268061058933895 0 -0.40020109630206357 -0.046284297536658789 0 -0.38260990297279718 -0.062556495459459557 0 -0.40020109630206357 -0.046284297536658789 0 -0.38260990297279718 -0.062556495459459557 0 -0.39776239954408421 -0.06268061058933895 0 -0.40613590942500338 -0.055942714038039659 0 -0.40573324112272979 -0.06330779741726883 0 -0.39776239954408421 -0.06268061058933895 0 -0.40020109630206357 -0.046284297536658789 0 -0.38342248935631318 -0.050276243903206688 0 -0.38260990297279718 -0.062556495459459557 0 -0.36854901911732918 -0.048612672786234892 0 -0.38342248935631318 -0.050276243903206688 0 -0.38260990297279718 -0.062556495459459557 0 -0.38260990297279718 -0.062556495459459557 0 -0.39011335496449312 -0.070526059830097382 0 -0.39776239954408421 -0.06268061058933895 0 -0.38260990297279718 -0.062556495459459557 0 -0.39011335496449312 -0.070526059830097382 0 -0.38336055864807289 -0.073590623479613024 0 -0.38768538796514018 -0.076969042759510789 0 -0.38336055864807289 -0.073590623479613024 0 -0.38179575339612681 -0.08149101190351038 0 -0.38768538796514018 -0.076969042759510789 0 -0.39011335496449312 -0.070526059830097382 0 -0.39347851730083511 -0.076894356020670185 0 -0.38768538796514018 -0.076969042759510789 0 -0.39011335496449312 -0.070526059830097382 0 -0.38336055864807289 -0.073590623479613024 0 -0.38260990297279718 -0.062556495459459557 0 -0.38336055864807289 -0.073590623479613024 0 -0.37534668651479552 -0.077017594021229055 0 -0.38336055864807289 -0.073590623479613024 0 -0.37534668651479552 -0.077017594021229055 0 -0.38179575339612681 -0.08149101190351038 0 -0.37443261964950908 -0.085602602580498288 0 -0.37534668651479552 -0.077017594021229055 0 -0.38179575339612681 -0.08149101190351038 0 -0.37443261964950908 -0.085602602580498288 0 -0.38179575339612681 -0.08149101190351038 0 -0.37948090294837961 -0.088538111636954436 0 -0.37213309872413158 -0.090896676644892607 0 -0.37948090294837961 -0.088538111636954436 0 -0.37875469769457271 -0.094733887227330005 0 -0.37213309872413158 -0.090896676644892607 0 -0.37443261964950908 -0.085602602580498288 0 -0.37948090294837961 -0.088538111636954436 0 -0.38179575339612681 -0.08149101190351038 0 -0.37948090294837961 -0.088538111636954436 0 -0.38594423010384832 -0.088768061408247917 0 -0.37948090294837961 -0.088538111636954436 0 -0.38594423010384832 -0.088768061408247917 0 -0.37875469769457271 -0.094733887227330005 0 -0.38594423010384832 -0.088768061408247917 0 -0.37875469769457271 -0.094733887227330005 0 -0.38659071761349439 -0.095924701993534339 0 -0.38594423010384832 -0.088768061408247917 0 -0.39186978669239808 -0.092136668087470092 0 -0.392418479742565 -0.086791198334914096 0 -0.38594423010384832 -0.088768061408247917 0 -0.38967875551617343 -0.082343162563662975 0 -0.392418479742565 -0.086791198334914096 0 -0.38594423010384832 -0.088768061408247917 0 -0.39186978669239808 -0.092136668087470092 0 -0.38659071761349439 -0.095924701993534339 0 -0.38179575339612681 -0.08149101190351038 0 -0.38594423010384832 -0.088768061408247917 0 -0.38967875551617343 -0.082343162563662975 0 -0.38768538796514018 -0.076969042759510789 0 -0.38179575339612681 -0.08149101190351038 0 -0.38967875551617343 -0.082343162563662975 0 -0.38768538796514018 -0.076969042759510789 0 -0.38967875551617343 -0.082343162563662975 0 -0.39347851730083511 -0.076894356020670185 0 -0.38967875551617343 -0.082343162563662975 0 -0.39712843580268781 -0.082505865652378219 0 -0.39347851730083511 -0.076894356020670185 0 -0.38967875551617343 -0.082343162563662975 0 -0.39712843580268781 -0.082505865652378219 0 -0.392418479742565 -0.086791198334914096 0 -0.39712843580268781 -0.082505865652378219 0 -0.392418479742565 -0.086791198334914096 0 -0.39747119059771729 -0.088202233962811294 0 -0.39712843580268781 -0.082505865652378219 0 -0.39908102970138448 -0.077583688134689063 0 -0.39347851730083511 -0.076894356020670185 0 -0.39186978669239808 -0.092136668087470092 0 -0.392418479742565 -0.086791198334914096 0 -0.39747119059771729 -0.088202233962811294 0 -0.39186978669239808 -0.092136668087470092 0 -0.39747119059771729 -0.088202233962811294 0 -0.39722970140608871 -0.094127824488543732 0 -0.39747119059771729 -0.088202233962811294 0 -0.4022951830070618 -0.090664099010940635 0 -0.39722970140608871 -0.094127824488543732 0 -0.39747119059771729 -0.088202233962811294 0 -0.4022951830070618 -0.090664099010940635 0 -0.40394626547131729 -0.084372135922150718 0 -0.4022951830070618 -0.090664099010940635 0 -0.40394626547131729 -0.084372135922150718 0 -0.40961484297787448 -0.091196447301386957 0 -0.4022951830070618 -0.090664099010940635 0 -0.40245820379267427 -0.097578391417315613 0 -0.40961484297787448 -0.091196447301386957 0 -0.39712843580268781 -0.082505865652378219 0 -0.40173824905389832 -0.079992105400710764 0 -0.39908102970138448 -0.077583688134689063 0 -0.39712843580268781 -0.082505865652378219 0 -0.39747119059771729 -0.088202233962811294 0 -0.40394626547131729 -0.084372135922150718 0 -0.39712843580268781 -0.082505865652378219 0 -0.40173824905389832 -0.079992105400710764 0 -0.40394626547131729 -0.084372135922150718 0 -0.40173824905389832 -0.079992105400710764 0 -0.40571397206774151 -0.080189651988685745 0 -0.40282154222636057 -0.075309185305650034 0 -0.40173824905389832 -0.079992105400710764 0 -0.40394626547131729 -0.084372135922150718 0 -0.40571397206774151 -0.080189651988685745 0 -0.40571397206774151 -0.080189651988685745 0 -0.40282154222636057 -0.075309185305650034 0 -0.40750961414246911 -0.073690794056808617 0 -0.40282154222636057 -0.075309185305650034 0 -0.39908102970138448 -0.077583688134689063 0 -0.39793243242812021 -0.072045403759424781 0 -0.40173824905389832 -0.079992105400710764 0 -0.40282154222636057 -0.075309185305650034 0 -0.39908102970138448 -0.077583688134689063 0 -0.40282154222636057 -0.075309185305650034 0 -0.40344126462172841 -0.068641577986804411 0 -0.39793243242812021 -0.072045403759424781 0 -0.40282154222636057 -0.075309185305650034 0 -0.40344126462172841 -0.068641577986804411 0 -0.40750961414246911 -0.073690794056808617 0 -0.40344126462172841 -0.068641577986804411 0 -0.39776239954408421 -0.06268061058933895 0 -0.39793243242812021 -0.072045403759424781 0 -0.40344126462172841 -0.068641577986804411 0 -0.40573324112272979 -0.06330779741726883 0 -0.40720603958286827 -0.068002721578954942 0 -0.40344126462172841 -0.068641577986804411 0 -0.40720603958286827 -0.068002721578954942 0 -0.40750961414246911 -0.073690794056808617 0 -0.40344126462172841 -0.068641577986804411 0 -0.40573324112272979 -0.06330779741726883 0 -0.39776239954408421 -0.06268061058933895 0 -0.39011335496449312 -0.070526059830097382 0 -0.39776239954408421 -0.06268061058933895 0 -0.39793243242812021 -0.072045403759424781 0 -0.39011335496449312 -0.070526059830097382 0 -0.39347851730083511 -0.076894356020670185 0 -0.39793243242812021 -0.072045403759424781 0 -0.39908102970138448 -0.077583688134689063 0 -0.39347851730083511 -0.076894356020670185 0 -0.39793243242812021 -0.072045403759424781 0 -0.3893897453643807 -0.1223927972795272 0 -0.38489558421783132 -0.1173106152746915 0 -0.37547377297535989 -0.1241162795505862 0 -0.3893897453643807 -0.1223927972795272 0 -0.38489558421783132 -0.1173106152746915 0 -0.39085965513795778 -0.11715887515757729 0 -0.38489558421783132 -0.1173106152746915 0 -0.37547377297535989 -0.1241162795505862 0 -0.37988150773705948 -0.11307964994686839 0 -0.37190291946992438 -0.10858233498795911 0 -0.37547377297535989 -0.1241162795505862 0 -0.37988150773705948 -0.11307964994686839 0 -0.37190291946992438 -0.10858233498795911 0 -0.37988150773705948 -0.11307964994686839 0 -0.37754648875530289 -0.10710727376235719 0 -0.38489558421783132 -0.1173106152746915 0 -0.37988150773705948 -0.11307964994686839 0 -0.38836169432924122 -0.1133439320949679 0 -0.37988150773705948 -0.11307964994686839 0 -0.38836169432924122 -0.1133439320949679 0 -0.3870855142835456 -0.10794268298865931 0 -0.38489558421783132 -0.1173106152746915 0 -0.38836169432924122 -0.1133439320949679 0 -0.39085965513795778 -0.11715887515757729 0 -0.38836169432924122 -0.1133439320949679 0 -0.3870855142835456 -0.10794268298865931 0 -0.39268035205289409 -0.1093226485694542 0 -0.37988150773705948 -0.11307964994686839 0 -0.3870855142835456 -0.10794268298865931 0 -0.38249988161614279 -0.1048688932581907 0 -0.3870855142835456 -0.10794268298865931 0 -0.3915569113850888 -0.1050344012352666 0 -0.39268035205289409 -0.1093226485694542 0 -0.3870855142835456 -0.10794268298865931 0 -0.38749121417528459 -0.1018355898223928 0 -0.3915569113850888 -0.1050344012352666 0 -0.38749121417528459 -0.1018355898223928 0 -0.38249988161614279 -0.1048688932581907 0 -0.38173208366541 -0.099647832371895562 0 -0.3870855142835456 -0.10794268298865931 0 -0.38749121417528459 -0.1018355898223928 0 -0.38249988161614279 -0.1048688932581907 0 -0.37988150773705948 -0.11307964994686839 0 -0.37754648875530289 -0.10710727376235719 0 -0.38249988161614279 -0.1048688932581907 0 -0.37190291946992438 -0.10858233498795911 0 -0.37754648875530289 -0.10710727376235719 0 -0.3759016461980848 -0.1018982168564106 0 -0.37754648875530289 -0.10710727376235719 0 -0.3759016461980848 -0.1018982168564106 0 -0.38249988161614279 -0.1048688932581907 0 -0.3759016461980848 -0.1018982168564106 0 -0.38249988161614279 -0.1048688932581907 0 -0.38173208366541 -0.099647832371895562 0 -0.38173208366541 -0.099647832371895562 0 -0.37875469769457271 -0.094733887227330005 0 -0.38659071761349439 -0.095924701993534339 0 -0.3711981733528355 -0.096794958232631151 0 -0.3759016461980848 -0.1018982168564106 0 -0.37875469769457271 -0.094733887227330005 0 -0.3759016461980848 -0.1018982168564106 0 -0.38173208366541 -0.099647832371895562 0 -0.37875469769457271 -0.094733887227330005 0 -0.38749121417528459 -0.1018355898223928 0 -0.38173208366541 -0.099647832371895562 0 -0.38659071761349439 -0.095924701993534339 0 -0.38749121417528459 -0.1018355898223928 0 -0.38659071761349439 -0.095924701993534339 0 -0.39305369148837888 -0.099232791914646387 0 -0.39186978669239808 -0.092136668087470092 0 -0.38659071761349439 -0.095924701993534339 0 -0.39305369148837888 -0.099232791914646387 0 -0.40245820379267427 -0.097578391417315613 0 -0.40367377428253948 -0.11105379716026741 0 -0.40961484297787448 -0.091196447301386957 0 -0.39305369148837888 -0.099232791914646387 0 -0.39722970140608871 -0.094127824488543732 0 -0.39844882507609253 -0.10265235544352461 0 -0.39186978669239808 -0.092136668087470092 0 -0.39305369148837888 -0.099232791914646387 0 -0.39722970140608871 -0.094127824488543732 0 -0.39722970140608871 -0.094127824488543732 0 -0.40245820379267427 -0.097578391417315613 0 -0.39844882507609253 -0.10265235544352461 0 -0.4022951830070618 -0.090664099010940635 0 -0.39722970140608871 -0.094127824488543732 0 -0.40245820379267427 -0.097578391417315613 0 -0.39844882507609253 -0.10265235544352461 0 -0.39837619274294961 -0.1091243840622987 0 -0.40367377428253948 -0.11105379716026741 0 -0.40245820379267427 -0.097578391417315613 0 -0.39844882507609253 -0.10265235544352461 0 -0.40367377428253948 -0.11105379716026741 0 -0.39837619274294961 -0.1091243840622987 0 -0.39545513965976348 -0.10520473497453239 0 -0.39268035205289409 -0.1093226485694542 0 -0.39844882507609253 -0.10265235544352461 0 -0.39837619274294961 -0.1091243840622987 0 -0.39545513965976348 -0.10520473497453239 0 -0.39305369148837888 -0.099232791914646387 0 -0.39844882507609253 -0.10265235544352461 0 -0.39545513965976348 -0.10520473497453239 0 -0.39305369148837888 -0.099232791914646387 0 -0.39545513965976348 -0.10520473497453239 0 -0.3915569113850888 -0.1050344012352666 0 -0.38749121417528459 -0.1018355898223928 0 -0.39305369148837888 -0.099232791914646387 0 -0.3915569113850888 -0.1050344012352666 0 -0.39545513965976348 -0.10520473497453239 0 -0.3915569113850888 -0.1050344012352666 0 -0.39268035205289409 -0.1093226485694542 0 -0.38836169432924122 -0.1133439320949679 0 -0.39268035205289409 -0.1093226485694542 0 -0.39508446829302662 -0.1134682802547522 0 -0.38836169432924122 -0.1133439320949679 0 -0.39085965513795778 -0.11715887515757729 0 -0.39508446829302662 -0.1134682802547522 0 -0.39085965513795778 -0.11715887515757729 0 -0.39508446829302662 -0.1134682802547522 0 -0.39656678348530949 -0.1192787508839477 0 -0.39837619274294961 -0.1091243840622987 0 -0.39268035205289409 -0.1093226485694542 0 -0.39508446829302662 -0.1134682802547522 0 -0.39837619274294961 -0.1091243840622987 0 -0.39508446829302662 -0.1134682802547522 0 -0.40367377428253948 -0.11105379716026741 0 -0.40367377428253948 -0.11105379716026741 0 -0.39822624910206461 -0.1206751982234766 0 -0.40367377428253948 -0.11105379716026741 0 -0.39822624910206461 -0.1206751982234766 0 -0.39656678348530949 -0.1192787508839477 0 -0.39837619274294961 -0.1091243840622987 0 -0.40367377428253948 -0.11105379716026741 0 -0.39508446829302662 -0.1134682802547522 0 -0.40367377428253948 -0.11105379716026741 0 -0.39656678348530949 -0.1192787508839477 0 -0.40367377428253948 -0.11105379716026741 0 -0.39822624910206461 -0.1206751982234766 0 -0.41238964442926851 -0.122111606191786 0 -0.3893897453643807 -0.1223927972795272 0 -0.39822624910206461 -0.1206751982234766 0 -0.39656678348530949 -0.1192787508839477 0 -0.39822624910206461 -0.1206751982234766 0 -0.39656678348530949 -0.1192787508839477 0 -0.3893897453643807 -0.1223927972795272 0 -0.39085965513795778 -0.11715887515757729 0 -0.39656678348530949 -0.1192787508839477 0 -0.40367377428253948 -0.11105379716026741 0 -0.42345781782239972 -0.1134739619076392 0 -0.43199479843362981 -0.1213684953931497 0 -0.40367377428253948 -0.11105379716026741 0 -0.43199479843362981 -0.1213684953931497 0 -0.40367377428253948 -0.11105379716026741 0 -0.41238964442926851 -0.122111606191786 0 -0.43199479843362981 -0.1213684953931497 0 -0.40367377428253948 -0.11105379716026741 0 -0.41816113355580697 -0.085466270843824715 0 -0.40367377428253948 -0.11105379716026741 0 -0.40961484297787448 -0.091196447301386957 0 -0.41816113355580697 -0.085466270843824715 0 -0.40367377428253948 -0.11105379716026741 0 -0.42345781782239972 -0.1134739619076392 0 -0.41816113355580697 -0.085466270843824715 0 -0.4305371207230197 -0.097630469391453603 0 -0.42345781782239972 -0.1134739619076392 0 -0.44673119392715832 -0.1060890807048091 0 -0.4305371207230197 -0.097630469391453603 0 -0.42345781782239972 -0.1134739619076392 0 -0.41816113355580697 -0.085466270843824715 0 -0.42345781782239972 -0.1134739619076392 0 -0.43199479843362981 -0.1213684953931497 0 -0.44673119392715832 -0.1060890807048091 0 -0.42345781782239972 -0.1134739619076392 0 -0.43199479843362981 -0.1213684953931497 0 -0.41443496152187231 -0.063996800414181182 0 -0.41214003844454589 -0.066370716854937908 0 -0.41816113355580697 -0.085466270843824715 0 -0.41214003844454589 -0.066370716854937908 0 -0.40750961414246911 -0.073690794056808617 0 -0.40961484297787448 -0.091196447301386957 0 -0.43264849282907492 -0.059878744527382489 0 -0.41443496152187231 -0.063996800414181182 0 -0.41816113355580697 -0.085466270843824715 0 -0.40573324112272979 -0.06330779741726883 0 -0.41214003844454589 -0.066370716854937908 0 -0.40720603958286827 -0.068002721578954942 0 -0.41214003844454589 -0.066370716854937908 0 -0.40720603958286827 -0.068002721578954942 0 -0.40750961414246911 -0.073690794056808617 0 -0.40571397206774151 -0.080189651988685745 0 -0.40750961414246911 -0.073690794056808617 0 -0.40961484297787448 -0.091196447301386957 0 -0.41214003844454589 -0.066370716854937908 0 -0.40961484297787448 -0.091196447301386957 0 -0.40394626547131729 -0.084372135922150718 0 -0.40571397206774151 -0.080189651988685745 0 -0.40961484297787448 -0.091196447301386957 0 -0.41214003844454589 -0.066370716854937908 0 -0.40961484297787448 -0.091196447301386957 0 -0.41816113355580697 -0.085466270843824715 0 -0.41816113355580697 -0.085466270843824715 0 -0.42832127403281001 -0.079053026771847779 0 -0.42916827232807819 -0.086253656069181006 0 -0.4305371207230197 -0.097630469391453603 0 -0.41816113355580697 -0.085466270843824715 0 -0.42916827232807819 -0.086253656069181006 0 -0.4305371207230197 -0.097630469391453603 0 -0.42916827232807819 -0.086253656069181006 0 -0.43965356100067587 -0.082864857269598108 0 -0.42832127403281001 -0.079053026771847779 0 -0.42916827232807819 -0.086253656069181006 0 -0.43965356100067587 -0.082864857269598108 0 -0.42832127403281001 -0.079053026771847779 0 -0.43965356100067587 -0.082864857269598108 0 -0.43264849282907492 -0.059878744527382489 0 -0.42832127403281001 -0.079053026771847779 0 -0.43965356100067587 -0.082864857269598108 0 -0.43264849282907492 -0.059878744527382489 0 -0.41816113355580697 -0.085466270843824715 0 -0.43264849282907492 -0.059878744527382489 0 -0.41816113355580697 -0.085466270843824715 0 -0.42832127403281001 -0.079053026771847779 0 -0.43264849282907492 -0.059878744527382489 0 -0.43965356100067587 -0.082864857269598108 0 -0.43264849282907492 -0.059878744527382489 0 -0.44826003960347871 -0.069282293562844904 0 -0.43965356100067587 -0.082864857269598108 0 -0.43965356100067587 -0.082864857269598108 0 -0.46116086813272439 -0.090099249540364953 0 -0.44673119392715832 -0.1060890807048091 0 -0.44826003960347871 -0.069282293562844904 0 -0.43965356100067587 -0.082864857269598108 0 -0.46116086813272439 -0.090099249540364953 0 -0.43965356100067587 -0.082864857269598108 0 -0.46116086813272439 -0.090099249540364953 0 -0.44826003960347871 -0.069282293562844904 0 -0.46116086813272439 -0.090099249540364953 0 -0.46377722311375341 -0.065066308897669317 0 -0.46116086813272439 -0.090099249540364953 0 -0.46377722311375341 -0.065066308897669317 0 -0.44826003960347871 -0.069282293562844904 0 -0.46377722311375341 -0.065066308897669317 0 -0.45304836641432072 -0.053932067599001307 0 -0.45380882685363871 -0.12931330414002071 0 -0.44673119392715832 -0.1060890807048091 0 -0.45380882685363871 -0.12931330414002071 0 -0.43199479843362981 -0.1213684953931497 0 -0.44673119392715832 -0.1060890807048091 0 -0.45380882685363871 -0.12931330414002071 0 -0.44673119392715832 -0.1060890807048091 0 -0.45844574046900621 -0.1160772342313086 0 -0.43965356100067587 -0.082864857269598108 0 -0.44673119392715832 -0.1060890807048091 0 -0.4305371207230197 -0.097630469391453603 0 -0.43965356100067587 -0.082864857269598108 0 -0.44673119392715832 -0.1060890807048091 0 -0.46116086813272439 -0.090099249540364953 0 -0.45844574046900621 -0.1160772342313086 0 -0.46116086813272439 -0.090099249540364953 0 -0.45844574046900621 -0.1160772342313086 0 -0.47045844292970268 -0.1083378930146716 0 -0.46116086813272439 -0.090099249540364953 0 -0.44673119392715832 -0.1060890807048091 0 -0.45844574046900621 -0.1160772342313086 0 -0.45844574046900621 -0.1160772342313086 0 -0.46888427883893269 -0.12221818041217961 0 -0.47045844292970268 -0.1083378930146716 0 -0.45380882685363871 -0.12931330414002071 0 -0.45844574046900621 -0.1160772342313086 0 -0.46888427883893269 -0.12221818041217961 0 -0.47857485713481929 -0.12881556759225229 0 -0.46888427883893269 -0.12221818041217961 0 -0.48378162351052301 -0.11619724423483969 0 -0.46888427883893269 -0.12221818041217961 0 -0.48378162351052301 -0.11619724423483969 0 -0.47045844292970268 -0.1083378930146716 0 -0.48378162351052301 -0.11619724423483969 0 -0.48058043406636181 -0.096631390306729945 0 -0.47045844292970268 -0.1083378930146716 0 -0.46116086813272439 -0.090099249540364953 0 -0.48058043406636181 -0.096631390306729945 0 -0.47045844292970268 -0.1083378930146716 0 -0.48058043406636181 -0.096631390306729945 0 -0.49999999999999961 -0.1031635310730936 0 -0.48188861155687829 -0.083862027288635482 0 -0.48378162351052301 -0.11619724423483969 0 -0.48058043406636181 -0.096631390306729945 0 -0.49999999999999961 -0.1031635310730936 0 -0.48058043406636181 -0.096631390306729945 0 -0.49999999999999961 -0.1031635310730936 0 -0.5 -0.1252752465844259 0 -0.48378162351052301 -0.11619724423483969 0 -0.49999999999999961 -0.1031635310730936 0 -0.46377722311375341 -0.065066308897669317 0 -0.48188861155687829 -0.083862027288635482 0 -0.46377722311375341 -0.065066308897669317 0 -0.48188861155687829 -0.083862027288635482 0 -0.48324843484679503 -0.062240387724683877 0 -0.46116086813272439 -0.090099249540364953 0 -0.46377722311375341 -0.065066308897669317 0 -0.48188861155687829 -0.083862027288635482 0 -0.46116086813272439 -0.090099249540364953 0 -0.48058043406636181 -0.096631390306729945 0 -0.48188861155687829 -0.083862027288635482 0 -0.46116086813272439 -0.090099249540364953 0 -0.48058043406636181 -0.096631390306729945 0 -0.49999999999999961 -0.1031635310730936 0 -0.48188861155687829 -0.083862027288635482 0 -0.5 -0.076889564671204114 0 -0.49999999999999961 -0.1031635310730936 0 -0.48188861155687829 -0.083862027288635482 0 -0.5 -0.076889564671204114 0 -0.5 -0.051121383662804283 0 -0.48324843484679503 -0.062240387724683877 0 -0.48188861155687829 -0.083862027288635482 0 -0.5 -0.076889564671204114 0 -0.48324843484679503 -0.062240387724683877 0 -0.5 -0.051121383662804283 0 -0.48369058491529238 -0.040666757902258467 0 -0.48324843484679503 -0.062240387724683877 0 -0.5 -0.051121383662804283 0 -0.48369058491529238 -0.040666757902258467 0 -0.5 -0.025353202654404439 0 -0.48369058491529238 -0.040666757902258467 0 -0.46560240724235208 -0.047603187003064221 0 -0.46742759137095141 -0.030140065108459169 0 -0.48369058491529238 -0.040666757902258467 0 -0.48324843484679503 -0.062240387724683877 0 -0.46560240724235208 -0.047603187003064221 0 -0.46377722311375341 -0.065066308897669317 0 -0.48324843484679503 -0.062240387724683877 0 -0.46560240724235208 -0.047603187003064221 0 -0.46377722311375341 -0.065066308897669317 0 -0.46560240724235208 -0.047603187003064221 0 -0.46377722311375341 -0.065066308897669317 0 -0.46560240724235208 -0.047603187003064221 0 -0.45304836641432072 -0.053932067599001307 0 -0.46377722311375341 -0.065066308897669317 0 -0.45304836641432072 -0.053932067599001307 0 -0.46560240724235208 -0.047603187003064221 0 -0.45667076127160561 -0.042759751316575327 0 -0.45304836641432072 -0.053932067599001307 0 -0.46560240724235208 -0.047603187003064221 0 -0.46269594652320112 -0.034578656543877428 0 -0.46742759137095141 -0.030140065108459169 0 -0.46560240724235208 -0.047603187003064221 0 -0.46269594652320112 -0.034578656543877428 0 -0.45667076127160561 -0.042759751316575327 0 -0.46560240724235208 -0.047603187003064221 0 -0.46742759137095141 -0.030140065108459169 0 -0.46269594652320112 -0.034578656543877428 0 -0.45532948306218252 -0.032688299496661799 0 -0.46742759137095141 -0.030140065108459169 0 -0.46269594652320112 -0.034578656543877428 0 -0.46742759137095141 -0.030140065108459169 0 -0.46269594652320112 -0.034578656543877428 0 -0.45532948306218252 -0.032688299496661799 0 -0.45667076127160561 -0.042759751316575327 0 -0.44231950971488859 -0.042797826300332631 0 -0.45167665526755768 -0.02627126658993189 0 -0.44231950971488859 -0.042797826300332631 0 -0.44117677777450581 -0.031064699801896491 0 -0.45167665526755768 -0.02627126658993189 0 -0.45532948306218252 -0.032688299496661799 0 -0.44231950971488859 -0.042797826300332631 0 -0.45167665526755768 -0.02627126658993189 0 -0.45667076127160561 -0.042759751316575327 0 -0.44231950971488859 -0.042797826300332631 0 -0.45304836641432072 -0.053932067599001307 0 -0.45532948306218252 -0.032688299496661799 0 -0.45667076127160561 -0.042759751316575327 0 -0.44231950971488859 -0.042797826300332631 0 -0.45532948306218252 -0.032688299496661799 0 -0.44231950971488859 -0.042797826300332631 0 -0.42971360244187462 -0.02971561099087628 0 -0.44231950971488859 -0.042797826300332631 0 -0.44117677777450581 -0.031064699801896491 0 -0.43264849282907492 -0.059878744527382489 0 -0.44231950971488859 -0.042797826300332631 0 -0.45304836641432072 -0.053932067599001307 0 -0.43264849282907492 -0.059878744527382489 0 -0.44826003960347871 -0.069282293562844904 0 -0.45304836641432072 -0.053932067599001307 0 -0.44231950971488859 -0.042797826300332631 0 -0.45304836641432072 -0.053932067599001307 0 -0.44974697414217651 -0.01381058064429073 0 -0.44806364711255009 -0.0034586609752670079 0 -0.46088469015996891 -0.01000806563742615 0 -0.44974697414217651 -0.01381058064429073 0 -0.44806364711255009 -0.0034586609752670079 0 -0.44004068473229607 -0.010639400370727451 0 -0.43322202861242248 -0.0020834325917515511 0 -0.44806364711255009 -0.0034586609752670079 0 -0.44004068473229607 -0.010639400370727451 0 -0.44974697414217651 -0.01381058064429073 0 -0.44004068473229607 -0.010639400370727451 0 -0.44501312042004448 -0.021060068046766949 0 -0.43700678220441502 -0.021290710840274441 0 -0.44004068473229607 -0.010639400370727451 0 -0.44501312042004448 -0.021060068046766949 0 -0.43700678220441502 -0.021290710840274441 0 -0.44501312042004448 -0.021060068046766949 0 -0.44117677777450581 -0.031064699801896491 0 -0.44501312042004448 -0.021060068046766949 0 -0.44117677777450581 -0.031064699801896491 0 -0.45167665526755768 -0.02627126658993189 0 -0.44974697414217651 -0.01381058064429073 0 -0.44501312042004448 -0.021060068046766949 0 -0.45167665526755768 -0.02627126658993189 0 -0.44974697414217651 -0.01381058064429073 0 -0.45167665526755768 -0.02627126658993189 0 -0.46088469015996891 -0.01000806563742615 0 -0.45167665526755768 -0.02627126658993189 0 -0.4681903457492228 -0.022842131450889779 0 -0.46088469015996891 -0.01000806563742615 0 -0.45532948306218252 -0.032688299496661799 0 -0.45167665526755768 -0.02627126658993189 0 -0.4681903457492228 -0.022842131450889779 0 -0.45167665526755768 -0.02627126658993189 0 -0.46088469015996891 -0.01000806563742615 0 -0.45532948306218252 -0.032688299496661799 0 -0.4681903457492228 -0.022842131450889779 0 -0.45532948306218252 -0.032688299496661799 0 -0.46742759137095141 -0.030140065108459169 0 -0.4681903457492228 -0.022842131450889779 0 -0.46742759137095141 -0.030140065108459169 0 -0.4681903457492228 -0.022842131450889779 0 -0.4681903457492228 -0.022842131450889779 0 -0.46088469015996891 -0.01000806563742615 0 -0.4713016396113433 0.0069263193660838371 0 -0.44806364711255009 -0.0034586609752670079 0 -0.46088469015996891 -0.01000806563742615 0 -0.45887723913008849 0.0044077293120019677 0 -0.48409517287460979 -0.010665529894192611 0 -0.47900967625339258 -0.00091599451812438362 0 -0.48624449317864982 0.0073648955301512109 0 -0.4681903457492228 -0.022842131450889779 0 -0.48409517287460979 -0.010665529894192611 0 -0.47900967625339258 -0.00091599451812438362 0 -0.4681903457492228 -0.022842131450889779 0 -0.47900967625339258 -0.00091599451812438362 0 -0.4713016396113433 0.0069263193660838371 0 -0.4681903457492228 -0.022842131450889779 0 -0.4713016396113433 0.0069263193660838371 0 -0.46742759137095141 -0.030140065108459169 0 -0.4837137956854759 -0.01486254337723157 0 -0.46742759137095141 -0.030140065108459169 0 -0.4681903457492228 -0.022842131450889779 0 -0.4837137956854759 -0.01486254337723157 0 -0.4681903457492228 -0.022842131450889779 0 -0.4837137956854759 -0.01486254337723157 0 -0.48409517287460979 -0.010665529894192611 0 -0.4681903457492228 -0.022842131450889779 0 -0.48409517287460979 -0.010665529894192611 0 -0.48369058491529238 -0.040666757902258467 0 -0.46742759137095141 -0.030140065108459169 0 -0.4837137956854759 -0.01486254337723157 0 -0.48369058491529238 -0.040666757902258467 0 -0.4837137956854759 -0.01486254337723157 0 -0.5 -0.025353202654404439 0 -0.4837137956854759 -0.01486254337723157 0 -0.50000000000000078 0.00041497835399546557 0 -0.48409517287460979 -0.010665529894192611 0 -0.50000000000000078 0.00041497835399546557 0 -0.48624449317864982 0.0073648955301512109 0 -0.4837137956854759 -0.01486254337723157 0 -0.5 -0.025353202654404439 0 -0.50000000000000078 0.00041497835399546557 0 -0.4837137956854759 -0.01486254337723157 0 -0.48409517287460979 -0.010665529894192611 0 -0.50000000000000078 0.00041497835399546557 0 -0.48409517287460979 -0.010665529894192611 0 -0.50000000000000078 0.00041497835399546557 0 -0.49999999999999611 0.013218719397798499 0 -0.47137873958885879 0.013932591068139179 0 -0.50000000000000078 0.00041497835399546557 0 -0.48624449317864982 0.0073648955301512109 0 -0.49999999999999611 0.013218719397798499 0 -0.48624449317864982 0.0073648955301512109 0 -0.49999999999999611 0.013218719397798499 0 -0.47137873958885879 0.013932591068139179 0 -0.49999999999999611 0.013218719397798499 0 -0.5 0.040018568805989863 0 -0.47783610861778641 0.03658192841230043 0 -0.49999999999999611 0.013218719397798499 0 -0.47137873958885879 0.013932591068139179 0 -0.47783610861778641 0.03658192841230043 0 -0.47137873958885879 0.013932591068139179 0 -0.4713016396113433 0.0069263193660838371 0 -0.47698363715806108 0.0068269528615624618 0 -0.47900967625339258 -0.00091599451812438362 0 -0.4713016396113433 0.0069263193660838371 0 -0.47698363715806108 0.0068269528615624618 0 -0.47900967625339258 -0.00091599451812438362 0 -0.48624449317864982 0.0073648955301512109 0 -0.47698363715806108 0.0068269528615624618 0 -0.48624449317864982 0.0073648955301512109 0 -0.47137873958885879 0.013932591068139179 0 -0.47698363715806108 0.0068269528615624618 0 -0.48569326400614848 0.054064002662109562 0 -0.5 0.040018568805989863 0 -0.5 0.066818418214181219 0 -0.48569326400614848 0.054064002662109562 0 -0.5 0.040018568805989863 0 -0.47783610861778641 0.03658192841230043 0 -0.48569326400614848 0.054064002662109562 0 -0.47783610861778641 0.03658192841230043 0 -0.46662552218943659 0.056007976140302097 0 -0.46662552218943659 0.056007976140302097 0 -0.45550069625258238 0.034537929176881442 0 -0.43771364740123442 0.056178062869073599 0 -0.47783610861778641 0.03658192841230043 0 -0.46662552218943659 0.056007976140302097 0 -0.45550069625258238 0.034537929176881442 0 -0.46662552218943659 0.056007976140302097 0 -0.45550069625258238 0.034537929176881442 0 -0.45550069625258238 0.034537929176881442 0 -0.43771364740123442 0.056178062869073599 0 -0.43002535845982742 0.034403566519563257 0 -0.47137873958885879 0.013932591068139179 0 -0.44275747917772151 0.014646462738479971 0 -0.47137873958885879 0.013932591068139179 0 -0.45887723913008849 0.0044077293120019677 0 -0.44275747917772151 0.014646462738479971 0 -0.46088469015996891 -0.01000806563742615 0 -0.4713016396113433 0.0069263193660838371 0 -0.45887723913008849 0.0044077293120019677 0 -0.47137873958885879 0.013932591068139179 0 -0.4713016396113433 0.0069263193660838371 0 -0.45887723913008849 0.0044077293120019677 0 -0.47137873958885879 0.013932591068139179 0 -0.45550069625258238 0.034537929176881442 0 -0.44275747917772151 0.014646462738479971 0 -0.47137873958885879 0.013932591068139179 0 -0.47783610861778641 0.03658192841230043 0 -0.45550069625258238 0.034537929176881442 0 -0.45550069625258238 0.034537929176881442 0 -0.44275747917772151 0.014646462738479971 0 -0.43002535845982742 0.034403566519563257 0 -0.43322202861242248 -0.0020834325917515511 0 -0.44806364711255009 -0.0034586609752670079 0 -0.44275747917772151 0.014646462738479971 0 -0.44806364711255009 -0.0034586609752670079 0 -0.45887723913008849 0.0044077293120019677 0 -0.44275747917772151 0.014646462738479971 0 -0.44275747917772151 0.014646462738479971 0 -0.42193710493546682 0.0042008097164545517 0 -0.41413621876658402 0.01536033440882077 0 -0.44275747917772151 0.014646462738479971 0 -0.41413621876658402 0.01536033440882077 0 -0.43322202861242248 -0.0020834325917515511 0 -0.44275747917772151 0.014646462738479971 0 -0.42193710493546682 0.0042008097164545517 0 -0.40135365240832938 -0.00028409412587191048 0 -0.42193710493546682 0.0042008097164545517 0 -0.41413621876658402 0.01536033440882077 0 -0.41413621876658402 0.01536033440882077 0 -0.43002535845982742 0.034403566519563257 0 -0.4096408365351743 0.037306611185771707 0 -0.41413621876658402 0.01536033440882077 0 -0.4096408365351743 0.037306611185771707 0 -0.39579337913932999 0.026385053213047009 0 -0.44275747917772151 0.014646462738479971 0 -0.41413621876658402 0.01536033440882077 0 -0.43002535845982742 0.034403566519563257 0 -0.43771364740123442 0.056178062869073599 0 -0.43002535845982742 0.034403566519563257 0 -0.42030918899725361 0.048762929790844969 0 -0.43771364740123442 0.056178062869073599 0 -0.42030918899725361 0.048762929790844969 0 -0.41732077975613679 0.068214332695299418 0 -0.42030918899725361 0.048762929790844969 0 -0.40550858264139023 0.052982264078336033 0 -0.41732077975613679 0.068214332695299418 0 -0.40550858264139023 0.052982264078336033 0 -0.40278044804762619 0.06521688562557916 0 -0.41732077975613679 0.068214332695299418 0 -0.42030918899725361 0.048762929790844969 0 -0.4096408365351743 0.037306611185771707 0 -0.40550858264139023 0.052982264078336033 0 -0.43002535845982742 0.034403566519563257 0 -0.42030918899725361 0.048762929790844969 0 -0.4096408365351743 0.037306611185771707 0 -0.4096408365351743 0.037306611185771707 0 -0.39889207625168283 0.045657313582584957 0 -0.40550858264139023 0.052982264078336033 0 -0.4096408365351743 0.037306611185771707 0 -0.39342258161208371 0.037849090988399448 0 -0.39579337913932999 0.026385053213047009 0 -0.4096408365351743 0.037306611185771707 0 -0.39889207625168283 0.045657313582584957 0 -0.39342258161208371 0.037849090988399448 0 -0.39889207625168283 0.045657313582584957 0 -0.39342258161208371 0.037849090988399448 0 -0.38969374134130641 0.049877419972353829 0 -0.39342258161208371 0.037849090988399448 0 -0.38755232093303349 0.030978974471586759 0 -0.39579337913932999 0.026385053213047009 0 -0.40550858264139023 0.052982264078336033 0 -0.38944603461830979 0.062468035099923797 0 -0.38969374134130641 0.049877419972353829 0 -0.40550858264139023 0.052982264078336033 0 -0.38944603461830979 0.062468035099923797 0 -0.40278044804762619 0.06521688562557916 0 -0.39889207625168283 0.045657313582584957 0 -0.40550858264139023 0.052982264078336033 0 -0.38969374134130641 0.049877419972353829 0 -0.38944603461830979 0.062468035099923797 0 -0.38969374134130641 0.049877419972353829 0 -0.37601175642621931 0.06180673728294684 0 -0.38969374134130641 0.049877419972353829 0 -0.37720366673309441 0.046933728272722207 0 -0.37601175642621931 0.06180673728294684 0 -0.3849283107114696 0.041807969616845443 0 -0.37821548484879919 0.034714409722189747 0 -0.38755232093303349 0.030978974471586759 0 -0.39342258161208371 0.037849090988399448 0 -0.3849283107114696 0.041807969616845443 0 -0.38755232093303349 0.030978974471586759 0 -0.38969374134130641 0.049877419972353829 0 -0.37720366673309441 0.046933728272722207 0 -0.3849283107114696 0.041807969616845443 0 -0.39342258161208371 0.037849090988399448 0 -0.38969374134130641 0.049877419972353829 0 -0.3849283107114696 0.041807969616845443 0 -0.37720366673309441 0.046933728272722207 0 -0.3849283107114696 0.041807969616845443 0 -0.37821548484879919 0.034714409722189747 0 -0.37821548484879919 0.034714409722189747 0 -0.38052066260143019 0.027787306464925509 0 -0.38755232093303349 0.030978974471586759 0 -0.37821548484879919 0.034714409722189747 0 -0.38052066260143019 0.027787306464925509 0 -0.37182340307355288 0.02479160115251744 0 -0.38052066260143019 0.027787306464925509 0 -0.38449144155033538 0.02066424051340807 0 -0.37182340307355288 0.02479160115251744 0 -0.38755232093303349 0.030978974471586759 0 -0.38449144155033538 0.02066424051340807 0 -0.39579337913932999 0.026385053213047009 0 -0.38052066260143019 0.027787306464925509 0 -0.38755232093303349 0.030978974471586759 0 -0.38449144155033538 0.02066424051340807 0 -0.38449144155033538 0.02066424051340807 0 -0.385516875438769 0.01615106771029531 0 -0.39579337913932999 0.026385053213047009 0 -0.38449144155033538 0.02066424051340807 0 -0.38284102369902351 0.016140899375408101 0 -0.38449144155033538 0.02066424051340807 0 -0.385516875438769 0.01615106771029531 0 -0.38284102369902351 0.016140899375408101 0 -0.385516875438769 0.01615106771029531 0 -0.38284102369902351 0.016140899375408101 0 -0.38449144155033538 0.02066424051340807 0 -0.38284102369902351 0.016140899375408101 0 -0.37182340307355288 0.02479160115251744 0 -0.37995325307511912 0.014566158692645289 0 -0.3776883925338359 0.0020189553477719681 0 -0.38284102369902351 0.016140899375408101 0 -0.37995325307511912 0.014566158692645289 0 -0.3776883925338359 0.0020189553477719681 0 -0.38284102369902351 0.016140899375408101 0 -0.3776883925338359 0.0020189553477719681 0 -0.37995325307511912 0.014566158692645289 0 -0.3776883925338359 0.0020189553477719681 0 -0.36981589811399768 0.009167678483961765 0 -0.3889798473242797 -0.00087519795435856524 0 -0.385516875438769 0.01615106771029531 0 -0.3776883925338359 0.0020189553477719681 0 -0.385516875438769 0.01615106771029531 0 -0.38284102369902351 0.016140899375408101 0 -0.3776883925338359 0.0020189553477719681 0 -0.40135365240832938 -0.00028409412587191048 0 -0.3889798473242797 -0.00087519795435856524 0 -0.385516875438769 0.01615106771029531 0 -0.40135365240832938 -0.00028409412587191048 0 -0.385516875438769 0.01615106771029531 0 -0.40135365240832938 -0.00028409412587191048 0 -0.41413621876658402 0.01536033440882077 0 -0.385516875438769 0.01615106771029531 0 -0.41413621876658402 0.01536033440882077 0 -0.385516875438769 0.01615106771029531 0 -0.41413621876658402 0.01536033440882077 0 -0.385516875438769 0.01615106771029531 0 -0.39579337913932999 0.026385053213047009 0 -0.39800920986293759 0.1024291268576393 0 -0.39529288780418148 0.11939755352810801 0 -0.40783496215317411 0.112528129172407 0 -0.39800920986293759 0.1024291268576393 0 -0.39529288780418148 0.11939755352810801 0 -0.3858965843590817 0.109630623627389 0 -0.39529288780418148 0.11939755352810801 0 -0.40783496215317411 0.112528129172407 0 -0.4052392510537613 0.12833384188852759 0 -0.38397205072899898 0.12724575357751169 0 -0.37813321267196881 0.13067898307122161 0 -0.36945790954190688 0.10489901233797019 0 -0.38397205072899898 0.12724575357751169 0 -0.36945790954190688 0.10489901233797019 0 -0.39529288780418148 0.11939755352810801 0 -0.3858965843590817 0.109630623627389 0 -0.38397205072899898 0.12724575357751169 0 -0.3858965843590817 0.109630623627389 0 -0.38397205072899898 0.12724575357751169 0 -0.36945790954190688 0.10489901233797019 0 -0.3858965843590817 0.109630623627389 0 -0.38432661226899439 0.094245273003636554 0 -0.36945790954190688 0.10489901233797019 0 -0.39800920986293759 0.1024291268576393 0 -0.3858965843590817 0.109630623627389 0 -0.38432661226899439 0.094245273003636554 0 -0.38432661226899439 0.094245273003636554 0 -0.37538542569888861 0.077039909071185408 0 -0.40044752425789032 0.077532978730019353 0 -0.38432661226899439 0.094245273003636554 0 -0.37538542569888861 0.077039909071185408 0 -0.36945790954190688 0.10489901233797019 0 -0.38944603461830979 0.062468035099923797 0 -0.37538542569888861 0.077039909071185408 0 -0.40044752425789032 0.077532978730019353 0 -0.38944603461830979 0.062468035099923797 0 -0.37601175642621931 0.06180673728294684 0 -0.37538542569888861 0.077039909071185408 0 -0.38944603461830979 0.062468035099923797 0 -0.40044752425789032 0.077532978730019353 0 -0.40278044804762619 0.06521688562557916 0 -0.39800920986293759 0.1024291268576393 0 -0.40044752425789032 0.077532978730019353 0 -0.41678259502611992 0.10051022416111 0 -0.39800920986293759 0.1024291268576393 0 -0.38432661226899439 0.094245273003636554 0 -0.40044752425789032 0.077532978730019353 0 -0.40044752425789032 0.077532978730019353 0 -0.42911070649284672 0.083463645551049015 0 -0.41678259502611992 0.10051022416111 0 -0.40044752425789032 0.077532978730019353 0 -0.41732077975613679 0.068214332695299418 0 -0.42911070649284672 0.083463645551049015 0 -0.40044752425789032 0.077532978730019353 0 -0.40278044804762619 0.06521688562557916 0 -0.41732077975613679 0.068214332695299418 0 -0.43771364740123442 0.056178062869073599 0 -0.41732077975613679 0.068214332695299418 0 -0.42911070649284672 0.083463645551049015 0 -0.42911070649284672 0.083463645551049015 0 -0.41678259502611992 0.10051022416111 0 -0.43462066561499718 0.1101238765464265 0 -0.39800920986293759 0.1024291268576393 0 -0.41678259502611992 0.10051022416111 0 -0.40783496215317411 0.112528129172407 0 -0.40783496215317411 0.112528129172407 0 -0.41950589315756698 0.12066218943481059 0 -0.4052392510537613 0.12833384188852759 0 -0.41678259502611992 0.10051022416111 0 -0.40783496215317411 0.112528129172407 0 -0.41950589315756698 0.12066218943481059 0 -0.41950589315756698 0.12066218943481059 0 -0.43462066561499718 0.1101238765464265 0 -0.43387525115897863 0.13331403535325911 0 -0.41678259502611992 0.10051022416111 0 -0.41950589315756698 0.12066218943481059 0 -0.43462066561499718 0.1101238765464265 0 -0.43462066561499718 0.1101238765464265 0 -0.4533223154114302 0.09877158629812216 0 -0.45512723244304071 0.1240215784802081 0 -0.43462066561499718 0.1101238765464265 0 -0.45512723244304071 0.1240215784802081 0 -0.43387525115897863 0.13331403535325911 0 -0.42911070649284672 0.083463645551049015 0 -0.43462066561499718 0.1101238765464265 0 -0.4533223154114302 0.09877158629812216 0 -0.4533223154114302 0.09877158629812216 0 -0.47753392433001352 0.1140795270451956 0 -0.4533223154114302 0.09877158629812216 0 -0.47753392433001352 0.1140795270451956 0 -0.47165182880183798 0.094385816376327397 0 -0.4533223154114302 0.09877158629812216 0 -0.45512723244304071 0.1240215784802081 0 -0.47753392433001352 0.1140795270451956 0 -0.43771364740123442 0.056178062869073599 0 -0.42911070649284672 0.083463645551049015 0 -0.45602906140384608 0.07771418505643285 0 -0.42911070649284672 0.083463645551049015 0 -0.4533223154114302 0.09877158629812216 0 -0.42911070649284672 0.083463645551049015 0 -0.4533223154114302 0.09877158629812216 0 -0.45602906140384608 0.07771418505643285 0 -0.4533223154114302 0.09877158629812216 0 -0.45602906140384608 0.07771418505643285 0 -0.47165182880183798 0.094385816376327397 0 -0.45602906140384608 0.07771418505643285 0 -0.47775034812629102 0.077478023103722773 0 -0.47165182880183798 0.094385816376327397 0 -0.46662552218943659 0.056007976140302097 0 -0.43771364740123442 0.056178062869073599 0 -0.45602906140384608 0.07771418505643285 0 -0.46662552218943659 0.056007976140302097 0 -0.45602906140384608 0.07771418505643285 0 -0.47775034812629102 0.077478023103722773 0 -0.46662552218943659 0.056007976140302097 0 -0.47775034812629102 0.077478023103722773 0 -0.48569326400614848 0.054064002662109562 0 -0.46662552218943659 0.056007976140302097 0 -0.47775034812629102 0.077478023103722773 0 -0.47775034812629102 0.077478023103722773 0 -0.48887517406314518 0.098948070067143401 0 -0.47775034812629102 0.077478023103722773 0 -0.47165182880183798 0.094385816376327397 0 -0.48887517406314518 0.098948070067143401 0 -0.47775034812629102 0.077478023103722773 0 -0.5 0.09361826762237252 0 -0.5 0.066818418214181219 0 -0.47775034812629102 0.077478023103722773 0 -0.5 0.09361826762237252 0 -0.48887517406314518 0.098948070067143401 0 -0.48569326400614848 0.054064002662109562 0 -0.47775034812629102 0.077478023103722773 0 -0.5 0.066818418214181219 0 -0.47753392433001352 0.1140795270451956 0 -0.48065165468763937 0.11126130563914639 0 -0.48232905148522232 0.1053220062647206 0 -0.47753392433001352 0.1140795270451956 0 -0.47945543052340323 0.1128643205463889 0 -0.48231014291139662 0.11451968018549651 0 -0.47753392433001352 0.1140795270451956 0 -0.47945543052340323 0.1128643205463889 0 -0.48065165468763937 0.11126130563914639 0 -0.48065165468763937 0.11126130563914639 0 -0.48333054256456581 0.110868176463542 0 -0.48231014291139662 0.11451968018549651 0 -0.47945543052340323 0.1128643205463889 0 -0.48065165468763937 0.11126130563914639 0 -0.48231014291139662 0.11451968018549651 0 -0.48333054256456581 0.110868176463542 0 -0.48231014291139662 0.11451968018549651 0 -0.48705444799452863 0.11557371757909619 0 -0.47753392433001352 0.1140795270451956 0 -0.47165182880183798 0.094385816376327397 0 -0.48232905148522232 0.1053220062647206 0 -0.47165182880183798 0.094385816376327397 0 -0.48232905148522232 0.1053220062647206 0 -0.48887517406314518 0.098948070067143401 0 -0.48065165468763937 0.11126130563914639 0 -0.48333054256456581 0.110868176463542 0 -0.48232905148522232 0.1053220062647206 0 -0.48232905148522232 0.1053220062647206 0 -0.48887517406314518 0.098948070067143401 0 -0.4889109433852884 0.1124809354770714 0 -0.5 0.09361826762237252 0 -0.48887517406314518 0.098948070067143401 0 -0.49999999999999972 0.12041811703056381 0 -0.48887517406314518 0.098948070067143401 0 -0.4889109433852884 0.1124809354770714 0 -0.49999999999999972 0.12041811703056381 0 -0.48887517406314518 0.098948070067143401 0 -0.49999999999999972 0.12041811703056381 0 -0.47753392433001352 0.1140795270451956 0 -0.49624715758762872 0.12591108548714 0 -0.47753392433001352 0.1140795270451956 0 -0.49624715758762872 0.12591108548714 0 -0.48465404655634903 0.13005057527887159 0 -0.47753392433001352 0.1140795270451956 0 -0.48231014291139662 0.11451968018549651 0 -0.49624715758762872 0.12591108548714 0 -0.48333054256456581 0.110868176463542 0 -0.48232905148522232 0.1053220062647206 0 -0.4889109433852884 0.1124809354770714 0 -0.48333054256456581 0.110868176463542 0 -0.4889109433852884 0.1124809354770714 0 -0.48705444799452863 0.11557371757909619 0 -0.4889109433852884 0.1124809354770714 0 -0.48705444799452863 0.11557371757909619 0 -0.49624715758762872 0.12591108548714 0 -0.48231014291139662 0.11451968018549651 0 -0.48705444799452863 0.11557371757909619 0 -0.49624715758762872 0.12591108548714 0 -0.4889109433852884 0.1124809354770714 0 -0.49999999999999972 0.12041811703056381 0 -0.49624715758762872 0.12591108548714 0 -0.49624715758762872 0.12591108548714 0 -0.48859887511793337 0.13926992185348391 0 -0.5 0.14855596913784991 0 -0.49999999999999972 0.12041811703056381 0 -0.49624715758762872 0.12591108548714 0 -0.5 0.14855596913784991 0 -0.49624715758762872 0.12591108548714 0 -0.48859887511793337 0.13926992185348391 0 -0.48465404655634903 0.13005057527887159 0 -0.47753392433001352 0.1140795270451956 0 -0.47393853675931202 0.141780458746118 0 -0.47753392433001352 0.1140795270451956 0 -0.48465404655634903 0.13005057527887159 0 -0.47393853675931202 0.141780458746118 0 -0.45512723244304071 0.1240215784802081 0 -0.47753392433001352 0.1140795270451956 0 -0.47393853675931202 0.141780458746118 0 -0.48859887511793337 0.13926992185348391 0 -0.48465404655634903 0.13005057527887159 0 -0.47393853675931202 0.141780458746118 0 -0.47393853675931202 0.141780458746118 0 -0.48815463468637738 0.15005152061744001 0 -0.48173931304496947 0.15890418328142039 0 -0.47393853675931202 0.141780458746118 0 -0.47034314918861109 0.1694813904470405 0 -0.48859887511793337 0.13926992185348391 0 -0.47393853675931202 0.141780458746118 0 -0.48815463468637738 0.15005152061744001 0 -0.48859887511793337 0.13926992185348391 0 -0.48815463468637738 0.15005152061744001 0 -0.5 0.14855596913784991 0 -0.48815463468637738 0.15005152061744001 0 -0.5 0.14855596913784991 0 -0.48949555242629761 0.161915385639264 0 -0.5 0.14855596913784991 0 -0.48949555242629761 0.161915385639264 0 -0.5 0.17669382124513591 0 -0.48676469216424961 0.1712921609572397 0 -0.48949555242629761 0.161915385639264 0 -0.48173931304496947 0.15890418328142039 0 -0.48815463468637738 0.15005152061744001 0 -0.48949555242629761 0.161915385639264 0 -0.48173931304496947 0.15890418328142039 0 -0.48676469216424961 0.1712921609572397 0 -0.48949555242629761 0.161915385639264 0 -0.492997034950865 0.1856000989127454 0 -0.48676469216424961 0.1712921609572397 0 -0.492997034950865 0.1856000989127454 0 -0.49012022167753588 0.19662391731387041 0 -0.48676469216424961 0.1712921609572397 0 -0.49012022167753588 0.19662391731387041 0 -0.48676469216424961 0.1712921609572397 0 -0.47832904545020438 0.1844656020921816 0 -0.49012022167753588 0.19662391731387041 0 -0.48949555242629761 0.161915385639264 0 -0.492997034950865 0.1856000989127454 0 -0.48949555242629761 0.161915385639264 0 -0.492997034950865 0.1856000989127454 0 -0.5 0.17669382124513591 0 -0.47832904545020438 0.1844656020921816 0 -0.47034314918861109 0.1694813904470405 0 -0.46674776161791032 0.19718232214796311 0 -0.48676469216424961 0.1712921609572397 0 -0.47832904545020438 0.1844656020921816 0 -0.47034314918861109 0.1694813904470405 0 -0.48676469216424961 0.1712921609572397 0 -0.47034314918861109 0.1694813904470405 0 -0.48173931304496947 0.15890418328142039 0 -0.47393853675931202 0.141780458746118 0 -0.47034314918861109 0.1694813904470405 0 -0.48173931304496947 0.15890418328142039 0 -0.47034314918861109 0.1694813904470405 0 -0.45405561496851088 0.16018839508998689 0 -0.45845533536327332 0.17857328003817419 0 -0.47393853675931202 0.141780458746118 0 -0.47034314918861109 0.1694813904470405 0 -0.45405561496851088 0.16018839508998689 0 -0.47034314918861109 0.1694813904470405 0 -0.46674776161791032 0.19718232214796311 0 -0.47034314918861109 0.1694813904470405 0 -0.45845533536327332 0.17857328003817419 0 -0.46674776161791032 0.19718232214796311 0 -0.45845533536327332 0.17857328003817419 0 -0.44678971470915979 0.17614340636834161 0 -0.45434043633217441 0.18987088613753869 0 -0.44678971470915979 0.17614340636834161 0 -0.44423254609338569 0.19522214079706821 0 -0.43572480846478839 0.1858847643771529 0 -0.44678971470915979 0.17614340636834161 0 -0.45434043633217441 0.18987088613753869 0 -0.44423254609338569 0.19522214079706821 0 -0.44678971470915979 0.17614340636834161 0 -0.43572480846478839 0.1858847643771529 0 -0.43277796833385851 0.17615281030844321 0 -0.44678971470915979 0.17614340636834161 0 -0.4393712534334282 0.16584324125598901 0 -0.43277796833385851 0.17615281030844321 0 -0.45405561496851088 0.16018839508998689 0 -0.45845533536327332 0.17857328003817419 0 -0.44678971470915979 0.17614340636834161 0 -0.45405561496851088 0.16018839508998689 0 -0.44678971470915979 0.17614340636834161 0 -0.4393712534334282 0.16584324125598901 0 -0.45405561496851088 0.16018839508998689 0 -0.4393712534334282 0.16584324125598901 0 -0.43576778399490962 0.15228089870494599 0 -0.45264117011418797 0.14213344385548779 0 -0.43387525115897863 0.13331403535325911 0 -0.43576778399490962 0.15228089870494599 0 -0.45405561496851088 0.16018839508998689 0 -0.45264117011418797 0.14213344385548779 0 -0.43576778399490962 0.15228089870494599 0 -0.45512723244304071 0.1240215784802081 0 -0.45264117011418797 0.14213344385548779 0 -0.43387525115897863 0.13331403535325911 0 -0.45512723244304071 0.1240215784802081 0 -0.47393853675931202 0.141780458746118 0 -0.45264117011418797 0.14213344385548779 0 -0.47393853675931202 0.141780458746118 0 -0.45405561496851088 0.16018839508998689 0 -0.45264117011418797 0.14213344385548779 0 -0.47959455101467402 0.23668254459219909 0 -0.47925913563455752 0.25638559022726493 0 -0.45955698647650872 0.2525841855498081 0 -0.4968312807041082 0.2472874300271318 0 -0.50000000000000033 0.2355458687801783 0 -0.4934757511908221 0.22195567367050101 0 -0.47959455101467402 0.23668254459219909 0 -0.4968312807041082 0.2472874300271318 0 -0.47925913563455752 0.25638559022726493 0 -0.4968312807041082 0.2472874300271318 0 -0.50000000000000033 0.2355458687801783 0 -0.5 0.25337738836426499 0 -0.47959455101467402 0.23668254459219909 0 -0.4968312807041082 0.2472874300271318 0 -0.4934757511908221 0.22195567367050101 0 -0.4968312807041082 0.2472874300271318 0 -0.4934757511908221 0.22195567367050101 0 -0.4968312807041082 0.2472874300271318 0 -0.50000000000000033 0.2355458687801783 0 -0.47959455101467402 0.23668254459219909 0 -0.4934757511908221 0.22195567367050101 0 -0.48068076815536059 0.2238009062467996 0 -0.5 0.23296952545970831 0 -0.4964985174754325 0.2092848121862268 0 -0.5 0.23296952545970831 0 -0.4934757511908221 0.22195567367050101 0 -0.4964985174754325 0.2092848121862268 0 -0.50000000000000033 0.2355458687801783 0 -0.5 0.23296952545970831 0 -0.4934757511908221 0.22195567367050101 0 -0.47959455101467402 0.23668254459219909 0 -0.48068076815536059 0.2238009062467996 0 -0.46315237404720949 0.22488325384888569 0 -0.4934757511908221 0.22195567367050101 0 -0.48068076815536059 0.2238009062467996 0 -0.47877115558194661 0.21101537325212699 0 -0.48068076815536059 0.2238009062467996 0 -0.47877115558194661 0.21101537325212699 0 -0.46315237404720949 0.22488325384888569 0 -0.47877115558194661 0.21101537325212699 0 -0.46674776161791032 0.19718232214796311 0 -0.46315237404720949 0.22488325384888569 0 -0.4934757511908221 0.22195567367050101 0 -0.47877115558194661 0.21101537325212699 0 -0.49012022167753588 0.19662391731387041 0 -0.4934757511908221 0.22195567367050101 0 -0.49012022167753588 0.19662391731387041 0 -0.5 0.23296952545970831 0 -0.4964985174754325 0.2092848121862268 0 -0.5 0.20483167335242211 0 -0.4934757511908221 0.22195567367050101 0 -0.4964985174754325 0.2092848121862268 0 -0.49012022167753588 0.19662391731387041 0 -0.492997034950865 0.1856000989127454 0 -0.5 0.17669382124513591 0 -0.5 0.20483167335242211 0 -0.492997034950865 0.1856000989127454 0 -0.4964985174754325 0.2092848121862268 0 -0.5 0.20483167335242211 0 -0.492997034950865 0.1856000989127454 0 -0.4964985174754325 0.2092848121862268 0 -0.492997034950865 0.1856000989127454 0 -0.4964985174754325 0.2092848121862268 0 -0.49012022167753588 0.19662391731387041 0 -0.47832904545020438 0.1844656020921816 0 -0.49012022167753588 0.19662391731387041 0 -0.46674776161791032 0.19718232214796311 0 -0.47877115558194661 0.21101537325212699 0 -0.49012022167753588 0.19662391731387041 0 -0.46674776161791032 0.19718232214796311 0 -0.46674776161791032 0.19718232214796311 0 -0.45434043633217441 0.18987088613753869 0 -0.45225497593538971 0.20653818469412891 0 -0.45845533536327332 0.17857328003817419 0 -0.46674776161791032 0.19718232214796311 0 -0.45434043633217441 0.18987088613753869 0 -0.45434043633217441 0.18987088613753869 0 -0.44423254609338569 0.19522214079706821 0 -0.45225497593538971 0.20653818469412891 0 -0.44423254609338569 0.19522214079706821 0 -0.43260697607975679 0.19517961396413641 0 -0.43572480846478839 0.1858847643771529 0 -0.44423254609338569 0.19522214079706821 0 -0.43947593590693068 0.2087703138938567 0 -0.43260697607975679 0.19517961396413641 0 -0.44423254609338569 0.19522214079706821 0 -0.45225497593538971 0.20653818469412891 0 -0.43947593590693068 0.2087703138938567 0 -0.45225497593538971 0.20653818469412891 0 -0.46315237404720949 0.22488325384888569 0 -0.43989201327360689 0.22426508708560511 0 -0.45225497593538971 0.20653818469412891 0 -0.43947593590693068 0.2087703138938567 0 -0.43989201327360689 0.22426508708560511 0 -0.46674776161791032 0.19718232214796311 0 -0.46315237404720949 0.22488325384888569 0 -0.46674776161791032 0.19718232214796311 0 -0.45225497593538971 0.20653818469412891 0 -0.46315237404720949 0.22488325384888569 0 -0.46315237404720949 0.22488325384888569 0 -0.43989201327360689 0.22426508708560511 0 -0.45021294153203789 0.23634105563645971 0 -0.45021294153203789 0.23634105563645971 0 -0.43825039233082658 0.24363169606154 0 -0.45955698647650872 0.2525841855498081 0 -0.43989201327360689 0.22426508708560511 0 -0.45021294153203789 0.23634105563645971 0 -0.43825039233082658 0.24363169606154 0 -0.46315237404720949 0.22488325384888569 0 -0.45955698647650872 0.2525841855498081 0 -0.46315237404720949 0.22488325384888569 0 -0.45021294153203789 0.23634105563645971 0 -0.45955698647650872 0.2525841855498081 0 -0.47959455101467402 0.23668254459219909 0 -0.46315237404720949 0.22488325384888569 0 -0.45955698647650872 0.2525841855498081 0 -0.41906478082312681 0.24885406714890429 0 -0.42456052349705709 0.23076725424193251 0 -0.40847515486132491 0.2236342094479517 0 -0.41906478082312681 0.24885406714890429 0 -0.41001213513455492 0.24292805387003971 0 -0.40847515486132491 0.2236342094479517 0 -0.41906478082312681 0.24885406714890429 0 -0.40847515486132491 0.2236342094479517 0 -0.41001213513455492 0.24292805387003971 0 -0.40616068895931751 0.23382197503337221 0 -0.40613096177297592 0.24057109864472151 0 -0.43825039233082658 0.24363169606154 0 -0.41906478082312681 0.24885406714890429 0 -0.42456052349705709 0.23076725424193251 0 -0.43989201327360689 0.22426508708560511 0 -0.43825039233082658 0.24363169606154 0 -0.42456052349705709 0.23076725424193251 0 -0.43989201327360689 0.22426508708560511 0 -0.42456052349705709 0.23076725424193251 0 -0.4268845375987218 0.22117003575415239 0 -0.43989201327360689 0.22426508708560511 0 -0.4268845375987218 0.22117003575415239 0 -0.43199221995906689 0.21549053184662029 0 -0.42456052349705709 0.23076725424193251 0 -0.4268845375987218 0.22117003575415239 0 -0.4157551131304888 0.2207080682861742 0 -0.41001213513455492 0.24292805387003971 0 -0.40847515486132491 0.2236342094479517 0 -0.40616068895931751 0.23382197503337221 0 -0.42456052349705709 0.23076725424193251 0 -0.4157551131304888 0.2207080682861742 0 -0.40847515486132491 0.2236342094479517 0 -0.4268845375987218 0.22117003575415239 0 -0.4157551131304888 0.2207080682861742 0 -0.42222281813338958 0.21461923731043009 0 -0.4157551131304888 0.2207080682861742 0 -0.40987751920540089 0.21689083474231899 0 -0.40593020750413361 0.2204934391886153 0 -0.4157551131304888 0.2207080682861742 0 -0.40847515486132491 0.2236342094479517 0 -0.40593020750413361 0.2204934391886153 0 -0.4157551131304888 0.2207080682861742 0 -0.40847515486132491 0.2236342094479517 0 -0.40987751920540089 0.21689083474231899 0 -0.41225429475868652 0.21039979982843049 0 -0.41567984115975098 0.2143566561198208 0 -0.4157551131304888 0.2207080682861742 0 -0.40987751920540089 0.21689083474231899 0 -0.41567984115975098 0.2143566561198208 0 -0.40987751920540089 0.21689083474231899 0 -0.40718344427341852 0.2125517787007272 0 -0.40221629363292088 0.21420702426504909 0 -0.40987751920540089 0.21689083474231899 0 -0.40718344427341852 0.2125517787007272 0 -0.41225429475868652 0.21039979982843049 0 -0.40763040898498759 0.2093759482087586 0 -0.41011266167151861 0.2053676226733423 0 -0.41225429475868652 0.21039979982843049 0 -0.40718344427341852 0.2125517787007272 0 -0.40763040898498759 0.2093759482087586 0 -0.41225429475868652 0.21039979982843049 0 -0.40763040898498759 0.2093759482087586 0 -0.41011266167151861 0.2053676226733423 0 -0.40555805952222512 0.2060681531018913 0 -0.41011266167151861 0.2053676226733423 0 -0.40691283629498293 0.20191018201377961 0 -0.40555805952222512 0.2060681531018913 0 -0.41011266167151861 0.2053676226733423 0 -0.41225429475868652 0.21039979982843049 0 -0.41488920896424741 0.20296794315407529 0 -0.41828946057078897 0.20916534043175039 0 -0.42585397721774759 0.204642842432424 0 -0.41488920896424741 0.20296794315407529 0 -0.41225429475868652 0.21039979982843049 0 -0.41828946057078897 0.20916534043175039 0 -0.41488920896424741 0.20296794315407529 0 -0.41828946057078897 0.20916534043175039 0 -0.41567984115975098 0.2143566561198208 0 -0.42222281813338958 0.21461923731043009 0 -0.41225429475868652 0.21039979982843049 0 -0.41828946057078897 0.20916534043175039 0 -0.41567984115975098 0.2143566561198208 0 -0.4157551131304888 0.2207080682861742 0 -0.41567984115975098 0.2143566561198208 0 -0.42222281813338958 0.21461923731043009 0 -0.4268845375987218 0.22117003575415239 0 -0.42222281813338958 0.21461923731043009 0 -0.43199221995906689 0.21549053184662029 0 -0.42222281813338958 0.21461923731043009 0 -0.43199221995906689 0.21549053184662029 0 -0.42585397721774759 0.204642842432424 0 -0.43947593590693068 0.2087703138938567 0 -0.43989201327360689 0.22426508708560511 0 -0.43199221995906689 0.21549053184662029 0 -0.43947593590693068 0.2087703138938567 0 -0.43199221995906689 0.21549053184662029 0 -0.42585397721774759 0.204642842432424 0 -0.41828946057078897 0.20916534043175039 0 -0.42222281813338958 0.21461923731043009 0 -0.42585397721774759 0.204642842432424 0 -0.42585397721774759 0.204642842432424 0 -0.43260697607975679 0.19517961396413641 0 -0.41812928098592078 0.19553484061284351 0 -0.43947593590693068 0.2087703138938567 0 -0.42585397721774759 0.204642842432424 0 -0.43260697607975679 0.19517961396413641 0 -0.43260697607975679 0.19517961396413641 0 -0.43572480846478839 0.1858847643771529 0 -0.42467817304392957 0.1858903755302739 0 -0.43260697607975679 0.19517961396413641 0 -0.41812928098592078 0.19553484061284351 0 -0.42467817304392957 0.1858903755302739 0 -0.4143553367052551 0.1883301082261663 0 -0.41812928098592078 0.19553484061284351 0 -0.42467817304392957 0.1858903755302739 0 -0.4143553367052551 0.1883301082261663 0 -0.41812928098592078 0.19553484061284351 0 -0.41067129024691801 0.1928956996196268 0 -0.42585397721774759 0.204642842432424 0 -0.41812928098592078 0.19553484061284351 0 -0.41488920896424741 0.20296794315407529 0 -0.41812928098592078 0.19553484061284351 0 -0.41488920896424741 0.20296794315407529 0 -0.4114218749426401 0.19844747256973691 0 -0.41812928098592078 0.19553484061284351 0 -0.4114218749426401 0.19844747256973691 0 -0.41067129024691801 0.1928956996196268 0 -0.41011266167151861 0.2053676226733423 0 -0.41488920896424741 0.20296794315407529 0 -0.4114218749426401 0.19844747256973691 0 -0.41011266167151861 0.2053676226733423 0 -0.4114218749426401 0.19844747256973691 0 -0.40691283629498293 0.20191018201377961 0 -0.4114218749426401 0.19844747256973691 0 -0.40691283629498293 0.20191018201377961 0 -0.40676451168872563 0.19561001284927459 0 -0.4114218749426401 0.19844747256973691 0 -0.40676451168872563 0.19561001284927459 0 -0.41067129024691801 0.1928956996196268 0 -0.40676451168872563 0.19561001284927459 0 -0.40710385449004838 0.18910916470868411 0 -0.41067129024691801 0.1928956996196268 0 -0.4143553367052551 0.1883301082261663 0 -0.40710385449004838 0.18910916470868411 0 -0.41067129024691801 0.1928956996196268 0 -0.39416764106923757 0.1918965089887186 0 -0.39427568973761218 0.2038242425352913 0 -0.38986757043322101 0.18007869536628909 0 -0.39427568973761218 0.2038242425352913 0 -0.38986757043322101 0.18007869536628909 0 -0.39199817154636818 0.20396929389073981 0 -0.39427568973761218 0.2038242425352913 0 -0.38986757043322101 0.18007869536628909 0 -0.39926064570491449 0.19480570678299761 0 -0.3992158111362949 0.19074558503498959 0 -0.40289722718806409 0.19276714565552541 0 -0.39926064570491449 0.19480570678299761 0 -0.3992158111362949 0.19074558503498959 0 -0.39721384960036937 0.19253766895334329 0 -0.3992158111362949 0.19074558503498959 0 -0.40289722718806409 0.19276714565552541 0 -0.40214593916111502 0.18735138842268079 0 -0.3992158111362949 0.19074558503498959 0 -0.40214593916111502 0.18735138842268079 0 -0.39787177575748761 0.1870369334580958 0 -0.40710385449004838 0.18910916470868411 0 -0.40289722718806409 0.19276714565552541 0 -0.40214593916111502 0.18735138842268079 0 -0.40676451168872563 0.19561001284927459 0 -0.40710385449004838 0.18910916470868411 0 -0.40289722718806409 0.19276714565552541 0 -0.40676451168872563 0.19561001284927459 0 -0.40289722718806409 0.19276714565552541 0 -0.40231503502414778 0.1984879383333451 0 -0.40691283629498293 0.20191018201377961 0 -0.40676451168872563 0.19561001284927459 0 -0.40231503502414778 0.1984879383333451 0 -0.40691283629498293 0.20191018201377961 0 -0.40231503502414778 0.1984879383333451 0 -0.40290136863642961 0.2034712510770437 0 -0.39915170441461489 0.20186087994981669 0 -0.40231503502414778 0.1984879383333451 0 -0.40290136863642961 0.2034712510770437 0 -0.39915170441461489 0.20186087994981669 0 -0.40231503502414778 0.1984879383333451 0 -0.39833668593254562 0.1983310585856817 0 -0.39926064570491449 0.19480570678299761 0 -0.40231503502414778 0.1984879383333451 0 -0.39833668593254562 0.1983310585856817 0 -0.39926064570491449 0.19480570678299761 0 -0.40289722718806409 0.19276714565552541 0 -0.40231503502414778 0.1984879383333451 0 -0.39579294699672629 0.19823658630142779 0 -0.39416764106923757 0.1918965089887186 0 -0.39427568973761218 0.2038242425352913 0 -0.39926064570491449 0.19480570678299761 0 -0.39833668593254562 0.1983310585856817 0 -0.39677262543227648 0.19529550670815479 0 -0.39833668593254562 0.1983310585856817 0 -0.39579294699672629 0.19823658630142779 0 -0.39677262543227648 0.19529550670815479 0 -0.39579294699672629 0.19823658630142779 0 -0.39672715802259328 0.2012997334383482 0 -0.39427568973761218 0.2038242425352913 0 -0.39915170441461489 0.20186087994981669 0 -0.39672715802259328 0.2012997334383482 0 -0.39729938763948319 0.20315763596243069 0 -0.39915170441461489 0.20186087994981669 0 -0.39833668593254562 0.1983310585856817 0 -0.39672715802259328 0.2012997334383482 0 -0.39833668593254562 0.1983310585856817 0 -0.39579294699672629 0.19823658630142779 0 -0.39672715802259328 0.2012997334383482 0 -0.39672715802259328 0.2012997334383482 0 -0.39427568973761218 0.2038242425352913 0 -0.39729938763948319 0.20315763596243069 0 -0.39579294699672629 0.19823658630142779 0 -0.39416764106923757 0.1918965089887186 0 -0.39677262543227648 0.19529550670815479 0 -0.39416764106923757 0.1918965089887186 0 -0.39721384960036937 0.19253766895334329 0 -0.39677262543227648 0.19529550670815479 0 -0.39416764106923757 0.1918965089887186 0 -0.39721384960036937 0.19253766895334329 0 -0.39665252465912371 0.18994503725185599 0 -0.39926064570491449 0.19480570678299761 0 -0.39721384960036937 0.19253766895334329 0 -0.39677262543227648 0.19529550670815479 0 -0.39416764106923757 0.1918965089887186 0 -0.39665252465912371 0.18994503725185599 0 -0.39539731101965492 0.18750945359023249 0 -0.39665252465912371 0.18994503725185599 0 -0.39539731101965492 0.18750945359023249 0 -0.39787177575748761 0.1870369334580958 0 -0.3992158111362949 0.19074558503498959 0 -0.39665252465912371 0.18994503725185599 0 -0.39787177575748761 0.1870369334580958 0 -0.3992158111362949 0.19074558503498959 0 -0.39721384960036937 0.19253766895334329 0 -0.39665252465912371 0.18994503725185599 0 -0.39416764106923757 0.1918965089887186 0 -0.39539731101965492 0.18750945359023249 0 -0.39309812768962288 0.18491710333198541 0 -0.39199817154636818 0.20396929389073981 0 -0.38986757043322101 0.18007869536628909 0 -0.38737651858823507 0.17953919028423379 0 -0.39199817154636818 0.20396929389073981 0 -0.38737651858823507 0.17953919028423379 0 -0.38717524259643288 0.1901827238197781 0 -0.39199817154636818 0.20396929389073981 0 -0.38737651858823507 0.17953919028423379 0 -0.38717524259643288 0.1901827238197781 0 -0.38321858811364118 0.19300358403210449 0 -0.38726607919504508 0.19591759391481969 0 -0.38717524259643288 0.1901827238197781 0 -0.38321858811364118 0.19300358403210449 0 -0.38331159611892862 0.1885304236495679 0 -0.38717524259643288 0.1901827238197781 0 -0.38331159611892862 0.1885304236495679 0 -0.384927665527804 0.1853021862268642 0 -0.38321858811364118 0.19300358403210449 0 -0.38331159611892862 0.1885304236495679 0 -0.37909475181615299 0.18793170982100429 0 -0.38321858811364118 0.19300358403210449 0 -0.37909475181615299 0.18793170982100429 0 -0.3773061482405865 0.19503240910223391 0 -0.37909475181615299 0.18793170982100429 0 -0.3773061482405865 0.19503240910223391 0 -0.37251818633482958 0.1898101614263997 0 -0.3773061482405865 0.19503240910223391 0 -0.38228637050599268 0.19882373574805229 0 -0.37786288932820961 0.20439045577397741 0 -0.38321858811364118 0.19300358403210449 0 -0.3773061482405865 0.19503240910223391 0 -0.38228637050599268 0.19882373574805229 0 -0.38228637050599268 0.19882373574805229 0 -0.38451545625563982 0.20370116500147281 0 -0.37786288932820961 0.20439045577397741 0 -0.38726607919504508 0.19591759391481969 0 -0.38782239912337102 0.19937017251737771 0 -0.39199817154636818 0.20396929389073981 0 -0.38717524259643288 0.1901827238197781 0 -0.38726607919504508 0.19591759391481969 0 -0.39199817154636818 0.20396929389073981 0 -0.38228637050599268 0.19882373574805229 0 -0.38560425490208677 0.20013307256243951 0 -0.38451545625563982 0.20370116500147281 0 -0.38560425490208677 0.20013307256243951 0 -0.38773784750155599 0.2025607672850005 0 -0.38451545625563982 0.20370116500147281 0 -0.38321858811364118 0.19300358403210449 0 -0.38523953836802738 0.19744963175495869 0 -0.38726607919504508 0.19591759391481969 0 -0.38321858811364118 0.19300358403210449 0 -0.38228637050599268 0.19882373574805229 0 -0.38523953836802738 0.19744963175495869 0 -0.38228637050599268 0.19882373574805229 0 -0.38560425490208677 0.20013307256243951 0 -0.38523953836802738 0.19744963175495869 0 -0.38560425490208677 0.20013307256243951 0 -0.38523953836802738 0.19744963175495869 0 -0.38782239912337102 0.19937017251737771 0 -0.38523953836802738 0.19744963175495869 0 -0.38726607919504508 0.19591759391481969 0 -0.38782239912337102 0.19937017251737771 0 -0.38773784750155599 0.2025607672850005 0 -0.38782239912337102 0.19937017251737771 0 -0.39199817154636818 0.20396929389073981 0 -0.38560425490208677 0.20013307256243951 0 -0.38773784750155599 0.2025607672850005 0 -0.38782239912337102 0.19937017251737771 0 -0.38773784750155599 0.2025607672850005 0 -0.38738086677227818 0.20713886261355169 0 -0.39199817154636818 0.20396929389073981 0 -0.38738086677227818 0.20713886261355169 0 -0.38867306175701888 0.2142171741340623 0 -0.39199817154636818 0.20396929389073981 0 -0.38738086677227818 0.20713886261355169 0 -0.38397979680080818 0.21124591275648341 0 -0.38867306175701888 0.2142171741340623 0 -0.38738086677227818 0.20713886261355169 0 -0.38451545625563982 0.20370116500147281 0 -0.38397979680080818 0.21124591275648341 0 -0.38773784750155599 0.2025607672850005 0 -0.38738086677227818 0.20713886261355169 0 -0.38451545625563982 0.20370116500147281 0 -0.38451545625563982 0.20370116500147281 0 -0.37786288932820961 0.20439045577397741 0 -0.38397979680080818 0.21124591275648341 0 -0.37786288932820961 0.20439045577397741 0 -0.37545914146842518 0.21408682417004071 0 -0.38397979680080818 0.21124591275648341 0 -0.37545914146842518 0.21408682417004071 0 -0.38397979680080818 0.21124591275648341 0 -0.38201856025310449 0.2218411340728694 0 -0.38397979680080818 0.21124591275648341 0 -0.38867306175701888 0.2142171741340623 0 -0.38201856025310449 0.2218411340728694 0 -0.38867306175701888 0.2142171741340623 0 -0.39199817154636818 0.20396929389073981 0 -0.3966198245044994 0.22839939749724619 0 -0.39199817154636818 0.20396929389073981 0 -0.3966198245044994 0.22839939749724619 0 -0.39427568973761218 0.2038242425352913 0 -0.3986838090420044 0.22756978970429331 0 -0.39427568973761218 0.2038242425352913 0 -0.40221629363292088 0.21420702426504909 0 -0.3986838090420044 0.22756978970429331 0 -0.39199817154636818 0.20396929389073981 0 -0.39427568973761218 0.2038242425352913 0 -0.3986838090420044 0.22756978970429331 0 -0.39427568973761218 0.2038242425352913 0 -0.39729938763948319 0.20315763596243069 0 -0.39904299838311241 0.2056456879262665 0 -0.39904299838311241 0.2056456879262665 0 -0.40226098828544737 0.20639978531862491 0 -0.40353009325998418 0.20988412931979911 0 -0.39904299838311241 0.2056456879262665 0 -0.40353009325998418 0.20988412931979911 0 -0.40221629363292088 0.21420702426504909 0 -0.39427568973761218 0.2038242425352913 0 -0.39904299838311241 0.2056456879262665 0 -0.40221629363292088 0.21420702426504909 0 -0.39915170441461489 0.20186087994981669 0 -0.39904299838311241 0.2056456879262665 0 -0.40290136863642961 0.2034712510770437 0 -0.39915170441461489 0.20186087994981669 0 -0.39729938763948319 0.20315763596243069 0 -0.39904299838311241 0.2056456879262665 0 -0.39904299838311241 0.2056456879262665 0 -0.40226098828544737 0.20639978531862491 0 -0.40290136863642961 0.2034712510770437 0 -0.40691283629498293 0.20191018201377961 0 -0.40290136863642961 0.2034712510770437 0 -0.40555805952222512 0.2060681531018913 0 -0.40226098828544737 0.20639978531862491 0 -0.40290136863642961 0.2034712510770437 0 -0.40555805952222512 0.2060681531018913 0 -0.40763040898498759 0.2093759482087586 0 -0.40555805952222512 0.2060681531018913 0 -0.40353009325998418 0.20988412931979911 0 -0.40718344427341852 0.2125517787007272 0 -0.40763040898498759 0.2093759482087586 0 -0.40353009325998418 0.20988412931979911 0 -0.40226098828544737 0.20639978531862491 0 -0.40555805952222512 0.2060681531018913 0 -0.40353009325998418 0.20988412931979911 0 -0.40718344427341852 0.2125517787007272 0 -0.40353009325998418 0.20988412931979911 0 -0.40221629363292088 0.21420702426504909 0 -0.40987751920540089 0.21689083474231899 0 -0.40221629363292088 0.21420702426504909 0 -0.40593020750413361 0.2204934391886153 0 -0.39199817154636818 0.20396929389073981 0 -0.3986838090420044 0.22756978970429331 0 -0.3966198245044994 0.22839939749724619 0 -0.40847515486132491 0.2236342094479517 0 -0.3986838090420044 0.22756978970429331 0 -0.40221629363292088 0.21420702426504909 0 -0.40593020750413361 0.2204934391886153 0 -0.3986838090420044 0.22756978970429331 0 -0.40847515486132491 0.2236342094479517 0 -0.40593020750413361 0.2204934391886153 0 -0.3986838090420044 0.22756978970429331 0 -0.40616068895931751 0.23382197503337221 0 -0.3986838090420044 0.22756978970429331 0 -0.40613096177297592 0.24057109864472151 0 -0.40847515486132491 0.2236342094479517 0 -0.40616068895931751 0.23382197503337221 0 -0.3986838090420044 0.22756978970429331 0 -0.3986838090420044 0.22756978970429331 0 -0.3966198245044994 0.22839939749724619 0 -0.3986838090420044 0.22756978970429331 0 -0.3966198245044994 0.22839939749724619 0 -0.39907315509444807 0.24136772745112919 0 -0.3966198245044994 0.22839939749724619 0 -0.37675357027187739 0.23638453451192409 0 -0.38867306175701888 0.2142171741340623 0 -0.3966198245044994 0.22839939749724619 0 -0.38201856025310449 0.2218411340728694 0 -0.3966198245044994 0.22839939749724619 0 -0.38201856025310449 0.2218411340728694 0 -0.37675357027187739 0.23638453451192409 0 -0.37545914146842518 0.21408682417004071 0 -0.38201856025310449 0.2218411340728694 0 -0.36808660758037798 0.22401580596281209 0 -0.38201856025310449 0.2218411340728694 0 -0.37675357027187739 0.23638453451192409 0 -0.36808660758037798 0.22401580596281209 0 -0.3966198245044994 0.22839939749724619 0 -0.3891476327439306 0.24085259574621021 0 -0.37675357027187739 0.23638453451192409 0 -0.3891476327439306 0.24085259574621021 0 -0.37675357027187739 0.23638453451192409 0 -0.384838857273051 0.25649827030453931 0 -0.3891476327439306 0.24085259574621021 0 -0.39485854986397301 0.24894436375877421 0 -0.384838857273051 0.25649827030453931 0 -0.3986838090420044 0.22756978970429331 0 -0.40183723613050032 0.24455659212575279 0 -0.3891476327439306 0.24085259574621021 0 -0.39485854986397301 0.24894436375877421 0 -0.39907315509444807 0.24136772745112919 0 -0.3986838090420044 0.22756978970429331 0 -0.39907315509444807 0.24136772745112919 0 -0.40183723613050032 0.24455659212575279 0 -0.41001213513455492 0.24292805387003971 0 -0.40183723613050032 0.24455659212575279 0 -0.40499066321899718 0.26154339454721198 0 -0.3986838090420044 0.22756978970429331 0 -0.40613096177297592 0.24057109864472151 0 -0.40183723613050032 0.24455659212575279 0 -0.3966198245044994 0.22839939749724619 0 -0.3891476327439306 0.24085259574621021 0 -0.39907315509444807 0.24136772745112919 0 -0.3966198245044994 0.22839939749724619 0 -0.39907315509444807 0.24136772745112919 0 -0.41001213513455492 0.24292805387003971 0 -0.40613096177297592 0.24057109864472151 0 -0.40183723613050032 0.24455659212575279 0 -0.39485854986397301 0.24894436375877421 0 -0.39907315509444807 0.24136772745112919 0 -0.40183723613050032 0.24455659212575279 0 -0.42106396163575988 0.1456452193643015 0 -0.40800330231690268 0.14230515238853489 0 -0.41475490110232099 0.13396560674878219 0 -0.42106396163575988 0.1456452193643015 0 -0.42214845874379842 0.1564965938993631 0 -0.41052895808745993 0.1569719322922716 0 -0.42106396163575988 0.1456452193643015 0 -0.40800330231690268 0.14230515238853489 0 -0.41052895808745993 0.1569719322922716 0 -0.40800330231690268 0.14230515238853489 0 -0.41475490110232099 0.13396560674878219 0 -0.4052392510537613 0.12833384188852759 0 -0.41950589315756698 0.12066218943481059 0 -0.41475490110232099 0.13396560674878219 0 -0.4052392510537613 0.12833384188852759 0 -0.41950589315756698 0.12066218943481059 0 -0.41475490110232099 0.13396560674878219 0 -0.43387525115897863 0.13331403535325911 0 -0.42106396163575988 0.1456452193643015 0 -0.41475490110232099 0.13396560674878219 0 -0.43387525115897863 0.13331403535325911 0 -0.42106396163575988 0.1456452193643015 0 -0.43387525115897863 0.13331403535325911 0 -0.43576778399490962 0.15228089870494599 0 -0.42106396163575988 0.1456452193643015 0 -0.43576778399490962 0.15228089870494599 0 -0.42214845874379842 0.1564965938993631 0 -0.4393712534334282 0.16584324125598901 0 -0.43576778399490962 0.15228089870494599 0 -0.42700350165988549 0.16647967645309339 0 -0.4393712534334282 0.16584324125598901 0 -0.42700350165988549 0.16647967645309339 0 -0.43277796833385851 0.17615281030844321 0 -0.42700350165988549 0.16647967645309339 0 -0.42328961832991441 0.17649910406836131 0 -0.41675058577807161 0.17059005527968299 0 -0.42700350165988549 0.16647967645309339 0 -0.42214845874379842 0.1564965938993631 0 -0.41675058577807161 0.17059005527968299 0 -0.43576778399490962 0.15228089870494599 0 -0.42700350165988549 0.16647967645309339 0 -0.42214845874379842 0.1564965938993631 0 -0.43572480846478839 0.1858847643771529 0 -0.43277796833385851 0.17615281030844321 0 -0.42467817304392957 0.1858903755302739 0 -0.43277796833385851 0.17615281030844321 0 -0.42328961832991441 0.17649910406836131 0 -0.42467817304392957 0.1858903755302739 0 -0.42700350165988549 0.16647967645309339 0 -0.43277796833385851 0.17615281030844321 0 -0.42328961832991441 0.17649910406836131 0 -0.42328961832991441 0.17649910406836131 0 -0.42467817304392957 0.1858903755302739 0 -0.41607806561055188 0.18100103453055319 0 -0.4143553367052551 0.1883301082261663 0 -0.42467817304392957 0.1858903755302739 0 -0.41607806561055188 0.18100103453055319 0 -0.42328961832991441 0.17649910406836131 0 -0.41607806561055188 0.18100103453055319 0 -0.41675058577807161 0.17059005527968299 0 -0.41607806561055188 0.18100103453055319 0 -0.40887808638972462 0.1771187162825654 0 -0.41675058577807161 0.17059005527968299 0 -0.40887808638972462 0.1771187162825654 0 -0.41675058577807161 0.17059005527968299 0 -0.40640219771090358 0.16872471306630279 0 -0.41607806561055188 0.18100103453055319 0 -0.40887808638972462 0.1771187162825654 0 -0.41022374533224831 0.18360385483151639 0 -0.40887808638972462 0.1771187162825654 0 -0.41022374533224831 0.18360385483151639 0 -0.40470338346566131 0.18246025040961331 0 -0.40710385449004838 0.18910916470868411 0 -0.41022374533224831 0.18360385483151639 0 -0.40470338346566131 0.18246025040961331 0 -0.4143553367052551 0.1883301082261663 0 -0.40710385449004838 0.18910916470868411 0 -0.41022374533224831 0.18360385483151639 0 -0.4143553367052551 0.1883301082261663 0 -0.41607806561055188 0.18100103453055319 0 -0.41022374533224831 0.18360385483151639 0 -0.42214845874379842 0.1564965938993631 0 -0.41675058577807161 0.17059005527968299 0 -0.41052895808745993 0.1569719322922716 0 -0.41675058577807161 0.17059005527968299 0 -0.40640219771090358 0.16872471306630279 0 -0.41052895808745993 0.1569719322922716 0 -0.41052895808745993 0.1569719322922716 0 -0.40070607616292819 0.164000664442358 0 -0.39848619191609008 0.149592494817054 0 -0.40640219771090358 0.16872471306630279 0 -0.41052895808745993 0.1569719322922716 0 -0.40070607616292819 0.164000664442358 0 -0.40640219771090358 0.16872471306630279 0 -0.39900573503593151 0.1696242275656904 0 -0.39955073869419722 0.17599816221510101 0 -0.40640219771090358 0.16872471306630279 0 -0.40070607616292819 0.164000664442358 0 -0.39900573503593151 0.1696242275656904 0 -0.40070607616292819 0.164000664442358 0 -0.39474565665910039 0.16667202109100029 0 -0.39446146771710983 0.16268042963360721 0 -0.40070607616292819 0.164000664442358 0 -0.39900573503593151 0.1696242275656904 0 -0.39474565665910039 0.16667202109100029 0 -0.39900573503593151 0.1696242275656904 0 -0.39474565665910039 0.16667202109100029 0 -0.39362400595252789 0.17272557701369001 0 -0.39474565665910039 0.16667202109100029 0 -0.3911478845693046 0.16601189927417279 0 -0.39362400595252789 0.17272557701369001 0 -0.39474565665910039 0.16667202109100029 0 -0.3911478845693046 0.16601189927417279 0 -0.39446146771710983 0.16268042963360721 0 -0.40070607616292819 0.164000664442358 0 -0.39459741827443612 0.15751051613754291 0 -0.39848619191609008 0.149592494817054 0 -0.3911478845693046 0.16601189927417279 0 -0.39446146771710983 0.16268042963360721 0 -0.39111030291977977 0.15920704722296181 0 -0.39111030291977977 0.15920704722296181 0 -0.39459741827443612 0.15751051613754291 0 -0.39060420005101321 0.15369746745153129 0 -0.39446146771710983 0.16268042963360721 0 -0.39111030291977977 0.15920704722296181 0 -0.39459741827443612 0.15751051613754291 0 -0.40070607616292819 0.164000664442358 0 -0.39446146771710983 0.16268042963360721 0 -0.39459741827443612 0.15751051613754291 0 -0.40214593916111502 0.18735138842268079 0 -0.40470338346566131 0.18246025040961331 0 -0.39953900443847318 0.1825623889216951 0 -0.40214593916111502 0.18735138842268079 0 -0.39953900443847318 0.1825623889216951 0 -0.39787177575748761 0.1870369334580958 0 -0.40710385449004838 0.18910916470868411 0 -0.40214593916111502 0.18735138842268079 0 -0.40470338346566131 0.18246025040961331 0 -0.40470338346566131 0.18246025040961331 0 -0.39953900443847318 0.1825623889216951 0 -0.39955073869419722 0.17599816221510101 0 -0.40887808638972462 0.1771187162825654 0 -0.40470338346566131 0.18246025040961331 0 -0.39955073869419722 0.17599816221510101 0 -0.40887808638972462 0.1771187162825654 0 -0.40640219771090358 0.16872471306630279 0 -0.39955073869419722 0.17599816221510101 0 -0.3911478845693046 0.16601189927417279 0 -0.39362400595252789 0.17272557701369001 0 -0.38986757043322101 0.18007869536628909 0 -0.39955073869419722 0.17599816221510101 0 -0.39362400595252789 0.17272557701369001 0 -0.39398642424777891 0.17801102237439731 0 -0.39900573503593151 0.1696242275656904 0 -0.39955073869419722 0.17599816221510101 0 -0.39362400595252789 0.17272557701369001 0 -0.39362400595252789 0.17272557701369001 0 -0.39398642424777891 0.17801102237439731 0 -0.38986757043322101 0.18007869536628909 0 -0.39953900443847318 0.1825623889216951 0 -0.39955073869419722 0.17599816221510101 0 -0.39612445205221869 0.18024502398097661 0 -0.39955073869419722 0.17599816221510101 0 -0.39398642424777891 0.17801102237439731 0 -0.39612445205221869 0.18024502398097661 0 -0.39416764106923757 0.1918965089887186 0 -0.39309812768962288 0.18491710333198541 0 -0.38986757043322101 0.18007869536628909 0 -0.39953900443847318 0.1825623889216951 0 -0.39612445205221869 0.18024502398097661 0 -0.39595998943404331 0.1839423187695684 0 -0.39612445205221869 0.18024502398097661 0 -0.39372926564680272 0.18138300933442481 0 -0.39595998943404331 0.1839423187695684 0 -0.39398642424777891 0.17801102237439731 0 -0.39612445205221869 0.18024502398097661 0 -0.39372926564680272 0.18138300933442481 0 -0.39372926564680272 0.18138300933442481 0 -0.39309812768962288 0.18491710333198541 0 -0.38986757043322101 0.18007869536628909 0 -0.39398642424777891 0.17801102237439731 0 -0.39372926564680272 0.18138300933442481 0 -0.38986757043322101 0.18007869536628909 0 -0.39372926564680272 0.18138300933442481 0 -0.39309812768962288 0.18491710333198541 0 -0.39595998943404331 0.1839423187695684 0 -0.39539731101965492 0.18750945359023249 0 -0.39595998943404331 0.1839423187695684 0 -0.39787177575748761 0.1870369334580958 0 -0.39953900443847318 0.1825623889216951 0 -0.39595998943404331 0.1839423187695684 0 -0.39787177575748761 0.1870369334580958 0 -0.39539731101965492 0.18750945359023249 0 -0.39309812768962288 0.18491710333198541 0 -0.39595998943404331 0.1839423187695684 0 -0.38986757043322101 0.18007869536628909 0 -0.38737651858823507 0.17953919028423379 0 -0.38545945112882979 0.15633314819728669 0 -0.38717524259643288 0.1901827238197781 0 -0.384927665527804 0.1853021862268642 0 -0.38737651858823507 0.17953919028423379 0 -0.38331159611892862 0.1885304236495679 0 -0.384927665527804 0.1853021862268642 0 -0.38240521883236372 0.18522136730689509 0 -0.384927665527804 0.1853021862268642 0 -0.38398863817745371 0.1822815690371456 0 -0.38240521883236372 0.18522136730689509 0 -0.384927665527804 0.1853021862268642 0 -0.38398863817745371 0.1822815690371456 0 -0.38737651858823507 0.17953919028423379 0 -0.38398863817745371 0.1822815690371456 0 -0.38439653425292508 0.17968855337473161 0 -0.38737651858823507 0.17953919028423379 0 -0.38398863817745371 0.1822815690371456 0 -0.38439653425292508 0.17968855337473161 0 -0.38083518566735491 0.18155567427929689 0 -0.38477209955132002 0.17763508708117781 0 -0.38737651858823507 0.17953919028423379 0 -0.38455013786595771 0.1737874196020151 0 -0.38439653425292508 0.17968855337473161 0 -0.38477209955132002 0.17763508708117781 0 -0.38276520749816217 0.17752518506373061 0 -0.38477209955132002 0.17763508708117781 0 -0.38455013786595771 0.1737874196020151 0 -0.38276520749816217 0.17752518506373061 0 -0.38439653425292508 0.17968855337473161 0 -0.38477209955132002 0.17763508708117781 0 -0.38737651858823507 0.17953919028423379 0 -0.38455013786595771 0.1737874196020151 0 -0.37794517372823272 0.1751793489131207 0 -0.38276520749816217 0.17752518506373061 0 -0.38455013786595771 0.1737874196020151 0 -0.37794517372823272 0.1751793489131207 0 -0.38003826764979792 0.16852697772073319 0 -0.37794517372823272 0.1751793489131207 0 -0.38276520749816217 0.17752518506373061 0 -0.38083518566735491 0.18155567427929689 0 -0.38439653425292508 0.17968855337473161 0 -0.38276520749816217 0.17752518506373061 0 -0.38083518566735491 0.18155567427929689 0 -0.38398863817745371 0.1822815690371456 0 -0.38083518566735491 0.18155567427929689 0 -0.38240521883236372 0.18522136730689509 0 -0.37794517372823272 0.1751793489131207 0 -0.38083518566735491 0.18155567427929689 0 -0.37370699781327238 0.1829031242241507 0 -0.37909475181615299 0.18793170982100429 0 -0.38083518566735491 0.18155567427929689 0 -0.37370699781327238 0.1829031242241507 0 -0.37909475181615299 0.18793170982100429 0 -0.37370699781327238 0.1829031242241507 0 -0.37251818633482958 0.1898101614263997 0 -0.38331159611892862 0.1885304236495679 0 -0.37909475181615299 0.18793170982100429 0 -0.38240521883236372 0.18522136730689509 0 -0.37909475181615299 0.18793170982100429 0 -0.38083518566735491 0.18155567427929689 0 -0.38240521883236372 0.18522136730689509 0 -0.3911478845693046 0.16601189927417279 0 -0.38986757043322101 0.18007869536628909 0 -0.38545945112882979 0.15633314819728669 0 -0.38737651858823507 0.17953919028423379 0 -0.38275486563010203 0.15510908667772769 0 -0.38737651858823507 0.17953919028423379 0 -0.38455013786595771 0.1737874196020151 0 -0.38275486563010203 0.15510908667772769 0 -0.38455013786595771 0.1737874196020151 0 -0.38212297101844012 0.16018815087099431 0 -0.38275486563010203 0.15510908667772769 0 -0.38737651858823507 0.17953919028423379 0 -0.38545945112882979 0.15633314819728669 0 -0.38275486563010203 0.15510908667772769 0 -0.38986757043322101 0.18007869536628909 0 -0.38545945112882979 0.15633314819728669 0 -0.3911478845693046 0.16601189927417279 0 -0.39111030291977977 0.15920704722296181 0 -0.38545945112882979 0.15633314819728669 0 -0.39111030291977977 0.15920704722296181 0 -0.38545945112882979 0.15633314819728669 0 -0.39060420005101321 0.15369746745153129 0 -0.38003826764979792 0.16852697772073319 0 -0.37865389330955018 0.1646188577004524 0 -0.38212297101844012 0.16018815087099431 0 -0.38455013786595771 0.1737874196020151 0 -0.38003826764979792 0.16852697772073319 0 -0.38212297101844012 0.16018815087099431 0 -0.37794517372823272 0.1751793489131207 0 -0.38003826764979792 0.16852697772073319 0 -0.37691916232680839 0.16886111151708369 0 -0.38003826764979792 0.16852697772073319 0 -0.37691916232680839 0.16886111151708369 0 -0.37865389330955018 0.1646188577004524 0 -0.37691916232680839 0.16886111151708369 0 -0.37865389330955018 0.1646188577004524 0 -0.3747095810420632 0.16380247270126 0 -0.37865389330955018 0.1646188577004524 0 -0.37718777153474398 0.1588316885841333 0 -0.3747095810420632 0.16380247270126 0 -0.37865389330955018 0.1646188577004524 0 -0.38212297101844012 0.16018815087099431 0 -0.37718777153474398 0.1588316885841333 0 -0.38212297101844012 0.16018815087099431 0 -0.37718777153474398 0.1588316885841333 0 -0.38275486563010203 0.15510908667772769 0 -0.37718777153474398 0.1588316885841333 0 -0.37594671010464081 0.14943791342163279 0 -0.38275486563010203 0.15510908667772769 0 -0.38275486563010203 0.15510908667772769 0 -0.37813321267196881 0.13067898307122161 0 -0.38275486563010203 0.15510908667772769 0 -0.38609040850516119 0.14234441146993501 0 -0.37813321267196881 0.13067898307122161 0 -0.37594671010464081 0.14943791342163279 0 -0.38275486563010203 0.15510908667772769 0 -0.37813321267196881 0.13067898307122161 0 -0.37594671010464081 0.14943791342163279 0 -0.37813321267196881 0.13067898307122161 0 -0.3709274881201246 0.14551300998716851 0 -0.38609040850516119 0.14234441146993501 0 -0.38710572157864598 0.14909573920616009 0 -0.39848619191609008 0.149592494817054 0 -0.38275486563010203 0.15510908667772769 0 -0.38609040850516119 0.14234441146993501 0 -0.38710572157864598 0.14909573920616009 0 -0.38275486563010203 0.15510908667772769 0 -0.38648105959714768 0.15355886038317651 0 -0.38710572157864598 0.14909573920616009 0 -0.38545945112882979 0.15633314819728669 0 -0.38275486563010203 0.15510908667772769 0 -0.38648105959714768 0.15355886038317651 0 -0.38648105959714768 0.15355886038317651 0 -0.38710572157864598 0.14909573920616009 0 -0.39060420005101321 0.15369746745153129 0 -0.38545945112882979 0.15633314819728669 0 -0.38648105959714768 0.15355886038317651 0 -0.39060420005101321 0.15369746745153129 0 -0.38710572157864598 0.14909573920616009 0 -0.39060420005101321 0.15369746745153129 0 -0.39848619191609008 0.149592494817054 0 -0.39459741827443612 0.15751051613754291 0 -0.39060420005101321 0.15369746745153129 0 -0.39848619191609008 0.149592494817054 0 -0.40800330231690268 0.14230515238853489 0 -0.39848619191609008 0.149592494817054 0 -0.3980546176419319 0.13647115754018579 0 -0.40800330231690268 0.14230515238853489 0 -0.41052895808745993 0.1569719322922716 0 -0.39848619191609008 0.149592494817054 0 -0.39848619191609008 0.149592494817054 0 -0.38397205072899898 0.12724575357751169 0 -0.39848619191609008 0.149592494817054 0 -0.3980546176419319 0.13647115754018579 0 -0.38397205072899898 0.12724575357751169 0 -0.39529288780418148 0.11939755352810801 0 -0.4052392510537613 0.12833384188852759 0 -0.395526103865735 0.12850970915532561 0 -0.4052392510537613 0.12833384188852759 0 -0.3980546176419319 0.13647115754018579 0 -0.395526103865735 0.12850970915532561 0 -0.40800330231690268 0.14230515238853489 0 -0.4052392510537613 0.12833384188852759 0 -0.3980546176419319 0.13647115754018579 0 -0.39529288780418148 0.11939755352810801 0 -0.395526103865735 0.12850970915532561 0 -0.38397205072899898 0.12724575357751169 0 -0.3980546176419319 0.13647115754018579 0 -0.395526103865735 0.12850970915532561 0 -0.38397205072899898 0.12724575357751169 0 -0.38609040850516119 0.14234441146993501 0 -0.39848619191609008 0.149592494817054 0 -0.38397205072899898 0.12724575357751169 0 -0.38609040850516119 0.14234441146993501 0 -0.38397205072899898 0.12724575357751169 0 -0.37813321267196881 0.13067898307122161 0 -0.36814386206298372 0.13959361895390801 0 -0.36432421900058248 0.12902716503173739 0 -0.35919052845925897 0.15315531772550461 0 -0.37813321267196881 0.13067898307122161 0 -0.36814386206298372 0.13959361895390801 0 -0.36432421900058248 0.12902716503173739 0 -0.37813321267196881 0.13067898307122161 0 -0.36814386206298372 0.13959361895390801 0 -0.3709274881201246 0.14551300998716851 0 -0.36432421900058248 0.12902716503173739 0 -0.35238654708184031 0.12609563024743409 0 -0.35026539018902308 0.13799169552140439 0 -0.36432421900058248 0.12902716503173739 0 -0.35026539018902308 0.13799169552140439 0 -0.35919052845925897 0.15315531772550461 0 -0.35238654708184031 0.12609563024743409 0 -0.35026539018902308 0.13799169552140439 0 -0.3404837498450532 0.12333171073500181 0 -0.34803330032419127 0.1502519635103611 0 -0.35919052845925897 0.15315531772550461 0 -0.34556575510430892 0.1618033580201742 0 -0.35026539018902308 0.13799169552140439 0 -0.34803330032419127 0.1502519635103611 0 -0.33711152754417439 0.14805748277436129 0 -0.35026539018902308 0.13799169552140439 0 -0.34803330032419127 0.1502519635103611 0 -0.35919052845925897 0.15315531772550461 0 -0.36432421900058248 0.12902716503173739 0 -0.35919052845925897 0.15315531772550461 0 -0.35919052845925897 0.15315531772550461 0 -0.3709274881201246 0.14551300998716851 0 -0.37073021256626432 0.15705679878791301 0 -0.36814386206298372 0.13959361895390801 0 -0.35919052845925897 0.15315531772550461 0 -0.3709274881201246 0.14551300998716851 0 -0.37718777153474398 0.1588316885841333 0 -0.37594671010464081 0.14943791342163279 0 -0.37073021256626432 0.15705679878791301 0 -0.37594671010464081 0.14943791342163279 0 -0.3709274881201246 0.14551300998716851 0 -0.37073021256626432 0.15705679878791301 0 -0.37718777153474398 0.1588316885841333 0 -0.37073021256626432 0.15705679878791301 0 -0.3747095810420632 0.16380247270126 0 -0.35919052845925897 0.15315531772550461 0 -0.37073021256626432 0.15705679878791301 0 -0.36997702513577119 0.16881103352451701 0 -0.37073021256626432 0.15705679878791301 0 -0.3747095810420632 0.16380247270126 0 -0.36997702513577119 0.16881103352451701 0 -0.35919052845925897 0.15315531772550461 0 -0.36997702513577119 0.16881103352451701 0 -0.35405683791793552 0.1772834704192717 0 -0.37794517372823272 0.1751793489131207 0 -0.37691916232680839 0.16886111151708369 0 -0.36997702513577119 0.16881103352451701 0 -0.37691916232680839 0.16886111151708369 0 -0.3747095810420632 0.16380247270126 0 -0.36997702513577119 0.16881103352451701 0 -0.36997702513577119 0.16881103352451701 0 -0.36795853800328437 0.17815832492806599 0 -0.35405683791793552 0.1772834704192717 0 -0.37370699781327238 0.1829031242241507 0 -0.36795853800328437 0.17815832492806599 0 -0.36410665542121018 0.1866146475592701 0 -0.37370699781327238 0.1829031242241507 0 -0.36410665542121018 0.1866146475592701 0 -0.37251818633482958 0.1898101614263997 0 -0.37794517372823272 0.1751793489131207 0 -0.37370699781327238 0.1829031242241507 0 -0.36795853800328437 0.17815832492806599 0 -0.37794517372823272 0.1751793489131207 0 -0.36997702513577119 0.16881103352451701 0 -0.36795853800328437 0.17815832492806599 0 -0.36795853800328437 0.17815832492806599 0 -0.36410665542121018 0.1866146475592701 0 -0.35405683791793552 0.1772834704192717 0 -0.35405683791793552 0.1772834704192717 0 -0.34252861622224451 0.18634387182160381 0 -0.35195123878533008 0.1977997352003428 0 -0.36410665542121018 0.1866146475592701 0 -0.35405683791793552 0.1772834704192717 0 -0.35195123878533008 0.1977997352003428 0 -0.35405683791793552 0.1772834704192717 0 -0.34556575510430892 0.1618033580201742 0 -0.33373930524329559 0.17278325481372081 0 -0.35919052845925897 0.15315531772550461 0 -0.35405683791793552 0.1772834704192717 0 -0.34556575510430892 0.1618033580201742 0 -0.35919052845925897 0.15315531772550461 0 -0.35405683791793552 0.1772834704192717 0 -0.33373930524329559 0.17278325481372081 0 -0.32579300091385788 0.15277367203929329 0 -0.33711152754417439 0.14805748277436129 0 -0.34556575510430892 0.1618033580201742 0 -0.33373930524329559 0.17278325481372081 0 -0.33711152754417439 0.14805748277436129 0 -0.33373930524329559 0.17278325481372081 0 -0.33711152754417439 0.14805748277436129 0 -0.35405683791793552 0.1772834704192717 0 -0.34252861622224451 0.18634387182160381 0 -0.33373930524329559 0.17278325481372081 0 -0.33373930524329559 0.17278325481372081 0 -0.33036708294241679 0.19750902685308011 0 -0.34252861622224451 0.18634387182160381 0 -0.33373930524329559 0.17278325481372081 0 -0.33036708294241679 0.19750902685308011 0 -0.32017444503613468 0.17363973129377819 0 -0.33036708294241679 0.19750902685308011 0 -0.31005779147559731 0.18274405564848981 0 -0.32017444503613468 0.17363973129377819 0 -0.30971084585208042 0.1642237369181975 0 -0.31005779147559731 0.18274405564848981 0 -0.33373930524329559 0.17278325481372081 0 -0.32017444503613468 0.17363973129377819 0 -0.33036708294241679 0.19750902685308011 0 -0.33373930524329559 0.17278325481372081 0 -0.32048080775180088 0.16149756026121229 0 -0.32579300091385788 0.15277367203929329 0 -0.33373930524329559 0.17278325481372081 0 -0.32017444503613468 0.17363973129377819 0 -0.32048080775180088 0.16149756026121229 0 -0.32017444503613468 0.17363973129377819 0 -0.32048080775180088 0.16149756026121229 0 -0.30971084585208042 0.1642237369181975 0 -0.32048080775180088 0.16149756026121229 0 -0.31304437822063769 0.15275469253920479 0 -0.30971084585208042 0.1642237369181975 0 -0.31304437822063769 0.15275469253920479 0 -0.32579300091385788 0.15277367203929329 0 -0.31762716160680371 0.14099664207882731 0 -0.32048080775180088 0.16149756026121229 0 -0.31304437822063769 0.15275469253920479 0 -0.32579300091385788 0.15277367203929329 0 -0.32579300091385788 0.15277367203929329 0 -0.31762716160680371 0.14099664207882731 0 -0.32823793499723491 0.1420083995740356 0 -0.31762716160680371 0.14099664207882731 0 -0.31273984524103521 0.1299012485920189 0 -0.32507414253165812 0.13282031537654129 0 -0.31273984524103521 0.1299012485920189 0 -0.32507414253165812 0.13282031537654129 0 -0.32926667360437839 0.1164060260208032 0 -0.31762716160680371 0.14099664207882731 0 -0.32507414253165812 0.13282031537654129 0 -0.32823793499723491 0.1420083995740356 0 -0.3384972935444604 0.13789678423024759 0 -0.32926667360437839 0.1164060260208032 0 -0.32507414253165812 0.13282031537654129 0 -0.3384972935444604 0.13789678423024759 0 -0.32823793499723491 0.1420083995740356 0 -0.3384972935444604 0.13789678423024759 0 -0.32926667360437839 0.1164060260208032 0 -0.3404837498450532 0.12333171073500181 0 -0.32507414253165812 0.13282031537654129 0 -0.3384972935444604 0.13789678423024759 0 -0.32926667360437839 0.1164060260208032 0 -0.3384972935444604 0.13789678423024759 0 -0.3404837498450532 0.12333171073500181 0 -0.35026539018902308 0.13799169552140439 0 -0.3384972935444604 0.13789678423024759 0 -0.3404837498450532 0.12333171073500181 0 -0.3384972935444604 0.13789678423024759 0 -0.33711152754417439 0.14805748277436129 0 -0.35026539018902308 0.13799169552140439 0 -0.3384972935444604 0.13789678423024759 0 -0.33711152754417439 0.14805748277436129 0 -0.34803330032419127 0.1502519635103611 0 -0.34556575510430892 0.1618033580201742 0 -0.33711152754417439 0.14805748277436129 0 -0.3384972935444604 0.13789678423024759 0 -0.33711152754417439 0.14805748277436129 0 -0.32823793499723491 0.1420083995740356 0 -0.32579300091385788 0.15277367203929329 0 -0.33711152754417439 0.14805748277436129 0 -0.32823793499723491 0.1420083995740356 0 -0.35688731603925561 0.24436967152660241 0 -0.33702106180663371 0.25235480854128067 0 -0.35688731603925561 0.24436967152660241 0 -0.33934755875904649 0.23169285526309519 0 -0.33702106180663371 0.25235480854128067 0 -0.37675357027187739 0.23638453451192409 0 -0.35688731603925561 0.24436967152660241 0 -0.36808660758037798 0.22401580596281209 0 -0.37675357027187739 0.23638453451192409 0 -0.35688731603925561 0.24436967152660241 0 -0.37675357027187739 0.23638453451192409 0 -0.35688731603925561 0.24436967152660241 0 -0.36802355760338162 0.25793990901515029 0 -0.35688731603925561 0.24436967152660241 0 -0.36808660758037798 0.22401580596281209 0 -0.35370250757817218 0.21964849686128679 0 -0.35688731603925561 0.24436967152660241 0 -0.35370250757817218 0.21964849686128679 0 -0.33934755875904649 0.23169285526309519 0 -0.35370250757817218 0.21964849686128679 0 -0.33982953376868191 0.21163559199830431 0 -0.33934755875904649 0.23169285526309519 0 -0.35370250757817218 0.21964849686128679 0 -0.35195123878533008 0.1977997352003428 0 -0.33982953376868191 0.21163559199830431 0 -0.35370250757817218 0.21964849686128679 0 -0.36534785337962589 0.20894081228406131 0 -0.35195123878533008 0.1977997352003428 0 -0.36808660758037798 0.22401580596281209 0 -0.35370250757817218 0.21964849686128679 0 -0.36534785337962589 0.20894081228406131 0 -0.37545914146842518 0.21408682417004071 0 -0.36808660758037798 0.22401580596281209 0 -0.36534785337962589 0.20894081228406131 0 -0.37786288932820961 0.20439045577397741 0 -0.36534785337962589 0.20894081228406131 0 -0.36837637838292608 0.19656891642533961 0 -0.37786288932820961 0.20439045577397741 0 -0.37545914146842518 0.21408682417004071 0 -0.36534785337962589 0.20894081228406131 0 -0.36410665542121018 0.1866146475592701 0 -0.36837637838292608 0.19656891642533961 0 -0.35195123878533008 0.1977997352003428 0 -0.36534785337962589 0.20894081228406131 0 -0.36837637838292608 0.19656891642533961 0 -0.35195123878533008 0.1977997352003428 0 -0.3773061482405865 0.19503240910223391 0 -0.37786288932820961 0.20439045577397741 0 -0.36837637838292608 0.19656891642533961 0 -0.36410665542121018 0.1866146475592701 0 -0.36837637838292608 0.19656891642533961 0 -0.37251818633482958 0.1898101614263997 0 -0.3773061482405865 0.19503240910223391 0 -0.36837637838292608 0.19656891642533961 0 -0.37251818633482958 0.1898101614263997 0 -0.35195123878533008 0.1977997352003428 0 -0.33036708294241679 0.19750902685308011 0 -0.33982953376868191 0.21163559199830431 0 -0.34252861622224451 0.18634387182160381 0 -0.35195123878533008 0.1977997352003428 0 -0.33036708294241679 0.19750902685308011 0 -0.33036708294241679 0.19750902685308011 0 -0.3085370062839502 0.2063285954192943 0 -0.31005779147559731 0.18274405564848981 0 -0.33036708294241679 0.19750902685308011 0 -0.3269948606415381 0.22223479889243941 0 -0.3085370062839502 0.2063285954192943 0 -0.3269948606415381 0.22223479889243941 0 -0.30675824685434738 0.22615850931717399 0 -0.3085370062839502 0.2063285954192943 0 -0.33036708294241679 0.19750902685308011 0 -0.3269948606415381 0.22223479889243941 0 -0.33036708294241679 0.19750902685308011 0 -0.33982953376868191 0.21163559199830431 0 -0.3269948606415381 0.22223479889243941 0 -0.33934755875904649 0.23169285526309519 0 -0.3269948606415381 0.22223479889243941 0 -0.32050107412803819 0.23979646230392951 0 -0.33982953376868191 0.21163559199830431 0 -0.33934755875904649 0.23169285526309519 0 -0.3269948606415381 0.22223479889243941 0 -0.3269948606415381 0.22223479889243941 0 -0.32050107412803819 0.23979646230392951 0 -0.30675824685434738 0.22615850931717399 0 -0.32050107412803819 0.23979646230392951 0 -0.33702106180663371 0.25235480854128067 0 -0.31241034546416119 0.25729117478323948 0 -0.33934755875904649 0.23169285526309519 0 -0.32050107412803819 0.23979646230392951 0 -0.33702106180663371 0.25235480854128067 0 -0.32050107412803819 0.23979646230392951 0 -0.29255252589480302 0.24403031399357911 0 -0.31241034546416119 0.25729117478323948 0 -0.32050107412803819 0.23979646230392951 0 -0.29255252589480302 0.24403031399357911 0 -0.30675824685434738 0.22615850931717399 0 -0.29255252589480302 0.24403031399357911 0 -0.30675824685434738 0.22615850931717399 0 -0.28383044695054338 0.21753148829732771 0 -0.29255252589480302 0.24403031399357911 0 -0.28383044695054338 0.21753148829732771 0 -0.27271610445649641 0.23604637249773919 0 -0.29255252589480302 0.24403031399357911 0 -0.28383044695054338 0.21753148829732771 0 -0.28383044695054338 0.21753148829732771 0 -0.3085370062839502 0.2063285954192943 0 -0.29330033841004 0.1897218559969869 0 -0.30675824685434738 0.22615850931717399 0 -0.28383044695054338 0.21753148829732771 0 -0.3085370062839502 0.2063285954192943 0 -0.3085370062839502 0.2063285954192943 0 -0.29330033841004 0.1897218559969869 0 -0.31005779147559731 0.18274405564848981 0 -0.28383044695054338 0.21753148829732771 0 -0.29330033841004 0.1897218559969869 0 -0.27510836800628369 0.19103266260107621 0 -0.27510836800628369 0.19103266260107621 0 -0.25598868142085279 0.19167060587173171 0 -0.26640847698764969 0.20521713320502211 0 -0.25598868142085279 0.19167060587173171 0 -0.25515091707239967 0.21848840320331059 0 -0.26640847698764969 0.20521713320502211 0 -0.25598868142085279 0.19167060587173171 0 -0.25515091707239967 0.21848840320331059 0 -0.28383044695054338 0.21753148829732771 0 -0.27510836800628369 0.19103266260107621 0 -0.28383044695054338 0.21753148829732771 0 -0.25515091707239967 0.21848840320331059 0 -0.26640847698764969 0.20521713320502211 0 -0.28383044695054338 0.21753148829732771 0 -0.27510836800628369 0.19103266260107621 0 -0.26640847698764969 0.20521713320502211 0 -0.28383044695054338 0.21753148829732771 0 -0.25515091707239967 0.21848840320331059 0 -0.27271610445649641 0.23604637249773919 0 -0.25515091707239967 0.21848840320331059 0 -0.25431315272394672 0.24530620053488941 0 -0.27271610445649641 0.23604637249773919 0 -0.25515091707239967 0.21848840320331059 0 -0.25431315272394672 0.24530620053488941 0 -0.25431315272394672 0.24530620053488941 0 -0.27271610445649641 0.23604637249773919 0 -0.27178416991125132 0.25927396388658852 0 -0.29255252589480302 0.24403031399357911 0 -0.27271610445649641 0.23604637249773919 0 -0.27178416991125132 0.25927396388658852 0 -0.29291505397688428 0.14681098414611801 0 -0.3014178699065323 0.15589545735294319 0 -0.289474652395317 0.15915840792729519 0 -0.29291505397688428 0.14681098414611801 0 -0.289474652395317 0.15915840792729519 0 -0.28026077084930179 0.1504266819222303 0 -0.29291505397688428 0.14681098414611801 0 -0.2841388547055585 0.13501242847782879 0 -0.28026077084930179 0.1504266819222303 0 -0.2841388547055585 0.13501242847782879 0 -0.29878114287663499 0.13481987967419751 0 -0.30068980701995263 0.1183852716630928 0 -0.29291505397688428 0.14681098414611801 0 -0.2841388547055585 0.13501242847782879 0 -0.29878114287663499 0.13481987967419751 0 -0.31273984524103521 0.1299012485920189 0 -0.29878114287663499 0.13481987967419751 0 -0.30068980701995263 0.1183852716630928 0 -0.31762716160680371 0.14099664207882731 0 -0.31273984524103521 0.1299012485920189 0 -0.3060169628698215 0.14303952774406459 0 -0.31273984524103521 0.1299012485920189 0 -0.29878114287663499 0.13481987967419751 0 -0.3060169628698215 0.14303952774406459 0 -0.31304437822063769 0.15275469253920479 0 -0.31762716160680371 0.14099664207882731 0 -0.3060169628698215 0.14303952774406459 0 -0.29291505397688428 0.14681098414611801 0 -0.29878114287663499 0.13481987967419751 0 -0.3060169628698215 0.14303952774406459 0 -0.29291505397688428 0.14681098414611801 0 -0.3060169628698215 0.14303952774406459 0 -0.3014178699065323 0.15589545735294319 0 -0.31304437822063769 0.15275469253920479 0 -0.3060169628698215 0.14303952774406459 0 -0.3014178699065323 0.15589545735294319 0 -0.31304437822063769 0.15275469253920479 0 -0.3014178699065323 0.15589545735294319 0 -0.30971084585208042 0.1642237369181975 0 -0.3014178699065323 0.15589545735294319 0 -0.30971084585208042 0.1642237369181975 0 -0.29794159013283378 0.17064470574333129 0 -0.29330033841004 0.1897218559969869 0 -0.29794159013283378 0.17064470574333129 0 -0.31005779147559731 0.18274405564848981 0 -0.30971084585208042 0.1642237369181975 0 -0.29794159013283378 0.17064470574333129 0 -0.31005779147559731 0.18274405564848981 0 -0.29330033841004 0.1897218559969869 0 -0.27510836800628369 0.19103266260107621 0 -0.28368804275743598 0.17212472061607501 0 -0.29330033841004 0.1897218559969869 0 -0.29794159013283378 0.17064470574333129 0 -0.28368804275743598 0.17212472061607501 0 -0.3014178699065323 0.15589545735294319 0 -0.29794159013283378 0.17064470574333129 0 -0.289474652395317 0.15915840792729519 0 -0.29794159013283378 0.17064470574333129 0 -0.28368804275743598 0.17212472061607501 0 -0.289474652395317 0.15915840792729519 0 -0.28368804275743598 0.17212472061607501 0 -0.289474652395317 0.15915840792729519 0 -0.2783017822235872 0.16105886529727961 0 -0.289474652395317 0.15915840792729519 0 -0.2783017822235872 0.16105886529727961 0 -0.28026077084930179 0.1504266819222303 0 -0.28368804275743598 0.17212472061607501 0 -0.2783017822235872 0.16105886529727961 0 -0.26638628906202411 0.16453383690482479 0 -0.26638628906202411 0.16453383690482479 0 -0.27326625367829172 0.1562673733387023 0 -0.2681161725782536 0.14905010923047471 0 -0.2783017822235872 0.16105886529727961 0 -0.26638628906202411 0.16453383690482479 0 -0.27326625367829172 0.1562673733387023 0 -0.27510836800628369 0.19103266260107621 0 -0.28368804275743598 0.17212472061607501 0 -0.26638628906202411 0.16453383690482479 0 -0.27510836800628369 0.19103266260107621 0 -0.26638628906202411 0.16453383690482479 0 -0.26283664831193287 0.1782262147500274 0 -0.27510836800628369 0.19103266260107621 0 -0.26638628906202411 0.16453383690482479 0 -0.25598868142085279 0.19167060587173171 0 -0.25682644576930591 0.1648528085401528 0 -0.27510836800628369 0.19103266260107621 0 -0.25598868142085279 0.19167060587173171 0 -0.26283664831193287 0.1782262147500274 0 -0.25598868142085279 0.19167060587173171 0 -0.25682644576930591 0.1648528085401528 0 -0.2493444272277017 0.17593108381235259 0 -0.25598868142085279 0.19167060587173171 0 -0.26283664831193287 0.1782262147500274 0 -0.25682644576930591 0.1648528085401528 0 -0.26638628906202411 0.16453383690482479 0 -0.26283664831193287 0.1782262147500274 0 -0.25682644576930591 0.1648528085401528 0 -0.25682644576930591 0.1648528085401528 0 -0.25766421011776192 0.13803501120857409 0 -0.2431023184951267 0.14927167994451199 0 -0.26638628906202411 0.16453383690482479 0 -0.25766421011776192 0.13803501120857409 0 -0.26638628906202411 0.16453383690482479 0 -0.25682644576930591 0.1648528085401528 0 -0.25766421011776192 0.13803501120857409 0 -0.25682644576930591 0.1648528085401528 0 -0.25766421011776192 0.13803501120857409 0 -0.26638628906202411 0.16453383690482479 0 -0.2681161725782536 0.14905010923047471 0 -0.25766421011776192 0.13803501120857409 0 -0.2681161725782536 0.14905010923047471 0 -0.2675725292899761 0.13711724020980259 0 -0.25766421011776192 0.13803501120857409 0 -0.2681161725782536 0.14905010923047471 0 -0.27434782258501128 0.14080340485245821 0 -0.2675725292899761 0.13711724020980259 0 -0.2681161725782536 0.14905010923047471 0 -0.27434782258501128 0.14080340485245821 0 -0.28026077084930179 0.1504266819222303 0 -0.2841388547055585 0.13501242847782879 0 -0.27434782258501128 0.14080340485245821 0 -0.28026077084930179 0.1504266819222303 0 -0.27326625367829172 0.1562673733387023 0 -0.2681161725782536 0.14905010923047471 0 -0.28026077084930179 0.1504266819222303 0 -0.2783017822235872 0.16105886529727961 0 -0.27326625367829172 0.1562673733387023 0 -0.28026077084930179 0.1504266819222303 0 -0.2841388547055585 0.13501242847782879 0 -0.27264743227544602 0.13150222033667919 0 -0.27211294043552692 0.12036451730538281 0 -0.2841388547055585 0.13501242847782879 0 -0.27434782258501128 0.14080340485245821 0 -0.27264743227544602 0.13150222033667919 0 -0.27434782258501128 0.14080340485245821 0 -0.2675725292899761 0.13711724020980259 0 -0.27264743227544602 0.13150222033667919 0 -0.2675725292899761 0.13711724020980259 0 -0.27264743227544602 0.13150222033667919 0 -0.26708030244036851 0.124378767250276 0 -0.25766421011776192 0.13803501120857409 0 -0.25813087722750472 0.12309646196910359 0 -0.25766421011776192 0.13803501120857409 0 -0.25813087722750472 0.12309646196910359 0 -0.26708030244036851 0.124378767250276 0 -0.2675725292899761 0.13711724020980259 0 -0.25766421011776192 0.13803501120857409 0 -0.26708030244036851 0.124378767250276 0 -0.25766421011776192 0.13803501120857409 0 -0.24879337891206779 0.11108425653152119 0 -0.25813087722750472 0.12309646196910359 0 -0.26893764195679432 0.1007682486654955 0 -0.25766421011776192 0.13803501120857409 0 -0.25813087722750472 0.12309646196910359 0 -0.24879337891206779 0.11108425653152119 0 -0.25813087722750472 0.12309646196910359 0 -0.26708030244036851 0.124378767250276 0 -0.27079253711611961 0.11613523450108749 0 -0.25813087722750472 0.12309646196910359 0 -0.25905618246566942 0.09347638038792333 0 -0.25813087722750472 0.12309646196910359 0 -0.25905618246566942 0.09347638038792333 0 -0.24879337891206779 0.11108425653152119 0 -0.25813087722750472 0.12309646196910359 0 -0.26893764195679432 0.1007682486654955 0 -0.25905618246566942 0.09347638038792333 0 -0.26893764195679432 0.1007682486654955 0 -0.28671026734205551 0.1055372114675895 0 -0.27855458069596328 0.080898374112393062 0 -0.26893764195679432 0.1007682486654955 0 -0.27463834671262433 0.11070130298488889 0 -0.28671026734205551 0.1055372114675895 0 -0.26893764195679432 0.1007682486654955 0 -0.27079253711611961 0.11613523450108749 0 -0.26893764195679432 0.1007682486654955 0 -0.27079253711611961 0.11613523450108749 0 -0.27463834671262433 0.11070130298488889 0 -0.25813087722750472 0.12309646196910359 0 -0.26893764195679432 0.1007682486654955 0 -0.27079253711611961 0.11613523450108749 0 -0.27264743227544602 0.13150222033667919 0 -0.27079253711611961 0.11613523450108749 0 -0.27264743227544602 0.13150222033667919 0 -0.26708030244036851 0.124378767250276 0 -0.27079253711611961 0.11613523450108749 0 -0.27264743227544602 0.13150222033667919 0 -0.27211294043552692 0.12036451730538281 0 -0.27079253711611961 0.11613523450108749 0 -0.27211294043552692 0.12036451730538281 0 -0.27079253711611961 0.11613523450108749 0 -0.27463834671262433 0.11070130298488889 0 -0.27211294043552692 0.12036451730538281 0 -0.27463834671262433 0.11070130298488889 0 -0.28671026734205551 0.1055372114675895 0 -0.27211294043552692 0.12036451730538281 0 -0.30068980701995263 0.1183852716630928 0 -0.27211294043552692 0.12036451730538281 0 -0.28671026734205551 0.1055372114675895 0 -0.30068980701995263 0.1183852716630928 0 -0.2841388547055585 0.13501242847782879 0 -0.27211294043552692 0.12036451730538281 0 -0.30068980701995263 0.1183852716630928 0 -0.28671026734205551 0.1055372114675895 0 -0.30691525595490687 0.1034287663898374 0 -0.29913559668046208 0.08549176378176998 0 -0.28671026734205551 0.1055372114675895 0 -0.30691525595490687 0.1034287663898374 0 -0.30068980701995263 0.1183852716630928 0 -0.30691525595490687 0.1034287663898374 0 -0.30068980701995263 0.1183852716630928 0 -0.32926667360437839 0.1164060260208032 0 -0.30828119665099402 0.066241092011059322 0 -0.29913559668046208 0.08549176378176998 0 -0.28817151943513142 0.061028499559290142 0 -0.30691525595490687 0.1034287663898374 0 -0.29913559668046208 0.08549176378176998 0 -0.31877393512768559 0.091323559015931616 0 -0.30828119665099402 0.066241092011059322 0 -0.29913559668046208 0.08549176378176998 0 -0.31877393512768559 0.091323559015931616 0 -0.28671026734205551 0.1055372114675895 0 -0.29913559668046208 0.08549176378176998 0 -0.27855458069596328 0.080898374112393062 0 -0.27855458069596328 0.080898374112393062 0 -0.28817151943513142 0.061028499559290142 0 -0.29913559668046208 0.08549176378176998 0 -0.27855458069596328 0.080898374112393062 0 -0.28817151943513142 0.061028499559290142 0 -0.27444521626904989 0.066352745036720687 0 -0.26626069228519611 0.078590904852184673 0 -0.26358374261359901 0.056413561038873773 0 -0.27444521626904989 0.066352745036720687 0 -0.27855458069596328 0.080898374112393062 0 -0.28817151943513142 0.061028499559290142 0 -0.27444521626904989 0.066352745036720687 0 -0.27855458069596328 0.080898374112393062 0 -0.26626069228519611 0.078590904852184673 0 -0.26893764195679432 0.1007682486654955 0 -0.27855458069596328 0.080898374112393062 0 -0.26626069228519611 0.078590904852184673 0 -0.26893764195679432 0.1007682486654955 0 -0.27855458069596328 0.080898374112393062 0 -0.26893764195679432 0.1007682486654955 0 -0.26626069228519611 0.078590904852184673 0 -0.25905618246566942 0.09347638038792333 0 -0.25998148770383539 0.063856298806743039 0 -0.2399225477063712 0.08413350185446912 0 -0.25905618246566942 0.09347638038792333 0 -0.25998148770383539 0.063856298806743039 0 -0.26893764195679432 0.1007682486654955 0 -0.26626069228519611 0.078590904852184673 0 -0.25905618246566942 0.09347638038792333 0 -0.26626069228519611 0.078590904852184673 0 -0.25905618246566942 0.09347638038792333 0 -0.25998148770383539 0.063856298806743039 0 -0.26626069228519611 0.078590904852184673 0 -0.25998148770383539 0.063856298806743039 0 -0.26358374261359901 0.056413561038873773 0 -0.26626069228519611 0.078590904852184673 0 -0.26358374261359901 0.056413561038873773 0 -0.25998148770383539 0.063856298806743039 0 -0.26358374261359901 0.056413561038873773 0 -0.2609067929420017 0.034236217225562859 0 -0.25998148770383539 0.063856298806743039 0 -0.2609067929420017 0.034236217225562859 0 -0.25998148770383539 0.063856298806743039 0 -0.2609067929420017 0.034236217225562859 0 -0.24192805617693719 0.04056896942350139 0 -0.26358374261359901 0.056413561038873773 0 -0.2609067929420017 0.034236217225562859 0 -0.26358374261359901 0.056413561038873773 0 -0.2609067929420017 0.034236217225562859 0 -0.27827926928163121 0.043389480842506607 0 -0.2609067929420017 0.034236217225562859 0 -0.27827926928163121 0.043389480842506607 0 -0.27205996598615961 0.020594253740314091 0 -0.27444521626904989 0.066352745036720687 0 -0.27827926928163121 0.043389480842506607 0 -0.28817151943513142 0.061028499559290142 0 -0.27444521626904989 0.066352745036720687 0 -0.26358374261359901 0.056413561038873773 0 -0.27827926928163121 0.043389480842506607 0 -0.2551161695535929 -0.013736535919818819 0 -0.26176466031880408 0.0067748989074470174 0 -0.25787057662258511 0.0090825081656799068 0 -0.26176466031880408 0.0067748989074470174 0 -0.25787057662258511 0.0090825081656799068 0 -0.2609067929420017 0.034236217225562859 0 -0.26176466031880408 0.0067748989074470174 0 -0.27205996598615961 0.020594253740314091 0 -0.2609067929420017 0.034236217225562859 0 -0.25787057662258511 0.0090825081656799068 0 -0.24002573095877969 0.019657250333020689 0 -0.2609067929420017 0.034236217225562859 0 -0.26176466031880408 0.0067748989074470174 0 -0.25787057662258511 0.0090825081656799068 0 -0.2609067929420017 0.034236217225562859 0 -0.26176466031880408 0.0067748989074470174 0 -0.2609067929420017 0.034236217225562859 0 -0.25787057662258511 0.0090825081656799068 0 -0.27827926928163121 0.043389480842506607 0 -0.27205996598615961 0.020594253740314091 0 -0.28844715649913111 0.018828621111539458 0 -0.27910585482396022 -0.0035013827831082982 0 -0.26176466031880408 0.0067748989074470174 0 -0.27205996598615961 0.020594253740314091 0 -0.27910585482396022 -0.0035013827831082982 0 -0.27205996598615961 0.020594253740314091 0 -0.28844715649913111 0.018828621111539458 0 -0.27910585482396022 -0.0035013827831082982 0 -0.26176466031880408 0.0067748989074470174 0 -0.27910585482396022 -0.0035013827831082982 0 -0.28844715649913111 0.018828621111539458 0 -0.27910585482396022 -0.0035013827831082982 0 -0.28844715649913111 0.018828621111539458 0 -0.29833887850498592 0.002256491039042967 0 -0.28844715649913111 0.018828621111539458 0 -0.29778845817430072 0.041158625006187791 0 -0.30779976406124598 0.020473935472272539 0 -0.29778845817430072 0.041158625006187791 0 -0.28844715649913111 0.018828621111539458 0 -0.30779976406124598 0.020473935472272539 0 -0.29778845817430072 0.041158625006187791 0 -0.28844715649913111 0.018828621111539458 0 -0.30779976406124598 0.020473935472272539 0 -0.29833887850498592 0.002256491039042967 0 -0.31781106994819258 -0.000210754061642178 0 -0.30779976406124598 0.020473935472272539 0 -0.29833887850498592 0.002256491039042967 0 -0.27827926928163121 0.043389480842506607 0 -0.28817151943513142 0.061028499559290142 0 -0.29778845817430072 0.041158625006187791 0 -0.28817151943513142 0.061028499559290142 0 -0.29778845817430072 0.041158625006187791 0 -0.27827926928163121 0.043389480842506607 0 -0.28844715649913111 0.018828621111539458 0 -0.29778845817430072 0.041158625006187791 0 -0.30779976406124598 0.020473935472272539 0 -0.29778845817430072 0.041158625006187791 0 -0.3153470628921225 0.035551906458282358 0 -0.29778845817430072 0.041158625006187791 0 -0.31434969679248742 0.05009553082241934 0 -0.3153470628921225 0.035551906458282358 0 -0.30828119665099402 0.066241092011059322 0 -0.28817151943513142 0.061028499559290142 0 -0.29778845817430072 0.041158625006187791 0 -0.30828119665099402 0.066241092011059322 0 -0.29778845817430072 0.041158625006187791 0 -0.31434969679248742 0.05009553082241934 0 -0.30828119665099402 0.066241092011059322 0 -0.29778845817430072 0.041158625006187791 0 -0.30828119665099402 0.066241092011059322 0 -0.31434969679248742 0.05009553082241934 0 -0.32579920726164369 0.068834907477240262 0 -0.31434969679248742 0.05009553082241934 0 -0.32945356776453771 0.043306206905416561 0 -0.32579920726164369 0.068834907477240262 0 -0.3153470628921225 0.035551906458282358 0 -0.32945356776453771 0.043306206905416561 0 -0.32734382766804221 0.022725234085116119 0 -0.31434969679248742 0.05009553082241934 0 -0.3153470628921225 0.035551906458282358 0 -0.32945356776453771 0.043306206905416561 0 -0.32945356776453771 0.043306206905416561 0 -0.34430375307766081 0.02716810149706839 0 -0.35310807836904401 0.045116575813398958 0 -0.32945356776453771 0.043306206905416561 0 -0.34278834835699451 0.06383714204960092 0 -0.32945356776453771 0.043306206905416561 0 -0.32579920726164369 0.068834907477240262 0 -0.34278834835699451 0.06383714204960092 0 -0.32945356776453771 0.043306206905416561 0 -0.35310807836904401 0.045116575813398958 0 -0.34278834835699451 0.06383714204960092 0 -0.31781106994819258 -0.000210754061642178 0 -0.30779976406124598 0.020473935472272539 0 -0.32734382766804221 0.022725234085116119 0 -0.31781106994819258 -0.000210754061642178 0 -0.32734382766804221 0.022725234085116119 0 -0.33866419666437991 0.0057182691605694403 0 -0.31781106994819258 -0.000210754061642178 0 -0.30779976406124598 0.020473935472272539 0 -0.30779976406124598 0.020473935472272539 0 -0.3153470628921225 0.035551906458282358 0 -0.32734382766804221 0.022725234085116119 0 -0.32945356776453771 0.043306206905416561 0 -0.32734382766804221 0.022725234085116119 0 -0.34430375307766081 0.02716810149706839 0 -0.32734382766804221 0.022725234085116119 0 -0.33866419666437991 0.0057182691605694403 0 -0.34430375307766081 0.02716810149706839 0 -0.35109935007458659 -0.002335513993745065 0 -0.35780733924587682 0.01676528970199246 0 -0.36381460760115902 0.003320310193437349 0 -0.35109935007458659 -0.002335513993745065 0 -0.33866419666437991 0.0057182691605694403 0 -0.35780733924587682 0.01676528970199246 0 -0.33866419666437991 0.0057182691605694403 0 -0.35780733924587682 0.01676528970199246 0 -0.34430375307766081 0.02716810149706839 0 -0.35780733924587682 0.01676528970199246 0 -0.34430375307766081 0.02716810149706839 0 -0.35884038546834057 0.030665959395702339 0 -0.38284102369902351 0.016140899375408101 0 -0.37995325307511912 0.014566158692645289 0 -0.35780733924587682 0.01676528970199246 0 -0.38284102369902351 0.016140899375408101 0 -0.35780733924587682 0.01676528970199246 0 -0.37182340307355288 0.02479160115251744 0 -0.38284102369902351 0.016140899375408101 0 -0.35780733924587682 0.01676528970199246 0 -0.35780733924587682 0.01676528970199246 0 -0.35884038546834057 0.030665959395702339 0 -0.37182340307355288 0.02479160115251744 0 -0.37995325307511912 0.014566158692645289 0 -0.35780733924587682 0.01676528970199246 0 -0.36981589811399768 0.009167678483961765 0 -0.35780733924587682 0.01676528970199246 0 -0.36981589811399768 0.009167678483961765 0 -0.36381460760115902 0.003320310193437349 0 -0.3776883925338359 0.0020189553477719681 0 -0.36981589811399768 0.009167678483961765 0 -0.36381460760115902 0.003320310193437349 0 -0.35310807836904401 0.045116575813398958 0 -0.36156686651703313 0.063845623716559413 0 -0.34278834835699451 0.06383714204960092 0 -0.34430375307766081 0.02716810149706839 0 -0.35884038546834057 0.030665959395702339 0 -0.35310807836904401 0.045116575813398958 0 -0.35310807836904401 0.045116575813398958 0 -0.3671593535755685 0.039488228813534441 0 -0.36598446130160139 0.05090530088843908 0 -0.35884038546834057 0.030665959395702339 0 -0.37182340307355288 0.02479160115251744 0 -0.3671593535755685 0.039488228813534441 0 -0.35884038546834057 0.030665959395702339 0 -0.35310807836904401 0.045116575813398958 0 -0.3671593535755685 0.039488228813534441 0 -0.37821548484879919 0.034714409722189747 0 -0.37182340307355288 0.02479160115251744 0 -0.3671593535755685 0.039488228813534441 0 -0.37720366673309441 0.046933728272722207 0 -0.37821548484879919 0.034714409722189747 0 -0.3671593535755685 0.039488228813534441 0 -0.37720366673309441 0.046933728272722207 0 -0.3671593535755685 0.039488228813534441 0 -0.36598446130160139 0.05090530088843908 0 -0.35310807836904401 0.045116575813398958 0 -0.36598446130160139 0.05090530088843908 0 -0.36156686651703313 0.063845623716559413 0 -0.37720366673309441 0.046933728272722207 0 -0.37601175642621931 0.06180673728294684 0 -0.36598446130160139 0.05090530088843908 0 -0.37601175642621931 0.06180673728294684 0 -0.36598446130160139 0.05090530088843908 0 -0.36156686651703313 0.063845623716559413 0 -0.37601175642621931 0.06180673728294684 0 -0.37538542569888861 0.077039909071185408 0 -0.36156686651703313 0.063845623716559413 0 -0.37538542569888861 0.077039909071185408 0 -0.36156686651703313 0.063845623716559413 0 -0.35612312894945131 0.084368077193785279 0 -0.35612312894945131 0.084368077193785279 0 -0.34278834835699451 0.06383714204960092 0 -0.33838520041353609 0.081292890893827047 0 -0.36156686651703313 0.063845623716559413 0 -0.35612312894945131 0.084368077193785279 0 -0.34278834835699451 0.06383714204960092 0 -0.35612312894945131 0.084368077193785279 0 -0.34278834835699451 0.06383714204960092 0 -0.35612312894945131 0.084368077193785279 0 -0.34113976689264169 0.099083428913709151 0 -0.33838520041353609 0.081292890893827047 0 -0.37538542569888861 0.077039909071185408 0 -0.35612312894945131 0.084368077193785279 0 -0.36945790954190688 0.10489901233797019 0 -0.37538542569888861 0.077039909071185408 0 -0.36945790954190688 0.10489901233797019 0 -0.35612312894945131 0.084368077193785279 0 -0.36945790954190688 0.10489901233797019 0 -0.35550209592132398 0.1007385814513303 0 -0.35612312894945131 0.084368077193785279 0 -0.36945790954190688 0.10489901233797019 0 -0.36945790954190688 0.10489901233797019 0 -0.35528757830129631 0.1146038073598567 0 -0.35550209592132398 0.1007385814513303 0 -0.36432421900058248 0.12902716503173739 0 -0.36945790954190688 0.10489901233797019 0 -0.36432421900058248 0.12902716503173739 0 -0.36945790954190688 0.10489901233797019 0 -0.35528757830129631 0.1146038073598567 0 -0.37813321267196881 0.13067898307122161 0 -0.36432421900058248 0.12902716503173739 0 -0.36945790954190688 0.10489901233797019 0 -0.36432421900058248 0.12902716503173739 0 -0.35238654708184031 0.12609563024743409 0 -0.35528757830129631 0.1146038073598567 0 -0.35238654708184031 0.12609563024743409 0 -0.35528757830129631 0.1146038073598567 0 -0.3404837498450532 0.12333171073500181 0 -0.35612312894945131 0.084368077193785279 0 -0.35550209592132398 0.1007385814513303 0 -0.34113976689264169 0.099083428913709151 0 -0.35528757830129631 0.1146038073598567 0 -0.35550209592132398 0.1007385814513303 0 -0.34113976689264169 0.099083428913709151 0 -0.34113976689264169 0.099083428913709151 0 -0.32926667360437839 0.1164060260208032 0 -0.31877393512768559 0.091323559015931616 0 -0.35528757830129631 0.1146038073598567 0 -0.34113976689264169 0.099083428913709151 0 -0.32926667360437839 0.1164060260208032 0 -0.35528757830129631 0.1146038073598567 0 -0.32926667360437839 0.1164060260208032 0 -0.3404837498450532 0.12333171073500181 0 -0.35528757830129631 0.1146038073598567 0 -0.32926667360437839 0.1164060260208032 0 -0.30068980701995263 0.1183852716630928 0 -0.32926667360437839 0.1164060260208032 0 -0.31273984524103521 0.1299012485920189 0 -0.30068980701995263 0.1183852716630928 0 -0.32926667360437839 0.1164060260208032 0 -0.32926667360437839 0.1164060260208032 0 -0.31877393512768559 0.091323559015931616 0 -0.30691525595490687 0.1034287663898374 0 -0.32926667360437839 0.1164060260208032 0 -0.31877393512768559 0.091323559015931616 0 -0.31877393512768559 0.091323559015931616 0 -0.32579920726164369 0.068834907477240262 0 -0.33838520041353609 0.081292890893827047 0 -0.30828119665099402 0.066241092011059322 0 -0.31877393512768559 0.091323559015931616 0 -0.30828119665099402 0.066241092011059322 0 -0.31877393512768559 0.091323559015931616 0 -0.32579920726164369 0.068834907477240262 0 -0.32579920726164369 0.068834907477240262 0 -0.34278834835699451 0.06383714204960092 0 -0.33838520041353609 0.081292890893827047 0 -0.34113976689264169 0.099083428913709151 0 -0.31877393512768559 0.091323559015931616 0 -0.33838520041353609 0.081292890893827047 0 -0.39685075473395243 0.47208885409017171 0 -0.40474212655916669 0.49216275436211843 0 -0.39294085847102128 0.48854827669032619 0 -0.39685075473395243 0.47208885409017171 0 -0.40474212655916669 0.49216275436211843 0 -0.40968777636579612 0.4781952403059373 0 -0.39685075473395243 0.47208885409017171 0 -0.40474212655916669 0.49216275436211843 0 -0.40404948138828117 0.5 0 -0.39294085847102128 0.48854827669032619 0 -0.37886893178805381 0.5 0 -0.40474212655916669 0.49216275436211843 0 -0.40404948138828117 0.5 0 -0.39294085847102128 0.48854827669032619 0 -0.37886893178805381 0.5 0 -0.38019299788565231 0.47848977499934098 0 -0.3661641522805214 0.48538665190787172 0 -0.39294085847102128 0.48854827669032619 0 -0.37886893178805381 0.5 0 -0.38019299788565231 0.47848977499934098 0 -0.39685075473395243 0.47208885409017171 0 -0.39294085847102128 0.48854827669032619 0 -0.38019299788565231 0.47848977499934098 0 -0.39685075473395243 0.47208885409017171 0 -0.38019299788565231 0.47848977499934098 0 -0.38010500609395093 0.46136312974268401 0 -0.39685075473395243 0.47208885409017171 0 -0.38010500609395093 0.46136312974268401 0 -0.388959382908735 0.45201495381822621 0 -0.38019299788565231 0.47848977499934098 0 -0.38010500609395093 0.46136312974268401 0 -0.36742635499821968 0.463608166108891 0 -0.38010500609395093 0.46136312974268401 0 -0.38242155794615451 0.44869735027954222 0 -0.36742635499821968 0.463608166108891 0 -0.38010500609395093 0.46136312974268401 0 -0.38242155794615451 0.44869735027954222 0 -0.388959382908735 0.45201495381822621 0 -0.38242155794615451 0.44869735027954222 0 -0.38618430714500762 0.44495577635680672 0 -0.37650930679644939 0.4365659158875782 0 -0.38242155794615451 0.44869735027954222 0 -0.37650930679644939 0.4365659158875782 0 -0.36718826964986678 0.44096725480483501 0 -0.38242155794615451 0.44869735027954222 0 -0.388959382908735 0.45201495381822621 0 -0.388959382908735 0.45201495381822621 0 -0.38618430714500762 0.44495577635680672 0 -0.3929856302054302 0.44799006417649512 0 -0.388959382908735 0.45201495381822621 0 -0.38618430714500762 0.44495577635680672 0 -0.38242155794615451 0.44869735027954222 0 -0.388959382908735 0.45201495381822621 0 -0.38618430714500762 0.44495577635680672 0 -0.38242155794615451 0.44869735027954222 0 -0.38618430714500762 0.44495577635680672 0 -0.38618430714500762 0.44495577635680672 0 -0.39945800126455638 0.43175678137961981 0 -0.38618430714500762 0.44495577635680672 0 -0.3972846243597099 0.44466711591155472 0 -0.39945800126455638 0.43175678137961981 0 -0.3972846243597099 0.44466711591155472 0 -0.3929856302054302 0.44799006417649512 0 -0.40143215100731672 0.45218114752137639 0 -0.388959382908735 0.45201495381822621 0 -0.3929856302054302 0.44799006417649512 0 -0.40143215100731672 0.45218114752137639 0 -0.38618430714500762 0.44495577635680672 0 -0.3972846243597099 0.44466711591155472 0 -0.3929856302054302 0.44799006417649512 0 -0.40143215100731672 0.45218114752137639 0 -0.40549906894319793 0.44914010396366483 0 -0.41004061629820748 0.45519584012552999 0 -0.3972846243597099 0.44466711591155472 0 -0.40143215100731672 0.45218114752137639 0 -0.40549906894319793 0.44914010396366483 0 -0.3972846243597099 0.44466711591155472 0 -0.40795932824224029 0.43859640751585149 0 -0.39945800126455638 0.43175678137961981 0 -0.3972846243597099 0.44466711591155472 0 -0.40549906894319793 0.44914010396366483 0 -0.40795932824224029 0.43859640751585149 0 -0.388959382908735 0.45201495381822621 0 -0.41502229870302348 0.46524051769652769 0 -0.388959382908735 0.45201495381822621 0 -0.40143215100731672 0.45218114752137639 0 -0.41502229870302348 0.46524051769652769 0 -0.39685075473395243 0.47208885409017171 0 -0.388959382908735 0.45201495381822621 0 -0.41502229870302348 0.46524051769652769 0 -0.39685075473395243 0.47208885409017171 0 -0.388959382908735 0.45201495381822621 0 -0.40143215100731672 0.45218114752137639 0 -0.41004061629820748 0.45519584012552999 0 -0.41502229870302348 0.46524051769652769 0 -0.41004061629820748 0.45519584012552999 0 -0.4194308041039288 0.45983015969675889 0 -0.41488466998696322 0.44846720721428912 0 -0.41004061629820748 0.45519584012552999 0 -0.4194308041039288 0.45983015969675889 0 -0.41502229870302348 0.46524051769652769 0 -0.40549906894319793 0.44914010396366483 0 -0.41004061629820748 0.45519584012552999 0 -0.41488466998696322 0.44846720721428912 0 -0.40549906894319793 0.44914010396366483 0 -0.40795932824224029 0.43859640751585149 0 -0.41488466998696322 0.44846720721428912 0 -0.41488466998696322 0.44846720721428912 0 -0.41951870835602861 0.43840843186405071 0 -0.42685949397817619 0.44963230011987898 0 -0.4194308041039288 0.45983015969675889 0 -0.41488466998696322 0.44846720721428912 0 -0.42685949397817619 0.44963230011987898 0 -0.40795932824224029 0.43859640751585149 0 -0.41488466998696322 0.44846720721428912 0 -0.41951870835602861 0.43840843186405071 0 -0.41951870835602861 0.43840843186405071 0 -0.42685949397817619 0.44963230011987898 0 -0.43798069952014529 0.43266287149227872 0 -0.42685949397817619 0.44963230011987898 0 -0.43966627469980463 0.45390403909235172 0 -0.43798069952014529 0.43266287149227872 0 -0.4194308041039288 0.45983015969675889 0 -0.44328946719776657 0.47576090257494069 0 -0.4194308041039288 0.45983015969675889 0 -0.42685949397817619 0.44963230011987898 0 -0.43553490893270719 0.4622766592647285 0 -0.4194308041039288 0.45983015969675889 0 -0.41502229870302348 0.46524051769652769 0 -0.44108521449731403 0.47846608157482529 0 -0.4194308041039288 0.45983015969675889 0 -0.43553490893270719 0.4622766592647285 0 -0.44328946719776657 0.47576090257494069 0 -0.42685949397817619 0.44963230011987898 0 -0.43553490893270719 0.4622766592647285 0 -0.43966627469980463 0.45390403909235172 0 -0.41502229870302348 0.46524051769652769 0 -0.44108521449731403 0.47846608157482529 0 -0.41502229870302348 0.46524051769652769 0 -0.42826101303688568 0.47895911138435199 0 -0.44108521449731403 0.47846608157482529 0 -0.4194308041039288 0.45983015969675889 0 -0.44328946719776657 0.47576090257494069 0 -0.44108521449731403 0.47846608157482529 0 -0.43551458757824868 0.48263657700235579 0 -0.42826101303688568 0.47895911138435199 0 -0.44108521449731403 0.47846608157482529 0 -0.43551458757824868 0.48263657700235579 0 -0.42826101303688568 0.47895911138435199 0 -0.43359172779553179 0.48837096025055149 0 -0.42826101303688568 0.47895911138435199 0 -0.41867903716542992 0.47931379577197442 0 -0.42525182638679532 0.48578849754092268 0 -0.42826101303688568 0.47895911138435199 0 -0.42525182638679532 0.48578849754092268 0 -0.43359172779553179 0.48837096025055149 0 -0.41502229870302348 0.46524051769652769 0 -0.42826101303688568 0.47895911138435199 0 -0.41867903716542992 0.47931379577197442 0 -0.39685075473395243 0.47208885409017171 0 -0.41502229870302348 0.46524051769652769 0 -0.40968777636579612 0.4781952403059373 0 -0.41502229870302348 0.46524051769652769 0 -0.41867903716542992 0.47931379577197442 0 -0.40968777636579612 0.4781952403059373 0 -0.41867903716542992 0.47931379577197442 0 -0.40968777636579612 0.4781952403059373 0 -0.41517227133464879 0.48838561193213198 0 -0.40404948138828117 0.5 0 -0.41517227133464879 0.48838561193213198 0 -0.42923003098850881 0.5 0 -0.40474212655916669 0.49216275436211843 0 -0.40404948138828117 0.5 0 -0.41517227133464879 0.48838561193213198 0 -0.40474212655916669 0.49216275436211843 0 -0.40968777636579612 0.4781952403059373 0 -0.41517227133464879 0.48838561193213198 0 -0.41867903716542992 0.47931379577197442 0 -0.41517227133464879 0.48838561193213198 0 -0.42525182638679532 0.48578849754092268 0 -0.42923003098850881 0.5 0 -0.43359172779553179 0.48837096025055149 0 -0.44526201312090469 0.49044214551393178 0 -0.41517227133464879 0.48838561193213198 0 -0.42923003098850881 0.5 0 -0.42525182638679532 0.48578849754092268 0 -0.42923003098850881 0.5 0 -0.42525182638679532 0.48578849754092268 0 -0.43359172779553179 0.48837096025055149 0 -0.43551458757824868 0.48263657700235579 0 -0.43359172779553179 0.48837096025055149 0 -0.43912039498326372 0.48475015479969491 0 -0.42923003098850881 0.5 0 -0.44526201312090469 0.49044214551393178 0 -0.45441058058873629 0.5 0 -0.44526201312090469 0.49044214551393178 0 -0.44108521449731403 0.47846608157482529 0 -0.4671481302916044 0.49169164545312272 0 -0.44526201312090469 0.49044214551393178 0 -0.43912039498326372 0.48475015479969491 0 -0.44108521449731403 0.47846608157482529 0 -0.43359172779553179 0.48837096025055149 0 -0.44526201312090469 0.49044214551393178 0 -0.43912039498326372 0.48475015479969491 0 -0.44328946719776657 0.47576090257494069 0 -0.44108521449731403 0.47846608157482529 0 -0.4671481302916044 0.49169164545312272 0 -0.44328946719776657 0.47576090257494069 0 -0.4482372154839791 0.47034069935911099 0 -0.44243705545074952 0.46800791713177647 0 -0.43551458757824868 0.48263657700235579 0 -0.43912039498326372 0.48475015479969491 0 -0.44108521449731403 0.47846608157482529 0 -0.44328946719776657 0.47576090257494069 0 -0.4482372154839791 0.47034069935911099 0 -0.45544889944474348 0.47494962170496619 0 -0.4482372154839791 0.47034069935911099 0 -0.45544889944474348 0.47494962170496619 0 -0.4514367849028309 0.46371834527774031 0 -0.44328946719776657 0.47576090257494069 0 -0.45544889944474348 0.47494962170496619 0 -0.4671481302916044 0.49169164545312272 0 -0.44328946719776657 0.47576090257494069 0 -0.4671481302916044 0.49169164545312272 0 -0.45544889944474348 0.47494962170496619 0 -0.46857075491035999 0.48053316551258041 0 -0.4671481302916044 0.49169164545312272 0 -0.45544889944474348 0.47494962170496619 0 -0.46494729357371462 0.46948480549561811 0 -0.4514367849028309 0.46371834527774031 0 -0.45544889944474348 0.47494962170496619 0 -0.46857075491035999 0.48053316551258041 0 -0.46494729357371462 0.46948480549561811 0 -0.44526201312090469 0.49044214551393178 0 -0.45441058058873629 0.5 0 -0.4671481302916044 0.49169164545312272 0 -0.45441058058873629 0.5 0 -0.4671481302916044 0.49169164545312272 0 -0.47959113018896382 0.49999999999999939 0 -0.44108521449731403 0.47846608157482529 0 -0.4671481302916044 0.49169164545312272 0 -0.4671481302916044 0.49169164545312272 0 -0.47959113018896382 0.49999999999999939 0 -0.47706140944585718 0.49672211509561331 0 -0.4671481302916044 0.49169164545312272 0 -0.47706140944585718 0.49672211509561331 0 -0.4671481302916044 0.49169164545312272 0 -0.47959113018896382 0.49999999999999939 0 -0.47959113018896382 0.49999999999999939 0 -0.48218784416363308 0.4911156460956041 0 -0.48963825476330097 0.48963098806762478 0 -0.47959113018896382 0.49999999999999939 0 -0.47706140944585718 0.49672211509561331 0 -0.48218784416363308 0.4911156460956041 0 -0.48218784416363308 0.4911156460956041 0 -0.47977948360464118 0.47908272982717731 0 -0.48963825476330097 0.48963098806762478 0 -0.47706140944585718 0.49672211509561331 0 -0.48218784416363308 0.4911156460956041 0 -0.47494952448321909 0.48782906039681961 0 -0.48218784416363308 0.4911156460956041 0 -0.47494952448321909 0.48782906039681961 0 -0.47977948360464118 0.47908272982717731 0 -0.46857075491035999 0.48053316551258041 0 -0.4671481302916044 0.49169164545312272 0 -0.47494952448321909 0.48782906039681961 0 -0.4671481302916044 0.49169164545312272 0 -0.47706140944585718 0.49672211509561331 0 -0.47494952448321909 0.48782906039681961 0 -0.46857075491035999 0.48053316551258041 0 -0.47494952448321909 0.48782906039681961 0 -0.47977948360464118 0.47908272982717731 0 -0.46857075491035999 0.48053316551258041 0 -0.46494729357371462 0.46948480549561811 0 -0.47977948360464118 0.47908272982717731 0 -0.46494729357371462 0.46948480549561811 0 -0.47977948360464118 0.47908272982717731 0 -0.477058153392796 0.4639303349528705 0 -0.47977948360464118 0.47908272982717731 0 -0.48734162001783521 0.47116142808946171 0 -0.477058153392796 0.4639303349528705 0 -0.49999999999999872 0.47036154914065398 0 -0.48734162001783521 0.47116142808946171 0 -0.48963825476330097 0.48963098806762478 0 -0.47977948360464118 0.47908272982717731 0 -0.48734162001783521 0.47116142808946171 0 -0.48963825476330097 0.48963098806762478 0 -0.49999999999999872 0.47036154914065398 0 -0.5 0.5 0 -0.48963825476330097 0.48963098806762478 0 -0.47959113018896382 0.49999999999999939 0 -0.5 0.5 0 -0.48963825476330097 0.48963098806762478 0 -0.5 0.44523056065711791 0 -0.48824530672936112 0.45288928866406969 0 -0.49036965978043279 0.43593118409537052 0 -0.48824530672936112 0.45288928866406969 0 -0.47649061345872429 0.43541702818748501 0 -0.49036965978043279 0.43593118409537052 0 -0.49999999999999872 0.47036154914065398 0 -0.5 0.44523056065711791 0 -0.48824530672936112 0.45288928866406969 0 -0.49999999999999872 0.47036154914065398 0 -0.48734162001783521 0.47116142808946171 0 -0.48824530672936112 0.45288928866406969 0 -0.49999999999999872 0.47036154914065398 0 -0.48824530672936112 0.45288928866406969 0 -0.48824530672936112 0.45288928866406969 0 -0.477058153392796 0.4639303349528705 0 -0.47426526773545269 0.45161773366563751 0 -0.48734162001783521 0.47116142808946171 0 -0.48824530672936112 0.45288928866406969 0 -0.477058153392796 0.4639303349528705 0 -0.477058153392796 0.4639303349528705 0 -0.47426526773545269 0.45161773366563751 0 -0.46301977447312942 0.45792243895846901 0 -0.48824530672936112 0.45288928866406969 0 -0.47426526773545269 0.45161773366563751 0 -0.47649061345872429 0.43541702818748501 0 -0.47426526773545269 0.45161773366563751 0 -0.46322970365618499 0.44676795658212382 0 -0.47649061345872429 0.43541702818748501 0 -0.48824530672936112 0.45288928866406969 0 -0.47649061345872429 0.43541702818748501 0 -0.46322970365618499 0.44676795658212382 0 -0.46144096810352281 0.43274296501488257 0 -0.47649061345872429 0.43541702818748501 0 -0.47426526773545269 0.45161773366563751 0 -0.46322970365618499 0.44676795658212382 0 -0.46301977447312942 0.45792243895846901 0 -0.46322970365618499 0.44676795658212382 0 -0.46301977447312942 0.45792243895846901 0 -0.4507677856140635 0.45107361701107201 0 -0.46494729357371462 0.46948480549561811 0 -0.477058153392796 0.4639303349528705 0 -0.46301977447312942 0.45792243895846901 0 -0.46301977447312942 0.45792243895846901 0 -0.4514367849028309 0.46371834527774031 0 -0.4507677856140635 0.45107361701107201 0 -0.46494729357371462 0.46948480549561811 0 -0.46301977447312942 0.45792243895846901 0 -0.4514367849028309 0.46371834527774031 0 -0.4482372154839791 0.47034069935911099 0 -0.4514367849028309 0.46371834527774031 0 -0.44268663018854532 0.46365340732832572 0 -0.4514367849028309 0.46371834527774031 0 -0.43966627469980463 0.45390403909235172 0 -0.4507677856140635 0.45107361701107201 0 -0.4514367849028309 0.46371834527774031 0 -0.43966627469980463 0.45390403909235172 0 -0.44268663018854532 0.46365340732832572 0 -0.43553490893270719 0.4622766592647285 0 -0.43966627469980463 0.45390403909235172 0 -0.44268663018854532 0.46365340732832572 0 -0.43553490893270719 0.4622766592647285 0 -0.44328946719776657 0.47576090257494069 0 -0.44243705545074952 0.46800791713177647 0 -0.43553490893270719 0.4622766592647285 0 -0.44268663018854532 0.46365340732832572 0 -0.44243705545074952 0.46800791713177647 0 -0.4482372154839791 0.47034069935911099 0 -0.44268663018854532 0.46365340732832572 0 -0.44243705545074952 0.46800791713177647 0 -0.43966627469980463 0.45390403909235172 0 -0.4507677856140635 0.45107361701107201 0 -0.43798069952014529 0.43266287149227872 0 -0.46322970365618499 0.44676795658212382 0 -0.43798069952014529 0.43266287149227872 0 -0.46322970365618499 0.44676795658212382 0 -0.4507677856140635 0.45107361701107201 0 -0.43798069952014529 0.43266287149227872 0 -0.43798069952014529 0.43266287149227872 0 -0.44923303017774402 0.40577347293797611 0 -0.42926345290480572 0.40211906312656309 0 -0.43798069952014529 0.43266287149227872 0 -0.46473592018808768 0.41794476771090011 0 -0.44923303017774402 0.40577347293797611 0 -0.46322970365618499 0.44676795658212382 0 -0.43798069952014529 0.43266287149227872 0 -0.46144096810352281 0.43274296501488257 0 -0.43798069952014529 0.43266287149227872 0 -0.46473592018808768 0.41794476771090011 0 -0.46144096810352281 0.43274296501488257 0 -0.46473592018808768 0.41794476771090011 0 -0.46144096810352281 0.43274296501488257 0 -0.47649061345872429 0.43541702818748501 0 -0.46473592018808768 0.41794476771090011 0 -0.47649061345872429 0.43541702818748501 0 -0.46473592018808768 0.41794476771090011 0 -0.47649061345872429 0.43541702818748501 0 -0.48288825191337298 0.42412134512496508 0 -0.47649061345872429 0.43541702818748501 0 -0.48288825191337298 0.42412134512496508 0 -0.49036965978043279 0.43593118409537052 0 -0.46473592018808768 0.41794476771090011 0 -0.48284506613962008 0.41121417345748851 0 -0.47120617635536782 0.39476787679675002 0 -0.46473592018808768 0.41794476771090011 0 -0.48288825191337298 0.42412134512496508 0 -0.48284506613962008 0.41121417345748851 0 -0.48288825191337298 0.42412134512496508 0 -0.48284506613962008 0.41121417345748851 0 -0.5 0.42009957217358168 0 -0.48284506613962008 0.41121417345748851 0 -0.5 0.42009957217358168 0 -0.5 0.39496858369004562 0 -0.48288825191337298 0.42412134512496508 0 -0.5 0.42009957217358168 0 -0.49036965978043279 0.43593118409537052 0 -0.5 0.44523056065711791 0 -0.5 0.42009957217358168 0 -0.49036965978043279 0.43593118409537052 0 -0.5 0.39496858369004562 0 -0.47120617635536782 0.39476787679675002 0 -0.48314937447487621 0.37807431359814447 0 -0.5 0.39496858369004562 0 -0.48314937447487621 0.37807431359814447 0 -0.500000000000001 0.3698375952065095 0 -0.48284506613962008 0.41121417345748851 0 -0.5 0.39496858369004562 0 -0.47120617635536782 0.39476787679675002 0 -0.47120617635536782 0.39476787679675002 0 -0.48314937447487621 0.37807431359814447 0 -0.46556754709926712 0.37303822245431523 0 -0.47120617635536782 0.39476787679675002 0 -0.44579521042550602 0.38568033985069361 0 -0.46556754709926712 0.37303822245431523 0 -0.46473592018808768 0.41794476771090011 0 -0.47120617635536782 0.39476787679675002 0 -0.44923303017774402 0.40577347293797611 0 -0.47120617635536782 0.39476787679675002 0 -0.44923303017774402 0.40577347293797611 0 -0.44579521042550602 0.38568033985069361 0 -0.44579521042550602 0.38568033985069361 0 -0.42926345290480572 0.40211906312656309 0 -0.44923303017774402 0.40577347293797611 0 -0.44579521042550602 0.38568033985069361 0 -0.42926345290480572 0.40211906312656309 0 -0.44579521042550602 0.38568033985069361 0 -0.423210094217431 0.38669702473066292 0 -0.42504842451924602 0.37023182016515371 0 -0.423210094217431 0.38669702473066292 0 -0.40859604645466518 0.399329260779137 0 -0.39915613465778838 0.38291889622212189 0 -0.423210094217431 0.38669702473066292 0 -0.4097153276825572 0.37170397172468578 0 -0.42504842451924602 0.37023182016515371 0 -0.423210094217431 0.38669702473066292 0 -0.39915613465778838 0.38291889622212189 0 -0.4097153276825572 0.37170397172468578 0 -0.423210094217431 0.38669702473066292 0 -0.40859604645466518 0.399329260779137 0 -0.42926345290480572 0.40211906312656309 0 -0.44579521042550602 0.38568033985069361 0 -0.423210094217431 0.38669702473066292 0 -0.42926345290480572 0.40211906312656309 0 -0.43798069952014529 0.43266287149227872 0 -0.42926345290480572 0.40211906312656309 0 -0.41273169538410559 0.4185577864024333 0 -0.41951870835602861 0.43840843186405071 0 -0.43798069952014529 0.43266287149227872 0 -0.41273169538410559 0.4185577864024333 0 -0.43798069952014529 0.43266287149227872 0 -0.41273169538410559 0.4185577864024333 0 -0.40795932824224029 0.43859640751585149 0 -0.41273169538410559 0.4185577864024333 0 -0.39945800126455638 0.43175678137961981 0 -0.40795932824224029 0.43859640751585149 0 -0.41951870835602861 0.43840843186405071 0 -0.41273169538410559 0.4185577864024333 0 -0.42926345290480572 0.40211906312656309 0 -0.41273169538410559 0.4185577864024333 0 -0.40859604645466518 0.399329260779137 0 -0.42926345290480572 0.40211906312656309 0 -0.41273169538410559 0.4185577864024333 0 -0.41273169538410559 0.4185577864024333 0 -0.39571804806792599 0.40905329498604581 0 -0.41273169538410559 0.4185577864024333 0 -0.39571804806792599 0.40905329498604581 0 -0.38937714323553679 0.42175761953186308 0 -0.40859604645466518 0.399329260779137 0 -0.41273169538410559 0.4185577864024333 0 -0.39571804806792599 0.40905329498604581 0 -0.38618430714500762 0.44495577635680672 0 -0.39945800126455638 0.43175678137961981 0 -0.3876661553517825 0.42915418120721799 0 -0.41273169538410559 0.4185577864024333 0 -0.39945800126455638 0.43175678137961981 0 -0.38937714323553679 0.42175761953186308 0 -0.41273169538410559 0.4185577864024333 0 -0.39945800126455638 0.43175678137961981 0 -0.39945800126455638 0.43175678137961981 0 -0.3876661553517825 0.42915418120721799 0 -0.38937714323553679 0.42175761953186308 0 -0.38618430714500762 0.44495577635680672 0 -0.37650930679644939 0.4365659158875782 0 -0.37564516976202939 0.41814654756058273 0 -0.38618430714500762 0.44495577635680672 0 -0.3876661553517825 0.42915418120721799 0 -0.37564516976202939 0.41814654756058273 0 -0.38618430714500762 0.44495577635680672 0 -0.37564516976202939 0.41814654756058273 0 -0.3876661553517825 0.42915418120721799 0 -0.38937714323553679 0.42175761953186308 0 -0.37564516976202939 0.41814654756058273 0 -0.39571804806792599 0.40905329498604581 0 -0.37564516976202939 0.41814654756058273 0 -0.37870440075174661 0.39954880356965811 0 -0.39571804806792599 0.40905329498604581 0 -0.38937714323553679 0.42175761953186308 0 -0.37564516976202939 0.41814654756058273 0 -0.37870440075174661 0.39954880356965811 0 -0.3834711658931681 0.38523775397718141 0 -0.36510603237905143 0.39133731876435868 0 -0.39571804806792599 0.40905329498604581 0 -0.37870440075174661 0.39954880356965811 0 -0.39312915916505892 0.39521760190682881 0 -0.39571804806792599 0.40905329498604581 0 -0.37870440075174661 0.39954880356965811 0 -0.37870440075174661 0.39954880356965811 0 -0.3834711658931681 0.38523775397718141 0 -0.39312915916505892 0.39521760190682881 0 -0.3834711658931681 0.38523775397718141 0 -0.39915613465778838 0.38291889622212189 0 -0.38385919673832719 0.36145192325341158 0 -0.3834711658931681 0.38523775397718141 0 -0.39915613465778838 0.38291889622212189 0 -0.39312915916505892 0.39521760190682881 0 -0.40859604645466518 0.399329260779137 0 -0.39915613465778838 0.38291889622212189 0 -0.39312915916505892 0.39521760190682881 0 -0.40859604645466518 0.399329260779137 0 -0.39571804806792599 0.40905329498604581 0 -0.39312915916505892 0.39521760190682881 0 -0.38385919673832719 0.36145192325341158 0 -0.39543705409537172 0.33647951758544542 0 -0.40981506693780961 0.35630068827931333 0 -0.38385919673832719 0.36145192325341158 0 -0.40981506693780961 0.35630068827931333 0 -0.38385919673832719 0.36145192325341158 0 -0.40981506693780961 0.35630068827931333 0 -0.4097153276825572 0.37170397172468578 0 -0.39915613465778838 0.38291889622212189 0 -0.38385919673832719 0.36145192325341158 0 -0.4097153276825572 0.37170397172468578 0 -0.3834711658931681 0.38523775397718141 0 -0.38385919673832719 0.36145192325341158 0 -0.37317249203050579 0.37557251567342709 0 -0.38385919673832719 0.36145192325341158 0 -0.39543705409537172 0.33647951758544542 0 -0.36756966530709922 0.34734118009775028 0 -0.3758470803365288 0.32457556707505753 0 -0.39543705409537172 0.33647951758544542 0 -0.36756966530709922 0.34734118009775028 0 -0.3758470803365288 0.32457556707505753 0 -0.39392249904744642 0.31479769557012222 0 -0.39543705409537172 0.33647951758544542 0 -0.39392249904744642 0.31479769557012222 0 -0.40766769919509299 0.32392137835775081 0 -0.41065679990203968 0.30907105725851769 0 -0.39392249904744642 0.31479769557012222 0 -0.39543705409537172 0.33647951758544542 0 -0.40766769919509299 0.32392137835775081 0 -0.39543705409537172 0.33647951758544542 0 -0.41751750075150068 0.337214729170287 0 -0.40766769919509299 0.32392137835775081 0 -0.39543705409537172 0.33647951758544542 0 -0.41751750075150068 0.337214729170287 0 -0.40981506693780961 0.35630068827931333 0 -0.40766769919509299 0.32392137835775081 0 -0.42380755846024531 0.32187291962525338 0 -0.41065679990203968 0.30907105725851769 0 -0.41751750075150068 0.337214729170287 0 -0.40766769919509299 0.32392137835775081 0 -0.42380755846024531 0.32187291962525338 0 -0.42380755846024531 0.32187291962525338 0 -0.43551219870570668 0.31477701164473493 0 -0.4259979562488922 0.30430808103600721 0 -0.42380755846024531 0.32187291962525338 0 -0.43410814682376148 0.33347893157917952 0 -0.43865864029860052 0.3233249385450776 0 -0.42380755846024531 0.32187291962525338 0 -0.43551219870570668 0.31477701164473493 0 -0.43865864029860052 0.3233249385450776 0 -0.41751750075150068 0.337214729170287 0 -0.43410814682376148 0.33347893157917952 0 -0.43577093713729209 0.35114945330521541 0 -0.41751750075150068 0.337214729170287 0 -0.42380755846024531 0.32187291962525338 0 -0.43410814682376148 0.33347893157917952 0 -0.43577093713729209 0.35114945330521541 0 -0.40981506693780961 0.35630068827931333 0 -0.43577093713729209 0.35114945330521541 0 -0.40981506693780961 0.35630068827931333 0 -0.42504842451924602 0.37023182016515371 0 -0.41751750075150068 0.337214729170287 0 -0.43577093713729209 0.35114945330521541 0 -0.40981506693780961 0.35630068827931333 0 -0.40981506693780961 0.35630068827931333 0 -0.4097153276825572 0.37170397172468578 0 -0.42504842451924602 0.37023182016515371 0 -0.43577093713729209 0.35114945330521541 0 -0.42504842451924602 0.37023182016515371 0 -0.43577093713729209 0.35114945330521541 0 -0.42504842451924602 0.37023182016515371 0 -0.44775129618405352 0.3645231136910525 0 -0.44579521042550602 0.38568033985069361 0 -0.42504842451924602 0.37023182016515371 0 -0.44775129618405352 0.3645231136910525 0 -0.44579521042550602 0.38568033985069361 0 -0.44775129618405352 0.3645231136910525 0 -0.46556754709926712 0.37303822245431523 0 -0.43577093713729209 0.35114945330521541 0 -0.44775129618405352 0.3645231136910525 0 -0.45247152665411039 0.34783503309329639 0 -0.43577093713729209 0.35114945330521541 0 -0.45247152665411039 0.34783503309329639 0 -0.43577093713729209 0.35114945330521541 0 -0.45247152665411039 0.34783503309329639 0 -0.44888049072232039 0.34058033679204419 0 -0.45247152665411039 0.34783503309329639 0 -0.46917211617092902 0.34452061288137797 0 -0.44775129618405352 0.3645231136910525 0 -0.45247152665411039 0.34783503309329639 0 -0.46322315291762162 0.35780622666832101 0 -0.45247152665411039 0.34783503309329639 0 -0.46322315291762162 0.35780622666832101 0 -0.46917211617092902 0.34452061288137797 0 -0.44775129618405352 0.3645231136910525 0 -0.46322315291762162 0.35780622666832101 0 -0.46556754709926712 0.37303822245431523 0 -0.48314937447487621 0.37807431359814447 0 -0.46556754709926712 0.37303822245431523 0 -0.48115327847974793 0.35911415122156282 0 -0.46322315291762162 0.35780622666832101 0 -0.46556754709926712 0.37303822245431523 0 -0.48115327847974793 0.35911415122156282 0 -0.4796102370891846 0.34602743668744779 0 -0.48115327847974793 0.35911415122156282 0 -0.48941164120095371 0.34213419077632951 0 -0.46322315291762162 0.35780622666832101 0 -0.46917211617092902 0.34452061288137797 0 -0.48115327847974793 0.35911415122156282 0 -0.46917211617092902 0.34452061288137797 0 -0.4796102370891846 0.34602743668744779 0 -0.48115327847974793 0.35911415122156282 0 -0.500000000000001 0.3698375952065095 0 -0.48941164120095371 0.34213419077632951 0 -0.48115327847974793 0.35911415122156282 0 -0.500000000000001 0.3698375952065095 0 -0.48941164120095371 0.34213419077632951 0 -0.500000000000001 0.3698375952065095 0 -0.5 0.34303964933699932 0 -0.48941164120095371 0.34213419077632951 0 -0.48314937447487621 0.37807431359814447 0 -0.48115327847974793 0.35911415122156282 0 -0.500000000000001 0.3698375952065095 0 -0.500000000000001 0.31624170346748898 0 -0.49205873090071478 0.3289615824817419 0 -0.47871877624481302 0.31440258305447888 0 -0.500000000000001 0.31624170346748898 0 -0.5 0.34303964933699932 0 -0.49205873090071478 0.3289615824817419 0 -0.48941164120095371 0.34213419077632951 0 -0.49205873090071478 0.3289615824817419 0 -0.47871877624481302 0.31440258305447888 0 -0.5 0.34303964933699932 0 -0.48941164120095371 0.34213419077632951 0 -0.49205873090071478 0.3289615824817419 0 -0.48941164120095371 0.34213419077632951 0 -0.47871877624481302 0.31440258305447888 0 -0.48941164120095371 0.34213419077632951 0 -0.47629991939576272 0.33658814829302047 0 -0.47643874601624792 0.32285114289008421 0 -0.4796102370891846 0.34602743668744779 0 -0.48941164120095371 0.34213419077632951 0 -0.47629991939576272 0.33658814829302047 0 -0.46917211617092902 0.34452061288137797 0 -0.47629991939576272 0.33658814829302047 0 -0.46623071577380898 0.33644469779763531 0 -0.46917211617092902 0.34452061288137797 0 -0.4796102370891846 0.34602743668744779 0 -0.47629991939576272 0.33658814829302047 0 -0.47629991939576272 0.33658814829302047 0 -0.47108525849405702 0.32977481979398759 0 -0.46623071577380898 0.33644469779763531 0 -0.47629991939576272 0.33658814829302047 0 -0.47108525849405702 0.32977481979398759 0 -0.47643874601624792 0.32285114289008421 0 -0.47108525849405702 0.32977481979398759 0 -0.47643874601624792 0.32285114289008421 0 -0.46436356204303431 0.32131147954543499 0 -0.47643874601624792 0.32285114289008421 0 -0.47871877624481302 0.31440258305447888 0 -0.4703712311026727 0.30468538318588012 0 -0.47643874601624792 0.32285114289008421 0 -0.46436356204303431 0.32131147954543499 0 -0.4703712311026727 0.30468538318588012 0 -0.48941164120095371 0.34213419077632951 0 -0.47643874601624792 0.32285114289008421 0 -0.47871877624481302 0.31440258305447888 0 -0.47643874601624792 0.32285114289008421 0 -0.47871877624481302 0.31440258305447888 0 -0.45006583410659012 0.32570947688270763 0 -0.459741392337359 0.30849032701447049 0 -0.46436356204303431 0.32131147954543499 0 -0.45006583410659012 0.32570947688270763 0 -0.459741392337359 0.30849032701447049 0 -0.46436356204303431 0.32131147954543499 0 -0.46450762712299593 0.32942245226549649 0 -0.45748315923264998 0.32954829902163912 0 -0.47108525849405702 0.32977481979398759 0 -0.46436356204303431 0.32131147954543499 0 -0.46450762712299593 0.32942245226549649 0 -0.46436356204303431 0.32131147954543499 0 -0.45748315923264998 0.32954829902163912 0 -0.45006583410659012 0.32570947688270763 0 -0.45748315923264998 0.32954829902163912 0 -0.4525800964482794 0.32885145580602759 0 -0.45006583410659012 0.32570947688270763 0 -0.45247152665411039 0.34783503309329639 0 -0.46917211617092902 0.34452061288137797 0 -0.45801045732846918 0.33793989196889368 0 -0.46917211617092902 0.34452061288137797 0 -0.46623071577380898 0.33644469779763531 0 -0.45801045732846918 0.33793989196889368 0 -0.46623071577380898 0.33644469779763531 0 -0.46155798986448099 0.33333883526341612 0 -0.45801045732846918 0.33793989196889368 0 -0.46623071577380898 0.33644469779763531 0 -0.46155798986448099 0.33333883526341612 0 -0.46450762712299593 0.32942245226549649 0 -0.47108525849405702 0.32977481979398759 0 -0.46623071577380898 0.33644469779763531 0 -0.46450762712299593 0.32942245226549649 0 -0.46155798986448099 0.33333883526341612 0 -0.46450762712299593 0.32942245226549649 0 -0.45748315923264998 0.32954829902163912 0 -0.45748315923264998 0.32954829902163912 0 -0.45801045732846918 0.33793989196889368 0 -0.45289958390320412 0.33294368607007668 0 -0.46155798986448099 0.33333883526341612 0 -0.45748315923264998 0.32954829902163912 0 -0.45801045732846918 0.33793989196889368 0 -0.45748315923264998 0.32954829902163912 0 -0.45289958390320412 0.33294368607007668 0 -0.4525800964482794 0.32885145580602759 0 -0.45801045732846918 0.33793989196889368 0 -0.44888049072232039 0.34058033679204419 0 -0.45289958390320412 0.33294368607007668 0 -0.43577093713729209 0.35114945330521541 0 -0.45006583410659012 0.32570947688270763 0 -0.44987180855067299 0.32720436124968688 0 -0.43410814682376148 0.33347893157917952 0 -0.43577093713729209 0.35114945330521541 0 -0.45006583410659012 0.32570947688270763 0 -0.43577093713729209 0.35114945330521541 0 -0.44888049072232039 0.34058033679204419 0 -0.44987180855067299 0.32720436124968688 0 -0.43577093713729209 0.35114945330521541 0 -0.45006583410659012 0.32570947688270763 0 -0.45247152665411039 0.34783503309329639 0 -0.45801045732846918 0.33793989196889368 0 -0.44888049072232039 0.34058033679204419 0 -0.44888049072232039 0.34058033679204419 0 -0.45289958390320412 0.33294368607007668 0 -0.44987180855067299 0.32720436124968688 0 -0.45289958390320412 0.33294368607007668 0 -0.4525800964482794 0.32885145580602759 0 -0.44987180855067299 0.32720436124968688 0 -0.43410814682376148 0.33347893157917952 0 -0.45006583410659012 0.32570947688270763 0 -0.43865864029860052 0.3233249385450776 0 -0.45006583410659012 0.32570947688270763 0 -0.44382153308362537 0.31221495676006822 0 -0.45301371650619859 0.30299729706671902 0 -0.45006583410659012 0.32570947688270763 0 -0.45301371650619859 0.30299729706671902 0 -0.4525800964482794 0.32885145580602759 0 -0.45006583410659012 0.32570947688270763 0 -0.44987180855067299 0.32720436124968688 0 -0.45006583410659012 0.32570947688270763 0 -0.44987180855067299 0.32720436124968688 0 -0.45006583410659012 0.32570947688270763 0 -0.43865864029860052 0.3233249385450776 0 -0.44382153308362537 0.31221495676006822 0 -0.43551219870570668 0.31477701164473493 0 -0.43865864029860052 0.3233249385450776 0 -0.44382153308362537 0.31221495676006822 0 -0.43551219870570668 0.31477701164473493 0 -0.44382153308362537 0.31221495676006822 0 -0.44011391699963281 0.29897006706455609 0 -0.44382153308362537 0.31221495676006822 0 -0.44011391699963281 0.29897006706455609 0 -0.45301371650619859 0.30299729706671902 0 -0.44011391699963281 0.29897006706455609 0 -0.4435049431401441 0.28449503750838762 0 -0.42958934891137979 0.27391206710673022 0 -0.44011391699963281 0.29897006706455609 0 -0.45301371650619859 0.30299729706671902 0 -0.4435049431401441 0.28449503750838762 0 -0.45301371650619859 0.30299729706671902 0 -0.4435049431401441 0.28449503750838762 0 -0.4559615989058084 0.28028511725073052 0 -0.45301371650619859 0.30299729706671902 0 -0.4559615989058084 0.28028511725073052 0 -0.45301371650619859 0.30299729706671902 0 -0.46941695056812782 0.2912711771462333 0 -0.4559615989058084 0.28028511725073052 0 -0.46941695056812782 0.2912711771462333 0 -0.4559615989058084 0.28028511725073052 0 -0.45301371650619859 0.30299729706671902 0 -0.459741392337359 0.30849032701447049 0 -0.46941695056812782 0.2912711771462333 0 -0.459741392337359 0.30849032701447049 0 -0.4703712311026727 0.30468538318588012 0 -0.46941695056812782 0.2912711771462333 0 -0.45006583410659012 0.32570947688270763 0 -0.45301371650619859 0.30299729706671902 0 -0.459741392337359 0.30849032701447049 0 -0.46436356204303431 0.32131147954543499 0 -0.459741392337359 0.30849032701447049 0 -0.4703712311026727 0.30468538318588012 0 -0.459741392337359 0.30849032701447049 0 -0.46941695056812782 0.2912711771462333 0 -0.47871877624481302 0.31440258305447888 0 -0.48215460693080592 0.30167125135021122 0 -0.47871877624481302 0.31440258305447888 0 -0.48215460693080592 0.30167125135021122 0 -0.4703712311026727 0.30468538318588012 0 -0.48215460693080592 0.30167125135021122 0 -0.4703712311026727 0.30468538318588012 0 -0.46941695056812782 0.2912711771462333 0 -0.48215460693080592 0.30167125135021122 0 -0.46941695056812782 0.2912711771462333 0 -0.48949294381745528 0.27447934068867103 0 -0.48215460693080592 0.30167125135021122 0 -0.46941695056812782 0.2912711771462333 0 -0.48215460693080592 0.30167125135021122 0 -0.5 0.29372530570792038 0 -0.48949294381745528 0.27447934068867103 0 -0.48215460693080592 0.30167125135021122 0 -0.48949294381745528 0.27447934068867103 0 -0.500000000000001 0.31624170346748898 0 -0.48215460693080592 0.30167125135021122 0 -0.500000000000001 0.31624170346748898 0 -0.47871877624481302 0.31440258305447888 0 -0.48215460693080592 0.30167125135021122 0 -0.500000000000001 0.31624170346748898 0 -0.48215460693080592 0.30167125135021122 0 -0.5 0.29372530570792038 0 -0.4968312807041082 0.2472874300271318 0 -0.48949294381745528 0.27447934068867103 0 -0.5 0.27120890794835179 0 -0.4968312807041082 0.2472874300271318 0 -0.48949294381745528 0.27447934068867103 0 -0.47925913563455752 0.25638559022726493 0 -0.4968312807041082 0.2472874300271318 0 -0.48949294381745528 0.27447934068867103 0 -0.4968312807041082 0.2472874300271318 0 -0.5 0.27120890794835179 0 -0.4968312807041082 0.2472874300271318 0 -0.5 0.25337738836426499 0 -0.5 0.27120890794835179 0 -0.5 0.29372530570792038 0 -0.48949294381745528 0.27447934068867103 0 -0.5 0.27120890794835179 0 -0.46941695056812782 0.2912711771462333 0 -0.48949294381745528 0.27447934068867103 0 -0.47081991616004137 0.27089445027851439 0 -0.48949294381745528 0.27447934068867103 0 -0.47081991616004137 0.27089445027851439 0 -0.47925913563455752 0.25638559022726493 0 -0.47081991616004137 0.27089445027851439 0 -0.47925913563455752 0.25638559022726493 0 -0.45955698647650872 0.2525841855498081 0 -0.46941695056812782 0.2912711771462333 0 -0.47081991616004137 0.27089445027851439 0 -0.4559615989058084 0.28028511725073052 0 -0.45955698647650872 0.2525841855498081 0 -0.4559615989058084 0.28028511725073052 0 -0.47081991616004137 0.27089445027851439 0 -0.45955698647650872 0.2525841855498081 0 -0.4559615989058084 0.28028511725073052 0 -0.4435049431401441 0.28449503750838762 0 -0.4559615989058084 0.28028511725073052 0 -0.43884613437770059 0.26631063905320262 0 -0.45955698647650872 0.2525841855498081 0 -0.4559615989058084 0.28028511725073052 0 -0.43884613437770059 0.26631063905320262 0 -0.4559615989058084 0.28028511725073052 0 -0.43884613437770059 0.26631063905320262 0 -0.43825039233082658 0.24363169606154 0 -0.45955698647650872 0.2525841855498081 0 -0.44253011682141569 0.25506286610100948 0 -0.45955698647650872 0.2525841855498081 0 -0.43884613437770059 0.26631063905320262 0 -0.44253011682141569 0.25506286610100948 0 -0.43884613437770059 0.26631063905320262 0 -0.44253011682141569 0.25506286610100948 0 -0.43346695410062752 0.25772494373948751 0 -0.43825039233082658 0.24363169606154 0 -0.44253011682141569 0.25506286610100948 0 -0.43346695410062752 0.25772494373948751 0 -0.41906478082312681 0.24885406714890429 0 -0.43346695410062752 0.25772494373948751 0 -0.42958934891137979 0.27391206710673022 0 -0.41906478082312681 0.24885406714890429 0 -0.42958934891137979 0.27391206710673022 0 -0.41906478082312681 0.24885406714890429 0 -0.41759538063417312 0.26858180652972652 0 -0.42958934891137979 0.27391206710673022 0 -0.43825039233082658 0.24363169606154 0 -0.41906478082312681 0.24885406714890429 0 -0.43346695410062752 0.25772494373948751 0 -0.41906478082312681 0.24885406714890429 0 -0.41001213513455492 0.24292805387003971 0 -0.40499066321899718 0.26154339454721198 0 -0.41906478082312681 0.24885406714890429 0 -0.41759538063417312 0.26858180652972652 0 -0.40499066321899718 0.26154339454721198 0 -0.41228154354499519 0.27768850832701841 0 -0.41759538063417312 0.26858180652972652 0 -0.40499066321899718 0.26154339454721198 0 -0.41228154354499519 0.27768850832701841 0 -0.41759538063417312 0.26858180652972652 0 -0.4216129824609301 0.28086251610322188 0 -0.43884613437770059 0.26631063905320262 0 -0.43346695410062752 0.25772494373948751 0 -0.42958934891137979 0.27391206710673022 0 -0.41759538063417312 0.26858180652972652 0 -0.4216129824609301 0.28086251610322188 0 -0.42958934891137979 0.27391206710673022 0 -0.4435049431401441 0.28449503750838762 0 -0.43884613437770059 0.26631063905320262 0 -0.42958934891137979 0.27391206710673022 0 -0.44011391699963281 0.29897006706455609 0 -0.42958934891137979 0.27391206710673022 0 -0.42668887192838129 0.29025710229043689 0 -0.4216129824609301 0.28086251610322188 0 -0.42958934891137979 0.27391206710673022 0 -0.42668887192838129 0.29025710229043689 0 -0.44011391699963281 0.29897006706455609 0 -0.42958934891137979 0.27391206710673022 0 -0.42668887192838129 0.29025710229043689 0 -0.4259979562488922 0.30430808103600721 0 -0.41569257080963579 0.29318430072612361 0 -0.43551219870570668 0.31477701164473493 0 -0.44011391699963281 0.29897006706455609 0 -0.4259979562488922 0.30430808103600721 0 -0.44011391699963281 0.29897006706455609 0 -0.42668887192838129 0.29025710229043689 0 -0.4259979562488922 0.30430808103600721 0 -0.42380755846024531 0.32187291962525338 0 -0.4259979562488922 0.30430808103600721 0 -0.41065679990203968 0.30907105725851769 0 -0.4259979562488922 0.30430808103600721 0 -0.41065679990203968 0.30907105725851769 0 -0.41569257080963579 0.29318430072612361 0 -0.41065679990203968 0.30907105725851769 0 -0.41569257080963579 0.29318430072612361 0 -0.39992748853260768 0.29281242250316691 0 -0.41228154354499519 0.27768850832701841 0 -0.41569257080963579 0.29318430072612361 0 -0.39992748853260768 0.29281242250316691 0 -0.4216129824609301 0.28086251610322188 0 -0.42668887192838129 0.29025710229043689 0 -0.41569257080963579 0.29318430072612361 0 -0.41228154354499519 0.27768850832701841 0 -0.4216129824609301 0.28086251610322188 0 -0.41569257080963579 0.29318430072612361 0 -0.41228154354499519 0.27768850832701841 0 -0.39992748853260768 0.29281242250316691 0 -0.3962322881087974 0.27399229957175308 0 -0.39992748853260768 0.29281242250316691 0 -0.38899808541337377 0.28430499652264563 0 -0.3962322881087974 0.27399229957175308 0 -0.39392249904744642 0.31479769557012222 0 -0.39992748853260768 0.29281242250316691 0 -0.37847782432370641 0.2968820616340177 0 -0.39392249904744642 0.31479769557012222 0 -0.41065679990203968 0.30907105725851769 0 -0.39992748853260768 0.29281242250316691 0 -0.3758470803365288 0.32457556707505753 0 -0.39392249904744642 0.31479769557012222 0 -0.37847782432370641 0.2968820616340177 0 -0.39992748853260768 0.29281242250316691 0 -0.37847782432370641 0.2968820616340177 0 -0.38899808541337377 0.28430499652264563 0 -0.37847782432370641 0.2968820616340177 0 -0.38899808541337377 0.28430499652264563 0 -0.37860315008193601 0.27166771423720931 0 -0.38899808541337377 0.28430499652264563 0 -0.37860315008193601 0.27166771423720931 0 -0.3962322881087974 0.27399229957175308 0 -0.37860315008193601 0.27166771423720931 0 -0.384838857273051 0.25649827030453931 0 -0.3962322881087974 0.27399229957175308 0 -0.37675357027187739 0.23638453451192409 0 -0.384838857273051 0.25649827030453931 0 -0.36802355760338162 0.25793990901515029 0 -0.37860315008193601 0.27166771423720931 0 -0.384838857273051 0.25649827030453931 0 -0.36802355760338162 0.25793990901515029 0 -0.384838857273051 0.25649827030453931 0 -0.40499066321899718 0.26154339454721198 0 -0.3962322881087974 0.27399229957175308 0 -0.40183723613050032 0.24455659212575279 0 -0.40499066321899718 0.26154339454721198 0 -0.39485854986397301 0.24894436375877421 0 -0.384838857273051 0.25649827030453931 0 -0.40499066321899718 0.26154339454721198 0 -0.39485854986397301 0.24894436375877421 0 -0.40183723613050032 0.24455659212575279 0 -0.40499066321899718 0.26154339454721198 0 -0.41228154354499519 0.27768850832701841 0 -0.40499066321899718 0.26154339454721198 0 -0.3962322881087974 0.27399229957175308 0 -0.35211232412092081 0.2612682436237323 0 -0.35995586901542009 0.28003621745625312 0 -0.33867381613991332 0.27164061157937469 0 -0.35995586901542009 0.28003621745625312 0 -0.34335353694255127 0.29160885415249588 0 -0.33867381613991332 0.27164061157937469 0 -0.35688731603925561 0.24436967152660241 0 -0.35211232412092081 0.2612682436237323 0 -0.33702106180663371 0.25235480854128067 0 -0.35688731603925561 0.24436967152660241 0 -0.35211232412092081 0.2612682436237323 0 -0.36802355760338162 0.25793990901515029 0 -0.35211232412092081 0.2612682436237323 0 -0.36802355760338162 0.25793990901515029 0 -0.35995586901542009 0.28003621745625312 0 -0.37860315008193601 0.27166771423720931 0 -0.36802355760338162 0.25793990901515029 0 -0.35995586901542009 0.28003621745625312 0 -0.37847782432370641 0.2968820616340177 0 -0.37860315008193601 0.27166771423720931 0 -0.35995586901542009 0.28003621745625312 0 -0.37847782432370641 0.2968820616340177 0 -0.35995586901542009 0.28003621745625312 0 -0.35821259196115768 0.30540756173026939 0 -0.3758470803365288 0.32457556707505753 0 -0.37847782432370641 0.2968820616340177 0 -0.35821259196115768 0.30540756173026939 0 -0.35821259196115768 0.30540756173026939 0 -0.34335353694255127 0.29160885415249588 0 -0.33348862023011733 0.31090963237568708 0 -0.35995586901542009 0.28003621745625312 0 -0.35821259196115768 0.30540756173026939 0 -0.34335353694255127 0.29160885415249588 0 -0.34335353694255127 0.29160885415249588 0 -0.33348862023011733 0.31090963237568708 0 -0.3229494828471392 0.28410040357946331 0 -0.34335353694255127 0.29160885415249588 0 -0.3229494828471392 0.28410040357946331 0 -0.33867381613991332 0.27164061157937469 0 -0.33348862023011733 0.31090963237568708 0 -0.3229494828471392 0.28410040357946331 0 -0.33348862023011733 0.31090963237568708 0 -0.31441125719310342 0.30321480868924022 0 -0.3229494828471392 0.28410040357946331 0 -0.33348862023011733 0.31090963237568708 0 -0.31441125719310342 0.30321480868924022 0 -0.30790659942683257 0.32252558410999582 0 -0.31441125719310342 0.30321480868924022 0 -0.3229494828471392 0.28410040357946331 0 -0.3020686449757044 0.28973889169414357 0 -0.3229494828471392 0.28410040357946331 0 -0.33867381613991332 0.27164061157937469 0 -0.31241034546416119 0.25729117478323948 0 -0.3229494828471392 0.28410040357946331 0 -0.31241034546416119 0.25729117478323948 0 -0.35211232412092081 0.2612682436237323 0 -0.33867381613991332 0.27164061157937469 0 -0.33702106180663371 0.25235480854128067 0 -0.33867381613991332 0.27164061157937469 0 -0.33702106180663371 0.25235480854128067 0 -0.31241034546416119 0.25729117478323948 0 -0.29255252589480302 0.24403031399357911 0 -0.31241034546416119 0.25729117478323948 0 -0.29056561331497632 0.27142271848452287 0 -0.31241034546416119 0.25729117478323948 0 -0.29056561331497632 0.27142271848452287 0 -0.3020686449757044 0.28973889169414357 0 -0.3229494828471392 0.28410040357946331 0 -0.31241034546416119 0.25729117478323948 0 -0.3020686449757044 0.28973889169414357 0 -0.29255252589480302 0.24403031399357911 0 -0.29056561331497632 0.27142271848452287 0 -0.27178416991125132 0.25927396388658852 0 -0.29056561331497632 0.27142271848452287 0 -0.27178416991125132 0.25927396388658852 0 -0.27160161867100979 0.28518225684128551 0 -0.29056561331497632 0.27142271848452287 0 -0.27160161867100979 0.28518225684128551 0 -0.27178416991125132 0.25927396388658852 0 -0.25347538837549349 0.27212399786646818 0 -0.27160161867100979 0.28518225684128551 0 -0.25431315272394672 0.24530620053488941 0 -0.25347538837549349 0.27212399786646818 0 -0.25431315272394672 0.24530620053488941 0 -0.27178416991125132 0.25927396388658852 0 -0.25347538837549349 0.27212399786646818 0 -0.25263762402704248 0.2989417951980472 0 -0.26818435986065869 0.30042071260271902 0 -0.26331573068542508 0.31525933254273197 0 -0.25263762402704248 0.2989417951980472 0 -0.25196193914293102 0.3205712430439927 0 -0.25263762402704248 0.2989417951980472 0 -0.26331573068542508 0.31525933254273197 0 -0.25196193914293102 0.3205712430439927 0 -0.25347538837549349 0.27212399786646818 0 -0.25263762402704248 0.2989417951980472 0 -0.25347538837549349 0.27212399786646818 0 -0.25263762402704248 0.2989417951980472 0 -0.27160161867100979 0.28518225684128551 0 -0.25263762402704248 0.2989417951980472 0 -0.27160161867100979 0.28518225684128551 0 -0.25263762402704248 0.2989417951980472 0 -0.27160161867100979 0.28518225684128551 0 -0.26818435986065869 0.30042071260271902 0 -0.27160161867100979 0.28518225684128551 0 -0.26818435986065869 0.30042071260271902 0 -0.28752667756833761 0.30574929838340742 0 -0.26818435986065869 0.30042071260271902 0 -0.28752667756833761 0.30574929838340742 0 -0.26331573068542508 0.31525933254273197 0 -0.27160161867100979 0.28518225684128551 0 -0.28752667756833761 0.30574929838340742 0 -0.3020686449757044 0.28973889169414357 0 -0.29056561331497632 0.27142271848452287 0 -0.27160161867100979 0.28518225684128551 0 -0.3020686449757044 0.28973889169414357 0 -0.31441125719310342 0.30321480868924022 0 -0.28752667756833761 0.30574929838340742 0 -0.3020686449757044 0.28973889169414357 0 -0.31441125719310342 0.30321480868924022 0 -0.28752667756833761 0.30574929838340742 0 -0.30790659942683257 0.32252558410999582 0 -0.30790659942683257 0.32252558410999582 0 -0.28299160010121799 0.33136264980499908 0 -0.30266746951701101 0.34746596706726618 0 -0.30790659942683257 0.32252558410999582 0 -0.30266746951701101 0.34746596706726618 0 -0.32239965029058271 0.33856988327222259 0 -0.28299160010121799 0.33136264980499908 0 -0.30266746951701101 0.34746596706726618 0 -0.28752667756833761 0.30574929838340742 0 -0.30790659942683257 0.32252558410999582 0 -0.28299160010121799 0.33136264980499908 0 -0.28299160010121799 0.33136264980499908 0 -0.26507194514756321 0.33300751286110741 0 -0.26331573068542508 0.31525933254273197 0 -0.28752667756833761 0.30574929838340742 0 -0.28299160010121799 0.33136264980499908 0 -0.26331573068542508 0.31525933254273197 0 -0.28299160010121799 0.33136264980499908 0 -0.26331573068542508 0.31525933254273197 0 -0.28299160010121799 0.33136264980499908 0 -0.26507194514756321 0.33300751286110741 0 -0.27580420154942031 0.35564364802387488 0 -0.26507194514756321 0.33300751286110741 0 -0.25128625425882162 0.34220069088993832 0 -0.25196193914293102 0.3205712430439927 0 -0.26507194514756321 0.33300751286110741 0 -0.25128625425882162 0.34220069088993832 0 -0.27580420154942031 0.35564364802387488 0 -0.25128625425882162 0.34220069088993832 0 -0.25196193914293102 0.3205712430439927 0 -0.26507194514756321 0.33300751286110741 0 -0.26331573068542508 0.31525933254273197 0 -0.25196193914293102 0.3205712430439927 0 -0.2506105693747121 0.36383013873588399 0 -0.27580420154942031 0.35564364802387488 0 -0.26907109183351657 0.37989953659430142 0 -0.25128625425882162 0.34220069088993832 0 -0.2506105693747121 0.36383013873588399 0 -0.25128625425882162 0.34220069088993832 0 -0.2506105693747121 0.36383013873588399 0 -0.27580420154942031 0.35564364802387488 0 -0.27580420154942031 0.35564364802387488 0 -0.29091486795804578 0.38023741692011731 0 -0.26907109183351657 0.37989953659430142 0 -0.27580420154942031 0.35564364802387488 0 -0.29327431712245622 0.36293717996940372 0 -0.29091486795804578 0.38023741692011731 0 -0.28299160010121799 0.33136264980499908 0 -0.27580420154942031 0.35564364802387488 0 -0.30266746951701101 0.34746596706726618 0 -0.27580420154942031 0.35564364802387488 0 -0.29327431712245622 0.36293717996940372 0 -0.30266746951701101 0.34746596706726618 0 -0.29327431712245622 0.36293717996940372 0 -0.30266746951701101 0.34746596706726618 0 -0.30735186887633648 0.3732661555007471 0 -0.29327431712245622 0.36293717996940372 0 -0.30735186887633648 0.3732661555007471 0 -0.29091486795804578 0.38023741692011731 0 -0.30266746951701101 0.34746596706726618 0 -0.30735186887633648 0.3732661555007471 0 -0.32234333893280381 0.36356928432953323 0 -0.30735186887633648 0.3732661555007471 0 -0.32234333893280381 0.36356928432953323 0 -0.3241678369171373 0.37692894078356343 0 -0.32234333893280381 0.36356928432953323 0 -0.34045128460516239 0.37121283444629888 0 -0.3241678369171373 0.37692894078356343 0 -0.32234333893280381 0.36356928432953323 0 -0.34045128460516239 0.37121283444629888 0 -0.33675778528754352 0.35511979063762011 0 -0.33675778528754352 0.35511979063762011 0 -0.32239965029058271 0.33856988327222259 0 -0.34402775761309529 0.33771886117191102 0 -0.30266746951701101 0.34746596706726618 0 -0.32234333893280381 0.36356928432953323 0 -0.30266746951701101 0.34746596706726618 0 -0.32234333893280381 0.36356928432953323 0 -0.32239965029058271 0.33856988327222259 0 -0.32234333893280381 0.36356928432953323 0 -0.33675778528754352 0.35511979063762011 0 -0.32239965029058271 0.33856988327222259 0 -0.33348862023011733 0.31090963237568708 0 -0.30790659942683257 0.32252558410999582 0 -0.32239965029058271 0.33856988327222259 0 -0.33348862023011733 0.31090963237568708 0 -0.34402775761309529 0.33771886117191102 0 -0.33348862023011733 0.31090963237568708 0 -0.32239965029058271 0.33856988327222259 0 -0.34402775761309529 0.33771886117191102 0 -0.34402775761309529 0.33771886117191102 0 -0.35767641898620672 0.32498080972358839 0 -0.36756966530709922 0.34734118009775028 0 -0.35821259196115768 0.30540756173026939 0 -0.33348862023011733 0.31090963237568708 0 -0.35767641898620672 0.32498080972358839 0 -0.33348862023011733 0.31090963237568708 0 -0.34402775761309529 0.33771886117191102 0 -0.35767641898620672 0.32498080972358839 0 -0.3758470803365288 0.32457556707505753 0 -0.35821259196115768 0.30540756173026939 0 -0.35767641898620672 0.32498080972358839 0 -0.3758470803365288 0.32457556707505753 0 -0.35767641898620672 0.32498080972358839 0 -0.36756966530709922 0.34734118009775028 0 -0.38385919673832719 0.36145192325341158 0 -0.36756966530709922 0.34734118009775028 0 -0.35790332653884471 0.36660315822751 0 -0.38385919673832719 0.36145192325341158 0 -0.35790332653884471 0.36660315822751 0 -0.37317249203050579 0.37557251567342709 0 -0.38385919673832719 0.36145192325341158 0 -0.35790332653884471 0.36660315822751 0 -0.36756966530709922 0.34734118009775028 0 -0.3545668949960733 0.36452808996813479 0 -0.35790332653884471 0.36660315822751 0 -0.34045128460516239 0.37121283444629888 0 -0.33675778528754352 0.35511979063762011 0 -0.3545668949960733 0.36452808996813479 0 -0.3545668949960733 0.36452808996813479 0 -0.35790332653884471 0.36660315822751 0 -0.36510603237905143 0.39133731876435868 0 -0.34045128460516239 0.37121283444629888 0 -0.3545668949960733 0.36452808996813479 0 -0.34953366001738728 0.38181328019223298 0 -0.33675778528754352 0.35511979063762011 0 -0.34402775761309529 0.33771886117191102 0 -0.3545668949960733 0.36452808996813479 0 -0.34402775761309529 0.33771886117191102 0 -0.3545668949960733 0.36452808996813479 0 -0.34402775761309529 0.33771886117191102 0 -0.36756966530709922 0.34734118009775028 0 -0.3545668949960733 0.36452808996813479 0 -0.3499898508213351 0.39530868693986632 0 -0.35571310880472951 0.40837388794603208 0 -0.33593243674606138 0.40326213181011061 0 -0.3499898508213351 0.39530868693986632 0 -0.36510603237905143 0.39133731876435868 0 -0.35571310880472951 0.40837388794603208 0 -0.3545668949960733 0.36452808996813479 0 -0.34953366001738728 0.38181328019223298 0 -0.36510603237905143 0.39133731876435868 0 -0.3499898508213351 0.39530868693986632 0 -0.34953366001738728 0.38181328019223298 0 -0.33717682733452581 0.38610545204151198 0 -0.3499898508213351 0.39530868693986632 0 -0.34953366001738728 0.38181328019223298 0 -0.36510603237905143 0.39133731876435868 0 -0.35790332653884471 0.36660315822751 0 -0.37317249203050579 0.37557251567342709 0 -0.36510603237905143 0.39133731876435868 0 -0.3834711658931681 0.38523775397718141 0 -0.37317249203050579 0.37557251567342709 0 -0.36510603237905143 0.39133731876435868 0 -0.3545668949960733 0.36452808996813479 0 -0.36510603237905143 0.39133731876435868 0 -0.37564516976202939 0.41814654756058273 0 -0.36510603237905143 0.39133731876435868 0 -0.37564516976202939 0.41814654756058273 0 -0.36510603237905143 0.39133731876435868 0 -0.35571310880472951 0.40837388794603208 0 -0.37564516976202939 0.41814654756058273 0 -0.37870440075174661 0.39954880356965811 0 -0.36510603237905143 0.39133731876435868 0 -0.37564516976202939 0.41814654756058273 0 -0.36090379129731981 0.42236354666908182 0 -0.35571310880472951 0.40837388794603208 0 -0.37650930679644939 0.4365659158875782 0 -0.37564516976202939 0.41814654756058273 0 -0.36644030377184872 0.43025608485044131 0 -0.37650930679644939 0.4365659158875782 0 -0.36644030377184872 0.43025608485044131 0 -0.36718826964986678 0.44096725480483501 0 -0.37564516976202939 0.41814654756058273 0 -0.36090379129731981 0.42236354666908182 0 -0.36644030377184872 0.43025608485044131 0 -0.36090379129731981 0.42236354666908182 0 -0.36644030377184872 0.43025608485044131 0 -0.35195498135357828 0.43323715933012902 0 -0.35195498135357828 0.43323715933012902 0 -0.36718826964986678 0.44096725480483501 0 -0.36644030377184872 0.43025608485044131 0 -0.35195498135357828 0.43323715933012902 0 -0.36718826964986678 0.44096725480483501 0 -0.36090379129731981 0.42236354666908182 0 -0.35195498135357828 0.43323715933012902 0 -0.34478191714990608 0.41949985145396251 0 -0.36090379129731981 0.42236354666908182 0 -0.34478191714990608 0.41949985145396251 0 -0.35571310880472951 0.40837388794603208 0 -0.34478191714990608 0.41949985145396251 0 -0.35571310880472951 0.40837388794603208 0 -0.33593243674606138 0.40326213181011061 0 -0.33063302764898123 0.41575650939189163 0 -0.31971646062609482 0.40729955729778428 0 -0.33593243674606138 0.40326213181011061 0 -0.34478191714990608 0.41949985145396251 0 -0.33063302764898123 0.41575650939189163 0 -0.33593243674606138 0.40326213181011061 0 -0.35195498135357828 0.43323715933012902 0 -0.34478191714990608 0.41949985145396251 0 -0.33297883765634417 0.43182539604702852 0 -0.34478191714990608 0.41949985145396251 0 -0.33063302764898123 0.41575650939189163 0 -0.33297883765634417 0.43182539604702852 0 -0.35195498135357828 0.43323715933012902 0 -0.33297883765634417 0.43182539604702852 0 -0.34188697217437197 0.44368429122114639 0 -0.33063302764898123 0.41575650939189163 0 -0.33297883765634417 0.43182539604702852 0 -0.31704169574919189 0.42199817203390949 0 -0.33297883765634417 0.43182539604702852 0 -0.31704169574919189 0.42199817203390949 0 -0.31683579137125212 0.43754940979552048 0 -0.31704169574919189 0.42199817203390949 0 -0.31971646062609482 0.40729955729778428 0 -0.30335448550296151 0.41139465140536452 0 -0.33063302764898123 0.41575650939189163 0 -0.31704169574919189 0.42199817203390949 0 -0.31971646062609482 0.40729955729778428 0 -0.31971646062609482 0.40729955729778428 0 -0.33593243674606138 0.40326213181011061 0 -0.31351586483685789 0.39049097759972562 0 -0.3499898508213351 0.39530868693986632 0 -0.33593243674606138 0.40326213181011061 0 -0.33717682733452581 0.38610545204151198 0 -0.33593243674606138 0.40326213181011061 0 -0.33717682733452581 0.38610545204151198 0 -0.31351586483685789 0.39049097759972562 0 -0.34045128460516239 0.37121283444629888 0 -0.33717682733452581 0.38610545204151198 0 -0.3241678369171373 0.37692894078356343 0 -0.34045128460516239 0.37121283444629888 0 -0.34953366001738728 0.38181328019223298 0 -0.33717682733452581 0.38610545204151198 0 -0.30735186887633648 0.3732661555007471 0 -0.3241678369171373 0.37692894078356343 0 -0.31351586483685789 0.39049097759972562 0 -0.33717682733452581 0.38610545204151198 0 -0.3241678369171373 0.37692894078356343 0 -0.31351586483685789 0.39049097759972562 0 -0.31351586483685789 0.39049097759972562 0 -0.28817898745462972 0.40003768675077161 0 -0.29091486795804578 0.38023741692011731 0 -0.30735186887633648 0.3732661555007471 0 -0.31351586483685789 0.39049097759972562 0 -0.29091486795804578 0.38023741692011731 0 -0.31971646062609482 0.40729955729778428 0 -0.31351586483685789 0.39049097759972562 0 -0.30335448550296151 0.41139465140536452 0 -0.31351586483685789 0.39049097759972562 0 -0.28817898745462972 0.40003768675077161 0 -0.30335448550296151 0.41139465140536452 0 -0.28817898745462972 0.40003768675077161 0 -0.29091486795804578 0.38023741692011731 0 -0.26907109183351657 0.37989953659430142 0 -0.28817898745462972 0.40003768675077161 0 -0.26907109183351657 0.37989953659430142 0 -0.26409983489011413 0.4024420464019946 0 -0.26409983489011413 0.4024420464019946 0 -0.25194003270841009 0.38307548587968071 0 -0.24794418767164639 0.39906824277759201 0 -0.26409983489011413 0.4024420464019946 0 -0.24744886464481161 0.4153073368199362 0 -0.24794418767164639 0.39906824277759201 0 -0.26907109183351657 0.37989953659430142 0 -0.26409983489011413 0.4024420464019946 0 -0.25194003270841009 0.38307548587968071 0 -0.2506105693747121 0.36383013873588399 0 -0.26907109183351657 0.37989953659430142 0 -0.25194003270841009 0.38307548587968071 0 -0.26409983489011413 0.4024420464019946 0 -0.26298050865027611 0.42948165882972611 0 -0.24744886464481161 0.4153073368199362 0 -0.26409983489011413 0.4024420464019946 0 -0.26298050865027611 0.42948165882972611 0 -0.28174569414184231 0.41892889356295038 0 -0.28817898745462972 0.40003768675077161 0 -0.26409983489011413 0.4024420464019946 0 -0.28174569414184231 0.41892889356295038 0 -0.26298050865027611 0.42948165882972611 0 -0.28174569414184231 0.41892889356295038 0 -0.28291497468531912 0.44405778710893379 0 -0.28174569414184231 0.41892889356295038 0 -0.30024164948836601 0.43011368855218618 0 -0.28291497468531912 0.44405778710893379 0 -0.28174569414184231 0.41892889356295038 0 -0.30335448550296151 0.41139465140536452 0 -0.30024164948836601 0.43011368855218618 0 -0.28817898745462972 0.40003768675077161 0 -0.28174569414184231 0.41892889356295038 0 -0.30335448550296151 0.41139465140536452 0 -0.31704169574919189 0.42199817203390949 0 -0.30335448550296151 0.41139465140536452 0 -0.30024164948836601 0.43011368855218618 0 -0.31704169574919189 0.42199817203390949 0 -0.30024164948836601 0.43011368855218618 0 -0.31683579137125212 0.43754940979552048 0 -0.2992353278154567 0.44739937283578562 0 -0.31683579137125212 0.43754940979552048 0 -0.31350239448152761 0.45124199652841029 0 -0.30024164948836601 0.43011368855218618 0 -0.2992353278154567 0.44739937283578562 0 -0.31683579137125212 0.43754940979552048 0 -0.2992353278154567 0.44739937283578562 0 -0.30458250162207767 0.4559531609513317 0 -0.31350239448152761 0.45124199652841029 0 -0.30950795253461738 0.46475654053828652 0 -0.30458250162207767 0.4559531609513317 0 -0.31350239448152761 0.45124199652841029 0 -0.2992353278154567 0.44739937283578562 0 -0.30458250162207767 0.4559531609513317 0 -0.2954412656595613 0.46001259374050202 0 -0.30950795253461738 0.46475654053828652 0 -0.30458250162207767 0.4559531609513317 0 -0.2954412656595613 0.46001259374050202 0 -0.30950795253461738 0.46475654053828652 0 -0.2954412656595613 0.46001259374050202 0 -0.29616635507584438 0.47244300071741779 0 -0.2954412656595613 0.46001259374050202 0 -0.28291497468531912 0.44405778710893379 0 -0.2800046733008163 0.46993660872536808 0 -0.2954412656595613 0.46001259374050202 0 -0.2800046733008163 0.46993660872536808 0 -0.29616635507584438 0.47244300071741779 0 -0.30024164948836601 0.43011368855218618 0 -0.2992353278154567 0.44739937283578562 0 -0.28291497468531912 0.44405778710893379 0 -0.2992353278154567 0.44739937283578562 0 -0.2954412656595613 0.46001259374050202 0 -0.28291497468531912 0.44405778710893379 0 -0.26298050865027611 0.42948165882972611 0 -0.28291497468531912 0.44405778710893379 0 -0.26296088283033853 0.45016614423684909 0 -0.28291497468531912 0.44405778710893379 0 -0.26296088283033853 0.45016614423684909 0 -0.2800046733008163 0.46993660872536808 0 -0.25035099202011718 0.46519555378338789 0 -0.26296088283033853 0.45016614423684909 0 -0.2800046733008163 0.46993660872536808 0 -0.25035099202011718 0.46519555378338789 0 -0.26296088283033853 0.45016614423684909 0 -0.23855326549516351 0.44215911273682929 0 -0.26298050865027611 0.42948165882972611 0 -0.26296088283033853 0.45016614423684909 0 -0.23855326549516351 0.44215911273682929 0 -0.26265058831754778 0.5 0 -0.26768316462180208 0.48272354251362021 0 -0.24509157912719279 0.48244009342452332 0 -0.25035099202011718 0.46519555378338789 0 -0.26768316462180208 0.48272354251362021 0 -0.24509157912719279 0.48244009342452332 0 -0.26768316462180208 0.48272354251362021 0 -0.2800046733008163 0.46993660872536808 0 -0.28757440204703671 0.48164207048472552 0 -0.25035099202011718 0.46519555378338789 0 -0.26768316462180208 0.48272354251362021 0 -0.2800046733008163 0.46993660872536808 0 -0.26265058831754778 0.5 0 -0.26768316462180208 0.48272354251362021 0 -0.28825137705031217 0.5 0 -0.26768316462180208 0.48272354251362021 0 -0.28825137705031217 0.5 0 -0.28757440204703671 0.48164207048472552 0 -0.28825137705031217 0.5 0 -0.28757440204703671 0.48164207048472552 0 -0.30576644018640858 0.48310720046722178 0 -0.28757440204703671 0.48164207048472552 0 -0.29616635507584438 0.47244300071741779 0 -0.30576644018640858 0.48310720046722178 0 -0.2800046733008163 0.46993660872536808 0 -0.28757440204703671 0.48164207048472552 0 -0.29616635507584438 0.47244300071741779 0 -0.30950795253461738 0.46475654053828652 0 -0.29616635507584438 0.47244300071741779 0 -0.30576644018640858 0.48310720046722178 0 -0.28825137705031217 0.5 0 -0.30576644018640858 0.48310720046722178 0 -0.31385216578307651 0.5 0 -0.30576644018640858 0.48310720046722178 0 -0.31385216578307651 0.5 0 -0.32448045352522908 0.48237827026914321 0 -0.31385216578307651 0.5 0 -0.33945295451584068 0.49999999999999978 0 -0.32448045352522908 0.48237827026914321 0 -0.33945295451584068 0.49999999999999978 0 -0.32448045352522908 0.48237827026914321 0 -0.33945295451584068 0.49999999999999978 0 -0.33721876803639861 0.48272650387769372 0 -0.35368838218782639 0.50000000000000022 0 -0.33945295451584068 0.49999999999999978 0 -0.33721876803639861 0.48272650387769372 0 -0.32448045352522908 0.48237827026914321 0 -0.33721876803639861 0.48272650387769372 0 -0.32074915388497088 0.46545300775538712 0 -0.33721876803639861 0.48272650387769372 0 -0.32074915388497088 0.46545300775538712 0 -0.33518018572222852 0.46695235042418881 0 -0.33721876803639861 0.48272650387769372 0 -0.33518018572222852 0.46695235042418881 0 -0.34779110042422468 0.46769742423086841 0 -0.30950795253461738 0.46475654053828652 0 -0.30576644018640858 0.48310720046722178 0 -0.32448045352522908 0.48237827026914321 0 -0.33721876803639861 0.48272650387769372 0 -0.32448045352522908 0.48237827026914321 0 -0.32074915388497088 0.46545300775538712 0 -0.30950795253461738 0.46475654053828652 0 -0.32448045352522908 0.48237827026914321 0 -0.32074915388497088 0.46545300775538712 0 -0.30950795253461738 0.46475654053828652 0 -0.32448045352522908 0.48237827026914321 0 -0.30950795253461738 0.46475654053828652 0 -0.32074915388497088 0.46545300775538712 0 -0.31350239448152761 0.45124199652841029 0 -0.32074915388497088 0.46545300775538712 0 -0.32756142744913219 0.45027139966157459 0 -0.33025599896506541 0.45995844106812378 0 -0.32074915388497088 0.46545300775538712 0 -0.31350239448152761 0.45124199652841029 0 -0.32756142744913219 0.45027139966157459 0 -0.33297883765634417 0.43182539604702852 0 -0.31683579137125212 0.43754940979552048 0 -0.32756142744913219 0.45027139966157459 0 -0.31683579137125212 0.43754940979552048 0 -0.31350239448152761 0.45124199652841029 0 -0.32756142744913219 0.45027139966157459 0 -0.33297883765634417 0.43182539604702852 0 -0.32756142744913219 0.45027139966157459 0 -0.34188697217437197 0.44368429122114639 0 -0.32756142744913219 0.45027139966157459 0 -0.34188697217437197 0.44368429122114639 0 -0.34146543405348512 0.45645900191964428 0 -0.32074915388497088 0.46545300775538712 0 -0.33518018572222852 0.46695235042418881 0 -0.33025599896506541 0.45995844106812378 0 -0.33518018572222852 0.46695235042418881 0 -0.33025599896506541 0.45995844106812378 0 -0.34146543405348512 0.45645900191964428 0 -0.32756142744913219 0.45027139966157459 0 -0.33025599896506541 0.45995844106812378 0 -0.34146543405348512 0.45645900191964428 0 -0.33518018572222852 0.46695235042418881 0 -0.34146543405348512 0.45645900191964428 0 -0.34779110042422468 0.46769742423086841 0 -0.3536648855741874 0.45859910472057941 0 -0.35442489810672639 0.44724458919548088 0 -0.36742635499821968 0.463608166108891 0 -0.34779110042422468 0.46769742423086841 0 -0.3536648855741874 0.45859910472057941 0 -0.36742635499821968 0.463608166108891 0 -0.34146543405348512 0.45645900191964428 0 -0.34779110042422468 0.46769742423086841 0 -0.3536648855741874 0.45859910472057941 0 -0.34146543405348512 0.45645900191964428 0 -0.3536648855741874 0.45859910472057941 0 -0.35442489810672639 0.44724458919548088 0 -0.35195498135357828 0.43323715933012902 0 -0.34188697217437197 0.44368429122114639 0 -0.35442489810672639 0.44724458919548088 0 -0.34188697217437197 0.44368429122114639 0 -0.34146543405348512 0.45645900191964428 0 -0.35442489810672639 0.44724458919548088 0 -0.35195498135357828 0.43323715933012902 0 -0.35442489810672639 0.44724458919548088 0 -0.36718826964986678 0.44096725480483501 0 -0.38242155794615451 0.44869735027954222 0 -0.36718826964986678 0.44096725480483501 0 -0.36742635499821968 0.463608166108891 0 -0.35442489810672639 0.44724458919548088 0 -0.36718826964986678 0.44096725480483501 0 -0.36742635499821968 0.463608166108891 0 -0.38242155794615451 0.44869735027954222 0 -0.36718826964986678 0.44096725480483501 0 -0.38242155794615451 0.44869735027954222 0 -0.36742635499821968 0.463608166108891 0 -0.38019299788565231 0.47848977499934098 0 -0.36742635499821968 0.463608166108891 0 -0.3661641522805214 0.48538665190787172 0 -0.36742635499821968 0.463608166108891 0 -0.3661641522805214 0.48538665190787172 0 -0.35243115205028458 0.47851898193823938 0 -0.36742635499821968 0.463608166108891 0 -0.35243115205028458 0.47851898193823938 0 -0.37886893178805381 0.5 0 -0.3661641522805214 0.48538665190787172 0 -0.35368838218782639 0.50000000000000022 0 -0.3661641522805214 0.48538665190787172 0 -0.35368838218782639 0.50000000000000022 0 -0.35243115205028458 0.47851898193823938 0 -0.33721876803639861 0.48272650387769372 0 -0.35368838218782639 0.50000000000000022 0 -0.35243115205028458 0.47851898193823938 0 -0.33721876803639861 0.48272650387769372 0 -0.35368838218782639 0.50000000000000022 0 -0.34779110042422468 0.46769742423086841 0 -0.36742635499821968 0.463608166108891 0 -0.35243115205028458 0.47851898193823938 0 -0.33721876803639861 0.48272650387769372 0 -0.34779110042422468 0.46769742423086841 0 -0.35243115205028458 0.47851898193823938 0 -0.14712490334106909 0.47465379983835848 0 -0.14052222285654881 0.48736851977807 0 -0.15927287193354769 0.48364810594619873 0 -0.1474663145935082 0.5 0 -0.14052222285654881 0.48736851977807 0 -0.15927287193354769 0.48364810594619873 0 -0.1474663145935082 0.5 0 -0.1255084222357632 0.49999999999999623 0 -0.14052222285654881 0.48736851977807 0 -0.1255084222357632 0.49999999999999623 0 -0.14052222285654881 0.48736851977807 0 -0.12919833598642891 0.47775545621249382 0 -0.1255084222357632 0.49999999999999623 0 -0.12919833598642891 0.47775545621249382 0 -0.14712490334106909 0.47465379983835848 0 -0.14052222285654881 0.48736851977807 0 -0.12919833598642891 0.47775545621249382 0 -0.14712490334106909 0.47465379983835848 0 -0.12919833598642891 0.47775545621249382 0 -0.1395292114641776 0.46543737473818358 0 -0.12919833598642891 0.47775545621249382 0 -0.13288824973709529 0.45551091242499159 0 -0.1246862184821103 0.46538218881283411 0 -0.12919833598642891 0.47775545621249382 0 -0.13288824973709529 0.45551091242499159 0 -0.1395292114641776 0.46543737473818358 0 -0.12919833598642891 0.47775545621249382 0 -0.13288824973709529 0.45551091242499159 0 -0.12583278976331069 0.45645648666127508 0 -0.13230584096792319 0.45349452208004271 0 -0.12085702220228151 0.4521593200779459 0 -0.12583278976331069 0.45645648666127508 0 -0.13288824973709529 0.45551091242499159 0 -0.1246862184821103 0.46538218881283411 0 -0.12583278976331069 0.45645648666127508 0 -0.13230584096792319 0.45349452208004271 0 -0.13288824973709529 0.45551091242499159 0 -0.13288824973709529 0.45551091242499159 0 -0.1395848684604471 0.45736438974735227 0 -0.1395292114641776 0.46543737473818358 0 -0.13288824973709529 0.45551091242499159 0 -0.1395848684604471 0.45736438974735227 0 -0.1406668296825464 0.45034947792617558 0 -0.13230584096792319 0.45349452208004271 0 -0.13288824973709529 0.45551091242499159 0 -0.13657816348776161 0.4332663686374893 0 -0.13230584096792319 0.45349452208004271 0 -0.1190304469214291 0.42634351652399199 0 -0.13288824973709529 0.45551091242499159 0 -0.13657816348776161 0.4332663686374893 0 -0.13230584096792319 0.45349452208004271 0 -0.13657816348776161 0.4332663686374893 0 -0.1190304469214291 0.42634351652399199 0 -0.13288824973709529 0.45551091242499159 0 -0.1388813840131769 0.44451439246907809 0 -0.13657816348776161 0.4332663686374893 0 -0.13288824973709529 0.45551091242499159 0 -0.1388813840131769 0.44451439246907809 0 -0.1406668296825464 0.45034947792617558 0 -0.1388813840131769 0.44451439246907809 0 -0.14619725261206881 0.43706125164819121 0 -0.13657816348776161 0.4332663686374893 0 -0.14666107797656849 0.45585752574327482 0 -0.16901466438117069 0.44606308198281891 0 -0.14619725261206881 0.43706125164819121 0 -0.1406668296825464 0.45034947792617558 0 -0.14666107797656849 0.45585752574327482 0 -0.14619725261206881 0.43706125164819121 0 -0.14666107797656849 0.45585752574327482 0 -0.14619725261206881 0.43706125164819121 0 -0.1388813840131769 0.44451439246907809 0 -0.1406668296825464 0.45034947792617558 0 -0.14619725261206881 0.43706125164819121 0 -0.14712490334106909 0.47465379983835848 0 -0.14666107797656849 0.45585752574327482 0 -0.16599932412517271 0.46508685805074479 0 -0.14712490334106909 0.47465379983835848 0 -0.1395292114641776 0.46543737473818358 0 -0.14666107797656849 0.45585752574327482 0 -0.14712490334106909 0.47465379983835848 0 -0.14666107797656849 0.45585752574327482 0 -0.1395848684604471 0.45736438974735227 0 -0.1395292114641776 0.46543737473818358 0 -0.14666107797656849 0.45585752574327482 0 -0.1395848684604471 0.45736438974735227 0 -0.1406668296825464 0.45034947792617558 0 -0.14666107797656849 0.45585752574327482 0 -0.14666107797656849 0.45585752574327482 0 -0.16599932412517271 0.46508685805074479 0 -0.16901466438117069 0.44606308198281891 0 -0.16901466438117069 0.44606308198281891 0 -0.14619725261206881 0.43706125164819121 0 -0.16901466438117069 0.44606308198281891 0 -0.15660759443069761 0.43108428515502623 0 -0.14619725261206881 0.43706125164819121 0 -0.16901466438117069 0.44606308198281891 0 -0.18443100047905669 0.45626821848666987 0 -0.1846883064476402 0.42530009742766361 0 -0.16599932412517271 0.46508685805074479 0 -0.18443100047905669 0.45626821848666987 0 -0.1855197229803256 0.4747241907737223 0 -0.16599932412517271 0.46508685805074479 0 -0.16901466438117069 0.44606308198281891 0 -0.18443100047905669 0.45626821848666987 0 -0.14712490334106909 0.47465379983835848 0 -0.16599932412517271 0.46508685805074479 0 -0.15927287193354769 0.48364810594619873 0 -0.16599932412517271 0.46508685805074479 0 -0.1855197229803256 0.4747241907737223 0 -0.15927287193354769 0.48364810594619873 0 -0.1474663145935082 0.5 0 -0.15927287193354769 0.48364810594619873 0 -0.16942420695125329 0.5 0 -0.1855197229803256 0.4747241907737223 0 -0.15927287193354769 0.48364810594619873 0 -0.16942420695125329 0.5 0 -0.1855197229803256 0.4747241907737223 0 -0.16942420695125329 0.5 0 -0.19196607116243 0.5 0 -0.1855197229803256 0.4747241907737223 0 -0.16942420695125329 0.5 0 -0.1855197229803256 0.4747241907737223 0 -0.19196607116243 0.5 0 -0.20613175362210831 0.48483451446423342 0 -0.1855197229803256 0.4747241907737223 0 -0.20613175362210831 0.48483451446423342 0 -0.2134267592011915 0.46629892103162951 0 -0.20613175362210831 0.48483451446423342 0 -0.22523827939298741 0.4831494605158152 0 -0.2134267592011915 0.46629892103162951 0 -0.19196607116243 0.5 0 -0.20613175362210831 0.48483451446423342 0 -0.2145079353736068 0.5 0 -0.20613175362210831 0.48483451446423342 0 -0.2145079353736068 0.5 0 -0.22523827939298741 0.4831494605158152 0 -0.2145079353736068 0.5 0 -0.22523827939298741 0.4831494605158152 0 -0.2370497995847835 0.50000000000000067 0 -0.22523827939298741 0.4831494605158152 0 -0.2370497995847835 0.50000000000000067 0 -0.22523827939298741 0.4831494605158152 0 -0.2134267592011915 0.46629892103162951 0 -0.22523827939298741 0.4831494605158152 0 -0.23203908766788661 0.46508622113871551 0 -0.2134267592011915 0.46629892103162951 0 -0.22523827939298741 0.4831494605158152 0 -0.24509157912719279 0.48244009342452332 0 -0.23203908766788661 0.46508622113871551 0 -0.25035099202011718 0.46519555378338789 0 -0.24509157912719279 0.48244009342452332 0 -0.23203908766788661 0.46508622113871551 0 -0.22523827939298741 0.4831494605158152 0 -0.24509157912719279 0.48244009342452332 0 -0.2370497995847835 0.50000000000000067 0 -0.26265058831754778 0.5 0 -0.24509157912719279 0.48244009342452332 0 -0.2370497995847835 0.50000000000000067 0 -0.25035099202011718 0.46519555378338789 0 -0.23855326549516351 0.44215911273682929 0 -0.25035099202011718 0.46519555378338789 0 -0.23855326549516351 0.44215911273682929 0 -0.23203908766788661 0.46508622113871551 0 -0.23203908766788661 0.46508622113871551 0 -0.2195736507706674 0.45127418534010832 0 -0.2134267592011915 0.46629892103162951 0 -0.23855326549516351 0.44215911273682929 0 -0.2195736507706674 0.45127418534010832 0 -0.21237897857875401 0.43254539891395988 0 -0.23855326549516351 0.44215911273682929 0 -0.23203908766788661 0.46508622113871551 0 -0.2195736507706674 0.45127418534010832 0 -0.2195736507706674 0.45127418534010832 0 -0.20161523900939629 0.44944838154744338 0 -0.21237897857875401 0.43254539891395988 0 -0.20161523900939629 0.44944838154744338 0 -0.21237897857875401 0.43254539891395988 0 -0.2195736507706674 0.45127418534010832 0 -0.2134267592011915 0.46629892103162951 0 -0.20161523900939629 0.44944838154744338 0 -0.2134267592011915 0.46629892103162951 0 -0.20161523900939629 0.44944838154744338 0 -0.1855197229803256 0.4747241907737223 0 -0.2134267592011915 0.46629892103162951 0 -0.20161523900939629 0.44944838154744338 0 -0.1855197229803256 0.4747241907737223 0 -0.20161523900939629 0.44944838154744338 0 -0.18443100047905669 0.45626821848666987 0 -0.1855197229803256 0.4747241907737223 0 -0.20161523900939629 0.44944838154744338 0 -0.18443100047905669 0.45626821848666987 0 -0.20161523900939629 0.44944838154744338 0 -0.1846883064476402 0.42530009742766361 0 -0.20070551840335471 0.41180556011594682 0 -0.21237897857875401 0.43254539891395988 0 -0.1846883064476402 0.42530009742766361 0 -0.20161523900939629 0.44944838154744338 0 -0.1846883064476402 0.42530009742766361 0 -0.20161523900939629 0.44944838154744338 0 -0.21237897857875401 0.43254539891395988 0 -0.1846883064476402 0.42530009742766361 0 -0.20070551840335471 0.41180556011594682 0 -0.18634093913714911 0.40477309033238412 0 -0.1846883064476402 0.42530009742766361 0 -0.21368829727653951 0.41275009529803453 0 -0.21237897857875401 0.43254539891395988 0 -0.22675553897020981 0.41912267169027068 0 -0.21368829727653951 0.41275009529803453 0 -0.22675553897020981 0.41912267169027068 0 -0.21495781244525611 0.39608623064371212 0 -0.20070551840335471 0.41180556011594682 0 -0.21368829727653951 0.41275009529803453 0 -0.21237897857875401 0.43254539891395988 0 -0.20070551840335471 0.41180556011594682 0 -0.21368829727653951 0.41275009529803453 0 -0.206572912966831 0.4030672290003447 0 -0.23855326549516351 0.44215911273682929 0 -0.21237897857875401 0.43254539891395988 0 -0.22675553897020981 0.41912267169027068 0 -0.23855326549516351 0.44215911273682929 0 -0.22675553897020981 0.41912267169027068 0 -0.22675553897020981 0.41912267169027068 0 -0.21495781244525611 0.39608623064371212 0 -0.22675553897020981 0.41912267169027068 0 -0.24744886464481161 0.4153073368199362 0 -0.2325491820986457 0.40212456989383277 0 -0.23855326549516351 0.44215911273682929 0 -0.22675553897020981 0.41912267169027068 0 -0.24744886464481161 0.4153073368199362 0 -0.26298050865027611 0.42948165882972611 0 -0.23855326549516351 0.44215911273682929 0 -0.24744886464481161 0.4153073368199362 0 -0.25194003270841009 0.38307548587968071 0 -0.2405494355578244 0.38899167127770129 0 -0.24794418767164639 0.39906824277759201 0 -0.25194003270841009 0.38307548587968071 0 -0.2405494355578244 0.38899167127770129 0 -0.23616808499740591 0.37130868448647619 0 -0.2405494355578244 0.38899167127770129 0 -0.22720352255992241 0.38767681425853501 0 -0.23616808499740591 0.37130868448647619 0 -0.24744886464481161 0.4153073368199362 0 -0.24794418767164639 0.39906824277759201 0 -0.2325491820986457 0.40212456989383277 0 -0.2405494355578244 0.38899167127770129 0 -0.24794418767164639 0.39906824277759201 0 -0.2325491820986457 0.40212456989383277 0 -0.2405494355578244 0.38899167127770129 0 -0.2325491820986457 0.40212456989383277 0 -0.22720352255992241 0.38767681425853501 0 -0.22675553897020981 0.41912267169027068 0 -0.2325491820986457 0.40212456989383277 0 -0.21495781244525611 0.39608623064371212 0 -0.2325491820986457 0.40212456989383277 0 -0.22720352255992241 0.38767681425853501 0 -0.21495781244525611 0.39608623064371212 0 -0.22720352255992241 0.38767681425853501 0 -0.21654716383027101 0.38276737640033381 0 -0.21495781244525611 0.39608623064371212 0 -0.22720352255992241 0.38767681425853501 0 -0.22086723439560271 0.37425667110193472 0 -0.23616808499740591 0.37130868448647619 0 -0.22720352255992241 0.38767681425853501 0 -0.21654716383027101 0.38276737640033381 0 -0.22086723439560271 0.37425667110193472 0 -0.21654716383027101 0.38276737640033381 0 -0.21495781244525611 0.39608623064371212 0 -0.20316008592030241 0.37304978959715351 0 -0.21495781244525611 0.39608623064371212 0 -0.20635359664081659 0.39215884792578842 0 -0.20316008592030241 0.37304978959715351 0 -0.21495781244525611 0.39608623064371212 0 -0.20316008592030241 0.37304978959715351 0 -0.21654716383027101 0.38276737640033381 0 -0.20316008592030241 0.37304978959715351 0 -0.22086723439560271 0.37425667110193472 0 -0.21368829727653951 0.41275009529803453 0 -0.21495781244525611 0.39608623064371212 0 -0.206572912966831 0.4030672290003447 0 -0.21495781244525611 0.39608623064371212 0 -0.20635359664081659 0.39215884792578842 0 -0.206572912966831 0.4030672290003447 0 -0.20070551840335471 0.41180556011594682 0 -0.206572912966831 0.4030672290003447 0 -0.19453897941605969 0.39663187429431068 0 -0.20635359664081659 0.39215884792578842 0 -0.206572912966831 0.4030672290003447 0 -0.19453897941605969 0.39663187429431068 0 -0.20070551840335471 0.41180556011594682 0 -0.19453897941605969 0.39663187429431068 0 -0.18634093913714911 0.40477309033238412 0 -0.20635359664081659 0.39215884792578842 0 -0.19453897941605969 0.39663187429431068 0 -0.18582740980124199 0.37557380956889402 0 -0.20635359664081659 0.39215884792578842 0 -0.18582740980124199 0.37557380956889402 0 -0.20316008592030241 0.37304978959715351 0 -0.20635359664081659 0.39215884792578842 0 -0.18582740980124199 0.37557380956889402 0 -0.19453897941605969 0.39663187429431068 0 -0.18582740980124199 0.37557380956889402 0 -0.181433499546965 0.39241270882250701 0 -0.18582740980124199 0.37557380956889402 0 -0.16944483430344659 0.38277747313096039 0 -0.181433499546965 0.39241270882250701 0 -0.18582740980124199 0.37557380956889402 0 -0.16944483430344659 0.38277747313096039 0 -0.16204439016421349 0.3723375905519089 0 -0.16944483430344659 0.38277747313096039 0 -0.16776137388588469 0.40115181330788319 0 -0.15083444132412921 0.37700352918810293 0 -0.16944483430344659 0.38277747313096039 0 -0.15083444132412921 0.37700352918810293 0 -0.16204439016421349 0.3723375905519089 0 -0.16776137388588469 0.40115181330788319 0 -0.15083444132412921 0.37700352918810293 0 -0.16776137388588469 0.40115181330788319 0 -0.15083444132412921 0.37700352918810293 0 -0.1529602010754372 0.39557286671680009 0 -0.16776137388588469 0.40115181330788319 0 -0.15638410943945949 0.40969361801716497 0 -0.1529602010754372 0.39557286671680009 0 -0.16776137388588469 0.40115181330788319 0 -0.181433499546965 0.39241270882250701 0 -0.18634093913714911 0.40477309033238412 0 -0.16944483430344659 0.38277747313096039 0 -0.16776137388588469 0.40115181330788319 0 -0.181433499546965 0.39241270882250701 0 -0.19453897941605969 0.39663187429431068 0 -0.181433499546965 0.39241270882250701 0 -0.18634093913714911 0.40477309033238412 0 -0.16776137388588469 0.40115181330788319 0 -0.1846883064476402 0.42530009742766361 0 -0.16437318045790661 0.42222727711750629 0 -0.16776137388588469 0.40115181330788319 0 -0.1846883064476402 0.42530009742766361 0 -0.16776137388588469 0.40115181330788319 0 -0.18634093913714911 0.40477309033238412 0 -0.1846883064476402 0.42530009742766361 0 -0.16901466438117069 0.44606308198281891 0 -0.1846883064476402 0.42530009742766361 0 -0.16437318045790661 0.42222727711750629 0 -0.16901466438117069 0.44606308198281891 0 -0.16437318045790661 0.42222727711750629 0 -0.15660759443069761 0.43108428515502623 0 -0.16437318045790661 0.42222727711750629 0 -0.15660759443069761 0.43108428515502623 0 -0.15347091953362829 0.42177411739971699 0 -0.16776137388588469 0.40115181330788319 0 -0.16437318045790661 0.42222727711750629 0 -0.15638410943945949 0.40969361801716497 0 -0.16437318045790661 0.42222727711750629 0 -0.15638410943945949 0.40969361801716497 0 -0.15347091953362829 0.42177411739971699 0 -0.14551788761915091 0.40953034972947988 0 -0.13933967679764919 0.41661866143011339 0 -0.14210119010753669 0.39997095422273748 0 -0.15638410943945949 0.40969361801716497 0 -0.15347091953362829 0.42177411739971699 0 -0.14551788761915091 0.40953034972947988 0 -0.14551788761915091 0.40953034972947988 0 -0.14619725261206881 0.43706125164819121 0 -0.13933967679764919 0.41661866143011339 0 -0.13933967679764919 0.41661866143011339 0 -0.14210119010753669 0.39997095422273748 0 -0.14619725261206881 0.43706125164819121 0 -0.13657816348776161 0.4332663686374893 0 -0.13933967679764919 0.41661866143011339 0 -0.15347091953362829 0.42177411739971699 0 -0.14551788761915091 0.40953034972947988 0 -0.14619725261206881 0.43706125164819121 0 -0.14551788761915091 0.40953034972947988 0 -0.14619725261206881 0.43706125164819121 0 -0.15660759443069761 0.43108428515502623 0 -0.15347091953362829 0.42177411739971699 0 -0.14619725261206881 0.43706125164819121 0 -0.14619725261206881 0.43706125164819121 0 -0.13657816348776161 0.4332663686374893 0 -0.13657816348776161 0.4332663686374893 0 -0.13022850443849579 0.42366019755955642 0 -0.13933967679764919 0.41661866143011339 0 -0.13657816348776161 0.4332663686374893 0 -0.13933967679764919 0.41661866143011339 0 -0.13657816348776161 0.4332663686374893 0 -0.1190304469214291 0.42634351652399199 0 -0.13657816348776161 0.4332663686374893 0 -0.13022850443849579 0.42366019755955642 0 -0.1190304469214291 0.42634351652399199 0 -0.13022850443849579 0.42366019755955642 0 -0.12930646825137379 0.41655316802922537 0 -0.1190304469214291 0.42634351652399199 0 -0.13376647678026771 0.40765529398533978 0 -0.13933967679764919 0.41661866143011339 0 -0.14210119010753669 0.39997095422273748 0 -0.13376647678026771 0.40765529398533978 0 -0.13933967679764919 0.41661866143011339 0 -0.12930646825137379 0.41655316802922537 0 -0.13022850443849579 0.42366019755955642 0 -0.13933967679764919 0.41661866143011339 0 -0.12930646825137379 0.41655316802922537 0 -0.13376647678026771 0.40765529398533978 0 -0.12930646825137379 0.41655316802922537 0 -0.1241672363190274 0.40848817064712528 0 -0.13376647678026771 0.40765529398533978 0 -0.1306942996620333 0.39824879112984368 0 -0.1241672363190274 0.40848817064712528 0 -0.13376647678026771 0.40765529398533978 0 -0.1306942996620333 0.39824879112984368 0 -0.14210119010753669 0.39997095422273748 0 -0.1306942996620333 0.39824879112984368 0 -0.13581598575259979 0.38958575654660149 0 -0.14210119010753669 0.39997095422273748 0 -0.1306942996620333 0.39824879112984368 0 -0.12608176556380321 0.38833673152831649 0 -0.13581598575259979 0.38958575654660149 0 -0.12608176556380321 0.38833673152831649 0 -0.13342024613325129 0.37913050760657308 0 -0.13581598575259979 0.38958575654660149 0 -0.13342024613325129 0.37913050760657308 0 -0.1241878350640226 0.36813727908146998 0 -0.1238073966877741 0.37873365924323621 0 -0.12608176556380321 0.38833673152831649 0 -0.13342024613325129 0.37913050760657308 0 -0.1238073966877741 0.37873365924323621 0 -0.13342024613325129 0.37913050760657308 0 -0.1448385226262337 0.38199944781076872 0 -0.1395211047859263 0.37074122211582972 0 -0.13342024613325129 0.37913050760657308 0 -0.13581598575259979 0.38958575654660149 0 -0.1448385226262337 0.38199944781076872 0 -0.1448385226262337 0.38199944781076872 0 -0.15083444132412921 0.37700352918810293 0 -0.1529602010754372 0.39557286671680009 0 -0.13581598575259979 0.38958575654660149 0 -0.1448385226262337 0.38199944781076872 0 -0.14210119010753669 0.39997095422273748 0 -0.14551788761915091 0.40953034972947988 0 -0.1448385226262337 0.38199944781076872 0 -0.14210119010753669 0.39997095422273748 0 -0.14551788761915091 0.40953034972947988 0 -0.1448385226262337 0.38199944781076872 0 -0.14551788761915091 0.40953034972947988 0 -0.1448385226262337 0.38199944781076872 0 -0.1529602010754372 0.39557286671680009 0 -0.15638410943945949 0.40969361801716497 0 -0.14551788761915091 0.40953034972947988 0 -0.1529602010754372 0.39557286671680009 0 -0.14415915763331649 0.35446854589205751 0 -0.14477503612209289 0.34240373285510539 0 -0.16530122296166749 0.35898877121199968 0 -0.14477503612209289 0.34240373285510539 0 -0.16530122296166749 0.35898877121199968 0 -0.14415915763331649 0.35446854589205751 0 -0.13459533615999739 0.3465950703088746 0 -0.14477503612209289 0.34240373285510539 0 -0.14415915763331649 0.35446854589205751 0 -0.15558480302083169 0.36569960921101718 0 -0.16530122296166749 0.35898877121199968 0 -0.1448385226262337 0.38199944781076872 0 -0.14415915763331649 0.35446854589205751 0 -0.1448385226262337 0.38199944781076872 0 -0.14415915763331649 0.35446854589205751 0 -0.1395211047859263 0.37074122211582972 0 -0.15083444132412921 0.37700352918810293 0 -0.14415915763331649 0.35446854589205751 0 -0.15558480302083169 0.36569960921101718 0 -0.1448385226262337 0.38199944781076872 0 -0.15083444132412921 0.37700352918810293 0 -0.14415915763331649 0.35446854589205751 0 -0.15083444132412921 0.37700352918810293 0 -0.15558480302083169 0.36569960921101718 0 -0.16204439016421349 0.3723375905519089 0 -0.14415915763331649 0.35446854589205751 0 -0.13566649275090359 0.3673663871539195 0 -0.1395211047859263 0.37074122211582972 0 -0.14415915763331649 0.35446854589205751 0 -0.13566649275090359 0.3673663871539195 0 -0.1339682439080635 0.35858239603040981 0 -0.13342024613325129 0.37913050760657308 0 -0.13566649275090359 0.3673663871539195 0 -0.1395211047859263 0.37074122211582972 0 -0.13342024613325129 0.37913050760657308 0 -0.13566649275090359 0.3673663871539195 0 -0.1241878350640226 0.36813727908146998 0 -0.12670220092891291 0.35487644211980979 0 -0.1339682439080635 0.35858239603040981 0 -0.1241878350640226 0.36813727908146998 0 -0.13566649275090359 0.3673663871539195 0 -0.1339682439080635 0.35858239603040981 0 -0.1241878350640226 0.36813727908146998 0 -0.12670220092891291 0.35487644211980979 0 -0.1339682439080635 0.35858239603040981 0 -0.13459533615999739 0.3465950703088746 0 -0.14415915763331649 0.35446854589205751 0 -0.1339682439080635 0.35858239603040981 0 -0.13459533615999739 0.3465950703088746 0 -0.13459533615999739 0.3465950703088746 0 -0.12734134172681441 0.34792052209721569 0 -0.12688977867168841 0.3385718981310013 0 -0.12734134172681441 0.34792052209721569 0 -0.12688977867168841 0.3385718981310013 0 -0.1211733388270079 0.34956562249112932 0 -0.12670220092891291 0.35487644211980979 0 -0.13459533615999739 0.3465950703088746 0 -0.12734134172681441 0.34792052209721569 0 -0.12670220092891291 0.35487644211980979 0 -0.12734134172681441 0.34792052209721569 0 -0.1211733388270079 0.34956562249112932 0 -0.13459533615999739 0.3465950703088746 0 -0.12688977867168841 0.3385718981310013 0 -0.13671184900035119 0.33746915858121368 0 -0.12688977867168841 0.3385718981310013 0 -0.1317980659444247 0.32905070231621908 0 -0.13671184900035119 0.33746915858121368 0 -0.12688977867168841 0.3385718981310013 0 -0.1317980659444247 0.32905070231621908 0 -0.1227729151365502 0.33470757795729222 0 -0.1317980659444247 0.32905070231621908 0 -0.13671184900035119 0.33746915858121368 0 -0.14494607725332551 0.33039018812013771 0 -0.13459533615999739 0.3465950703088746 0 -0.13671184900035119 0.33746915858121368 0 -0.14477503612209289 0.34240373285510539 0 -0.1317980659444247 0.32905070231621908 0 -0.12866243369168009 0.31606663983394601 0 -0.1192690258584588 0.32212258013816669 0 -0.1317980659444247 0.32905070231621908 0 -0.12866243369168009 0.31606663983394601 0 -0.13930964963868969 0.31950702665045971 0 -0.1317980659444247 0.32905070231621908 0 -0.13930964963868969 0.31950702665045971 0 -0.14494607725332551 0.33039018812013771 0 -0.12866243369168009 0.31606663983394601 0 -0.13930964963868969 0.31950702665045971 0 -0.14069103762506771 0.30443454703578487 0 -0.13930964963868969 0.31950702665045971 0 -0.15067447817765561 0.31757983482780838 0 -0.14069103762506771 0.30443454703578487 0 -0.13930964963868969 0.31950702665045971 0 -0.15067447817765561 0.31757983482780838 0 -0.14494607725332551 0.33039018812013771 0 -0.15067447817765561 0.31757983482780838 0 -0.14494607725332551 0.33039018812013771 0 -0.1576339281888966 0.32818622925436269 0 -0.14477503612209289 0.34240373285510539 0 -0.15376344624253979 0.33672623535866397 0 -0.16137277374248171 0.34369879851229812 0 -0.14477503612209289 0.34240373285510539 0 -0.14494607725332551 0.33039018812013771 0 -0.15376344624253979 0.33672623535866397 0 -0.13671184900035119 0.33746915858121368 0 -0.14477503612209289 0.34240373285510539 0 -0.14494607725332551 0.33039018812013771 0 -0.14494607725332551 0.33039018812013771 0 -0.15376344624253979 0.33672623535866397 0 -0.1576339281888966 0.32818622925436269 0 -0.16137277374248171 0.34369879851229812 0 -0.16867873422817309 0.33417257262337408 0 -0.17861440709547721 0.34537509382395382 0 -0.15376344624253979 0.33672623535866397 0 -0.16137277374248171 0.34369879851229812 0 -0.16867873422817309 0.33417257262337408 0 -0.15376344624253979 0.33672623535866397 0 -0.1576339281888966 0.32818622925436269 0 -0.16867873422817309 0.33417257262337408 0 -0.16867873422817309 0.33417257262337408 0 -0.16523934792892581 0.31773163522867631 0 -0.17678358093656771 0.32430470412154 0 -0.1576339281888966 0.32818622925436269 0 -0.16867873422817309 0.33417257262337408 0 -0.16523934792892581 0.31773163522867631 0 -0.15067447817765561 0.31757983482780838 0 -0.16523934792892581 0.31773163522867631 0 -0.15622682843102839 0.305229382677429 0 -0.15067447817765561 0.31757983482780838 0 -0.1576339281888966 0.32818622925436269 0 -0.16523934792892581 0.31773163522867631 0 -0.16523934792892581 0.31773163522867631 0 -0.17678358093656771 0.32430470412154 0 -0.18456587304121019 0.31264785222197472 0 -0.17678358093656771 0.32430470412154 0 -0.18456587304121019 0.31264785222197472 0 -0.18726376136364439 0.33295810432131379 0 -0.16867873422817309 0.33417257262337408 0 -0.17678358093656771 0.32430470412154 0 -0.18726376136364439 0.33295810432131379 0 -0.16867873422817309 0.33417257262337408 0 -0.18726376136364439 0.33295810432131379 0 -0.17861440709547721 0.34537509382395382 0 -0.17861440709547721 0.34537509382395382 0 -0.16530122296166749 0.35898877121199968 0 -0.1897999993957615 0.35895487459765552 0 -0.14477503612209289 0.34240373285510539 0 -0.16137277374248171 0.34369879851229812 0 -0.16530122296166749 0.35898877121199968 0 -0.16137277374248171 0.34369879851229812 0 -0.17861440709547721 0.34537509382395382 0 -0.16530122296166749 0.35898877121199968 0 -0.18582740980124199 0.37557380956889402 0 -0.16530122296166749 0.35898877121199968 0 -0.16204439016421349 0.3723375905519089 0 -0.15558480302083169 0.36569960921101718 0 -0.16530122296166749 0.35898877121199968 0 -0.16204439016421349 0.3723375905519089 0 -0.18582740980124199 0.37557380956889402 0 -0.16530122296166749 0.35898877121199968 0 -0.1897999993957615 0.35895487459765552 0 -0.18582740980124199 0.37557380956889402 0 -0.16530122296166749 0.35898877121199968 0 -0.1897999993957615 0.35895487459765552 0 -0.20838046154048531 0.35777543294248487 0 -0.20316008592030241 0.37304978959715351 0 -0.18582740980124199 0.37557380956889402 0 -0.1897999993957615 0.35895487459765552 0 -0.20316008592030241 0.37304978959715351 0 -0.17861440709547721 0.34537509382395382 0 -0.1897999993957615 0.35895487459765552 0 -0.19751640905539469 0.34296635044144702 0 -0.1897999993957615 0.35895487459765552 0 -0.20838046154048531 0.35777543294248487 0 -0.19751640905539469 0.34296635044144702 0 -0.20838046154048531 0.35777543294248487 0 -0.22476518155586481 0.35882069890342111 0 -0.21772392978029911 0.34025882105462102 0 -0.20838046154048531 0.35777543294248487 0 -0.21772392978029911 0.34025882105462102 0 -0.19751640905539469 0.34296635044144702 0 -0.20838046154048531 0.35777543294248487 0 -0.20316008592030241 0.37304978959715351 0 -0.22086723439560271 0.37425667110193472 0 -0.20838046154048531 0.35777543294248487 0 -0.22086723439560271 0.37425667110193472 0 -0.22476518155586481 0.35882069890342111 0 -0.22476518155586481 0.35882069890342111 0 -0.2362861017159964 0.34868768611983442 0 -0.23616808499740591 0.37130868448647619 0 -0.22086723439560271 0.37425667110193472 0 -0.22476518155586481 0.35882069890342111 0 -0.23616808499740591 0.37130868448647619 0 -0.22476518155586481 0.35882069890342111 0 -0.2362861017159964 0.34868768611983442 0 -0.21772392978029911 0.34025882105462102 0 -0.25128625425882162 0.34220069088993832 0 -0.2506105693747121 0.36383013873588399 0 -0.2362861017159964 0.34868768611983442 0 -0.2506105693747121 0.36383013873588399 0 -0.2362861017159964 0.34868768611983442 0 -0.23616808499740591 0.37130868448647619 0 -0.2506105693747121 0.36383013873588399 0 -0.25194003270841009 0.38307548587968071 0 -0.23616808499740591 0.37130868448647619 0 -0.25196193914293102 0.3205712430439927 0 -0.2355770462255346 0.33020462558155639 0 -0.23657567255519679 0.31059572368255361 0 -0.25128625425882162 0.34220069088993832 0 -0.25196193914293102 0.3205712430439927 0 -0.2355770462255346 0.33020462558155639 0 -0.25128625425882162 0.34220069088993832 0 -0.2362861017159964 0.34868768611983442 0 -0.2355770462255346 0.33020462558155639 0 -0.2355770462255346 0.33020462558155639 0 -0.22051372108335049 0.32224965216705892 0 -0.21772392978029911 0.34025882105462102 0 -0.2362861017159964 0.34868768611983442 0 -0.2355770462255346 0.33020462558155639 0 -0.21772392978029911 0.34025882105462102 0 -0.22051372108335049 0.32224965216705892 0 -0.23657567255519679 0.31059572368255361 0 -0.2355770462255346 0.33020462558155639 0 -0.22051372108335049 0.32224965216705892 0 -0.23657567255519679 0.31059572368255361 0 -0.22051372108335049 0.32224965216705892 0 -0.20937248489786231 0.31305201894419099 0 -0.20075331921197051 0.32362423576350502 0 -0.20937248489786231 0.31305201894419099 0 -0.20075331921197051 0.32362423576350502 0 -0.1996904166826193 0.30387237232517611 0 -0.22051372108335049 0.32224965216705892 0 -0.21772392978029911 0.34025882105462102 0 -0.20075331921197051 0.32362423576350502 0 -0.21772392978029911 0.34025882105462102 0 -0.19751640905539469 0.34296635044144702 0 -0.20075331921197051 0.32362423576350502 0 -0.18726376136364439 0.33295810432131379 0 -0.17861440709547721 0.34537509382395382 0 -0.19751640905539469 0.34296635044144702 0 -0.18726376136364439 0.33295810432131379 0 -0.19751640905539469 0.34296635044144702 0 -0.20075331921197051 0.32362423576350502 0 -0.18456587304121019 0.31264785222197472 0 -0.20075331921197051 0.32362423576350502 0 -0.1996904166826193 0.30387237232517611 0 -0.18456587304121019 0.31264785222197472 0 -0.18726376136364439 0.33295810432131379 0 -0.20075331921197051 0.32362423576350502 0 -0.18456587304121019 0.31264785222197472 0 -0.1996904166826193 0.30387237232517611 0 -0.18660977519513289 0.28785056889308103 0 -0.1996904166826193 0.30387237232517611 0 -0.20595627852220641 0.28881489778922859 0 -0.18660977519513289 0.28785056889308103 0 -0.20595627852220641 0.28881489778922859 0 -0.20184649910924429 0.27204443914034743 0 -0.18660977519513289 0.28785056889308103 0 -0.20595627852220641 0.28881489778922859 0 -0.21800521674968429 0.30189671776450261 0 -0.22362948487435089 0.27841039082303592 0 -0.22051372108335049 0.32224965216705892 0 -0.20937248489786231 0.31305201894419099 0 -0.21800521674968429 0.30189671776450261 0 -0.20937248489786231 0.31305201894419099 0 -0.1996904166826193 0.30387237232517611 0 -0.21800521674968429 0.30189671776450261 0 -0.1996904166826193 0.30387237232517611 0 -0.20595627852220641 0.28881489778922859 0 -0.21800521674968429 0.30189671776450261 0 -0.21800521674968429 0.30189671776450261 0 -0.23686467731635361 0.29239372506692152 0 -0.23657567255519679 0.31059572368255361 0 -0.22051372108335049 0.32224965216705892 0 -0.21800521674968429 0.30189671776450261 0 -0.23657567255519679 0.31059572368255361 0 -0.21800521674968429 0.30189671776450261 0 -0.23686467731635361 0.29239372506692152 0 -0.22362948487435089 0.27841039082303592 0 -0.25347538837549349 0.27212399786646818 0 -0.25263762402704248 0.2989417951980472 0 -0.23686467731635361 0.29239372506692152 0 -0.25263762402704248 0.2989417951980472 0 -0.23657567255519679 0.31059572368255361 0 -0.25263762402704248 0.2989417951980472 0 -0.25196193914293102 0.3205712430439927 0 -0.23657567255519679 0.31059572368255361 0 -0.25263762402704248 0.2989417951980472 0 -0.23686467731635361 0.29239372506692152 0 -0.23657567255519679 0.31059572368255361 0 -0.25431315272394672 0.24530620053488941 0 -0.25347538837549349 0.27212399786646818 0 -0.23323836201410181 0.25583372517248493 0 -0.25347538837549349 0.27212399786646818 0 -0.23686467731635361 0.29239372506692152 0 -0.22362948487435089 0.27841039082303592 0 -0.25347538837549349 0.27212399786646818 0 -0.22362948487435089 0.27841039082303592 0 -0.23323836201410181 0.25583372517248493 0 -0.22362948487435089 0.27841039082303592 0 -0.23323836201410181 0.25583372517248493 0 -0.21426437590275149 0.25886029303093089 0 -0.23323836201410181 0.25583372517248493 0 -0.21426437590275149 0.25886029303093089 0 -0.21880843467292391 0.24093373590104719 0 -0.21426437590275149 0.25886029303093089 0 -0.20184649910924429 0.27204443914034743 0 -0.19433512667207301 0.2478017714907787 0 -0.22362948487435089 0.27841039082303592 0 -0.21426437590275149 0.25886029303093089 0 -0.20184649910924429 0.27204443914034743 0 -0.20595627852220641 0.28881489778922859 0 -0.22362948487435089 0.27841039082303592 0 -0.20184649910924429 0.27204443914034743 0 -0.20184649910924429 0.27204443914034743 0 -0.1870798634126058 0.26387327680470879 0 -0.18660977519513289 0.28785056889308103 0 -0.20184649910924429 0.27204443914034743 0 -0.1870798634126058 0.26387327680470879 0 -0.19433512667207301 0.2478017714907787 0 -0.1870798634126058 0.26387327680470879 0 -0.16812504365636519 0.25079633514264771 0 -0.1737012009353491 0.274664080594617 0 -0.1870798634126058 0.26387327680470879 0 -0.16812504365636519 0.25079633514264771 0 -0.19433512667207301 0.2478017714907787 0 -0.16812504365636519 0.25079633514264771 0 -0.15690011777519819 0.26899510702676188 0 -0.1737012009353491 0.274664080594617 0 -0.15690011777519819 0.26899510702676188 0 -0.1737012009353491 0.274664080594617 0 -0.1545275301927764 0.28889158657275921 0 -0.1870798634126058 0.26387327680470879 0 -0.1737012009353491 0.274664080594617 0 -0.18660977519513289 0.28785056889308103 0 -0.1737012009353491 0.274664080594617 0 -0.18660977519513289 0.28785056889308103 0 -0.17173840985352179 0.29900911904623212 0 -0.18456587304121019 0.31264785222197472 0 -0.18660977519513289 0.28785056889308103 0 -0.17173840985352179 0.29900911904623212 0 -0.16523934792892581 0.31773163522867631 0 -0.18456587304121019 0.31264785222197472 0 -0.17173840985352179 0.29900911904623212 0 -0.17173840985352179 0.29900911904623212 0 -0.1545275301927764 0.28889158657275921 0 -0.15622682843102839 0.305229382677429 0 -0.16523934792892581 0.31773163522867631 0 -0.17173840985352179 0.29900911904623212 0 -0.15622682843102839 0.305229382677429 0 -0.1737012009353491 0.274664080594617 0 -0.17173840985352179 0.29900911904623212 0 -0.1545275301927764 0.28889158657275921 0 -0.1545275301927764 0.28889158657275921 0 -0.14069103762506771 0.30443454703578487 0 -0.13741380985306981 0.28246488606362452 0 -0.1545275301927764 0.28889158657275921 0 -0.15622682843102839 0.305229382677429 0 -0.14069103762506771 0.30443454703578487 0 -0.15067447817765561 0.31757983482780838 0 -0.15622682843102839 0.305229382677429 0 -0.14069103762506771 0.30443454703578487 0 -0.12866243369168009 0.31606663983394601 0 -0.14069103762506771 0.30443454703578487 0 -0.11994020144092481 0.29617179372304719 0 -0.14069103762506771 0.30443454703578487 0 -0.13741380985306981 0.28246488606362452 0 -0.11994020144092481 0.29617179372304719 0 -0.13741380985306981 0.28246488606362452 0 -0.1191686054971673 0.27125117872929722 0 -0.11994020144092481 0.29617179372304719 0 -0.13741380985306981 0.28246488606362452 0 -0.1401271712495599 0.26015743122291968 0 -0.1191686054971673 0.27125117872929722 0 -0.16812504365636519 0.25079633514264771 0 -0.15690011777519819 0.26899510702676188 0 -0.1401271712495599 0.26015743122291968 0 -0.15690011777519819 0.26899510702676188 0 -0.13741380985306981 0.28246488606362452 0 -0.1401271712495599 0.26015743122291968 0 -0.15690011777519819 0.26899510702676188 0 -0.1545275301927764 0.28889158657275921 0 -0.13741380985306981 0.28246488606362452 0 -0.095940140135479732 0.26647927040311198 0 -0.1191686054971673 0.27125117872929722 0 -0.1037168986820087 0.28384915290851082 0 -0.095940140135479732 0.26647927040311198 0 -0.1141754926604481 0.24622231976045519 0 -0.086731202422214132 0.24144406597925491 0 -0.095940140135479732 0.26647927040311198 0 -0.1141754926604481 0.24622231976045519 0 -0.1401271712495599 0.26015743122291968 0 -0.1191686054971673 0.27125117872929722 0 -0.1141754926604481 0.24622231976045519 0 -0.095940140135479732 0.26647927040311198 0 -0.1191686054971673 0.27125117872929722 0 -0.1141754926604481 0.24622231976045519 0 -0.1191686054971673 0.27125117872929722 0 -0.11994020144092481 0.29617179372304719 0 -0.1037168986820087 0.28384915290851082 0 -0.12866243369168009 0.31606663983394601 0 -0.11994020144092481 0.29617179372304719 0 -0.1144693811915707 0.31256448914478469 0 -0.11994020144092481 0.29617179372304719 0 -0.094637917071026173 0.29818136481390151 0 -0.1144693811915707 0.31256448914478469 0 -0.094637917071026173 0.29818136481390151 0 -0.098642333328068502 0.31822349143859152 0 -0.1144693811915707 0.31256448914478469 0 -0.11994020144092481 0.29617179372304719 0 -0.094637917071026173 0.29818136481390151 0 -0.1037168986820087 0.28384915290851082 0 -0.094637917071026173 0.29818136481390151 0 -0.074511751519586805 0.30173940491989082 0 -0.077704787610511472 0.28673622104576879 0 -0.094637917071026173 0.29818136481390151 0 -0.1037168986820087 0.28384915290851082 0 -0.077704787610511472 0.28673622104576879 0 -0.074511751519586805 0.30173940491989082 0 -0.098642333328068502 0.31822349143859152 0 -0.094637917071026173 0.29818136481390151 0 -0.074511751519586805 0.30173940491989082 0 -0.098642333328068502 0.31822349143859152 0 -0.074511751519586805 0.30173940491989082 0 -0.055505559893602882 0.30365794729569567 0 -0.061455286292981158 0.32201086714129129 0 -0.074511751519586805 0.30173940491989082 0 -0.077704787610511472 0.28673622104576879 0 -0.064450236759293678 0.27792849338758191 0 -0.074511751519586805 0.30173940491989082 0 -0.064450236759293678 0.27792849338758191 0 -0.050381169711104991 0.28525531840119001 0 -0.064450236759293678 0.27792849338758191 0 -0.06961845942432679 0.26321097098622959 0 -0.057801483314598022 0.26396959676094511 0 -0.064450236759293678 0.27792849338758191 0 -0.07518352712195675 0.27519778433641578 0 -0.06961845942432679 0.26321097098622959 0 -0.07518352712195675 0.27519778433641578 0 -0.080222233057772166 0.26509968577779142 0 -0.06961845942432679 0.26321097098622959 0 -0.077704787610511472 0.28673622104576879 0 -0.064450236759293678 0.27792849338758191 0 -0.07518352712195675 0.27519778433641578 0 -0.095940140135479732 0.26647927040311198 0 -0.1037168986820087 0.28384915290851082 0 -0.077704787610511472 0.28673622104576879 0 -0.095940140135479732 0.26647927040311198 0 -0.077704787610511472 0.28673622104576879 0 -0.07518352712195675 0.27519778433641578 0 -0.095940140135479732 0.26647927040311198 0 -0.07518352712195675 0.27519778433641578 0 -0.080222233057772166 0.26509968577779142 0 -0.095940140135479732 0.26647927040311198 0 -0.077704787610511472 0.28673622104576879 0 -0.095940140135479732 0.26647927040311198 0 -0.080222233057772166 0.26509968577779142 0 -0.080146805549325448 0.25551071738540798 0 -0.095940140135479732 0.26647927040311198 0 -0.080146805549325448 0.25551071738540798 0 -0.086731202422214132 0.24144406597925491 0 -0.080146805549325448 0.25551071738540798 0 -0.071230990303579128 0.25161037517079282 0 -0.06961845942432679 0.26321097098622959 0 -0.080146805549325448 0.25551071738540798 0 -0.071230990303579128 0.25161037517079282 0 -0.077190276960511534 0.24776428204628839 0 -0.080222233057772166 0.26509968577779142 0 -0.080146805549325448 0.25551071738540798 0 -0.06961845942432679 0.26321097098622959 0 -0.06961845942432679 0.26321097098622959 0 -0.062257212916627787 0.25561556661557011 0 -0.057801483314598022 0.26396959676094511 0 -0.071230990303579128 0.25161037517079282 0 -0.062257212916627787 0.25561556661557011 0 -0.063534814985122506 0.24893339603990661 0 -0.071230990303579128 0.25161037517079282 0 -0.06961845942432679 0.26321097098622959 0 -0.062257212916627787 0.25561556661557011 0 -0.057801483314598022 0.26396959676094511 0 -0.048085182826982598 0.25440480831515161 0 -0.047304632580182693 0.27009217002507419 0 -0.062257212916627787 0.25561556661557011 0 -0.048085182826982598 0.25440480831515161 0 -0.063534814985122506 0.24893339603990661 0 -0.062257212916627787 0.25561556661557011 0 -0.057801483314598022 0.26396959676094511 0 -0.048085182826982598 0.25440480831515161 0 -0.064450236759293678 0.27792849338758191 0 -0.047304632580182693 0.27009217002507419 0 -0.050381169711104991 0.28525531840119001 0 -0.064450236759293678 0.27792849338758191 0 -0.057801483314598022 0.26396959676094511 0 -0.047304632580182693 0.27009217002507419 0 -0.030721786342470608 0.26826535618198383 0 -0.026250587902622202 0.26877123188249091 0 -0.050381169711104991 0.28525531840119001 0 -0.026250587902622202 0.26877123188249091 0 -0.050381169711104991 0.28525531840119001 0 -0.047304632580182693 0.27009217002507419 0 -0.030721786342470608 0.26826535618198383 0 -0.050381169711104991 0.28525531840119001 0 -0.048085182826982598 0.25440480831515161 0 -0.031981097937586092 0.26080227832006031 0 -0.033504309038127879 0.25344643506317283 0 -0.048085182826982598 0.25440480831515161 0 -0.033504309038127879 0.25344643506317283 0 -0.032089104960769721 0.24230132180513439 0 -0.048085182826982598 0.25440480831515161 0 -0.031981097937586092 0.26080227832006031 0 -0.030721786342470608 0.26826535618198383 0 -0.048085182826982598 0.25440480831515161 0 -0.047304632580182693 0.27009217002507419 0 -0.030721786342470608 0.26826535618198383 0 -0.048085182826982598 0.25440480831515161 0 -0.030721786342470608 0.26826535618198383 0 -0.033504309038127879 0.25344643506317283 0 -0.027067680343725569 0.25690725218000138 0 -0.02512942210518598 0.25101643058845391 0 -0.026250587902622202 0.26877123188249091 0 -0.0076840247107458556 0.25608803856212531 0 -0.025451628503592821 0.26458687176367052 0 -0.026250587902622202 0.26877123188249091 0 -0.0076840247107458556 0.25608803856212531 0 -0.01927194413413506 0.25468424516464971 0 -0.025451628503592821 0.26458687176367052 0 -0.0076840247107458556 0.25608803856212531 0 -0.031981097937586092 0.26080227832006031 0 -0.033504309038127879 0.25344643506317283 0 -0.027067680343725569 0.25690725218000138 0 -0.027067680343725569 0.25690725218000138 0 -0.02512942210518598 0.25101643058845391 0 -0.01927194413413506 0.25468424516464971 0 -0.02512942210518598 0.25101643058845391 0 -0.01927194413413506 0.25468424516464971 0 -0.019554927409443659 0.24840553981020169 0 -0.027067680343725569 0.25690725218000138 0 -0.01927194413413506 0.25468424516464971 0 -0.025451628503592821 0.26458687176367052 0 -0.031981097937586092 0.26080227832006031 0 -0.027067680343725569 0.25690725218000138 0 -0.025451628503592821 0.26458687176367052 0 -0.031981097937586092 0.26080227832006031 0 -0.02822677185165634 0.26622544392437142 0 -0.030721786342470608 0.26826535618198383 0 -0.031981097937586092 0.26080227832006031 0 -0.025451628503592821 0.26458687176367052 0 -0.02822677185165634 0.26622544392437142 0 -0.02822677185165634 0.26622544392437142 0 -0.030721786342470608 0.26826535618198383 0 -0.026250587902622202 0.26877123188249091 0 -0.025451628503592821 0.26458687176367052 0 -0.02822677185165634 0.26622544392437142 0 -0.026250587902622202 0.26877123188249091 0 -0.025451628503592821 0.26458687176367052 0 -0.026250587902622202 0.26877123188249091 0 -0.026250587902622202 0.26877123188249091 0 -0.01217426032162538 0.27287142640378242 0 -0.019511543270824671 0.28164523624172411 0 -0.026250587902622202 0.26877123188249091 0 -0.01217426032162538 0.27287142640378242 0 -0.0076840247107458556 0.25608803856212531 0 -0.01217426032162538 0.27287142640378242 0 -0.0085320932602696124 0.29082580750067583 0 0.001175222610432694 0.26711532637121999 0 -0.0085320932602696124 0.29082580750067583 0 0.001175222610432694 0.26711532637121999 0 -0.01217426032162538 0.27287142640378242 0 -0.0076840247107458556 0.25608803856212531 0 0.001175222610432694 0.26711532637121999 0 -0.01927194413413506 0.25468424516464971 0 -0.0076840247107458556 0.25608803856212531 0 -0.013631593190307351 0.24545343092572849 0 -0.0085320932602696124 0.29082580750067583 0 -0.018239409130971929 0.31453628863013161 0 -0.00086725144680890539 0.3075537592967803 0 -0.0085320932602696124 0.29082580750067583 0 -0.018239409130971929 0.31453628863013161 0 -0.00086725144680890539 0.3075537592967803 0 -0.0085320932602696124 0.29082580750067583 0 0.0059625291972851919 0.29133533503307629 0 -0.01217426032162538 0.27287142640378242 0 -0.0085320932602696124 0.29082580750067583 0 -0.019511543270824671 0.28164523624172411 0 -0.026250587902622202 0.26877123188249091 0 -0.031089231598781509 0.29411247917994732 0 -0.019511543270824671 0.28164523624172411 0 -0.026250587902622202 0.26877123188249091 0 -0.031089231598781509 0.29411247917994732 0 -0.0085320932602696124 0.29082580750067583 0 -0.031089231598781509 0.29411247917994732 0 -0.019511543270824671 0.28164523624172411 0 -0.0085320932602696124 0.29082580750067583 0 -0.031089231598781509 0.29411247917994732 0 -0.018239409130971929 0.31453628863013161 0 -0.031089231598781509 0.29411247917994732 0 -0.035927875294942117 0.3194537264774035 0 -0.018239409130971929 0.31453628863013161 0 -0.031089231598781509 0.29411247917994732 0 -0.035927875294942117 0.3194537264774035 0 -0.031089231598781509 0.29411247917994732 0 -0.048794902750788217 0.31537101671638218 0 -0.035927875294942117 0.3194537264774035 0 -0.031089231598781509 0.29411247917994732 0 -0.055505559893602882 0.30365794729569567 0 -0.048794902750788217 0.31537101671638218 0 -0.031089231598781509 0.29411247917994732 0 -0.050381169711104991 0.28525531840119001 0 -0.055505559893602882 0.30365794729569567 0 -0.026250587902622202 0.26877123188249091 0 -0.031089231598781509 0.29411247917994732 0 -0.050381169711104991 0.28525531840119001 0 -0.074511751519586805 0.30173940491989082 0 -0.050381169711104991 0.28525531840119001 0 -0.074511751519586805 0.30173940491989082 0 -0.050381169711104991 0.28525531840119001 0 -0.055505559893602882 0.30365794729569567 0 -0.055505559893602882 0.30365794729569567 0 -0.061455286292981158 0.32201086714129129 0 -0.048794902750788217 0.31537101671638218 0 -0.061455286292981158 0.32201086714129129 0 -0.048794902750788217 0.31537101671638218 0 -0.048166649159360732 0.33015911165756401 0 -0.061455286292981158 0.32201086714129129 0 -0.048166649159360732 0.33015911165756401 0 -0.062541438551820747 0.34672524713615083 0 -0.048166649159360732 0.33015911165756401 0 -0.040766518991102743 0.34479497377485968 0 -0.062541438551820747 0.34672524713615083 0 -0.035927875294942117 0.3194537264774035 0 -0.027946725001674239 0.33824676975958751 0 -0.040766518991102743 0.34479497377485968 0 -0.035927875294942117 0.3194537264774035 0 -0.040766518991102743 0.34479497377485968 0 -0.048166649159360732 0.33015911165756401 0 -0.035927875294942117 0.3194537264774035 0 -0.040766518991102743 0.34479497377485968 0 -0.048794902750788217 0.31537101671638218 0 -0.048166649159360732 0.33015911165756401 0 -0.035927875294942117 0.3194537264774035 0 -0.018239409130971929 0.31453628863013161 0 -0.027946725001674239 0.33824676975958751 0 -0.012503496372367679 0.33072700881250627 0 -0.035927875294942117 0.3194537264774035 0 -0.018239409130971929 0.31453628863013161 0 -0.027946725001674239 0.33824676975958751 0 -0.018239409130971929 0.31453628863013161 0 -0.027946725001674239 0.33824676975958751 0 -0.027946725001674239 0.33824676975958751 0 -0.012503496372367679 0.33072700881250627 0 -0.0088191621650941174 0.35014621820995018 0 -0.0088191621650941174 0.35014621820995018 0 0.0039066078705810902 0.32565270157566811 0 -0.012503496372367679 0.33072700881250627 0 -0.0088191621650941174 0.35014621820995018 0 0.0039066078705810902 0.32565270157566811 0 -0.00086725144680890539 0.3075537592967803 0 -0.0069258872698918566 0.31961743957877159 0 0.0039066078705810902 0.32565270157566811 0 -0.00086725144680890539 0.3075537592967803 0 -0.018239409130971929 0.31453628863013161 0 -0.0069258872698918566 0.31961743957877159 0 -0.012503496372367679 0.33072700881250627 0 -0.0069258872698918566 0.31961743957877159 0 0.0039066078705810902 0.32565270157566811 0 -0.018239409130971929 0.31453628863013161 0 -0.012503496372367679 0.33072700881250627 0 -0.0069258872698918566 0.31961743957877159 0 -0.0027408384749401621 0.37089816177016621 0 -0.0088191621650941174 0.35014621820995018 0 -0.01741190038457761 0.36899299586475998 0 -0.0088191621650941174 0.35014621820995018 0 -0.024237719892226249 0.3536076530152602 0 -0.01741190038457761 0.36899299586475998 0 -0.027946725001674239 0.33824676975958751 0 -0.024237719892226249 0.3536076530152602 0 -0.037654040872376553 0.36195725088904318 0 -0.027946725001674239 0.33824676975958751 0 -0.0088191621650941174 0.35014621820995018 0 -0.024237719892226249 0.3536076530152602 0 -0.024237719892226249 0.3536076530152602 0 -0.028205432277318629 0.36903379098172961 0 -0.037654040872376553 0.36195725088904318 0 -0.024237719892226249 0.3536076530152602 0 -0.01741190038457761 0.36899299586475998 0 -0.028205432277318629 0.36903379098172961 0 -0.01741190038457761 0.36899299586475998 0 -0.028205432277318629 0.36903379098172961 0 -0.02448474412756791 0.37899719567982049 0 -0.037654040872376553 0.36195725088904318 0 -0.04736135674307905 0.38566773201849902 0 -0.037654040872376553 0.36195725088904318 0 -0.040421643826686837 0.38192035768383747 0 -0.035565535846488541 0.38101875760245763 0 -0.037654040872376553 0.36195725088904318 0 -0.045605162687263348 0.37013622107231592 0 -0.04736135674307905 0.38566773201849902 0 -0.028205432277318629 0.36903379098172961 0 -0.037654040872376553 0.36195725088904318 0 -0.035565535846488541 0.38101875760245763 0 -0.045605162687263348 0.37013622107231592 0 -0.040766518991102743 0.34479497377485968 0 -0.037654040872376553 0.36195725088904318 0 -0.045605162687263348 0.37013622107231592 0 -0.040766518991102743 0.34479497377485968 0 -0.027946725001674239 0.33824676975958751 0 -0.037654040872376553 0.36195725088904318 0 -0.040766518991102743 0.34479497377485968 0 -0.027946725001674239 0.33824676975958751 0 -0.037654040872376553 0.36195725088904318 0 -0.045605162687263348 0.37013622107231592 0 -0.040766518991102743 0.34479497377485968 0 -0.051265602717184992 0.35558508280487128 0 -0.051265602717184992 0.35558508280487128 0 -0.056649025492324881 0.36375659073674549 0 -0.062541438551820747 0.34672524713615083 0 -0.040766518991102743 0.34479497377485968 0 -0.051265602717184992 0.35558508280487128 0 -0.062541438551820747 0.34672524713615083 0 -0.070184733213131012 0.36779004898855971 0 -0.060820788225481502 0.37895814249754117 0 -0.052140101395557192 0.3770878243514304 0 -0.056649025492324881 0.36375659073674549 0 -0.070184733213131012 0.36779004898855971 0 -0.052140101395557192 0.3770878243514304 0 -0.070184733213131012 0.36779004898855971 0 -0.052140101395557192 0.3770878243514304 0 -0.045605162687263348 0.37013622107231592 0 -0.056649025492324881 0.36375659073674549 0 -0.052140101395557192 0.3770878243514304 0 -0.045605162687263348 0.37013622107231592 0 -0.051265602717184992 0.35558508280487128 0 -0.056649025492324881 0.36375659073674549 0 -0.070184733213131012 0.36779004898855971 0 -0.089086415032650412 0.35805066536937402 0 -0.075086774153527644 0.35409228622053762 0 -0.056649025492324881 0.36375659073674549 0 -0.070184733213131012 0.36779004898855971 0 -0.062541438551820747 0.34672524713615083 0 -0.070184733213131012 0.36779004898855971 0 -0.089086415032650412 0.35805066536937402 0 -0.070184733213131012 0.36779004898855971 0 -0.090174531187814627 0.36732702890303742 0 -0.089086415032650412 0.35805066536937402 0 -0.070184733213131012 0.36779004898855971 0 -0.090174531187814627 0.36732702890303742 0 -0.084663668334354542 0.37820730901981803 0 -0.090174531187814627 0.36732702890303742 0 -0.089086415032650412 0.35805066536937402 0 -0.099102206396847345 0.36203537208235798 0 -0.083935960898337741 0.34773800837075192 0 -0.075086774153527644 0.35409228622053762 0 -0.079103126589356629 0.33616199657096058 0 -0.089086415032650412 0.35805066536937402 0 -0.083935960898337741 0.34773800837075192 0 -0.092467527817816308 0.3426470853221355 0 -0.089086415032650412 0.35805066536937402 0 -0.083935960898337741 0.34773800837075192 0 -0.075086774153527644 0.35409228622053762 0 -0.062541438551820747 0.34672524713615083 0 -0.075086774153527644 0.35409228622053762 0 -0.079103126589356629 0.33616199657096058 0 -0.070184733213131012 0.36779004898855971 0 -0.062541438551820747 0.34672524713615083 0 -0.070184733213131012 0.36779004898855971 0 -0.062541438551820747 0.34672524713615083 0 -0.075086774153527644 0.35409228622053762 0 -0.061455286292981158 0.32201086714129129 0 -0.062541438551820747 0.34672524713615083 0 -0.079103126589356629 0.33616199657096058 0 -0.061455286292981158 0.32201086714129129 0 -0.078428124432498275 0.31953394001768348 0 -0.079103126589356629 0.33616199657096058 0 -0.074511751519586805 0.30173940491989082 0 -0.061455286292981158 0.32201086714129129 0 -0.078428124432498275 0.31953394001768348 0 -0.078428124432498275 0.31953394001768348 0 -0.079103126589356629 0.33616199657096058 0 -0.098642333328068502 0.31822349143859152 0 -0.074511751519586805 0.30173940491989082 0 -0.078428124432498275 0.31953394001768348 0 -0.098642333328068502 0.31822349143859152 0 -0.079103126589356629 0.33616199657096058 0 -0.092467527817816308 0.3426470853221355 0 -0.098642333328068502 0.31822349143859152 0 -0.083935960898337741 0.34773800837075192 0 -0.079103126589356629 0.33616199657096058 0 -0.092467527817816308 0.3426470853221355 0 -0.092467527817816308 0.3426470853221355 0 -0.098642333328068502 0.31822349143859152 0 -0.1079880968521694 0.34831128175018772 0 -0.098642333328068502 0.31822349143859152 0 -0.1144693811915707 0.31256448914478469 0 -0.1192690258584588 0.32212258013816669 0 -0.098642333328068502 0.31822349143859152 0 -0.1227729151365502 0.33470757795729222 0 -0.098642333328068502 0.31822349143859152 0 -0.1192690258584588 0.32212258013816669 0 -0.1227729151365502 0.33470757795729222 0 -0.12866243369168009 0.31606663983394601 0 -0.1144693811915707 0.31256448914478469 0 -0.1192690258584588 0.32212258013816669 0 -0.12688977867168841 0.3385718981310013 0 -0.1227729151365502 0.33470757795729222 0 -0.1079880968521694 0.34831128175018772 0 -0.098642333328068502 0.31822349143859152 0 -0.1227729151365502 0.33470757795729222 0 -0.1079880968521694 0.34831128175018772 0 -0.12688977867168841 0.3385718981310013 0 -0.1079880968521694 0.34831128175018772 0 -0.1317980659444247 0.32905070231621908 0 -0.1192690258584588 0.32212258013816669 0 -0.1227729151365502 0.33470757795729222 0 -0.1169452759554542 0.35814796835743168 0 -0.109023522900582 0.36480152436282709 0 -0.1079880968521694 0.34831128175018772 0 -0.12688977867168841 0.3385718981310013 0 -0.1211733388270079 0.34956562249112932 0 -0.1079880968521694 0.34831128175018772 0 -0.1211733388270079 0.34956562249112932 0 -0.1169452759554542 0.35814796835743168 0 -0.1079880968521694 0.34831128175018772 0 -0.12670220092891291 0.35487644211980979 0 -0.1211733388270079 0.34956562249112932 0 -0.1169452759554542 0.35814796835743168 0 -0.12670220092891291 0.35487644211980979 0 -0.1169452759554542 0.35814796835743168 0 -0.1241878350640226 0.36813727908146998 0 -0.1241878350640226 0.36813727908146998 0 -0.109023522900582 0.36480152436282709 0 -0.113942445031324 0.3794163946153053 0 -0.1169452759554542 0.35814796835743168 0 -0.1241878350640226 0.36813727908146998 0 -0.109023522900582 0.36480152436282709 0 -0.109023522900582 0.36480152436282709 0 -0.10240717505645081 0.3721159022813767 0 -0.099102206396847345 0.36203537208235798 0 -0.109023522900582 0.36480152436282709 0 -0.10240717505645081 0.3721159022813767 0 -0.113942445031324 0.3794163946153053 0 -0.090174531187814627 0.36732702890303742 0 -0.10240717505645081 0.3721159022813767 0 -0.099102206396847345 0.36203537208235798 0 -0.089086415032650412 0.35805066536937402 0 -0.1079880968521694 0.34831128175018772 0 -0.109023522900582 0.36480152436282709 0 -0.099102206396847345 0.36203537208235798 0 -0.1079880968521694 0.34831128175018772 0 -0.089086415032650412 0.35805066536937402 0 -0.092467527817816308 0.3426470853221355 0 -0.1079880968521694 0.34831128175018772 0 -0.089086415032650412 0.35805066536937402 0 -0.099102206396847345 0.36203537208235798 0 -0.1079880968521694 0.34831128175018772 0 -0.099793169765685835 0.38699919144335571 0 -0.1175677722406278 0.39487419880549862 0 -0.1094118083435571 0.40667135398367399 0 -0.099793169765685835 0.38699919144335571 0 -0.1094118083435571 0.40667135398367399 0 -0.09539754045443187 0.4013360017783365 0 -0.099793169765685835 0.38699919144335571 0 -0.1094118083435571 0.40667135398367399 0 -0.090174531187814627 0.36732702890303742 0 -0.099793169765685835 0.38699919144335571 0 -0.090174531187814627 0.36732702890303742 0 -0.10240717505645081 0.3721159022813767 0 -0.099793169765685835 0.38699919144335571 0 -0.10240717505645081 0.3721159022813767 0 -0.099793169765685835 0.38699919144335571 0 -0.113942445031324 0.3794163946153053 0 -0.099793169765685835 0.38699919144335571 0 -0.113942445031324 0.3794163946153053 0 -0.1175677722406278 0.39487419880549862 0 -0.1241878350640226 0.36813727908146998 0 -0.113942445031324 0.3794163946153053 0 -0.1238073966877741 0.37873365924323621 0 -0.12608176556380321 0.38833673152831649 0 -0.113942445031324 0.3794163946153053 0 -0.1238073966877741 0.37873365924323621 0 -0.12608176556380321 0.38833673152831649 0 -0.113942445031324 0.3794163946153053 0 -0.1175677722406278 0.39487419880549862 0 -0.1306942996620333 0.39824879112984368 0 -0.12608176556380321 0.38833673152831649 0 -0.1175677722406278 0.39487419880549862 0 -0.1175677722406278 0.39487419880549862 0 -0.1241672363190274 0.40848817064712528 0 -0.1094118083435571 0.40667135398367399 0 -0.1306942996620333 0.39824879112984368 0 -0.1175677722406278 0.39487419880549862 0 -0.1241672363190274 0.40848817064712528 0 -0.12930646825137379 0.41655316802922537 0 -0.1241672363190274 0.40848817064712528 0 -0.1190304469214291 0.42634351652399199 0 -0.1094118083435571 0.40667135398367399 0 -0.1190304469214291 0.42634351652399199 0 -0.10292509602493601 0.41998970051203482 0 -0.1094118083435571 0.40667135398367399 0 -0.1190304469214291 0.42634351652399199 0 -0.1241672363190274 0.40848817064712528 0 -0.1094118083435571 0.40667135398367399 0 -0.1190304469214291 0.42634351652399199 0 -0.1190304469214291 0.42634351652399199 0 -0.10787727907053279 0.43102558932617929 0 -0.1189147267103095 0.44255506973396203 0 -0.1190304469214291 0.42634351652399199 0 -0.10787727907053279 0.43102558932617929 0 -0.10292509602493601 0.41998970051203482 0 -0.1190304469214291 0.42634351652399199 0 -0.10292509602493601 0.41998970051203482 0 -0.094296414850444446 0.43424147059727641 0 -0.10292509602493601 0.41998970051203482 0 -0.086819745128442455 0.41363588450007871 0 -0.10787727907053279 0.43102558932617929 0 -0.094296414850444446 0.43424147059727641 0 -0.10489609478330029 0.44198698135309628 0 -0.10787727907053279 0.43102558932617929 0 -0.094296414850444446 0.43424147059727641 0 -0.10292509602493601 0.41998970051203482 0 -0.10292509602493601 0.41998970051203482 0 -0.086819745128442455 0.41363588450007871 0 -0.09539754045443187 0.4013360017783365 0 -0.10292509602493601 0.41998970051203482 0 -0.086819745128442455 0.41363588450007871 0 -0.09539754045443187 0.4013360017783365 0 -0.1094118083435571 0.40667135398367399 0 -0.10292509602493601 0.41998970051203482 0 -0.086819745128442455 0.41363588450007871 0 -0.080403696813333758 0.42822442334218003 0 -0.067602868438110628 0.4200833468421078 0 -0.094296414850444446 0.43424147059727641 0 -0.086819745128442455 0.41363588450007871 0 -0.094296414850444446 0.43424147059727641 0 -0.086819745128442455 0.41363588450007871 0 -0.080403696813333758 0.42822442334218003 0 -0.094296414850444446 0.43424147059727641 0 -0.080403696813333758 0.42822442334218003 0 -0.081805586992246437 0.44006997272146359 0 -0.080403696813333758 0.42822442334218003 0 -0.071493868657424756 0.43309144204997319 0 -0.081805586992246437 0.44006997272146359 0 -0.080403696813333758 0.42822442334218003 0 -0.071493868657424756 0.43309144204997319 0 -0.067602868438110628 0.4200833468421078 0 -0.071493868657424756 0.43309144204997319 0 -0.067602868438110628 0.4200833468421078 0 -0.057712391427365638 0.42937881499284042 0 -0.071493868657424756 0.43309144204997319 0 -0.057712391427365638 0.42937881499284042 0 -0.063188884568133166 0.43786636086151398 0 -0.086819745128442455 0.41363588450007871 0 -0.068920738968579573 0.4065744430780604 0 -0.086819745128442455 0.41363588450007871 0 -0.067602868438110628 0.4200833468421078 0 -0.068920738968579573 0.4065744430780604 0 -0.068920738968579573 0.4065744430780604 0 -0.060560373938256092 0.40240444083622678 0 -0.05824853896136744 0.41361953024544912 0 -0.067602868438110628 0.4200833468421078 0 -0.068920738968579573 0.4065744430780604 0 -0.05824853896136744 0.41361953024544912 0 -0.086819745128442455 0.41363588450007871 0 -0.068920738968579573 0.4065744430780604 0 -0.078502239170786692 0.39071296674431932 0 -0.068920738968579573 0.4065744430780604 0 -0.063458683173731378 0.39338493684004711 0 -0.060560373938256092 0.40240444083622678 0 -0.068920738968579573 0.4065744430780604 0 -0.063458683173731378 0.39338493684004711 0 -0.078502239170786692 0.39071296674431932 0 -0.09539754045443187 0.4013360017783365 0 -0.086819745128442455 0.41363588450007871 0 -0.078502239170786692 0.39071296674431932 0 -0.086819745128442455 0.41363588450007871 0 -0.078502239170786692 0.39071296674431932 0 -0.09539754045443187 0.4013360017783365 0 -0.099793169765685835 0.38699919144335571 0 -0.078502239170786692 0.39071296674431932 0 -0.099793169765685835 0.38699919144335571 0 -0.078502239170786692 0.39071296674431932 0 -0.084663668334354542 0.37820730901981803 0 -0.090174531187814627 0.36732702890303742 0 -0.099793169765685835 0.38699919144335571 0 -0.084663668334354542 0.37820730901981803 0 -0.070184733213131012 0.36779004898855971 0 -0.078502239170786692 0.39071296674431932 0 -0.067817601460299387 0.38379976961501611 0 -0.070184733213131012 0.36779004898855971 0 -0.078502239170786692 0.39071296674431932 0 -0.070184733213131012 0.36779004898855971 0 -0.078502239170786692 0.39071296674431932 0 -0.084663668334354542 0.37820730901981803 0 -0.070184733213131012 0.36779004898855971 0 -0.067817601460299387 0.38379976961501611 0 -0.060820788225481502 0.37895814249754117 0 -0.063458683173731378 0.39338493684004711 0 -0.078502239170786692 0.39071296674431932 0 -0.067817601460299387 0.38379976961501611 0 -0.063458683173731378 0.39338493684004711 0 -0.067817601460299387 0.38379976961501611 0 -0.061153128273861448 0.38609789140056711 0 -0.067817601460299387 0.38379976961501611 0 -0.060820788225481502 0.37895814249754117 0 -0.061153128273861448 0.38609789140056711 0 -0.060820788225481502 0.37895814249754117 0 -0.061153128273861448 0.38609789140056711 0 -0.0553417338667785 0.38482176304130372 0 -0.063458683173731378 0.39338493684004711 0 -0.061153128273861448 0.38609789140056711 0 -0.055663743277436152 0.38971149307041891 0 -0.061153128273861448 0.38609789140056711 0 -0.055663743277436152 0.38971149307041891 0 -0.0553417338667785 0.38482176304130372 0 -0.0553417338667785 0.38482176304130372 0 -0.051856543503226347 0.38750402697525038 0 -0.04736135674307905 0.38566773201849902 0 -0.060820788225481502 0.37895814249754117 0 -0.0553417338667785 0.38482176304130372 0 -0.04736135674307905 0.38566773201849902 0 -0.055663743277436152 0.38971149307041891 0 -0.0553417338667785 0.38482176304130372 0 -0.051856543503226347 0.38750402697525038 0 -0.055663743277436152 0.38971149307041891 0 -0.051856543503226347 0.38750402697525038 0 -0.049059340125611729 0.38981511977078021 0 -0.051856543503226347 0.38750402697525038 0 -0.049059340125611729 0.38981511977078021 0 -0.04736135674307905 0.38566773201849902 0 -0.049059340125611729 0.38981511977078021 0 -0.04736135674307905 0.38566773201849902 0 -0.049059340125611729 0.38981511977078021 0 -0.04736135674307905 0.38566773201849902 0 -0.044968426723934952 0.39147082103877989 0 -0.045605162687263348 0.37013622107231592 0 -0.04736135674307905 0.38566773201849902 0 -0.052140101395557192 0.3770878243514304 0 -0.060820788225481502 0.37895814249754117 0 -0.04736135674307905 0.38566773201849902 0 -0.060820788225481502 0.37895814249754117 0 -0.04736135674307905 0.38566773201849902 0 -0.052140101395557192 0.3770878243514304 0 -0.060560373938256092 0.40240444083622678 0 -0.054812054435080887 0.39645579918000962 0 -0.053692880515783213 0.4054556575737821 0 -0.063458683173731378 0.39338493684004711 0 -0.060560373938256092 0.40240444083622678 0 -0.054812054435080887 0.39645579918000962 0 -0.063458683173731378 0.39338493684004711 0 -0.055663743277436152 0.38971149307041891 0 -0.054812054435080887 0.39645579918000962 0 -0.049059340125611729 0.38981511977078021 0 -0.054812054435080887 0.39645579918000962 0 -0.046776506232271059 0.39810995543907662 0 -0.049059340125611729 0.38981511977078021 0 -0.046776506232271059 0.39810995543907662 0 -0.044968426723934952 0.39147082103877989 0 -0.055663743277436152 0.38971149307041891 0 -0.049059340125611729 0.38981511977078021 0 -0.054812054435080887 0.39645579918000962 0 -0.054812054435080887 0.39645579918000962 0 -0.053692880515783213 0.4054556575737821 0 -0.046776506232271059 0.39810995543907662 0 -0.038475192327539737 0.39009752652520141 0 -0.047280858793743621 0.41757314489390102 0 -0.038475192327539737 0.39009752652520141 0 -0.034615857569107719 0.40648327959364827 0 -0.047280858793743621 0.41757314489390102 0 -0.046776506232271059 0.39810995543907662 0 -0.038475192327539737 0.39009752652520141 0 -0.047280858793743621 0.41757314489390102 0 -0.046776506232271059 0.39810995543907662 0 -0.044968426723934952 0.39147082103877989 0 -0.038475192327539737 0.39009752652520141 0 -0.037654040872376553 0.36195725088904318 0 -0.04736135674307905 0.38566773201849902 0 -0.040421643826686837 0.38192035768383747 0 -0.04736135674307905 0.38566773201849902 0 -0.044968426723934952 0.39147082103877989 0 -0.038475192327539737 0.39009752652520141 0 -0.04736135674307905 0.38566773201849902 0 -0.040421643826686837 0.38192035768383747 0 -0.038475192327539737 0.39009752652520141 0 -0.04736135674307905 0.38566773201849902 0 -0.038475192327539737 0.39009752652520141 0 -0.038475192327539737 0.39009752652520141 0 -0.035565535846488541 0.38101875760245763 0 -0.038475192327539737 0.39009752652520141 0 -0.035565535846488541 0.38101875760245763 0 -0.025952797944203139 0.38910518856660248 0 -0.040421643826686837 0.38192035768383747 0 -0.038475192327539737 0.39009752652520141 0 -0.035565535846488541 0.38101875760245763 0 -0.01741190038457761 0.36899299586475998 0 -0.02448474412756791 0.37899719567982049 0 -0.011941613658539079 0.38564504166893943 0 -0.028205432277318629 0.36903379098172961 0 -0.035565535846488541 0.38101875760245763 0 -0.02448474412756791 0.37899719567982049 0 -0.02448474412756791 0.37899719567982049 0 -0.025952797944203139 0.38910518856660248 0 -0.011941613658539079 0.38564504166893943 0 -0.035565535846488541 0.38101875760245763 0 -0.02448474412756791 0.37899719567982049 0 -0.025952797944203139 0.38910518856660248 0 -0.038475192327539737 0.39009752652520141 0 -0.019207843204207192 0.39970239014396769 0 -0.038475192327539737 0.39009752652520141 0 -0.019207843204207192 0.39970239014396769 0 -0.034615857569107719 0.40648327959364827 0 -0.038475192327539737 0.39009752652520141 0 -0.025952797944203139 0.38910518856660248 0 -0.019207843204207192 0.39970239014396769 0 -0.025952797944203139 0.38910518856660248 0 -0.019207843204207192 0.39970239014396769 0 -0.011941613658539079 0.38564504166893943 0 -0.019207843204207192 0.39970239014396769 0 5.9505919125258169e-05 0.40930725376273419 0 -0.011941613658539079 0.38564504166893943 0 5.9505919125258169e-05 0.40930725376273419 0 0.0078205428699534476 0.38191700403721879 0 -0.019207843204207192 0.39970239014396769 0 -0.011941613658539079 0.38564504166893943 0 5.9505919125258169e-05 0.40930725376273419 0 -0.0027408384749401621 0.37089816177016621 0 -0.011941613658539079 0.38564504166893943 0 0.0078205428699534476 0.38191700403721879 0 -0.0027408384749401621 0.37089816177016621 0 -0.01741190038457761 0.36899299586475998 0 -0.011941613658539079 0.38564504166893943 0 -0.018868439233339911 0.43520352848941218 0 0.00072785141610140491 0.44529011093046461 0 0.0022818316242484999 0.4272906004056003 0 -0.020172995726909039 0.41741244376046321 0 -0.018868439233339911 0.43520352848941218 0 0.0022818316242484999 0.4272906004056003 0 -0.019207843204207192 0.39970239014396769 0 -0.020172995726909039 0.41741244376046321 0 5.9505919125258169e-05 0.40930725376273419 0 -0.020172995726909039 0.41741244376046321 0 5.9505919125258169e-05 0.40930725376273419 0 0.0022818316242484999 0.4272906004056003 0 -0.019207843204207192 0.39970239014396769 0 -0.020172995726909039 0.41741244376046321 0 -0.034615857569107719 0.40648327959364827 0 -0.020172995726909039 0.41741244376046321 0 -0.034615857569107719 0.40648327959364827 0 -0.034992455499324407 0.417030957731653 0 -0.020172995726909039 0.41741244376046321 0 -0.034779147629664137 0.42734065226927048 0 -0.034992455499324407 0.417030957731653 0 -0.020172995726909039 0.41741244376046321 0 -0.018868439233339911 0.43520352848941218 0 -0.034779147629664137 0.42734065226927048 0 -0.018868439233339911 0.43520352848941218 0 -0.034779147629664137 0.42734065226927048 0 -0.032617809747376769 0.44080662243557978 0 -0.034779147629664137 0.42734065226927048 0 -0.040977882337790893 0.43502448702560831 0 -0.032617809747376769 0.44080662243557978 0 -0.034779147629664137 0.42734065226927048 0 -0.047280858793743621 0.41757314489390102 0 -0.049427694902944352 0.42902575275239652 0 -0.034779147629664137 0.42734065226927048 0 -0.040977882337790893 0.43502448702560831 0 -0.049427694902944352 0.42902575275239652 0 -0.040977882337790893 0.43502448702560831 0 -0.049427694902944352 0.42902575275239652 0 -0.047086877071178299 0.44292492064518613 0 -0.034615857569107719 0.40648327959364827 0 -0.034992455499324407 0.417030957731653 0 -0.047280858793743621 0.41757314489390102 0 -0.034779147629664137 0.42734065226927048 0 -0.034992455499324407 0.417030957731653 0 -0.047280858793743621 0.41757314489390102 0 -0.053692880515783213 0.4054556575737821 0 -0.046776506232271059 0.39810995543907662 0 -0.047280858793743621 0.41757314489390102 0 -0.053692880515783213 0.4054556575737821 0 -0.047280858793743621 0.41757314489390102 0 -0.05824853896136744 0.41361953024544912 0 -0.047280858793743621 0.41757314489390102 0 -0.057711164405146828 0.42016370924357449 0 -0.05824853896136744 0.41361953024544912 0 -0.067602868438110628 0.4200833468421078 0 -0.057711164405146828 0.42016370924357449 0 -0.05824853896136744 0.41361953024544912 0 -0.060560373938256092 0.40240444083622678 0 -0.053692880515783213 0.4054556575737821 0 -0.05824853896136744 0.41361953024544912 0 -0.057712391427365638 0.42937881499284042 0 -0.056086525259946431 0.44504876326260079 0 -0.063188884568133166 0.43786636086151398 0 -0.047280858793743621 0.41757314489390102 0 -0.057712391427365638 0.42937881499284042 0 -0.056086525259946431 0.44504876326260079 0 -0.047280858793743621 0.41757314489390102 0 -0.049427694902944352 0.42902575275239652 0 -0.056086525259946431 0.44504876326260079 0 -0.047280858793743621 0.41757314489390102 0 -0.056086525259946431 0.44504876326260079 0 -0.047280858793743621 0.41757314489390102 0 -0.057711164405146828 0.42016370924357449 0 -0.057712391427365638 0.42937881499284042 0 -0.067602868438110628 0.4200833468421078 0 -0.057711164405146828 0.42016370924357449 0 -0.057712391427365638 0.42937881499284042 0 -0.049427694902944352 0.42902575275239652 0 -0.056086525259946431 0.44504876326260079 0 -0.057256925427244018 0.45268383516826438 0 -0.049427694902944352 0.42902575275239652 0 -0.057256925427244018 0.45268383516826438 0 -0.049427694902944352 0.42902575275239652 0 -0.057256925427244018 0.45268383516826438 0 -0.047086877071178299 0.44292492064518613 0 -0.056086525259946431 0.44504876326260079 0 -0.062312547179095783 0.44410259499091043 0 -0.063188884568133166 0.43786636086151398 0 -0.056086525259946431 0.44504876326260079 0 -0.063941829559721178 0.4576176782010094 0 -0.063727272967292359 0.44890319606784562 0 -0.056086525259946431 0.44504876326260079 0 -0.062312547179095783 0.44410259499091043 0 -0.063727272967292359 0.44890319606784562 0 -0.057256925427244018 0.45268383516826438 0 -0.048279381032516548 0.45195331127646959 0 -0.047086877071178299 0.44292492064518613 0 -0.057256925427244018 0.45268383516826438 0 -0.065086155951543684 0.47634191758413219 0 -0.056086525259946431 0.44504876326260079 0 -0.057256925427244018 0.45268383516826438 0 -0.06489219172614924 0.47252438163130073 0 -0.056086525259946431 0.44504876326260079 0 -0.06489219172614924 0.47252438163130073 0 -0.063941829559721178 0.4576176782010094 0 -0.057256925427244018 0.45268383516826438 0 -0.065086155951543684 0.47634191758413219 0 -0.06489219172614924 0.47252438163130073 0 -0.057256925427244018 0.45268383516826438 0 -0.05515263019927949 0.46583925612030758 0 -0.065086155951543684 0.47634191758413219 0 -0.056086525259946431 0.44504876326260079 0 -0.06489219172614924 0.47252438163130073 0 -0.057256925427244018 0.45268383516826438 0 -0.05515263019927949 0.46583925612030758 0 -0.049102841233019751 0.45833538575208982 0 -0.057256925427244018 0.45268383516826438 0 -0.048279381032516548 0.45195331127646959 0 -0.049102841233019751 0.45833538575208982 0 -0.049102841233019751 0.45833538575208982 0 -0.049634289624727809 0.46715004087118889 0 -0.042495579248360602 0.4651104000465538 0 -0.05515263019927949 0.46583925612030758 0 -0.049102841233019751 0.45833538575208982 0 -0.049634289624727809 0.46715004087118889 0 -0.049102841233019751 0.45833538575208982 0 -0.042495579248360602 0.4651104000465538 0 -0.039670880398624098 0.45386910354033849 0 -0.048279381032516548 0.45195331127646959 0 -0.049102841233019751 0.45833538575208982 0 -0.039670880398624098 0.45386910354033849 0 -0.042495579248360602 0.4651104000465538 0 -0.039670880398624098 0.45386910354033849 0 -0.031810574231463128 0.46810970153155229 0 -0.039670880398624098 0.45386910354033849 0 -0.032617809747376769 0.44080662243557978 0 -0.022202760151303541 0.45111178640588928 0 -0.040977882337790893 0.43502448702560831 0 -0.047086877071178299 0.44292492064518613 0 -0.032617809747376769 0.44080662243557978 0 -0.048279381032516548 0.45195331127646959 0 -0.047086877071178299 0.44292492064518613 0 -0.039670880398624098 0.45386910354033849 0 -0.047086877071178299 0.44292492064518613 0 -0.039670880398624098 0.45386910354033849 0 -0.032617809747376769 0.44080662243557978 0 -0.018868439233339911 0.43520352848941218 0 -0.032617809747376769 0.44080662243557978 0 -0.022202760151303541 0.45111178640588928 0 -0.031810574231463128 0.46810970153155229 0 -0.022202760151303541 0.45111178640588928 0 -0.010976708713118731 0.46339165150798861 0 -0.039670880398624098 0.45386910354033849 0 -0.031810574231463128 0.46810970153155229 0 -0.022202760151303541 0.45111178640588928 0 -0.022202760151303541 0.45111178640588928 0 -0.010976708713118731 0.46339165150798861 0 0.00072785141610140491 0.44529011093046461 0 -0.010976708713118731 0.46339165150798861 0 0.003208085519276105 0.47550482382514742 0 0.0060968567349820816 0.46154879727134579 0 -0.010976708713118731 0.46339165150798861 0 0.00072785141610140491 0.44529011093046461 0 0.0060968567349820816 0.46154879727134579 0 -0.018868439233339911 0.43520352848941218 0 0.00072785141610140491 0.44529011093046461 0 -0.018868439233339911 0.43520352848941218 0 -0.022202760151303541 0.45111178640588928 0 0.00072785141610140491 0.44529011093046461 0 -0.014651241641150141 0.48259305626884841 0 0.003208085519276105 0.47550482382514742 0 0.0068348544513245901 0.5 0 -0.014651241641150141 0.48259305626884841 0 -0.019748559191064659 0.5 0 0.0068348544513245901 0.5 0 -0.010976708713118731 0.46339165150798861 0 -0.014651241641150141 0.48259305626884841 0 0.003208085519276105 0.47550482382514742 0 -0.031810574231463128 0.46810970153155229 0 -0.014651241641150141 0.48259305626884841 0 -0.034954222189587707 0.4853094238229404 0 -0.031810574231463128 0.46810970153155229 0 -0.010976708713118731 0.46339165150798861 0 -0.014651241641150141 0.48259305626884841 0 -0.014651241641150141 0.48259305626884841 0 -0.019748559191064659 0.5 0 -0.034954222189587707 0.4853094238229404 0 -0.019748559191064659 0.5 0 -0.046331972833453923 0.5 0 -0.034954222189587707 0.4853094238229404 0 -0.046331972833453923 0.5 0 -0.034954222189587707 0.4853094238229404 0 -0.051142773060347868 0.48552402322775362 0 -0.031810574231463128 0.46810970153155229 0 -0.034954222189587707 0.4853094238229404 0 -0.045530393173349989 0.47529598661313388 0 -0.034954222189587707 0.4853094238229404 0 -0.045530393173349989 0.47529598661313388 0 -0.051142773060347868 0.48552402322775362 0 -0.049634289624727809 0.46715004087118889 0 -0.042495579248360602 0.4651104000465538 0 -0.045530393173349989 0.47529598661313388 0 -0.042495579248360602 0.4651104000465538 0 -0.031810574231463128 0.46810970153155229 0 -0.045530393173349989 0.47529598661313388 0 -0.05515263019927949 0.46583925612030758 0 -0.049634289624727809 0.46715004087118889 0 -0.054682938759862167 0.47468510122586272 0 -0.049634289624727809 0.46715004087118889 0 -0.045530393173349989 0.47529598661313388 0 -0.054682938759862167 0.47468510122586272 0 -0.045530393173349989 0.47529598661313388 0 -0.054682938759862167 0.47468510122586272 0 -0.051142773060347868 0.48552402322775362 0 -0.054682938759862167 0.47468510122586272 0 -0.058514784270702398 0.4816647788459818 0 -0.051142773060347868 0.48552402322775362 0 -0.054682938759862167 0.47468510122586272 0 -0.058514784270702398 0.4816647788459818 0 -0.065086155951543684 0.47634191758413219 0 -0.058514784270702398 0.4816647788459818 0 -0.063147269311055909 0.4901080733461789 0 -0.065086155951543684 0.47634191758413219 0 -0.05515263019927949 0.46583925612030758 0 -0.054682938759862167 0.47468510122586272 0 -0.065086155951543684 0.47634191758413219 0 -0.046331972833453923 0.5 0 -0.051142773060347868 0.48552402322775362 0 -0.063147269311055909 0.4901080733461789 0 -0.046331972833453923 0.5 0 -0.073697858192352195 0.50000000000000044 0 -0.063147269311055909 0.4901080733461789 0 -0.058514784270702398 0.4816647788459818 0 -0.051142773060347868 0.48552402322775362 0 -0.063147269311055909 0.4901080733461789 0 -0.073697858192352195 0.50000000000000044 0 -0.075385742886888055 0.48431017539998988 0 -0.06489219172614924 0.47252438163130073 0 -0.073697858192352195 0.50000000000000044 0 -0.06489219172614924 0.47252438163130073 0 -0.073697858192352195 0.50000000000000044 0 -0.065086155951543684 0.47634191758413219 0 -0.073697858192352195 0.50000000000000044 0 -0.063147269311055909 0.4901080733461789 0 -0.065086155951543684 0.47634191758413219 0 -0.073697858192352195 0.50000000000000044 0 -0.087508335834568213 0.48656943081162501 0 -0.075385742886888055 0.48431017539998988 0 -0.073697858192352195 0.50000000000000044 0 -0.087508335834568213 0.48656943081162501 0 -0.099603140214057695 0.5 0 -0.087508335834568213 0.48656943081162501 0 -0.087195804738257943 0.47323097381112822 0 -0.10196931408003421 0.47996789521295152 0 -0.087508335834568213 0.48656943081162501 0 -0.081678275806506301 0.47966664899274503 0 -0.075385742886888055 0.48431017539998988 0 -0.087508335834568213 0.48656943081162501 0 -0.087195804738257943 0.47323097381112822 0 -0.081678275806506301 0.47966664899274503 0 -0.087195804738257943 0.47323097381112822 0 -0.076623219766311035 0.47455601594823721 0 -0.076603895166819022 0.46591138967973972 0 -0.087195804738257943 0.47323097381112822 0 -0.081678275806506301 0.47966664899274503 0 -0.076623219766311035 0.47455601594823721 0 -0.076623219766311035 0.47455601594823721 0 -0.071364383780869803 0.47053463081776892 0 -0.076603895166819022 0.46591138967973972 0 -0.073697858192352195 0.50000000000000044 0 -0.065086155951543684 0.47634191758413219 0 -0.06489219172614924 0.47252438163130073 0 -0.076623219766311035 0.47455601594823721 0 -0.072066384540054526 0.47548130094932423 0 -0.071364383780869803 0.47053463081776892 0 -0.076623219766311035 0.47455601594823721 0 -0.072066384540054526 0.47548130094932423 0 -0.075385742886888055 0.48431017539998988 0 -0.081678275806506301 0.47966664899274503 0 -0.076623219766311035 0.47455601594823721 0 -0.075385742886888055 0.48431017539998988 0 -0.072066384540054526 0.47548130094932423 0 -0.075385742886888055 0.48431017539998988 0 -0.06489219172614924 0.47252438163130073 0 -0.071364383780869803 0.47053463081776892 0 -0.06489219172614924 0.47252438163130073 0 -0.069530157638078682 0.46473055618236853 0 -0.072066384540054526 0.47548130094932423 0 -0.071364383780869803 0.47053463081776892 0 -0.06489219172614924 0.47252438163130073 0 -0.06489219172614924 0.47252438163130073 0 -0.069530157638078682 0.46473055618236853 0 -0.063941829559721178 0.4576176782010094 0 -0.063941829559721178 0.4576176782010094 0 -0.067902525857878177 0.4528898964001693 0 -0.063727272967292359 0.44890319606784562 0 -0.063941829559721178 0.4576176782010094 0 -0.072322363701680839 0.45890098487752351 0 -0.067902525857878177 0.4528898964001693 0 -0.069530157638078682 0.46473055618236853 0 -0.063941829559721178 0.4576176782010094 0 -0.072322363701680839 0.45890098487752351 0 -0.072322363701680839 0.45890098487752351 0 -0.067902525857878177 0.4528898964001693 0 -0.078441201491624882 0.45277546478813968 0 -0.072322363701680839 0.45890098487752351 0 -0.078441201491624882 0.45277546478813968 0 -0.0781351610397545 0.45941075035110029 0 -0.072322363701680839 0.45890098487752351 0 -0.076603895166819022 0.46591138967973972 0 -0.0781351610397545 0.45941075035110029 0 -0.071364383780869803 0.47053463081776892 0 -0.069530157638078682 0.46473055618236853 0 -0.076603895166819022 0.46591138967973972 0 -0.069530157638078682 0.46473055618236853 0 -0.072322363701680839 0.45890098487752351 0 -0.076603895166819022 0.46591138967973972 0 -0.071493868657424756 0.43309144204997319 0 -0.063188884568133166 0.43786636086151398 0 -0.068946614706254863 0.44475142130481438 0 -0.062312547179095783 0.44410259499091043 0 -0.063188884568133166 0.43786636086151398 0 -0.068946614706254863 0.44475142130481438 0 -0.068946614706254863 0.44475142130481438 0 -0.067902525857878177 0.4528898964001693 0 -0.063727272967292359 0.44890319606784562 0 -0.062312547179095783 0.44410259499091043 0 -0.068946614706254863 0.44475142130481438 0 -0.063727272967292359 0.44890319606784562 0 -0.068946614706254863 0.44475142130481438 0 -0.081805586992246437 0.44006997272146359 0 -0.078441201491624882 0.45277546478813968 0 -0.068946614706254863 0.44475142130481438 0 -0.067902525857878177 0.4528898964001693 0 -0.078441201491624882 0.45277546478813968 0 -0.071493868657424756 0.43309144204997319 0 -0.068946614706254863 0.44475142130481438 0 -0.081805586992246437 0.44006997272146359 0 -0.081805586992246437 0.44006997272146359 0 -0.078441201491624882 0.45277546478813968 0 -0.093325718610642455 0.44936141399074497 0 -0.094296414850444446 0.43424147059727641 0 -0.081805586992246437 0.44006997272146359 0 -0.093325718610642455 0.44936141399074497 0 -0.087195804738257943 0.47323097381112822 0 -0.085933718913296847 0.4604581295494653 0 -0.1028738403789263 0.46311177328006181 0 -0.076603895166819022 0.46591138967973972 0 -0.0781351610397545 0.45941075035110029 0 -0.085933718913296847 0.4604581295494653 0 -0.087195804738257943 0.47323097381112822 0 -0.076603895166819022 0.46591138967973972 0 -0.085933718913296847 0.4604581295494653 0 -0.078441201491624882 0.45277546478813968 0 -0.0781351610397545 0.45941075035110029 0 -0.085933718913296847 0.4604581295494653 0 -0.078441201491624882 0.45277546478813968 0 -0.093325718610642455 0.44936141399074497 0 -0.085933718913296847 0.4604581295494653 0 -0.093325718610642455 0.44936141399074497 0 -0.1028738403789263 0.46311177328006181 0 -0.1100034532917782 0.45238617865038733 0 -0.093325718610642455 0.44936141399074497 0 -0.085933718913296847 0.4604581295494653 0 -0.1028738403789263 0.46311177328006181 0 -0.093325718610642455 0.44936141399074497 0 -0.10489609478330029 0.44198698135309628 0 -0.1100034532917782 0.45238617865038733 0 -0.094296414850444446 0.43424147059727641 0 -0.093325718610642455 0.44936141399074497 0 -0.10489609478330029 0.44198698135309628 0 -0.13230584096792319 0.45349452208004271 0 -0.1190304469214291 0.42634351652399199 0 -0.1189147267103095 0.44255506973396203 0 -0.10787727907053279 0.43102558932617929 0 -0.10489609478330029 0.44198698135309628 0 -0.1189147267103095 0.44255506973396203 0 -0.10489609478330029 0.44198698135309628 0 -0.1100034532917782 0.45238617865038733 0 -0.1189147267103095 0.44255506973396203 0 -0.1100034532917782 0.45238617865038733 0 -0.12085702220228151 0.4521593200779459 0 -0.1189147267103095 0.44255506973396203 0 -0.13230584096792319 0.45349452208004271 0 -0.12085702220228151 0.4521593200779459 0 -0.1189147267103095 0.44255506973396203 0 -0.1028738403789263 0.46311177328006181 0 -0.11808121464112339 0.45891626437911781 0 -0.1153688196542727 0.47099534016684957 0 -0.1028738403789263 0.46311177328006181 0 -0.1100034532917782 0.45238617865038733 0 -0.11808121464112339 0.45891626437911781 0 -0.1100034532917782 0.45238617865038733 0 -0.12085702220228151 0.4521593200779459 0 -0.11808121464112339 0.45891626437911781 0 -0.12583278976331069 0.45645648666127508 0 -0.11808121464112339 0.45891626437911781 0 -0.1246862184821103 0.46538218881283411 0 -0.12583278976331069 0.45645648666127508 0 -0.12085702220228151 0.4521593200779459 0 -0.11808121464112339 0.45891626437911781 0 -0.11808121464112339 0.45891626437911781 0 -0.1246862184821103 0.46538218881283411 0 -0.1153688196542727 0.47099534016684957 0 -0.12919833598642891 0.47775545621249382 0 -0.1246862184821103 0.46538218881283411 0 -0.1153688196542727 0.47099534016684957 0 -0.1153688196542727 0.47099534016684957 0 -0.1152591565692178 0.48617610674729878 0 -0.10196931408003421 0.47996789521295152 0 -0.12919833598642891 0.47775545621249382 0 -0.1153688196542727 0.47099534016684957 0 -0.1152591565692178 0.48617610674729878 0 -0.1255084222357632 0.49999999999999623 0 -0.12919833598642891 0.47775545621249382 0 -0.1152591565692178 0.48617610674729878 0 -0.1255084222357632 0.49999999999999623 0 -0.1152591565692178 0.48617610674729878 0 -0.099603140214057695 0.5 0 -0.087508335834568213 0.48656943081162501 0 -0.099603140214057695 0.5 0 -0.10196931408003421 0.47996789521295152 0 -0.1152591565692178 0.48617610674729878 0 -0.099603140214057695 0.5 0 -0.10196931408003421 0.47996789521295152 0 -0.1028738403789263 0.46311177328006181 0 -0.1153688196542727 0.47099534016684957 0 -0.10196931408003421 0.47996789521295152 0 -0.087195804738257943 0.47323097381112822 0 -0.1028738403789263 0.46311177328006181 0 -0.10196931408003421 0.47996789521295152 0 -0.16515997550229039 0.083933358543126446 0 -0.16419297855508491 0.1002345901818944 0 -0.1519770585847347 0.089711765601192345 0 -0.16515997550229039 0.083933358543126446 0 -0.17421419510735911 0.092254128525196252 0 -0.16419297855508491 0.1002345901818944 0 -0.16515997550229039 0.083933358543126446 0 -0.17020172051512089 0.074876918735303041 0 -0.1774361637639891 0.081631689635146304 0 -0.16515997550229039 0.083933358543126446 0 -0.15309077326150711 0.081605928709554257 0 -0.1519770585847347 0.089711765601192345 0 -0.16515997550229039 0.083933358543126446 0 -0.16213289103414241 0.074636881847329181 0 -0.15309077326150711 0.081605928709554257 0 -0.16213289103414241 0.074636881847329181 0 -0.1657172210081784 0.063692001228096845 0 -0.1508112989749105 0.072525155923739801 0 -0.1657172210081784 0.063692001228096845 0 -0.1551638369225431 0.066396068222574212 0 -0.1508112989749105 0.072525155923739801 0 -0.1657172210081784 0.063692001228096845 0 -0.1508112989749105 0.072525155923739801 0 -0.1657172210081784 0.063692001228096845 0 -0.1551638369225431 0.066396068222574212 0 -0.16213289103414241 0.074636881847329181 0 -0.1657172210081784 0.063692001228096845 0 -0.17020172051512089 0.074876918735303041 0 -0.16515997550229039 0.083933358543126446 0 -0.16213289103414241 0.074636881847329181 0 -0.17020172051512089 0.074876918735303041 0 -0.17020172051512089 0.074876918735303041 0 -0.18069973107011589 0.071977377428907002 0 -0.1774361637639891 0.081631689635146304 0 -0.1657172210081784 0.063692001228096845 0 -0.18069973107011589 0.071977377428907002 0 -0.1902528922105135 0.066759666879179586 0 -0.1657172210081784 0.063692001228096845 0 -0.17020172051512089 0.074876918735303041 0 -0.18069973107011589 0.071977377428907002 0 -0.18069973107011589 0.071977377428907002 0 -0.1774361637639891 0.081631689635146304 0 -0.18917253005513901 0.077386169064004168 0 -0.18069973107011589 0.071977377428907002 0 -0.18917253005513901 0.077386169064004168 0 -0.1902528922105135 0.066759666879179586 0 -0.1774361637639891 0.081631689635146304 0 -0.185337844945059 0.088459179783167557 0 -0.18917253005513901 0.077386169064004168 0 -0.16515997550229039 0.083933358543126446 0 -0.1774361637639891 0.081631689635146304 0 -0.17421419510735911 0.092254128525196252 0 -0.1774361637639891 0.081631689635146304 0 -0.17421419510735911 0.092254128525196252 0 -0.185337844945059 0.088459179783167557 0 -0.185337844945059 0.088459179783167557 0 -0.17975528290388881 0.1026773969730137 0 -0.19584363991820589 0.095979471223387819 0 -0.17421419510735911 0.092254128525196252 0 -0.185337844945059 0.088459179783167557 0 -0.17975528290388881 0.1026773969730137 0 -0.17421419510735911 0.092254128525196252 0 -0.17975528290388881 0.1026773969730137 0 -0.16419297855508491 0.1002345901818944 0 -0.17132341294825171 0.11763582873989679 0 -0.18947309792264769 0.1220420531535004 0 -0.17678131436596059 0.13448134032542769 0 -0.17975528290388881 0.1026773969730137 0 -0.17132341294825171 0.11763582873989679 0 -0.18947309792264769 0.1220420531535004 0 -0.17132341294825171 0.11763582873989679 0 -0.15649297786744629 0.1149117340387034 0 -0.16419297855508491 0.1002345901818944 0 -0.17132341294825171 0.11763582873989679 0 -0.15649297786744629 0.1149117340387034 0 -0.16124482607448201 0.13146785776684161 0 -0.17975528290388881 0.1026773969730137 0 -0.17132341294825171 0.11763582873989679 0 -0.16419297855508491 0.1002345901818944 0 -0.15649297786744629 0.1149117340387034 0 -0.16419297855508491 0.1002345901818944 0 -0.15004721939816729 0.10137298441078239 0 -0.16419297855508491 0.1002345901818944 0 -0.15004721939816729 0.10137298441078239 0 -0.1519770585847347 0.089711765601192345 0 -0.15004721939816729 0.10137298441078239 0 -0.14378420472571499 0.09471975055686567 0 -0.1519770585847347 0.089711765601192345 0 -0.15004721939816729 0.10137298441078239 0 -0.14378420472571499 0.09471975055686567 0 -0.13773989870850051 0.1005717705831045 0 -0.15649297786744629 0.1149117340387034 0 -0.15004721939816729 0.10137298441078239 0 -0.138737786407995 0.12719687503120339 0 -0.15004721939816729 0.10137298441078239 0 -0.13773989870850051 0.1005717705831045 0 -0.138737786407995 0.12719687503120339 0 -0.15649297786744629 0.1149117340387034 0 -0.16124482607448201 0.13146785776684161 0 -0.138737786407995 0.12719687503120339 0 -0.13773989870850051 0.1005717705831045 0 -0.138737786407995 0.12719687503120339 0 -0.13773989870850051 0.1005717705831045 0 -0.138737786407995 0.12719687503120339 0 -0.11558144750037321 0.1080488950421941 0 -0.13773989870850051 0.1005717705831045 0 -0.13537264221145739 0.087222481632383497 0 -0.11558144750037321 0.1080488950421941 0 -0.13537264221145739 0.087222481632383497 0 -0.11558144750037321 0.1080488950421941 0 -0.14378420472571499 0.09471975055686567 0 -0.13773989870850051 0.1005717705831045 0 -0.13537264221145739 0.087222481632383497 0 -0.13537264221145739 0.087222481632383497 0 -0.13263095218469351 0.072169612463515817 0 -0.11912005556410429 0.087651255602421124 0 -0.13537264221145739 0.087222481632383497 0 -0.15309077326150711 0.081605928709554257 0 -0.1508112989749105 0.072525155923739801 0 -0.13537264221145739 0.087222481632383497 0 -0.15309077326150711 0.081605928709554257 0 -0.1519770585847347 0.089711765601192345 0 -0.14378420472571499 0.09471975055686567 0 -0.13537264221145739 0.087222481632383497 0 -0.1519770585847347 0.089711765601192345 0 -0.1551638369225431 0.066396068222574212 0 -0.13263095218469351 0.072169612463515817 0 -0.14127968189601961 0.059066478411984202 0 -0.13537264221145739 0.087222481632383497 0 -0.1551638369225431 0.066396068222574212 0 -0.13263095218469351 0.072169612463515817 0 -0.13537264221145739 0.087222481632383497 0 -0.1551638369225431 0.066396068222574212 0 -0.1551638369225431 0.066396068222574212 0 -0.13263095218469351 0.072169612463515817 0 -0.13537264221145739 0.087222481632383497 0 -0.1551638369225431 0.066396068222574212 0 -0.1508112989749105 0.072525155923739801 0 -0.16213289103414241 0.074636881847329181 0 -0.15309077326150711 0.081605928709554257 0 -0.1508112989749105 0.072525155923739801 0 -0.13263095218469351 0.072169612463515817 0 -0.12507232707119181 0.063188252753153554 0 -0.14127968189601961 0.059066478411984202 0 -0.12507232707119181 0.063188252753153554 0 -0.1274219358057859 0.051687080002181737 0 -0.14127968189601961 0.059066478411984202 0 -0.1388968335178293 0.047225237358406523 0 -0.1274219358057859 0.051687080002181737 0 -0.14127968189601961 0.059066478411984202 0 -0.1274219358057859 0.051687080002181737 0 -0.12446258742527901 0.035720115304204152 0 -0.1388968335178293 0.047225237358406523 0 -0.14022399862357279 0.035079288562806801 0 -0.12446258742527901 0.035720115304204152 0 -0.14022399862357279 0.035079288562806801 0 -0.13228608847528731 0.026305508227045318 0 -0.12446258742527901 0.035720115304204152 0 -0.1388968335178293 0.047225237358406523 0 -0.1274219358057859 0.051687080002181737 0 -0.12446258742527901 0.035720115304204152 0 -0.1388968335178293 0.047225237358406523 0 -0.14022399862357279 0.035079288562806801 0 -0.15155290860679349 0.043192750692335538 0 -0.14022399862357279 0.035079288562806801 0 -0.15155290860679349 0.043192750692335538 0 -0.1571873135562461 0.031426519416015597 0 -0.1551638369225431 0.066396068222574212 0 -0.1520890590762605 0.053972976408968018 0 -0.14127968189601961 0.059066478411984202 0 -0.1388968335178293 0.047225237358406523 0 -0.1520890590762605 0.053972976408968018 0 -0.14127968189601961 0.059066478411984202 0 -0.1388968335178293 0.047225237358406523 0 -0.15155290860679349 0.043192750692335538 0 -0.1520890590762605 0.053972976408968018 0 -0.14000901046399741 -0.0081028567396055073 0 -0.13075612475438511 0.0058251469333105909 0 -0.14607836832192481 0.0063319350441953769 0 -0.13075612475438511 0.0058251469333105909 0 -0.12150323904477239 0.019753150606226441 0 -0.13075612475438511 0.0058251469333105909 0 -0.13339304668198351 0.016513134254596992 0 -0.12150323904477239 0.019753150606226441 0 -0.13075612475438511 0.0058251469333105909 0 -0.13339304668198351 0.016513134254596992 0 -0.14607836832192481 0.0063319350441953769 0 -0.13228608847528731 0.026305508227045318 0 -0.12150323904477239 0.019753150606226441 0 -0.12446258742527901 0.035720115304204152 0 -0.13339304668198351 0.016513134254596992 0 -0.13228608847528731 0.026305508227045318 0 -0.14337594679583049 0.021996433939853809 0 -0.13339304668198351 0.016513134254596992 0 -0.13228608847528731 0.026305508227045318 0 -0.12150323904477239 0.019753150606226441 0 -0.14022399862357279 0.035079288562806801 0 -0.13228608847528731 0.026305508227045318 0 -0.14337594679583049 0.021996433939853809 0 -0.14337594679583049 0.021996433939853809 0 -0.16194643708229459 0.013343177980543569 0 -0.1571873135562461 0.031426519416015597 0 -0.14022399862357279 0.035079288562806801 0 -0.14337594679583049 0.021996433939853809 0 -0.1571873135562461 0.031426519416015597 0 -0.15099250442119541 -0.004428830050453466 0 -0.16183498427867579 -0.00097160959174419749 0 -0.14607836832192481 0.0063319350441953769 0 -0.14337594679583049 0.021996433939853809 0 -0.14607836832192481 0.0063319350441953769 0 -0.16194643708229459 0.013343177980543569 0 -0.13339304668198351 0.016513134254596992 0 -0.14337594679583049 0.021996433939853809 0 -0.14607836832192481 0.0063319350441953769 0 -0.16183498427867579 -0.00097160959174419749 0 -0.14607836832192481 0.0063319350441953769 0 -0.16194643708229459 0.013343177980543569 0 -0.16194643708229459 0.013343177980543569 0 -0.18053195371401279 0.0107125243976563 0 -0.17305096232402961 0.00049290249629801335 0 -0.16183498427867579 -0.00097160959174419749 0 -0.16194643708229459 0.013343177980543569 0 -0.17305096232402961 0.00049290249629801335 0 -0.16194643708229459 0.013343177980543569 0 -0.17335762841796121 0.02570176573791471 0 -0.1571873135562461 0.031426519416015597 0 -0.17335762841796121 0.02570176573791471 0 -0.18053195371401279 0.0107125243976563 0 -0.19302701285065449 0.02655238185604776 0 -0.16194643708229459 0.013343177980543569 0 -0.17335762841796121 0.02570176573791471 0 -0.18053195371401279 0.0107125243976563 0 -0.18470174963523309 -0.0019690094300132861 0 -0.18053195371401279 0.0107125243976563 0 -0.19437686202530899 0.0052731115349927754 0 -0.18470174963523309 -0.0019690094300132861 0 -0.18053195371401279 0.0107125243976563 0 -0.17305096232402961 0.00049290249629801335 0 -0.15155290860679349 0.043192750692335538 0 -0.1520890590762605 0.053972976408968018 0 -0.17409542488659799 0.046474225039310292 0 -0.1551638369225431 0.066396068222574212 0 -0.1520890590762605 0.053972976408968018 0 -0.17409542488659799 0.046474225039310292 0 -0.1551638369225431 0.066396068222574212 0 -0.17409542488659799 0.046474225039310292 0 -0.1657172210081784 0.063692001228096845 0 -0.1551638369225431 0.066396068222574212 0 -0.17409542488659799 0.046474225039310292 0 -0.17335762841796121 0.02570176573791471 0 -0.1571873135562461 0.031426519416015597 0 -0.17409542488659799 0.046474225039310292 0 -0.15155290860679349 0.043192750692335538 0 -0.1571873135562461 0.031426519416015597 0 -0.17409542488659799 0.046474225039310292 0 -0.17335762841796121 0.02570176573791471 0 -0.17409542488659799 0.046474225039310292 0 -0.19302701285065449 0.02655238185604776 0 -0.17409542488659799 0.046474225039310292 0 -0.1887551360101011 0.041737650155953751 0 -0.19302701285065449 0.02655238185604776 0 -0.17409542488659799 0.046474225039310292 0 -0.19302701285065449 0.02655238185604776 0 -0.1657172210081784 0.063692001228096845 0 -0.19381524166401681 0.056492516243078113 0 -0.1657172210081784 0.063692001228096845 0 -0.1845384424371101 0.052538664985517937 0 -0.17409542488659799 0.046474225039310292 0 -0.1845384424371101 0.052538664985517937 0 -0.1887551360101011 0.041737650155953751 0 -0.1657172210081784 0.063692001228096845 0 -0.19381524166401681 0.056492516243078113 0 -0.1902528922105135 0.066759666879179586 0 -0.1657172210081784 0.063692001228096845 0 -0.1845384424371101 0.052538664985517937 0 -0.19381524166401681 0.056492516243078113 0 -0.1657172210081784 0.063692001228096845 0 -0.17409542488659799 0.046474225039310292 0 -0.1845384424371101 0.052538664985517937 0 -0.1845384424371101 0.052538664985517937 0 -0.20335966386604179 0.041385328742939008 0 -0.1845384424371101 0.052538664985517937 0 -0.19381524166401681 0.056492516243078113 0 -0.20335966386604179 0.041385328742939008 0 -0.19381524166401681 0.056492516243078113 0 -0.20222401733242781 0.062074029592568213 0 -0.2045381487416239 0.052973935650682973 0 -0.19381524166401681 0.056492516243078113 0 -0.20222401733242781 0.062074029592568213 0 -0.1902528922105135 0.066759666879179586 0 -0.19381524166401681 0.056492516243078113 0 -0.20335966386604179 0.041385328742939008 0 -0.2045381487416239 0.052973935650682973 0 -0.1845384424371101 0.052538664985517937 0 -0.1887551360101011 0.041737650155953751 0 -0.20335966386604179 0.041385328742939008 0 -0.20335966386604179 0.041385328742939008 0 -0.19302701285065449 0.02655238185604776 0 -0.2095539607002434 0.02888759336676151 0 -0.1887551360101011 0.041737650155953751 0 -0.20335966386604179 0.041385328742939008 0 -0.19302701285065449 0.02655238185604776 0 -0.20335966386604179 0.041385328742939008 0 -0.2181338835648268 0.04263406447314913 0 -0.20950042910321909 0.04855357385717466 0 -0.20335966386604179 0.041385328742939008 0 -0.2181338835648268 0.04263406447314913 0 -0.2221808852949767 0.030231992500365391 0 -0.20335966386604179 0.041385328742939008 0 -0.2095539607002434 0.02888759336676151 0 -0.2221808852949767 0.030231992500365391 0 -0.20335966386604179 0.041385328742939008 0 -0.2221808852949767 0.030231992500365391 0 -0.2181338835648268 0.04263406447314913 0 -0.21197002024038411 0.057220966561927523 0 -0.22437599229740179 0.069293468340989831 0 -0.2181338835648268 0.04263406447314913 0 -0.21197002024038411 0.057220966561927523 0 -0.20950042910321909 0.04855357385717466 0 -0.20222401733242781 0.062074029592568213 0 -0.21197002024038411 0.057220966561927523 0 -0.2045381487416239 0.052973935650682973 0 -0.21197002024038411 0.057220966561927523 0 -0.2045381487416239 0.052973935650682973 0 -0.20950042910321909 0.04855357385717466 0 -0.20335966386604179 0.041385328742939008 0 -0.2045381487416239 0.052973935650682973 0 -0.20950042910321909 0.04855357385717466 0 -0.18053195371401279 0.0107125243976563 0 -0.19437686202530899 0.0052731115349927754 0 -0.19302701285065449 0.02655238185604776 0 -0.19437686202530899 0.0052731115349927754 0 -0.19302701285065449 0.02655238185604776 0 -0.2119586008147108 0.0066305386727853188 0 -0.19302701285065449 0.02655238185604776 0 -0.2119586008147108 0.0066305386727853188 0 -0.19302701285065449 0.02655238185604776 0 -0.2095539607002434 0.02888759336676151 0 -0.2119586008147108 0.0066305386727853188 0 -0.2095539607002434 0.02888759336676151 0 -0.2119586008147108 0.0066305386727853188 0 -0.21960209714923001 0.02239729414250299 0 -0.2095539607002434 0.02888759336676151 0 -0.21960209714923001 0.02239729414250299 0 -0.2221808852949767 0.030231992500365391 0 -0.2119586008147108 0.0066305386727853188 0 -0.2291315795601446 0.0069470735912481613 0 -0.21960209714923001 0.02239729414250299 0 -0.23089018877876871 -0.01329130451047569 0 -0.2119586008147108 0.0066305386727853188 0 -0.2291315795601446 0.0069470735912481613 0 -0.2221808852949767 0.030231992500365391 0 -0.24002573095877969 0.019657250333020689 0 -0.21960209714923001 0.02239729414250299 0 -0.2221808852949767 0.030231992500365391 0 -0.24002573095877969 0.019657250333020689 0 -0.2291315795601446 0.0069470735912481613 0 -0.21960209714923001 0.02239729414250299 0 -0.24002573095877969 0.019657250333020689 0 -0.21960209714923001 0.02239729414250299 0 -0.2221808852949767 0.030231992500365391 0 -0.2221808852949767 0.030231992500365391 0 -0.24002573095877969 0.019657250333020689 0 -0.24192805617693719 0.04056896942350139 0 -0.24303175099561669 -3.621966391047747e-05 0 -0.2291315795601446 0.0069470735912481613 0 -0.24002573095877969 0.019657250333020689 0 -0.25787057662258511 0.0090825081656799068 0 -0.24002573095877969 0.019657250333020689 0 -0.24303175099561669 -3.621966391047747e-05 0 -0.25787057662258511 0.0090825081656799068 0 -0.24002573095877969 0.019657250333020689 0 -0.2181338835648268 0.04263406447314913 0 -0.2310517165006746 0.057182747177417052 0 -0.22437599229740179 0.069293468340989831 0 -0.2181338835648268 0.04263406447314913 0 -0.22437599229740179 0.069293468340989831 0 -0.2221808852949767 0.030231992500365391 0 -0.2310517165006746 0.057182747177417052 0 -0.24192805617693719 0.04056896942350139 0 -0.2221808852949767 0.030231992500365391 0 -0.2310517165006746 0.057182747177417052 0 -0.2181338835648268 0.04263406447314913 0 -0.2221808852949767 0.030231992500365391 0 -0.2310517165006746 0.057182747177417052 0 -0.2609067929420017 0.034236217225562859 0 -0.24002573095877969 0.019657250333020689 0 -0.24192805617693719 0.04056896942350139 0 -0.25998148770383539 0.063856298806743039 0 -0.2310517165006746 0.057182747177417052 0 -0.24192805617693719 0.04056896942350139 0 -0.25998148770383539 0.063856298806743039 0 -0.2310517165006746 0.057182747177417052 0 -0.2399225477063712 0.08413350185446912 0 -0.2310517165006746 0.057182747177417052 0 -0.2399225477063712 0.08413350185446912 0 -0.22437599229740179 0.069293468340989831 0 -0.2171281140835529 0.086278801374640987 0 -0.23061810102997671 0.095952872208830461 0 -0.22437599229740179 0.069293468340989831 0 -0.23061810102997671 0.095952872208830461 0 -0.2399225477063712 0.08413350185446912 0 -0.22437599229740179 0.069293468340989831 0 -0.23061810102997671 0.095952872208830461 0 -0.2310517165006746 0.057182747177417052 0 -0.2399225477063712 0.08413350185446912 0 -0.22437599229740179 0.069293468340989831 0 -0.21197002024038411 0.057220966561927523 0 -0.22437599229740179 0.069293468340989831 0 -0.21274038623611199 0.069885528422986898 0 -0.22437599229740179 0.069293468340989831 0 -0.21274038623611199 0.069885528422986898 0 -0.2171281140835529 0.086278801374640987 0 -0.20222401733242781 0.062074029592568213 0 -0.21197002024038411 0.057220966561927523 0 -0.21274038623611199 0.069885528422986898 0 -0.20222401733242781 0.062074029592568213 0 -0.21274038623611199 0.069885528422986898 0 -0.20124002742944769 0.072859683098567357 0 -0.21274038623611199 0.069885528422986898 0 -0.20757899382168671 0.080543354073936632 0 -0.20124002742944769 0.072859683098567357 0 -0.2171281140835529 0.086278801374640987 0 -0.20658054064450099 0.089576624908340063 0 -0.21066548859642131 0.1022297425021506 0 -0.21274038623611199 0.069885528422986898 0 -0.2171281140835529 0.086278801374640987 0 -0.20757899382168671 0.080543354073936632 0 -0.2171281140835529 0.086278801374640987 0 -0.20658054064450099 0.089576624908340063 0 -0.20757899382168671 0.080543354073936632 0 -0.20658054064450099 0.089576624908340063 0 -0.20757899382168671 0.080543354073936632 0 -0.20020590071482 0.0841161325651478 0 -0.20757899382168671 0.080543354073936632 0 -0.20020590071482 0.0841161325651478 0 -0.20124002742944769 0.072859683098567357 0 -0.20658054064450099 0.089576624908340063 0 -0.20020590071482 0.0841161325651478 0 -0.19584363991820589 0.095979471223387819 0 -0.185337844945059 0.088459179783167557 0 -0.20020590071482 0.0841161325651478 0 -0.19584363991820589 0.095979471223387819 0 -0.185337844945059 0.088459179783167557 0 -0.20020590071482 0.0841161325651478 0 -0.18917253005513901 0.077386169064004168 0 -0.18917253005513901 0.077386169064004168 0 -0.1902528922105135 0.066759666879179586 0 -0.20124002742944769 0.072859683098567357 0 -0.20222401733242781 0.062074029592568213 0 -0.1902528922105135 0.066759666879179586 0 -0.20124002742944769 0.072859683098567357 0 -0.20020590071482 0.0841161325651478 0 -0.18917253005513901 0.077386169064004168 0 -0.20124002742944769 0.072859683098567357 0 -0.17975528290388881 0.1026773969730137 0 -0.18947309792264769 0.1220420531535004 0 -0.19589228017111801 0.1085428674100191 0 -0.18947309792264769 0.1220420531535004 0 -0.19589228017111801 0.1085428674100191 0 -0.20478870005337299 0.12097955027661771 0 -0.17975528290388881 0.1026773969730137 0 -0.19584363991820589 0.095979471223387819 0 -0.19589228017111801 0.1085428674100191 0 -0.19584363991820589 0.095979471223387819 0 -0.19589228017111801 0.1085428674100191 0 -0.21066548859642131 0.1022297425021506 0 -0.21066548859642131 0.1022297425021506 0 -0.21846161962720009 0.1189188887757552 0 -0.22274670661994059 0.1051985161876097 0 -0.2171281140835529 0.086278801374640987 0 -0.21066548859642131 0.1022297425021506 0 -0.22274670661994059 0.1051985161876097 0 -0.20658054064450099 0.089576624908340063 0 -0.19584363991820589 0.095979471223387819 0 -0.21066548859642131 0.1022297425021506 0 -0.21066548859642131 0.1022297425021506 0 -0.20478870005337299 0.12097955027661771 0 -0.21846161962720009 0.1189188887757552 0 -0.19589228017111801 0.1085428674100191 0 -0.21066548859642131 0.1022297425021506 0 -0.20478870005337299 0.12097955027661771 0 -0.20478870005337299 0.12097955027661771 0 -0.21846161962720009 0.1189188887757552 0 -0.2124959100610076 0.1312439016559204 0 -0.21846161962720009 0.1189188887757552 0 -0.22274670661994059 0.1051985161876097 0 -0.2368602097625517 0.1226122760766712 0 -0.21846161962720009 0.1189188887757552 0 -0.2368602097625517 0.1226122760766712 0 -0.22357415956953661 0.13169492501837091 0 -0.23061810102997671 0.095952872208830461 0 -0.2368602097625517 0.1226122760766712 0 -0.2171281140835529 0.086278801374640987 0 -0.23061810102997671 0.095952872208830461 0 -0.22274670661994059 0.1051985161876097 0 -0.23061810102997671 0.095952872208830461 0 -0.22274670661994059 0.1051985161876097 0 -0.2368602097625517 0.1226122760766712 0 -0.2399225477063712 0.08413350185446912 0 -0.23061810102997671 0.095952872208830461 0 -0.24879337891206779 0.11108425653152119 0 -0.25905618246566942 0.09347638038792333 0 -0.2399225477063712 0.08413350185446912 0 -0.24879337891206779 0.11108425653152119 0 -0.2399225477063712 0.08413350185446912 0 -0.24879337891206779 0.11108425653152119 0 -0.25766421011776192 0.13803501120857409 0 -0.2368602097625517 0.1226122760766712 0 -0.24879337891206779 0.11108425653152119 0 -0.23061810102997671 0.095952872208830461 0 -0.2368602097625517 0.1226122760766712 0 -0.24879337891206779 0.11108425653152119 0 -0.2368602097625517 0.1226122760766712 0 -0.2431023184951267 0.14927167994451199 0 -0.2368602097625517 0.1226122760766712 0 -0.229550821435657 0.14018315531284931 0 -0.2431023184951267 0.14927167994451199 0 -0.25766421011776192 0.13803501120857409 0 -0.2368602097625517 0.1226122760766712 0 -0.2431023184951267 0.14927167994451199 0 -0.2368602097625517 0.1226122760766712 0 -0.229550821435657 0.14018315531284931 0 -0.22357415956953661 0.13169492501837091 0 -0.229550821435657 0.14018315531284931 0 -0.22357415956953661 0.13169492501837091 0 -0.2169512338641256 0.1448088408297116 0 -0.229550821435657 0.14018315531284931 0 -0.22726618548694449 0.1525280546949809 0 -0.2431023184951267 0.14927167994451199 0 -0.22726618548694449 0.1525280546949809 0 -0.2431023184951267 0.14927167994451199 0 -0.22894755468517949 0.16629832945596179 0 -0.229550821435657 0.14018315531284931 0 -0.22726618548694449 0.1525280546949809 0 -0.2169512338641256 0.1448088408297116 0 -0.2431023184951267 0.14927167994451199 0 -0.2493444272277017 0.17593108381235259 0 -0.2431023184951267 0.14927167994451199 0 -0.2493444272277017 0.17593108381235259 0 -0.22894755468517949 0.16629832945596179 0 -0.25682644576930591 0.1648528085401528 0 -0.2431023184951267 0.14927167994451199 0 -0.2493444272277017 0.17593108381235259 0 -0.2493444272277017 0.17593108381235259 0 -0.23131233461492839 0.1796727639012819 0 -0.2421572893859805 0.188249137682892 0 -0.25598868142085279 0.19167060587173171 0 -0.2493444272277017 0.17593108381235259 0 -0.2421572893859805 0.188249137682892 0 -0.2493444272277017 0.17593108381235259 0 -0.23131233461492839 0.1796727639012819 0 -0.22894755468517949 0.16629832945596179 0 -0.23131233461492839 0.1796727639012819 0 -0.2421572893859805 0.188249137682892 0 -0.23157033830578269 0.1917332168572933 0 -0.23131233461492839 0.1796727639012819 0 -0.22894755468517949 0.16629832945596179 0 -0.2179408953803639 0.1739707012518599 0 -0.23131233461492839 0.1796727639012819 0 -0.21656482377277689 0.18546445982252399 0 -0.23157033830578269 0.1917332168572933 0 -0.23131233461492839 0.1796727639012819 0 -0.21656482377277689 0.18546445982252399 0 -0.2179408953803639 0.1739707012518599 0 -0.22894755468517949 0.16629832945596179 0 -0.20963641095460669 0.16183723456423579 0 -0.2179408953803639 0.1739707012518599 0 -0.22726618548694449 0.1525280546949809 0 -0.22894755468517949 0.16629832945596179 0 -0.20963641095460669 0.16183723456423579 0 -0.20963641095460669 0.16183723456423579 0 -0.2179408953803639 0.1739707012518599 0 -0.20324335287432771 0.176580718515296 0 -0.20963641095460669 0.16183723456423579 0 -0.20324335287432771 0.176580718515296 0 -0.19705860076593831 0.1615353974771295 0 -0.20963641095460669 0.16183723456423579 0 -0.19705860076593831 0.1615353974771295 0 -0.2040964134494635 0.15068794978043279 0 -0.21656482377277689 0.18546445982252399 0 -0.20324335287432771 0.176580718515296 0 -0.20324018384364451 0.19746084972162639 0 -0.21656482377277689 0.18546445982252399 0 -0.2179408953803639 0.1739707012518599 0 -0.20324335287432771 0.176580718515296 0 -0.20324335287432771 0.176580718515296 0 -0.18962756975431569 0.18748897411334661 0 -0.18934534070423631 0.17100178956645179 0 -0.20324335287432771 0.176580718515296 0 -0.18962756975431569 0.18748897411334661 0 -0.20324018384364451 0.19746084972162639 0 -0.19705860076593831 0.1615353974771295 0 -0.18934534070423631 0.17100178956645179 0 -0.1810706622665057 0.16018558724407789 0 -0.19705860076593831 0.1615353974771295 0 -0.19233402897380969 0.1498266986705965 0 -0.1810706622665057 0.16018558724407789 0 -0.20324335287432771 0.176580718515296 0 -0.19705860076593831 0.1615353974771295 0 -0.18934534070423631 0.17100178956645179 0 -0.19705860076593831 0.1615353974771295 0 -0.19233402897380969 0.1498266986705965 0 -0.2040964134494635 0.15068794978043279 0 -0.19233402897380969 0.1498266986705965 0 -0.2012789677595167 0.13694753572481941 0 -0.2040964134494635 0.15068794978043279 0 -0.19233402897380969 0.1498266986705965 0 -0.1884446735727465 0.13836534252924049 0 -0.2012789677595167 0.13694753572481941 0 -0.18947309792264769 0.1220420531535004 0 -0.20478870005337299 0.12097955027661771 0 -0.2012789677595167 0.13694753572481941 0 -0.18947309792264769 0.1220420531535004 0 -0.1884446735727465 0.13836534252924049 0 -0.2012789677595167 0.13694753572481941 0 -0.20478870005337299 0.12097955027661771 0 -0.2012789677595167 0.13694753572481941 0 -0.2124959100610076 0.1312439016559204 0 -0.2012789677595167 0.13694753572481941 0 -0.2124959100610076 0.1312439016559204 0 -0.2169512338641256 0.1448088408297116 0 -0.21846161962720009 0.1189188887757552 0 -0.22357415956953661 0.13169492501837091 0 -0.2124959100610076 0.1312439016559204 0 -0.22357415956953661 0.13169492501837091 0 -0.2124959100610076 0.1312439016559204 0 -0.2169512338641256 0.1448088408297116 0 -0.20963641095460669 0.16183723456423579 0 -0.2169512338641256 0.1448088408297116 0 -0.2040964134494635 0.15068794978043279 0 -0.22726618548694449 0.1525280546949809 0 -0.20963641095460669 0.16183723456423579 0 -0.2169512338641256 0.1448088408297116 0 -0.2012789677595167 0.13694753572481941 0 -0.2169512338641256 0.1448088408297116 0 -0.2040964134494635 0.15068794978043279 0 -0.23323836201410181 0.25583372517248493 0 -0.21880843467292391 0.24093373590104719 0 -0.2364163073503544 0.22970550149513641 0 -0.25431315272394672 0.24530620053488941 0 -0.23323836201410181 0.25583372517248493 0 -0.2364163073503544 0.22970550149513641 0 -0.25515091707239967 0.21848840320331059 0 -0.25431315272394672 0.24530620053488941 0 -0.2364163073503544 0.22970550149513641 0 -0.21880843467292391 0.24093373590104719 0 -0.2364163073503544 0.22970550149513641 0 -0.2199829773432084 0.21458562541612991 0 -0.2364163073503544 0.22970550149513641 0 -0.2199829773432084 0.21458562541612991 0 -0.23754100177037549 0.20438509172639621 0 -0.2199829773432084 0.21458562541612991 0 -0.23754100177037549 0.20438509172639621 0 -0.22042107547822459 0.19804544367701449 0 -0.25515091707239967 0.21848840320331059 0 -0.2364163073503544 0.22970550149513641 0 -0.23754100177037549 0.20438509172639621 0 -0.25598868142085279 0.19167060587173171 0 -0.25515091707239967 0.21848840320331059 0 -0.23754100177037549 0.20438509172639621 0 -0.23754100177037549 0.20438509172639621 0 -0.2421572893859805 0.188249137682892 0 -0.23157033830578269 0.1917332168572933 0 -0.25598868142085279 0.19167060587173171 0 -0.23754100177037549 0.20438509172639621 0 -0.2421572893859805 0.188249137682892 0 -0.23754100177037549 0.20438509172639621 0 -0.23157033830578269 0.1917332168572933 0 -0.22042107547822459 0.19804544367701449 0 -0.21656482377277689 0.18546445982252399 0 -0.23157033830578269 0.1917332168572933 0 -0.22042107547822459 0.19804544367701449 0 -0.21656482377277689 0.18546445982252399 0 -0.22042107547822459 0.19804544367701449 0 -0.20324018384364451 0.19746084972162639 0 -0.18962756975431569 0.18748897411334661 0 -0.20324018384364451 0.19746084972162639 0 -0.184035080775896 0.20164449532809581 0 -0.20324018384364451 0.19746084972162639 0 -0.19362549162016321 0.2155265945809727 0 -0.184035080775896 0.20164449532809581 0 -0.2199829773432084 0.21458562541612991 0 -0.22042107547822459 0.19804544367701449 0 -0.20324018384364451 0.19746084972162639 0 -0.2199829773432084 0.21458562541612991 0 -0.20324018384364451 0.19746084972162639 0 -0.19362549162016321 0.2155265945809727 0 -0.2199829773432084 0.21458562541612991 0 -0.19362549162016321 0.2155265945809727 0 -0.2072384076600555 0.22721773418112501 0 -0.21880843467292391 0.24093373590104719 0 -0.2199829773432084 0.21458562541612991 0 -0.2072384076600555 0.22721773418112501 0 -0.19362549162016321 0.2155265945809727 0 -0.2072384076600555 0.22721773418112501 0 -0.1832050687165514 0.23017760906713361 0 -0.2072384076600555 0.22721773418112501 0 -0.19433512667207301 0.2478017714907787 0 -0.1832050687165514 0.23017760906713361 0 -0.21426437590275149 0.25886029303093089 0 -0.21880843467292391 0.24093373590104719 0 -0.19433512667207301 0.2478017714907787 0 -0.21880843467292391 0.24093373590104719 0 -0.2072384076600555 0.22721773418112501 0 -0.19433512667207301 0.2478017714907787 0 -0.16812504365636519 0.25079633514264771 0 -0.1832050687165514 0.23017760906713361 0 -0.16365979754644519 0.22770623150209249 0 -0.16812504365636519 0.25079633514264771 0 -0.16365979754644519 0.22770623150209249 0 -0.1487108212289939 0.23903046589523169 0 -0.16812504365636519 0.25079633514264771 0 -0.19433512667207301 0.2478017714907787 0 -0.1832050687165514 0.23017760906713361 0 -0.19362549162016321 0.2155265945809727 0 -0.1832050687165514 0.23017760906713361 0 -0.1715477793996022 0.21240629993383639 0 -0.1832050687165514 0.23017760906713361 0 -0.16365979754644519 0.22770623150209249 0 -0.1715477793996022 0.21240629993383639 0 -0.16365979754644519 0.22770623150209249 0 -0.1715477793996022 0.21240629993383639 0 -0.15213083167045441 0.2177766594008482 0 -0.1715477793996022 0.21240629993383639 0 -0.15617993297128319 0.20191407475914361 0 -0.15213083167045441 0.2177766594008482 0 -0.19362549162016321 0.2155265945809727 0 -0.1715477793996022 0.21240629993383639 0 -0.184035080775896 0.20164449532809581 0 -0.1715477793996022 0.21240629993383639 0 -0.184035080775896 0.20164449532809581 0 -0.1683891187276996 0.19502856673966251 0 -0.184035080775896 0.20164449532809581 0 -0.17883470423917949 0.18930524988302949 0 -0.1683891187276996 0.19502856673966251 0 -0.18962756975431569 0.18748897411334661 0 -0.184035080775896 0.20164449532809581 0 -0.17883470423917949 0.18930524988302949 0 -0.17883470423917949 0.18930524988302949 0 -0.1683891187276996 0.19502856673966251 0 -0.17104831595709011 0.1828579385061227 0 -0.1715477793996022 0.21240629993383639 0 -0.1683891187276996 0.19502856673966251 0 -0.15617993297128319 0.20191407475914361 0 -0.1683891187276996 0.19502856673966251 0 -0.1568977102808447 0.19131735537799871 0 -0.15617993297128319 0.20191407475914361 0 -0.1683891187276996 0.19502856673966251 0 -0.1568977102808447 0.19131735537799871 0 -0.1612243410177728 0.18430148745583361 0 -0.1568977102808447 0.19131735537799871 0 -0.15617993297128319 0.20191407475914361 0 -0.14659236558971989 0.19160517975664959 0 -0.1568977102808447 0.19131735537799871 0 -0.14659236558971989 0.19160517975664959 0 -0.15270420676118401 0.18516262306366851 0 -0.15617993297128319 0.20191407475914361 0 -0.14659236558971989 0.19160517975664959 0 -0.141213892646051 0.2066698316156115 0 -0.14659236558971989 0.19160517975664959 0 -0.13546109370014181 0.1976729358726641 0 -0.141213892646051 0.2066698316156115 0 -0.14659236558971989 0.19160517975664959 0 -0.13546109370014181 0.1976729358726641 0 -0.1408573958769169 0.18375115817129201 0 -0.13546109370014181 0.1976729358726641 0 -0.1408573958769169 0.18375115817129201 0 -0.1219123161831132 0.1954713780576316 0 -0.14073356180698501 0.18044708392740111 0 -0.1219123161831132 0.1954713780576316 0 -0.13546109370014181 0.1976729358726641 0 -0.12593180763207559 0.21077276210422491 0 -0.1219123161831132 0.1954713780576316 0 -0.13546109370014181 0.1976729358726641 0 -0.12593180763207559 0.21077276210422491 0 -0.141213892646051 0.2066698316156115 0 -0.12593180763207559 0.21077276210422491 0 -0.141213892646051 0.2066698316156115 0 -0.13241084518541649 0.22596536911779841 0 -0.15213083167045441 0.2177766594008482 0 -0.141213892646051 0.2066698316156115 0 -0.13241084518541649 0.22596536911779841 0 -0.15617993297128319 0.20191407475914361 0 -0.15213083167045441 0.2177766594008482 0 -0.141213892646051 0.2066698316156115 0 -0.13241084518541649 0.22596536911779841 0 -0.1487108212289939 0.23903046589523169 0 -0.1141754926604481 0.24622231976045519 0 -0.1401271712495599 0.26015743122291968 0 -0.1487108212289939 0.23903046589523169 0 -0.1141754926604481 0.24622231976045519 0 -0.15213083167045441 0.2177766594008482 0 -0.13241084518541649 0.22596536911779841 0 -0.1487108212289939 0.23903046589523169 0 -0.16365979754644519 0.22770623150209249 0 -0.15213083167045441 0.2177766594008482 0 -0.1487108212289939 0.23903046589523169 0 -0.16812504365636519 0.25079633514264771 0 -0.1401271712495599 0.26015743122291968 0 -0.1487108212289939 0.23903046589523169 0 -0.1684915155868944 0.14934344473996269 0 -0.16124482607448201 0.13146785776684161 0 -0.153822669826158 0.1448449823441687 0 -0.1684915155868944 0.14934344473996269 0 -0.16897678863131591 0.16072147204430279 0 -0.15836447243476609 0.15809272936051161 0 -0.1684915155868944 0.14934344473996269 0 -0.15836447243476609 0.15809272936051161 0 -0.153822669826158 0.1448449823441687 0 -0.17132341294825171 0.11763582873989679 0 -0.16124482607448201 0.13146785776684161 0 -0.17678131436596059 0.13448134032542769 0 -0.1684915155868944 0.14934344473996269 0 -0.16124482607448201 0.13146785776684161 0 -0.17678131436596059 0.13448134032542769 0 -0.18947309792264769 0.1220420531535004 0 -0.1884446735727465 0.13836534252924049 0 -0.17678131436596059 0.13448134032542769 0 -0.1884446735727465 0.13836534252924049 0 -0.17678131436596059 0.13448134032542769 0 -0.18130739808012111 0.14810627982912991 0 -0.19233402897380969 0.1498266986705965 0 -0.1884446735727465 0.13836534252924049 0 -0.18130739808012111 0.14810627982912991 0 -0.1684915155868944 0.14934344473996269 0 -0.17678131436596059 0.13448134032542769 0 -0.18130739808012111 0.14810627982912991 0 -0.1684915155868944 0.14934344473996269 0 -0.18130739808012111 0.14810627982912991 0 -0.1810706622665057 0.16018558724407789 0 -0.19233402897380969 0.1498266986705965 0 -0.18130739808012111 0.14810627982912991 0 -0.1810706622665057 0.16018558724407789 0 -0.18934534070423631 0.17100178956645179 0 -0.1810706622665057 0.16018558724407789 0 -0.17296929883794709 0.1710671008785476 0 -0.1684915155868944 0.14934344473996269 0 -0.1810706622665057 0.16018558724407789 0 -0.16897678863131591 0.16072147204430279 0 -0.1810706622665057 0.16018558724407789 0 -0.17296929883794709 0.1710671008785476 0 -0.16897678863131591 0.16072147204430279 0 -0.18962756975431569 0.18748897411334661 0 -0.18934534070423631 0.17100178956645179 0 -0.18107343598089609 0.1795062747279198 0 -0.18934534070423631 0.17100178956645179 0 -0.17296929883794709 0.1710671008785476 0 -0.18107343598089609 0.1795062747279198 0 -0.18962756975431569 0.18748897411334661 0 -0.17883470423917949 0.18930524988302949 0 -0.18107343598089609 0.1795062747279198 0 -0.17296929883794709 0.1710671008785476 0 -0.18107343598089609 0.1795062747279198 0 -0.17104831595709011 0.1828579385061227 0 -0.17883470423917949 0.18930524988302949 0 -0.18107343598089609 0.1795062747279198 0 -0.17104831595709011 0.1828579385061227 0 -0.1683891187276996 0.19502856673966251 0 -0.17104831595709011 0.1828579385061227 0 -0.1612243410177728 0.18430148745583361 0 -0.17104831595709011 0.1828579385061227 0 -0.16282238923564871 0.17589919835335011 0 -0.1612243410177728 0.18430148745583361 0 -0.17296929883794709 0.1710671008785476 0 -0.17104831595709011 0.1828579385061227 0 -0.16282238923564871 0.17589919835335011 0 -0.16282238923564871 0.17589919835335011 0 -0.1612243410177728 0.18430148745583361 0 -0.15388223437722581 0.1785069783409946 0 -0.16282238923564871 0.17589919835335011 0 -0.1543498327617529 0.16838017535757621 0 -0.15388223437722581 0.1785069783409946 0 -0.1568977102808447 0.19131735537799871 0 -0.1612243410177728 0.18430148745583361 0 -0.15270420676118401 0.18516262306366851 0 -0.17296929883794709 0.1710671008785476 0 -0.16282238923564871 0.17589919835335011 0 -0.1638545856288498 0.16720917960129139 0 -0.17296929883794709 0.1710671008785476 0 -0.16897678863131591 0.16072147204430279 0 -0.1638545856288498 0.16720917960129139 0 -0.16282238923564871 0.17589919835335011 0 -0.1638545856288498 0.16720917960129139 0 -0.1543498327617529 0.16838017535757621 0 -0.1638545856288498 0.16720917960129139 0 -0.15836447243476609 0.15809272936051161 0 -0.1543498327617529 0.16838017535757621 0 -0.16897678863131591 0.16072147204430279 0 -0.1638545856288498 0.16720917960129139 0 -0.15836447243476609 0.15809272936051161 0 -0.15836447243476609 0.15809272936051161 0 -0.1543498327617529 0.16838017535757621 0 -0.13973567410748949 0.1538219794793024 0 -0.1543498327617529 0.16838017535757621 0 -0.1465445676651288 0.17580837600392249 0 -0.13973567410748949 0.1538219794793024 0 -0.1465445676651288 0.17580837600392249 0 -0.14073356180698501 0.18044708392740111 0 -0.13973567410748949 0.1538219794793024 0 -0.1612243410177728 0.18430148745583361 0 -0.15270420676118401 0.18516262306366851 0 -0.15388223437722581 0.1785069783409946 0 -0.14659236558971989 0.19160517975664959 0 -0.15270420676118401 0.18516262306366851 0 -0.14663458153052461 0.18188027613325181 0 -0.15270420676118401 0.18516262306366851 0 -0.15388223437722581 0.1785069783409946 0 -0.14663458153052461 0.18188027613325181 0 -0.1543498327617529 0.16838017535757621 0 -0.15388223437722581 0.1785069783409946 0 -0.1465445676651288 0.17580837600392249 0 -0.15388223437722581 0.1785069783409946 0 -0.1465445676651288 0.17580837600392249 0 -0.14663458153052461 0.18188027613325181 0 -0.1465445676651288 0.17580837600392249 0 -0.14073356180698501 0.18044708392740111 0 -0.1465445676651288 0.17580837600392249 0 -0.14663458153052461 0.18188027613325181 0 -0.14073356180698501 0.18044708392740111 0 -0.14659236558971989 0.19160517975664959 0 -0.14663458153052461 0.18188027613325181 0 -0.1408573958769169 0.18375115817129201 0 -0.14663458153052461 0.18188027613325181 0 -0.14073356180698501 0.18044708392740111 0 -0.1408573958769169 0.18375115817129201 0 -0.14073356180698501 0.18044708392740111 0 -0.1408573958769169 0.18375115817129201 0 -0.14073356180698501 0.18044708392740111 0 -0.1408573958769169 0.18375115817129201 0 -0.1219123161831132 0.1954713780576316 0 -0.14073356180698501 0.18044708392740111 0 -0.1291262943263852 0.18037592284019191 0 -0.1219123161831132 0.1954713780576316 0 -0.14073356180698501 0.18044708392740111 0 -0.1291262943263852 0.18037592284019191 0 -0.13181064706652351 0.16924409020983669 0 -0.1291262943263852 0.18037592284019191 0 -0.13181064706652351 0.16924409020983669 0 -0.12204865224891891 0.17634113916589839 0 -0.13181064706652351 0.16924409020983669 0 -0.13973567410748949 0.1538219794793024 0 -0.1183923117222732 0.16112369753379599 0 -0.14073356180698501 0.18044708392740111 0 -0.13181064706652351 0.16924409020983669 0 -0.13973567410748949 0.1538219794793024 0 -0.14073356180698501 0.18044708392740111 0 -0.13973567410748949 0.1538219794793024 0 -0.13973567410748949 0.1538219794793024 0 -0.1182477011224746 0.13979978292595541 0 -0.1183923117222732 0.16112369753379599 0 -0.15836447243476609 0.15809272936051161 0 -0.13973567410748949 0.1538219794793024 0 -0.153822669826158 0.1448449823441687 0 -0.13973567410748949 0.1538219794793024 0 -0.153822669826158 0.1448449823441687 0 -0.138737786407995 0.12719687503120339 0 -0.16124482607448201 0.13146785776684161 0 -0.153822669826158 0.1448449823441687 0 -0.138737786407995 0.12719687503120339 0 -0.13973567410748949 0.1538219794793024 0 -0.138737786407995 0.12719687503120339 0 -0.13973567410748949 0.1538219794793024 0 -0.138737786407995 0.12719687503120339 0 -0.1182477011224746 0.13979978292595541 0 -0.138737786407995 0.12719687503120339 0 -0.1182477011224746 0.13979978292595541 0 -0.11558144750037321 0.1080488950421941 0 -0.1182477011224746 0.13979978292595541 0 -0.095790252789288932 0.12887530845200479 0 -0.11558144750037321 0.1080488950421941 0 -0.1182477011224746 0.13979978292595541 0 -0.095790252789288932 0.12887530845200479 0 -0.1022554250013316 0.148334821524364 0 -0.095790252789288932 0.12887530845200479 0 -0.1022554250013316 0.148334821524364 0 -0.089279953055557318 0.1486875515034953 0 -0.1022554250013316 0.148334821524364 0 -0.090260964879986569 0.16033843538329309 0 -0.089279953055557318 0.1486875515034953 0 -0.1182477011224746 0.13979978292595541 0 -0.1022554250013316 0.148334821524364 0 -0.1183923117222732 0.16112369753379599 0 -0.13181064706652351 0.16924409020983669 0 -0.1183923117222732 0.16112369753379599 0 -0.12204865224891891 0.17634113916589839 0 -0.1183923117222732 0.16112369753379599 0 -0.12204865224891891 0.17634113916589839 0 -0.1099198912314219 0.17625470074923361 0 -0.1183923117222732 0.16112369753379599 0 -0.1099198912314219 0.17625470074923361 0 -0.1047281912777524 0.1640693686819818 0 -0.1099198912314219 0.17625470074923361 0 -0.1219123161831132 0.1954713780576316 0 -0.099919185658337975 0.1879806429292408 0 -0.1291262943263852 0.18037592284019191 0 -0.12204865224891891 0.17634113916589839 0 -0.1219123161831132 0.1954713780576316 0 -0.12204865224891891 0.17634113916589839 0 -0.1099198912314219 0.17625470074923361 0 -0.1219123161831132 0.1954713780576316 0 -0.1099198912314219 0.17625470074923361 0 -0.097171612356986431 0.17304116744013021 0 -0.099919185658337975 0.1879806429292408 0 -0.1022554250013316 0.148334821524364 0 -0.1047281912777524 0.1640693686819818 0 -0.090260964879986569 0.16033843538329309 0 -0.1022554250013316 0.148334821524364 0 -0.1183923117222732 0.16112369753379599 0 -0.1047281912777524 0.1640693686819818 0 -0.1099198912314219 0.17625470074923361 0 -0.097171612356986431 0.17304116744013021 0 -0.1047281912777524 0.1640693686819818 0 -0.097171612356986431 0.17304116744013021 0 -0.1047281912777524 0.1640693686819818 0 -0.090260964879986569 0.16033843538329309 0 -0.097171612356986431 0.17304116744013021 0 -0.090260964879986569 0.16033843538329309 0 -0.083575007984521804 0.1777644455924581 0 -0.090260964879986569 0.16033843538329309 0 -0.083575007984521804 0.1777644455924581 0 -0.076213618417528439 0.1648376771999468 0 -0.076213618417528439 0.1648376771999468 0 -0.075999058078204659 0.14970172186181549 0 -0.082524847222262804 0.15603638672004941 0 -0.090260964879986569 0.16033843538329309 0 -0.076213618417528439 0.1648376771999468 0 -0.082524847222262804 0.15603638672004941 0 -0.097171612356986431 0.17304116744013021 0 -0.083575007984521804 0.1777644455924581 0 -0.099919185658337975 0.1879806429292408 0 -0.083575007984521804 0.1777644455924581 0 -0.099919185658337975 0.1879806429292408 0 -0.08576190444394137 0.19571210405057729 0 -0.083575007984521804 0.1777644455924581 0 -0.069700988187572505 0.17541746553705639 0 -0.064943411222565986 0.19204018933565339 0 -0.069700988187572505 0.17541746553705639 0 -0.064943411222565986 0.19204018933565339 0 -0.056207863367120477 0.17052813527162619 0 -0.083575007984521804 0.1777644455924581 0 -0.069700988187572505 0.17541746553705639 0 -0.076213618417528439 0.1648376771999468 0 -0.069700988187572505 0.17541746553705639 0 -0.076213618417528439 0.1648376771999468 0 -0.056207863367120477 0.17052813527162619 0 -0.076213618417528439 0.1648376771999468 0 -0.071018262940395357 0.15494304762127031 0 -0.056207863367120477 0.17052813527162619 0 -0.076213618417528439 0.1648376771999468 0 -0.071018262940395357 0.15494304762127031 0 -0.075999058078204659 0.14970172186181549 0 -0.071018262940395357 0.15494304762127031 0 -0.056207863367120477 0.17052813527162619 0 -0.075999058078204659 0.14970172186181549 0 -0.0650816660654326 0.144374373503142 0 -0.075216783911695756 0.1321042951029304 0 -0.071018262940395357 0.15494304762127031 0 -0.075999058078204659 0.14970172186181549 0 -0.0650816660654326 0.144374373503142 0 -0.071018262940395357 0.15494304762127031 0 -0.075999058078204659 0.14970172186181549 0 -0.075216783911695756 0.1321042951029304 0 -0.059383713275804613 0.13621282906560001 0 -0.060426300031751479 0.1218000157968458 0 -0.0650816660654326 0.144374373503142 0 -0.075216783911695756 0.1321042951029304 0 -0.059383713275804613 0.13621282906560001 0 -0.095790252789288932 0.12887530845200479 0 -0.075999058078204659 0.14970172186181549 0 -0.095790252789288932 0.12887530845200479 0 -0.075999058078204659 0.14970172186181549 0 -0.075216783911695756 0.1321042951029304 0 -0.095790252789288932 0.12887530845200479 0 -0.075999058078204659 0.14970172186181549 0 -0.089279953055557318 0.1486875515034953 0 -0.090260964879986569 0.16033843538329309 0 -0.089279953055557318 0.1486875515034953 0 -0.082524847222262804 0.15603638672004941 0 -0.075999058078204659 0.14970172186181549 0 -0.089279953055557318 0.1486875515034953 0 -0.082524847222262804 0.15603638672004941 0 -0.1141754926604481 0.24622231976045519 0 -0.1079013223279324 0.22675242085426589 0 -0.086731202422214132 0.24144406597925491 0 -0.13241084518541649 0.22596536911779841 0 -0.1141754926604481 0.24622231976045519 0 -0.13241084518541649 0.22596536911779841 0 -0.1141754926604481 0.24622231976045519 0 -0.1079013223279324 0.22675242085426589 0 -0.12593180763207559 0.21077276210422491 0 -0.13241084518541649 0.22596536911779841 0 -0.1079013223279324 0.22675242085426589 0 -0.1079013223279324 0.22675242085426589 0 -0.1030910705592403 0.21049567218786089 0 -0.084269824935367499 0.2255199663180901 0 -0.12593180763207559 0.21077276210422491 0 -0.1079013223279324 0.22675242085426589 0 -0.1030910705592403 0.21049567218786089 0 -0.12593180763207559 0.21077276210422491 0 -0.1030910705592403 0.21049567218786089 0 -0.1219123161831132 0.1954713780576316 0 -0.1030910705592403 0.21049567218786089 0 -0.1219123161831132 0.1954713780576316 0 -0.1030910705592403 0.21049567218786089 0 -0.1219123161831132 0.1954713780576316 0 -0.099919185658337975 0.1879806429292408 0 -0.1030910705592403 0.21049567218786089 0 -0.099919185658337975 0.1879806429292408 0 -0.08576190444394137 0.19571210405057729 0 -0.08576190444394137 0.19571210405057729 0 -0.064943411222565986 0.19204018933565339 0 -0.077863113278512835 0.21022149242832269 0 -0.083575007984521804 0.1777644455924581 0 -0.08576190444394137 0.19571210405057729 0 -0.064943411222565986 0.19204018933565339 0 -0.077863113278512835 0.21022149242832269 0 -0.068826270332762493 0.22394323137030789 0 -0.060286198177199372 0.21361779130744649 0 -0.064943411222565986 0.19204018933565339 0 -0.077863113278512835 0.21022149242832269 0 -0.060286198177199372 0.21361779130744649 0 -0.1030910705592403 0.21049567218786089 0 -0.077863113278512835 0.21022149242832269 0 -0.084269824935367499 0.2255199663180901 0 -0.1030910705592403 0.21049567218786089 0 -0.084269824935367499 0.2255199663180901 0 -0.1030910705592403 0.21049567218786089 0 -0.08576190444394137 0.19571210405057729 0 -0.077863113278512835 0.21022149242832269 0 -0.1079013223279324 0.22675242085426589 0 -0.084269824935367499 0.2255199663180901 0 -0.086731202422214132 0.24144406597925491 0 -0.084269824935367499 0.2255199663180901 0 -0.068826270332762493 0.22394323137030789 0 -0.065448579311495628 0.2405442604483207 0 -0.068826270332762493 0.22394323137030789 0 -0.065448579311495628 0.2405442604483207 0 -0.055756033670093422 0.2261607167761267 0 -0.084269824935367499 0.2255199663180901 0 -0.065448579311495628 0.2405442604483207 0 -0.077863113278512835 0.21022149242832269 0 -0.084269824935367499 0.2255199663180901 0 -0.068826270332762493 0.22394323137030789 0 -0.084269824935367499 0.2255199663180901 0 -0.065448579311495628 0.2405442604483207 0 -0.070652109566927412 0.24249196964969769 0 -0.065448579311495628 0.2405442604483207 0 -0.070652109566927412 0.24249196964969769 0 -0.071230990303579128 0.25161037517079282 0 -0.063534814985122506 0.24893339603990661 0 -0.070652109566927412 0.24249196964969769 0 -0.065448579311495628 0.2405442604483207 0 -0.063534814985122506 0.24893339603990661 0 -0.070652109566927412 0.24249196964969769 0 -0.071230990303579128 0.25161037517079282 0 -0.077190276960511534 0.24776428204628839 0 -0.070652109566927412 0.24249196964969769 0 -0.084269824935367499 0.2255199663180901 0 -0.070652109566927412 0.24249196964969769 0 -0.086731202422214132 0.24144406597925491 0 -0.077190276960511534 0.24776428204628839 0 -0.070652109566927412 0.24249196964969769 0 -0.086731202422214132 0.24144406597925491 0 -0.080146805549325448 0.25551071738540798 0 -0.077190276960511534 0.24776428204628839 0 -0.086731202422214132 0.24144406597925491 0 -0.048085182826982598 0.25440480831515161 0 -0.032089104960769721 0.24230132180513439 0 -0.043272864171517322 0.2322437716829987 0 -0.048085182826982598 0.25440480831515161 0 -0.065448579311495628 0.2405442604483207 0 -0.048085182826982598 0.25440480831515161 0 -0.065448579311495628 0.2405442604483207 0 -0.063534814985122506 0.24893339603990661 0 -0.048085182826982598 0.25440480831515161 0 -0.065448579311495628 0.2405442604483207 0 -0.043272864171517322 0.2322437716829987 0 -0.065448579311495628 0.2405442604483207 0 -0.043272864171517322 0.2322437716829987 0 -0.065448579311495628 0.2405442604483207 0 -0.055756033670093422 0.2261607167761267 0 -0.043272864171517322 0.2322437716829987 0 -0.068826270332762493 0.22394323137030789 0 -0.055756033670093422 0.2261607167761267 0 -0.060286198177199372 0.21361779130744649 0 -0.043272864171517322 0.2322437716829987 0 -0.03876651880826066 0.2132668254837953 0 -0.021097149031539329 0.2239432829176759 0 -0.032089104960769721 0.24230132180513439 0 -0.043272864171517322 0.2322437716829987 0 -0.021097149031539329 0.2239432829176759 0 -0.055756033670093422 0.2261607167761267 0 -0.043272864171517322 0.2322437716829987 0 -0.03876651880826066 0.2132668254837953 0 -0.043272864171517322 0.2322437716829987 0 -0.021097149031539329 0.2239432829176759 0 -0.055756033670093422 0.2261607167761267 0 -0.03876651880826066 0.2132668254837953 0 -0.060286198177199372 0.21361779130744649 0 -0.03876651880826066 0.2132668254837953 0 -0.060286198177199372 0.21361779130744649 0 -0.050507470261713462 0.2026395411341132 0 -0.064943411222565986 0.19204018933565339 0 -0.050507470261713462 0.2026395411341132 0 -0.036416668656036343 0.19135454868143681 0 -0.064943411222565986 0.19204018933565339 0 -0.060286198177199372 0.21361779130744649 0 -0.050507470261713462 0.2026395411341132 0 -0.03876651880826066 0.2132668254837953 0 -0.050507470261713462 0.2026395411341132 0 -0.036416668656036343 0.19135454868143681 0 -0.036416668656036343 0.19135454868143681 0 -0.016783774677181292 0.19302600677201731 0 -0.01662547394495215 0.2121809620912474 0 -0.036416668656036343 0.19135454868143681 0 -0.01662547394495215 0.2121809620912474 0 -0.016783774677181292 0.19302600677201731 0 -0.0027703356282496221 0.2010892263023655 0 -0.01662547394495215 0.2121809620912474 0 -0.016783774677181292 0.19302600677201731 0 -0.0027703356282496221 0.2010892263023655 0 -0.0021428159979618232 0.1862104870337386 0 -0.0027703356282496221 0.2010892263023655 0 -0.01662547394495215 0.2121809620912474 0 0.001078566108438643 0.2156427941523531 0 -0.01662547394495215 0.2121809620912474 0 -0.021097149031539329 0.2239432829176759 0 0.001078566108438643 0.2156427941523531 0 -0.03876651880826066 0.2132668254837953 0 -0.01662547394495215 0.2121809620912474 0 -0.021097149031539329 0.2239432829176759 0 -0.03876651880826066 0.2132668254837953 0 -0.036416668656036343 0.19135454868143681 0 -0.01662547394495215 0.2121809620912474 0 -0.032089104960769721 0.24230132180513439 0 -0.021097149031539329 0.2239432829176759 0 -0.017771622918706449 0.23534054420684869 0 -0.021097149031539329 0.2239432829176759 0 -0.010403482151421979 0.22768818258044399 0 -0.017771622918706449 0.23534054420684869 0 -0.021097149031539329 0.2239432829176759 0 0.001078566108438643 0.2156427941523531 0 -0.021097149031539329 0.2239432829176759 0 -0.010403482151421979 0.22768818258044399 0 0.001078566108438643 0.2156427941523531 0 -0.001138377762576071 0.22768916129548639 0 -0.010403482151421979 0.22768818258044399 0 0.001078566108438643 0.2156427941523531 0 -0.001138377762576071 0.22768916129548639 0 -0.010403482151421979 0.22768818258044399 0 -0.0068667553635924066 0.23656523299431559 0 -0.001138377762576071 0.22768916129548639 0 -0.0068667553635924066 0.23656523299431559 0 0.0045240798909150746 0.2334553464307744 0 -0.010403482151421979 0.22768818258044399 0 -0.0068667553635924066 0.23656523299431559 0 -0.017771622918706449 0.23534054420684869 0 -0.0068667553635924066 0.23656523299431559 0 -0.013631593190307351 0.24545343092572849 0 -0.017771622918706449 0.23534054420684869 0 -0.0068667553635924066 0.23656523299431559 0 -0.0069145550531365682 0.24513498575842521 0 0.00052415305209933393 0.24243324055153151 0 -0.0068667553635924066 0.23656523299431559 0 0.00052415305209933393 0.24243324055153151 0 0.0045240798909150746 0.2334553464307744 0 -0.0076840247107458556 0.25608803856212531 0 -0.0069145550531365682 0.24513498575842521 0 0.00052415305209933393 0.24243324055153151 0 -0.0076840247107458556 0.25608803856212531 0 -0.0069145550531365682 0.24513498575842521 0 -0.013631593190307351 0.24545343092572849 0 -0.0068667553635924066 0.23656523299431559 0 -0.0069145550531365682 0.24513498575842521 0 -0.013631593190307351 0.24545343092572849 0 -0.013631593190307351 0.24545343092572849 0 -0.019554927409443659 0.24840553981020169 0 -0.022982132994812859 0.244436859990494 0 -0.01927194413413506 0.25468424516464971 0 -0.013631593190307351 0.24545343092572849 0 -0.019554927409443659 0.24840553981020169 0 -0.02512942210518598 0.25101643058845391 0 -0.019554927409443659 0.24840553981020169 0 -0.022982132994812859 0.244436859990494 0 -0.013631593190307351 0.24545343092572849 0 -0.022982132994812859 0.244436859990494 0 -0.017771622918706449 0.23534054420684869 0 -0.032089104960769721 0.24230132180513439 0 -0.022982132994812859 0.244436859990494 0 -0.017771622918706449 0.23534054420684869 0 -0.033504309038127879 0.25344643506317283 0 -0.02512942210518598 0.25101643058845391 0 -0.032089104960769721 0.24230132180513439 0 -0.02512942210518598 0.25101643058845391 0 -0.032089104960769721 0.24230132180513439 0 -0.022982132994812859 0.244436859990494 0 -0.044276321313723943 0.14937163493531139 0 -0.042719330348744262 0.13102023495863449 0 -0.018020188879713801 0.14426188332056999 0 -0.044276321313723943 0.14937163493531139 0 -0.036030118151338053 0.1679649521043082 0 -0.018020188879713801 0.14426188332056999 0 -0.044276321313723943 0.14937163493531139 0 -0.042719330348744262 0.13102023495863449 0 -0.059383713275804613 0.13621282906560001 0 -0.042719330348744262 0.13102023495863449 0 -0.059383713275804613 0.13621282906560001 0 -0.060426300031751479 0.1218000157968458 0 -0.071018262940395357 0.15494304762127031 0 -0.044276321313723943 0.14937163493531139 0 -0.071018262940395357 0.15494304762127031 0 -0.0650816660654326 0.144374373503142 0 -0.044276321313723943 0.14937163493531139 0 -0.0650816660654326 0.144374373503142 0 -0.044276321313723943 0.14937163493531139 0 -0.059383713275804613 0.13621282906560001 0 -0.071018262940395357 0.15494304762127031 0 -0.044276321313723943 0.14937163493531139 0 -0.056207863367120477 0.17052813527162619 0 -0.064943411222565986 0.19204018933565339 0 -0.036416668656036343 0.19135454868143681 0 -0.056207863367120477 0.17052813527162619 0 -0.036416668656036343 0.19135454868143681 0 -0.056207863367120477 0.17052813527162619 0 -0.036416668656036343 0.19135454868143681 0 -0.056207863367120477 0.17052813527162619 0 -0.036030118151338053 0.1679649521043082 0 -0.044276321313723943 0.14937163493531139 0 -0.056207863367120477 0.17052813527162619 0 -0.036030118151338053 0.1679649521043082 0 -0.036030118151338053 0.1679649521043082 0 -0.015695954131872591 0.16844773939880889 0 -0.018020188879713801 0.14426188332056999 0 -0.036416668656036343 0.19135454868143681 0 -0.016783774677181292 0.19302600677201731 0 -0.015695954131872591 0.16844773939880889 0 -0.036416668656036343 0.19135454868143681 0 -0.036030118151338053 0.1679649521043082 0 -0.015695954131872591 0.16844773939880889 0 -0.015695954131872591 0.16844773939880889 0 -0.0021428159979618232 0.1862104870337386 0 0.0013893046736191701 0.17072612304771489 0 -0.016783774677181292 0.19302600677201731 0 -0.015695954131872591 0.16844773939880889 0 -0.0021428159979618232 0.1862104870337386 0 -0.015695954131872591 0.16844773939880889 0 0.00035631202773353098 0.15667502639174291 0 0.0013893046736191701 0.17072612304771489 0 -0.015695954131872591 0.16844773939880889 0 -0.018020188879713801 0.14426188332056999 0 0.00035631202773353098 0.15667502639174291 0 -0.018020188879713801 0.14426188332056999 0 0.0082359435542964307 0.1391521317058286 0 0.00035631202773353098 0.15667502639174291 0 -0.018020188879713801 0.14426188332056999 0 0.0082359435542964307 0.1391521317058286 0 -0.044276321313723943 0.14937163493531139 0 -0.018020188879713801 0.14426188332056999 0 -0.042719330348744262 0.13102023495863449 0 -0.018020188879713801 0.14426188332056999 0 -0.027312188107731509 0.1220358525017663 0 -0.018020188879713801 0.14426188332056999 0 -0.0086006131490303922 0.1284864323031385 0 -0.027312188107731509 0.1220358525017663 0 -0.018020188879713801 0.14426188332056999 0 -0.0086006131490303922 0.1284864323031385 0 0.0082359435542964307 0.1391521317058286 0 -0.0086006131490303922 0.1284864323031385 0 -0.01588357316257381 0.1121778639999538 0 0.00216679324830793 0.11578751986121549 0 -0.015339682227778061 0.092408073041660085 0 0.00216679324830793 0.11578751986121549 0 -0.015339682227778061 0.092408073041660085 0 0.0012342514868991161 0.089385976589458377 0 0.00216679324830793 0.11578751986121549 0 -0.01588357316257381 0.1121778639999538 0 -0.015339682227778061 0.092408073041660085 0 0.00216679324830793 0.11578751986121549 0 -0.030743102505105618 0.10289749100930159 0 -0.01588357316257381 0.1121778639999538 0 -0.015339682227778061 0.092408073041660085 0 -0.030743102505105618 0.10289749100930159 0 -0.015339682227778061 0.092408073041660085 0 -0.03485305936928975 0.086572762348340104 0 -0.0086006131490303922 0.1284864323031385 0 -0.01588357316257381 0.1121778639999538 0 -0.027312188107731509 0.1220358525017663 0 -0.030743102505105618 0.10289749100930159 0 -0.01588357316257381 0.1121778639999538 0 -0.027312188107731509 0.1220358525017663 0 -0.010472032852158791 0.063408520535774074 0 -0.019069790604722581 0.069317343999143591 0 -0.01441989639905281 0.05673518075852807 0 -0.010472032852158791 0.063408520535774074 0 -0.0095897477454697198 0.075997778954398701 0 -0.019069790604722581 0.069317343999143591 0 -0.010472032852158791 0.063408520535774074 0 -0.003582455662859823 0.069200319931586138 0 -0.0095897477454697198 0.075997778954398701 0 -0.010472032852158791 0.063408520535774074 0 -0.003582455662859823 0.069200319931586138 0 -0.0021599224084404779 0.062414655747423137 0 -0.003582455662859823 0.069200319931586138 0 -0.0021599224084404779 0.062414655747423137 0 0.0014133214047551759 0.069684191915556568 0 -0.003582455662859823 0.069200319931586138 0 -0.0095897477454697198 0.075997778954398701 0 0.0028961032870146938 0.07449645250477821 0 -0.0095897477454697198 0.075997778954398701 0 -0.015339682227778061 0.092408073041660085 0 0.0012342514868991161 0.089385976589458377 0 -0.0095897477454697198 0.075997778954398701 0 -0.015339682227778061 0.092408073041660085 0 -0.019069790604722581 0.069317343999143591 0 -0.0095897477454697198 0.075997778954398701 0 0.0012342514868991161 0.089385976589458377 0 0.0028961032870146938 0.07449645250477821 0 -0.015339682227778061 0.092408073041660085 0 -0.032846157703864051 0.069028626222104678 0 -0.015339682227778061 0.092408073041660085 0 -0.032846157703864051 0.069028626222104678 0 -0.03485305936928975 0.086572762348340104 0 -0.015339682227778061 0.092408073041660085 0 -0.019069790604722581 0.069317343999143591 0 -0.032846157703864051 0.069028626222104678 0 -0.019069790604722581 0.069317343999143591 0 -0.032846157703864051 0.069028626222104678 0 -0.02248942419062611 0.056226059536707028 0 -0.032846157703864051 0.069028626222104678 0 -0.03485305936928975 0.086572762348340104 0 -0.049153087853112967 0.074301960063693384 0 -0.032846157703864051 0.069028626222104678 0 -0.049153087853112967 0.074301960063693384 0 -0.047748363878968268 0.053183151583423481 0 -0.03485305936928975 0.086572762348340104 0 -0.049153087853112967 0.074301960063693384 0 -0.046183266556588033 0.094227661404940835 0 -0.060417221559745153 0.086002323435580799 0 -0.049153087853112967 0.074301960063693384 0 -0.046183266556588033 0.094227661404940835 0 -0.049153087853112967 0.074301960063693384 0 -0.047748363878968268 0.053183151583423481 0 -0.061766596911943722 0.060245583479505142 0 -0.060417221559745153 0.086002323435580799 0 -0.049153087853112967 0.074301960063693384 0 -0.063311874792829279 0.07400916180302633 0 -0.049153087853112967 0.074301960063693384 0 -0.063311874792829279 0.07400916180302633 0 -0.061766596911943722 0.060245583479505142 0 -0.042719330348744262 0.13102023495863449 0 -0.027312188107731509 0.1220358525017663 0 -0.046004975275015077 0.11236336878111131 0 -0.030743102505105618 0.10289749100930159 0 -0.027312188107731509 0.1220358525017663 0 -0.046004975275015077 0.11236336878111131 0 -0.030743102505105618 0.10289749100930159 0 -0.03485305936928975 0.086572762348340104 0 -0.046183266556588033 0.094227661404940835 0 -0.030743102505105618 0.10289749100930159 0 -0.046004975275015077 0.11236336878111131 0 -0.046183266556588033 0.094227661404940835 0 -0.046004975275015077 0.11236336878111131 0 -0.046183266556588033 0.094227661404940835 0 -0.059719613964537843 0.1021315692637909 0 -0.060417221559745153 0.086002323435580799 0 -0.046183266556588033 0.094227661404940835 0 -0.059719613964537843 0.1021315692637909 0 -0.042719330348744262 0.13102023495863449 0 -0.046004975275015077 0.11236336878111131 0 -0.060426300031751479 0.1218000157968458 0 -0.046004975275015077 0.11236336878111131 0 -0.059719613964537843 0.1021315692637909 0 -0.060426300031751479 0.1218000157968458 0 -0.075216783911695756 0.1321042951029304 0 -0.060426300031751479 0.1218000157968458 0 -0.074096253014446598 0.1103243841152263 0 -0.059719613964537843 0.1021315692637909 0 -0.060426300031751479 0.1218000157968458 0 -0.074096253014446598 0.1103243841152263 0 -0.095790252789288932 0.12887530845200479 0 -0.075216783911695756 0.1321042951029304 0 -0.074096253014446598 0.1103243841152263 0 -0.095790252789288932 0.12887530845200479 0 -0.074096253014446598 0.1103243841152263 0 -0.094489781351289673 0.1071838499170924 0 -0.074096253014446598 0.1103243841152263 0 -0.085495584521331575 0.096352787592688255 0 -0.094489781351289673 0.1071838499170924 0 -0.059719613964537843 0.1021315692637909 0 -0.074096253014446598 0.1103243841152263 0 -0.073174829097169547 0.09249999871190992 0 -0.074096253014446598 0.1103243841152263 0 -0.085495584521331575 0.096352787592688255 0 -0.073174829097169547 0.09249999871190992 0 -0.060417221559745153 0.086002323435580799 0 -0.059719613964537843 0.1021315692637909 0 -0.073174829097169547 0.09249999871190992 0 -0.070960657094233257 0.078843589366123457 0 -0.073174829097169547 0.09249999871190992 0 -0.085452622779998322 0.074018720451648076 0 -0.060417221559745153 0.086002323435580799 0 -0.070960657094233257 0.078843589366123457 0 -0.063311874792829279 0.07400916180302633 0 -0.060417221559745153 0.086002323435580799 0 -0.070960657094233257 0.078843589366123457 0 -0.073174829097169547 0.09249999871190992 0 -0.063311874792829279 0.07400916180302633 0 -0.073741564796132558 0.066606998299574588 0 -0.061766596911943722 0.060245583479505142 0 -0.070960657094233257 0.078843589366123457 0 -0.063311874792829279 0.07400916180302633 0 -0.073741564796132558 0.066606998299574588 0 -0.070960657094233257 0.078843589366123457 0 -0.073741564796132558 0.066606998299574588 0 -0.085452622779998322 0.074018720451648076 0 -0.085452622779998322 0.074018720451648076 0 -0.097730416462827097 0.055537442191386253 0 -0.083669885838581259 0.059792028912846427 0 -0.085452622779998322 0.074018720451648076 0 -0.097730416462827097 0.055537442191386253 0 -0.073741564796132558 0.066606998299574588 0 -0.085452622779998322 0.074018720451648076 0 -0.083669885838581259 0.059792028912846427 0 -0.085452622779998322 0.074018720451648076 0 -0.08756518270899305 0.083716700945394462 0 -0.098592203823946734 0.069867355111442736 0 -0.073174829097169547 0.09249999871190992 0 -0.085452622779998322 0.074018720451648076 0 -0.073174829097169547 0.09249999871190992 0 -0.085452622779998322 0.074018720451648076 0 -0.08756518270899305 0.083716700945394462 0 -0.085495584521331575 0.096352787592688255 0 -0.08756518270899305 0.083716700945394462 0 -0.10191716847715419 0.092872132169557017 0 -0.085495584521331575 0.096352787592688255 0 -0.073174829097169547 0.09249999871190992 0 -0.08756518270899305 0.083716700945394462 0 -0.08756518270899305 0.083716700945394462 0 -0.10191716847715419 0.092872132169557017 0 -0.11009806744684331 0.077943156704455147 0 -0.08756518270899305 0.083716700945394462 0 -0.11009806744684331 0.077943156704455147 0 -0.085452622779998322 0.074018720451648076 0 -0.098592203823946734 0.069867355111442736 0 -0.097730416462827097 0.055537442191386253 0 -0.098592203823946734 0.069867355111442736 0 -0.11009806744684331 0.077943156704455147 0 -0.11211472972107191 0.058120755264329672 0 -0.08756518270899305 0.083716700945394462 0 -0.098592203823946734 0.069867355111442736 0 -0.11009806744684331 0.077943156704455147 0 -0.12507232707119181 0.063188252753153554 0 -0.11009806744684331 0.077943156704455147 0 -0.11211472972107191 0.058120755264329672 0 -0.13263095218469351 0.072169612463515817 0 -0.12507232707119181 0.063188252753153554 0 -0.11009806744684331 0.077943156704455147 0 -0.13263095218469351 0.072169612463515817 0 -0.11009806744684331 0.077943156704455147 0 -0.13263095218469351 0.072169612463515817 0 -0.11009806744684331 0.077943156704455147 0 -0.11912005556410429 0.087651255602421124 0 -0.10191716847715419 0.092872132169557017 0 -0.11009806744684331 0.077943156704455147 0 -0.11912005556410429 0.087651255602421124 0 -0.13537264221145739 0.087222481632383497 0 -0.11912005556410429 0.087651255602421124 0 -0.11558144750037321 0.1080488950421941 0 -0.10191716847715419 0.092872132169557017 0 -0.11912005556410429 0.087651255602421124 0 -0.11558144750037321 0.1080488950421941 0 -0.095790252789288932 0.12887530845200479 0 -0.11558144750037321 0.1080488950421941 0 -0.095790252789288932 0.12887530845200479 0 -0.11558144750037321 0.1080488950421941 0 -0.094489781351289673 0.1071838499170924 0 -0.10191716847715419 0.092872132169557017 0 -0.11558144750037321 0.1080488950421941 0 -0.094489781351289673 0.1071838499170924 0 -0.085495584521331575 0.096352787592688255 0 -0.10191716847715419 0.092872132169557017 0 -0.094489781351289673 0.1071838499170924 0 -0.099596693537387093 0.029496765360979331 0 -0.09504014090534918 0.017863587509596199 0 -0.1143670015855227 0.020911895883409599 0 -0.099596693537387093 0.029496765360979331 0 -0.1143670015855227 0.020911895883409599 0 -0.11000821014565559 0.037056163931124278 0 -0.09890455170599273 -0.0017819155375923539 0 -0.1049471936995604 0.0079994105571848141 0 -0.089200485138086566 0.006276116256500229 0 -0.09504014090534918 0.017863587509596199 0 -0.1049471936995604 0.0079994105571848141 0 -0.1143670015855227 0.020911895883409599 0 -0.09504014090534918 0.017863587509596199 0 -0.1049471936995604 0.0079994105571848141 0 -0.089200485138086566 0.006276116256500229 0 -0.09890455170599273 -0.0017819155375923539 0 -0.1080847925724896 -0.0035076659761076562 0 -0.1049471936995604 0.0079994105571848141 0 -0.1187257930253897 0.0047676278356949004 0 -0.1143670015855227 0.020911895883409599 0 -0.12150323904477239 0.019753150606226441 0 -0.1049471936995604 0.0079994105571848141 0 -0.1187257930253897 0.0047676278356949004 0 -0.1143670015855227 0.020911895883409599 0 -0.1187257930253897 0.0047676278356949004 0 -0.1143670015855227 0.020911895883409599 0 -0.1080847925724896 -0.0035076659761076562 0 -0.1049471936995604 0.0079994105571848141 0 -0.1187257930253897 0.0047676278356949004 0 -0.13075612475438511 0.0058251469333105909 0 -0.1187257930253897 0.0047676278356949004 0 -0.12150323904477239 0.019753150606226441 0 -0.1187257930253897 0.0047676278356949004 0 -0.12150323904477239 0.019753150606226441 0 -0.12150323904477239 0.019753150606226441 0 -0.12446258742527901 0.035720115304204152 0 -0.11000821014565559 0.037056163931124278 0 -0.1143670015855227 0.020911895883409599 0 -0.11000821014565559 0.037056163931124278 0 -0.1143670015855227 0.020911895883409599 0 -0.12150323904477239 0.019753150606226441 0 -0.11000821014565559 0.037056163931124278 0 -0.12150323904477239 0.019753150606226441 0 -0.11000821014565559 0.037056163931124278 0 -0.12150323904477239 0.019753150606226441 0 -0.12446258742527901 0.035720115304204152 0 -0.12446258742527901 0.035720115304204152 0 -0.1175009896470163 0.044126266159752701 0 -0.11000821014565559 0.037056163931124278 0 -0.1274219358057859 0.051687080002181737 0 -0.12446258742527901 0.035720115304204152 0 -0.1175009896470163 0.044126266159752701 0 -0.1175009896470163 0.044126266159752701 0 -0.11000821014565559 0.037056163931124278 0 -0.1077799549948739 0.045309265491314768 0 -0.12507232707119181 0.063188252753153554 0 -0.1274219358057859 0.051687080002181737 0 -0.11211472972107191 0.058120755264329672 0 -0.1274219358057859 0.051687080002181737 0 -0.1175009896470163 0.044126266159752701 0 -0.11211472972107191 0.058120755264329672 0 -0.1175009896470163 0.044126266159752701 0 -0.11211472972107191 0.058120755264329672 0 -0.1077799549948739 0.045309265491314768 0 -0.098592203823946734 0.069867355111442736 0 -0.11211472972107191 0.058120755264329672 0 -0.097730416462827097 0.055537442191386253 0 -0.11211472972107191 0.058120755264329672 0 -0.097730416462827097 0.055537442191386253 0 -0.1077799549948739 0.045309265491314768 0 -0.11000821014565559 0.037056163931124278 0 -0.097730416462827097 0.055537442191386253 0 -0.094453863589913506 0.040041773111724008 0 -0.11000821014565559 0.037056163931124278 0 -0.097730416462827097 0.055537442191386253 0 -0.1077799549948739 0.045309265491314768 0 -0.11000821014565559 0.037056163931124278 0 -0.097730416462827097 0.055537442191386253 0 -0.11000821014565559 0.037056163931124278 0 -0.1077799549948739 0.045309265491314768 0 -0.099596693537387093 0.029496765360979331 0 -0.11000821014565559 0.037056163931124278 0 -0.094453863589913506 0.040041773111724008 0 -0.094453863589913506 0.040041773111724008 0 -0.084114251460494893 0.031610406369042637 0 -0.085793396458882315 0.048622523021056158 0 -0.099596693537387093 0.029496765360979331 0 -0.094453863589913506 0.040041773111724008 0 -0.084114251460494893 0.031610406369042637 0 -0.084114251460494893 0.031610406369042637 0 -0.085793396458882315 0.048622523021056158 0 -0.075881018237059075 0.041529894949686771 0 -0.097730416462827097 0.055537442191386253 0 -0.085793396458882315 0.048622523021056158 0 -0.083669885838581259 0.059792028912846427 0 -0.097730416462827097 0.055537442191386253 0 -0.094453863589913506 0.040041773111724008 0 -0.085793396458882315 0.048622523021056158 0 -0.085793396458882315 0.048622523021056158 0 -0.083669885838581259 0.059792028912846427 0 -0.074622117253052289 0.053504682465355842 0 -0.085793396458882315 0.048622523021056158 0 -0.074622117253052289 0.053504682465355842 0 -0.075881018237059075 0.041529894949686771 0 -0.074622117253052289 0.053504682465355842 0 -0.063563297485694142 0.044273125713114488 0 -0.061766596911943722 0.060245583479505142 0 -0.073741564796132558 0.066606998299574588 0 -0.083669885838581259 0.059792028912846427 0 -0.074622117253052289 0.053504682465355842 0 -0.073741564796132558 0.066606998299574588 0 -0.074622117253052289 0.053504682465355842 0 -0.061766596911943722 0.060245583479505142 0 -0.084114251460494893 0.031610406369042637 0 -0.075881018237059075 0.041529894949686771 0 -0.069249951860804043 0.030746288094262539 0 -0.074622117253052289 0.053504682465355842 0 -0.075881018237059075 0.041529894949686771 0 -0.063563297485694142 0.044273125713114488 0 -0.063563297485694142 0.044273125713114488 0 -0.069249951860804043 0.030746288094262539 0 -0.054707115654107553 0.031456445000276209 0 -0.075881018237059075 0.041529894949686771 0 -0.063563297485694142 0.044273125713114488 0 -0.069249951860804043 0.030746288094262539 0 -0.069249951860804043 0.030746288094262539 0 -0.07731780020365582 0.016184635330760731 0 -0.059916228123812892 0.01942322120269447 0 -0.084114251460494893 0.031610406369042637 0 -0.069249951860804043 0.030746288094262539 0 -0.07731780020365582 0.016184635330760731 0 -0.09504014090534918 0.017863587509596199 0 -0.084114251460494893 0.031610406369042637 0 -0.07731780020365582 0.016184635330760731 0 -0.099596693537387093 0.029496765360979331 0 -0.09504014090534918 0.017863587509596199 0 -0.084114251460494893 0.031610406369042637 0 -0.09504014090534918 0.017863587509596199 0 -0.07731780020365582 0.016184635330760731 0 -0.089200485138086566 0.006276116256500229 0 -0.07731780020365582 0.016184635330760731 0 -0.089200485138086566 0.006276116256500229 0 -0.077030558099442079 0.0017912276607506569 0 -0.088566819169513283 -0.0066273278737162856 0 -0.089200485138086566 0.006276116256500229 0 -0.077030558099442079 0.0017912276607506569 0 -0.07731780020365582 0.016184635330760731 0 -0.065661722228432334 0.0081712889180788565 0 -0.059916228123812892 0.01942322120269447 0 -0.07731780020365582 0.016184635330760731 0 -0.077030558099442079 0.0017912276607506569 0 -0.065661722228432334 0.0081712889180788565 0 -0.065390898612994297 -0.0060651868138451911 0 -0.077030558099442079 0.0017912276607506569 0 -0.065661722228432334 0.0081712889180788565 0 -0.065390898612994297 -0.0060651868138451911 0 -0.065661722228432334 0.0081712889180788565 0 -0.055382369457228998 0.00032136448681748149 0 -0.065661722228432334 0.0081712889180788565 0 -0.049135517871866881 0.01356522766852232 0 -0.059916228123812892 0.01942322120269447 0 -0.065661722228432334 0.0081712889180788565 0 -0.055382369457228998 0.00032136448681748149 0 -0.049135517871866881 0.01356522766852232 0 -0.043390994995440968 -0.0017141478953263561 0 -0.055382369457228998 0.00032136448681748149 0 -0.049135517871866881 0.01356522766852232 0 -0.049135517871866881 0.01356522766852232 0 -0.03804463498598127 0.030275718459564119 0 -0.054707115654107553 0.031456445000276209 0 -0.049135517871866881 0.01356522766852232 0 -0.059916228123812892 0.01942322120269447 0 -0.054707115654107553 0.031456445000276209 0 -0.069249951860804043 0.030746288094262539 0 -0.059916228123812892 0.01942322120269447 0 -0.054707115654107553 0.031456445000276209 0 -0.049135517871866881 0.01356522766852232 0 -0.03804463498598127 0.030275718459564119 0 -0.028340906092994281 0.0073682853357047613 0 -0.03804463498598127 0.030275718459564119 0 -0.028340906092994281 0.0073682853357047613 0 -0.043390994995440968 -0.0017141478953263561 0 -0.049135517871866881 0.01356522766852232 0 -0.028340906092994281 0.0073682853357047613 0 -0.063563297485694142 0.044273125713114488 0 -0.047748363878968268 0.053183151583423481 0 -0.061766596911943722 0.060245583479505142 0 -0.063563297485694142 0.044273125713114488 0 -0.047748363878968268 0.053183151583423481 0 -0.054707115654107553 0.031456445000276209 0 -0.03804463498598127 0.030275718459564119 0 -0.047748363878968268 0.053183151583423481 0 -0.034265434484638271 0.051771580867921663 0 -0.03804463498598127 0.030275718459564119 0 -0.034265434484638271 0.051771580867921663 0 -0.026817841850982679 0.042008094623661917 0 -0.03804463498598127 0.030275718459564119 0 -0.047748363878968268 0.053183151583423481 0 -0.03804463498598127 0.030275718459564119 0 -0.047748363878968268 0.053183151583423481 0 -0.054707115654107553 0.031456445000276209 0 -0.032846157703864051 0.069028626222104678 0 -0.047748363878968268 0.053183151583423481 0 -0.034265434484638271 0.051771580867921663 0 -0.02248942419062611 0.056226059536707028 0 -0.017040541707772059 0.040578699395894417 0 -0.011429518725523519 0.048816129367586517 0 -0.032846157703864051 0.069028626222104678 0 -0.034265434484638271 0.051771580867921663 0 -0.02248942419062611 0.056226059536707028 0 -0.019069790604722581 0.069317343999143591 0 -0.02248942419062611 0.056226059536707028 0 -0.01441989639905281 0.05673518075852807 0 -0.034265434484638271 0.051771580867921663 0 -0.02248942419062611 0.056226059536707028 0 -0.026817841850982679 0.042008094623661917 0 -0.02248942419062611 0.056226059536707028 0 -0.011429518725523519 0.048816129367586517 0 -0.01441989639905281 0.05673518075852807 0 -0.03804463498598127 0.030275718459564119 0 -0.026817841850982679 0.042008094623661917 0 -0.021248973380201611 0.027325314781000441 0 -0.02248942419062611 0.056226059536707028 0 -0.017040541707772059 0.040578699395894417 0 -0.026817841850982679 0.042008094623661917 0 -0.017040541707772059 0.040578699395894417 0 -0.026817841850982679 0.042008094623661917 0 -0.021248973380201611 0.027325314781000441 0 -0.017040541707772059 0.040578699395894417 0 -0.0064737651903623546 0.03755762497560039 0 -0.021248973380201611 0.027325314781000441 0 -0.0064737651903623546 0.03755762497560039 0 -0.0059609083172209934 0.025514370326488959 0 0.0053956510757752598 0.031172478357800161 0 -0.0064737651903623546 0.03755762497560039 0 -0.0023136265295195658 0.047315346720803189 0 0.0065775974009158857 0.0431516959693556 0 -0.0064737651903623546 0.03755762497560039 0 -0.011429518725523519 0.048816129367586517 0 -0.0023136265295195658 0.047315346720803189 0 -0.017040541707772059 0.040578699395894417 0 -0.0064737651903623546 0.03755762497560039 0 -0.011429518725523519 0.048816129367586517 0 -0.011429518725523519 0.048816129367586517 0 -0.0065990513934562648 0.055785808499354127 0 -0.01441989639905281 0.05673518075852807 0 -0.011429518725523519 0.048816129367586517 0 -0.0023136265295195658 0.047315346720803189 0 -0.0065990513934562648 0.055785808499354127 0 -0.0023136265295195658 0.047315346720803189 0 -0.0065990513934562648 0.055785808499354127 0 0.002216873886963496 0.054181600553508971 0 -0.010472032852158791 0.063408520535774074 0 -0.0065990513934562648 0.055785808499354127 0 -0.0021599224084404779 0.062414655747423137 0 -0.0065990513934562648 0.055785808499354127 0 -0.0021599224084404779 0.062414655747423137 0 0.002216873886963496 0.054181600553508971 0 -0.010472032852158791 0.063408520535774074 0 -0.0065990513934562648 0.055785808499354127 0 -0.01441989639905281 0.05673518075852807 0 -0.028340906092994281 0.0073682853357047613 0 -0.021248973380201611 0.027325314781000441 0 -0.01148152056621542 0.014424523951007731 0 -0.03804463498598127 0.030275718459564119 0 -0.028340906092994281 0.0073682853357047613 0 -0.021248973380201611 0.027325314781000441 0 -0.0059609083172209934 0.025514370326488959 0 -0.01148152056621542 0.014424523951007731 0 0.0049745157062303898 0.013122815470613679 0 -0.021248973380201611 0.027325314781000441 0 -0.0059609083172209934 0.025514370326488959 0 -0.01148152056621542 0.014424523951007731 0 -0.0064737651903623546 0.03755762497560039 0 -0.021248973380201611 0.027325314781000441 0 -0.0059609083172209934 0.025514370326488959 0 -0.021248973380201611 0.027325314781000441 0 -0.0059609083172209934 0.025514370326488959 0 -0.0068313307468898937 -0.001208166158769744 0 -0.028340906092994281 0.0073682853357047613 0 -0.01148152056621542 0.014424523951007731 0 -0.0037250542218582199 -0.0080245199591880492 0 -0.0039010825712501528 -0.00107177034326255 0 0.0049745157062303898 0.013122815470613679 0 -0.0068313307468898937 -0.001208166158769744 0 -0.01148152056621542 0.014424523951007731 0 0.0049745157062303898 0.013122815470613679 0 -0.0068313307468898937 -0.001208166158769744 0 0.0049745157062303898 0.013122815470613679 0 -0.0039010825712501528 -0.00107177034326255 0 -0.0068313307468898937 -0.001208166158769744 0 0.0049745157062303898 0.013122815470613679 0 -0.0037250542218582199 -0.0080245199591880492 0 0.0049745157062303898 0.013122815470613679 0 0.0038935293817154572 -0.002751762931935907 0 0.0093187909976902763 0.0048987768277770133 0 0.0049745157062303898 0.013122815470613679 0 0.0038935293817154572 -0.002751762931935907 0 -0.0037250542218582199 -0.0080245199591880492 0 0.0049745157062303898 0.013122815470613679 0 0.0093187909976902763 0.0048987768277770133 0 0.01547314346707537 0.0099472423576403238 0 0.01293397543574059 -0.00072318758521063074 0 0.0093187909976902763 0.0048987768277770133 0 0.01293397543574059 -0.00072318758521063074 0 0.0038935293817154572 -0.002751762931935907 0 0.0093187909976902763 0.0048987768277770133 0 0.01547314346707537 0.0099472423576403238 0 0.0049745157062303898 0.013122815470613679 0 0.01547314346707537 0.0099472423576403238 0 0.0049745157062303898 0.013122815470613679 0 0.013302850763066081 0.023232485893385259 0 -0.0059609083172209934 0.025514370326488959 0 0.0049745157062303898 0.013122815470613679 0 0.0093271567457585587 0.023703425871968619 0 0.0049745157062303898 0.013122815470613679 0 0.0093271567457585587 0.023703425871968619 0 -0.0059609083172209934 0.025514370326488959 0 0.0053956510757752598 0.031172478357800161 0 0.0093271567457585587 0.023703425871968619 0 -0.0059609083172209934 0.025514370326488959 0 0.0093271567457585587 0.023703425871968619 0 0.01027716412765047 0.029112631044944381 0 0.013302850763066081 0.023232485893385259 0 0.014495996787883009 0.033235633676190819 0 0.0053956510757752598 0.031172478357800161 0 0.01027716412765047 0.029112631044944381 0 0.014495996787883009 0.033235633676190819 0 0.0053956510757752598 0.031172478357800161 0 0.01027716412765047 0.029112631044944381 0 0.0093271567457585587 0.023703425871968619 0 0.01027716412765047 0.029112631044944381 0 0.0093271567457585587 0.023703425871968619 0 0.013302850763066081 0.023232485893385259 0 0.0093271567457585587 0.023703425871968619 0 0.013302850763066081 0.023232485893385259 0 0.0049745157062303898 0.013122815470613679 0 0.0093271567457585587 0.023703425871968619 0 0.013302850763066081 0.023232485893385259 0 0.0049745157062303898 0.013122815470613679 0 0.013302850763066081 0.023232485893385259 0 0.013302850763066081 0.023232485893385259 0 0.023604189012843921 0.035737162267236118 0 0.042462332261208567 0.019778405792472541 0 0.013302850763066081 0.023232485893385259 0 0.042462332261208567 0.019778405792472541 0 0.013302850763066081 0.023232485893385259 0 0.022999072849209129 0.01269397173619017 0 0.031917634899461499 0.013258848890186831 0 0.013302850763066081 0.023232485893385259 0 0.031917634899461499 0.013258848890186831 0 0.042462332261208567 0.019778405792472541 0 0.013302850763066081 0.023232485893385259 0 0.023604189012843921 0.035737162267236118 0 0.013302850763066081 0.023232485893385259 0 0.014495996787883009 0.033235633676190819 0 0.023604189012843921 0.035737162267236118 0 0.027670260331272119 0.0058806327625004918 0 0.022999072849209129 0.01269397173619017 0 0.031917634899461499 0.013258848890186831 0 0.027670260331272119 0.0058806327625004918 0 0.023088914508530369 -0.001997061503871328 0 0.03454245869924806 -0.0016119273116462691 0 0.01547314346707537 0.0099472423576403238 0 0.027670260331272119 0.0058806327625004918 0 0.023088914508530369 -0.001997061503871328 0 0.01547314346707537 0.0099472423576403238 0 0.023088914508530369 -0.001997061503871328 0 0.01293397543574059 -0.00072318758521063074 0 0.01547314346707537 0.0099472423576403238 0 0.013302850763066081 0.023232485893385259 0 0.022999072849209129 0.01269397173619017 0 0.01547314346707537 0.0099472423576403238 0 0.027670260331272119 0.0058806327625004918 0 0.022999072849209129 0.01269397173619017 0 0.0066667328871138467 0.061830546011145418 0 0.011570867488610829 0.053280029649855891 0 0.020400025823745851 0.059676482689687747 0 0.0066667328871138467 0.061830546011145418 0 0.002216873886963496 0.054181600553508971 0 0.011570867488610829 0.053280029649855891 0 -0.0021599224084404779 0.062414655747423137 0 0.0066667328871138467 0.061830546011145418 0 0.002216873886963496 0.054181600553508971 0 -0.0023136265295195658 0.047315346720803189 0 0.002216873886963496 0.054181600553508971 0 0.0065775974009158857 0.0431516959693556 0 0.002216873886963496 0.054181600553508971 0 0.011570867488610829 0.053280029649855891 0 0.0065775974009158857 0.0431516959693556 0 0.011570867488610829 0.053280029649855891 0 0.0065775974009158857 0.0431516959693556 0 0.01944495971940207 0.046126954542239203 0 0.0065775974009158857 0.0431516959693556 0 0.014495996787883009 0.033235633676190819 0 0.01944495971940207 0.046126954542239203 0 -0.0064737651903623546 0.03755762497560039 0 0.0053956510757752598 0.031172478357800161 0 0.0065775974009158857 0.0431516959693556 0 0.0053956510757752598 0.031172478357800161 0 0.0065775974009158857 0.0431516959693556 0 0.014495996787883009 0.033235633676190819 0 0.014495996787883009 0.033235633676190819 0 0.023604189012843921 0.035737162267236118 0 0.01944495971940207 0.046126954542239203 0 0.023604189012843921 0.035737162267236118 0 0.01944495971940207 0.046126954542239203 0 0.033905527262620312 0.048241838641088233 0 0.023604189012843921 0.035737162267236118 0 0.033905527262620312 0.048241838641088233 0 0.011570867488610829 0.053280029649855891 0 0.01944495971940207 0.046126954542239203 0 0.020400025823745851 0.059676482689687747 0 0.01944495971940207 0.046126954542239203 0 0.020400025823745851 0.059676482689687747 0 0.033905527262620312 0.048241838641088233 0 0.020400025823745851 0.059676482689687747 0 0.033905527262620312 0.048241838641088233 0 0.020400025823745851 0.059676482689687747 0 0.033905527262620312 0.048241838641088233 0 0.034917038789214233 0.063763803653631601 0 0.033905527262620312 0.048241838641088233 0 0.049584273010755443 0.067274088313359792 0 0.034917038789214233 0.063763803653631601 0 0.033905527262620312 0.048241838641088233 0 0.049584273010755443 0.067274088313359792 0 0.033905527262620312 0.048241838641088233 0 0.053079032739749989 0.04988654472631894 0 0.049584273010755443 0.067274088313359792 0 0.033905527262620312 0.048241838641088233 0 0.052909200040832702 0.032152081824696421 0 0.033905527262620312 0.048241838641088233 0 0.052909200040832702 0.032152081824696421 0 0.053079032739749989 0.04988654472631894 0 0.033905527262620312 0.048241838641088233 0 0.038220312144376753 0.033977372131373203 0 0.052909200040832702 0.032152081824696421 0 0.023604189012843921 0.035737162267236118 0 0.033905527262620312 0.048241838641088233 0 0.038220312144376753 0.033977372131373203 0 0.052909200040832702 0.032152081824696421 0 0.070533953615239398 0.053027524634732551 0 0.052909200040832702 0.032152081824696421 0 0.05586336579224975 0.029650891181690779 0 0.070533953615239398 0.053027524634732551 0 0.052909200040832702 0.032152081824696421 0 0.053079032739749989 0.04988654472631894 0 0.070533953615239398 0.053027524634732551 0 0.053079032739749989 0.04988654472631894 0 0.065553693718103698 0.067063079404571457 0 0.049584273010755443 0.067274088313359792 0 0.040536478315382929 0.01380806711268248 0 0.043520090025353481 0.0099826790627131831 0 0.049169068300805432 0.018983960819302301 0 0.043520090025353481 0.0099826790627131831 0 0.049169068300805432 0.018983960819302301 0 0.040536478315382929 0.01380806711268248 0 0.043520090025353481 0.0099826790627131831 0 0.037050106637989723 0.0067529063170911202 0 0.043520090025353481 0.0099826790627131831 0 0.043717788004670848 0.00076588068218828918 0 0.048713247854576459 0.0047885392626456679 0 0.043520090025353481 0.0099826790627131831 0 0.043717788004670848 0.00076588068218828918 0 0.037050106637989723 0.0067529063170911202 0 0.043717788004670848 0.00076588068218828918 0 0.037050106637989723 0.0067529063170911202 0 0.03454245869924806 -0.0016119273116462691 0 0.027670260331272119 0.0058806327625004918 0 0.037050106637989723 0.0067529063170911202 0 0.03454245869924806 -0.0016119273116462691 0 0.027670260331272119 0.0058806327625004918 0 0.037050106637989723 0.0067529063170911202 0 0.031917634899461499 0.013258848890186831 0 0.040536478315382929 0.01380806711268248 0 0.031917634899461499 0.013258848890186831 0 0.042462332261208567 0.019778405792472541 0 0.040536478315382929 0.01380806711268248 0 0.037050106637989723 0.0067529063170911202 0 0.031917634899461499 0.013258848890186831 0 0.023604189012843921 0.035737162267236118 0 0.038220312144376753 0.033977372131373203 0 0.042462332261208567 0.019778405792472541 0 0.038220312144376753 0.033977372131373203 0 0.052909200040832702 0.032152081824696421 0 0.042462332261208567 0.019778405792472541 0 0.040536478315382929 0.01380806711268248 0 0.042462332261208567 0.019778405792472541 0 0.049169068300805432 0.018983960819302301 0 0.042462332261208567 0.019778405792472541 0 0.049169068300805432 0.018983960819302301 0 0.049169068300805432 0.018983960819302301 0 0.05586336579224975 0.029650891181690779 0 0.071600431247114821 0.016326858552443549 0 0.049169068300805432 0.018983960819302301 0 0.071600431247114821 0.016326858552443549 0 0.052909200040832702 0.032152081824696421 0 0.049169068300805432 0.018983960819302301 0 0.05586336579224975 0.029650891181690779 0 0.052909200040832702 0.032152081824696421 0 0.042462332261208567 0.019778405792472541 0 0.049169068300805432 0.018983960819302301 0 0.05586336579224975 0.029650891181690779 0 0.052909200040832702 0.032152081824696421 0 0.042462332261208567 0.019778405792472541 0 0.049169068300805432 0.018983960819302301 0 0.052909200040832702 0.032152081824696421 0 0.05586336579224975 0.029650891181690779 0 0.049169068300805432 0.018983960819302301 0 0.061513451929449597 0.0084392701678897356 0 0.071600431247114821 0.016326858552443549 0 0.049169068300805432 0.018983960819302301 0 0.061513451929449597 0.0084392701678897356 0 0.051929351443292297 0.0092082613247141936 0 0.043520090025353481 0.0099826790627131831 0 0.049169068300805432 0.018983960819302301 0 0.051929351443292297 0.0092082613247141936 0 0.043520090025353481 0.0099826790627131831 0 0.051929351443292297 0.0092082613247141936 0 0.048713247854576459 0.0047885392626456679 0 0.051929351443292297 0.0092082613247141936 0 0.048713247854576459 0.0047885392626456679 0 0.057033892967162117 0.0036722664596361252 0 0.048713247854576459 0.0047885392626456679 0 0.057033892967162117 0.0036722664596361252 0 0.051670053607867403 -0.0021669780324737528 0 0.043717788004670848 0.00076588068218828918 0 0.048713247854576459 0.0047885392626456679 0 0.051670053607867403 -0.0021669780324737528 0 0.057033892967162117 0.0036722664596361252 0 0.058640696810283922 -0.0015185839573016739 0 0.065091043390533121 -0.00099434779435014276 0 0.061513451929449597 0.0084392701678897356 0 0.051929351443292297 0.0092082613247141936 0 0.057033892967162117 0.0036722664596361252 0 0.061513451929449597 0.0084392701678897356 0 0.057033892967162117 0.0036722664596361252 0 0.065091043390533121 -0.00099434779435014276 0 0.061513451929449597 0.0084392701678897356 0 0.074722991134491018 0.001375933915502859 0 0.065091043390533121 -0.00099434779435014276 0 0.061513451929449597 0.0084392701678897356 0 0.074722991134491018 0.001375933915502859 0 0.071600431247114821 0.016326858552443549 0 0.096520627945965304 0.019000317766013991 0 0.088717806338042382 -0.0082037249302653603 0 0.078790342694793916 0.01547517914036798 0 0.089936763412407111 0.00080211610463787331 0 0.096520627945965304 0.019000317766013991 0 0.089936763412407111 0.00080211610463787331 0 0.071600431247114821 0.016326858552443549 0 0.089936763412407111 0.00080211610463787331 0 0.096520627945965304 0.019000317766013991 0 0.088717806338042382 -0.0082037249302653603 0 0.074722991134491018 0.001375933915502859 0 0.089936763412407111 0.00080211610463787331 0 0.071600431247114821 0.016326858552443549 0 0.078790342694793916 0.01547517914036798 0 0.089936763412407111 0.00080211610463787331 0 0.071600431247114821 0.016326858552443549 0 0.084141499782898865 0.02685402697014461 0 0.090213396026562823 0.035853972022517201 0 0.096520627945965304 0.019000317766013991 0 0.078790342694793916 0.01547517914036798 0 0.084141499782898865 0.02685402697014461 0 0.096520627945965304 0.019000317766013991 0 0.078790342694793916 0.01547517914036798 0 0.084141499782898865 0.02685402697014461 0 0.076168481670272861 0.02536069775275206 0 0.084141499782898865 0.02685402697014461 0 0.076168481670272861 0.02536069775275206 0 0.079365778346121033 0.037099555252922183 0 0.05586336579224975 0.029650891181690779 0 0.071600431247114821 0.016326858552443549 0 0.069631531890266996 0.031937323581472041 0 0.05586336579224975 0.029650891181690779 0 0.071600431247114821 0.016326858552443549 0 0.076168481670272861 0.02536069775275206 0 0.071600431247114821 0.016326858552443549 0 0.069631531890266996 0.031937323581472041 0 0.078790342694793916 0.01547517914036798 0 0.076168481670272861 0.02536069775275206 0 0.071600431247114821 0.016326858552443549 0 0.078790342694793916 0.01547517914036798 0 0.071600431247114821 0.016326858552443549 0 0.05586336579224975 0.029650891181690779 0 0.070533953615239398 0.053027524634732551 0 0.05586336579224975 0.029650891181690779 0 0.069631531890266996 0.031937323581472041 0 0.070533953615239398 0.053027524634732551 0 0.069631531890266996 0.031937323581472041 0 0.070533953615239398 0.053027524634732551 0 0.079365778346121033 0.037099555252922183 0 0.076168481670272861 0.02536069775275206 0 0.069631531890266996 0.031937323581472041 0 0.079365778346121033 0.037099555252922183 0 0.053079032739749989 0.04988654472631894 0 0.070533953615239398 0.053027524634732551 0 0.065553693718103698 0.067063079404571457 0 0.070533953615239398 0.053027524634732551 0 0.079396516294124059 0.067149445426090165 0 0.065553693718103698 0.067063079404571457 0 0.070533953615239398 0.053027524634732551 0 0.081127786507183386 0.065575271855209727 0 0.079396516294124059 0.067149445426090165 0 0.070533953615239398 0.053027524634732551 0 0.081332813241413823 0.057204715431108027 0 0.081127786507183386 0.065575271855209727 0 0.070533953615239398 0.053027524634732551 0 0.079396516294124059 0.067149445426090165 0 0.070533953615239398 0.053027524634732551 0 0.081127786507183386 0.065575271855209727 0 0.070533953615239398 0.053027524634732551 0 0.081332813241413823 0.057204715431108027 0 0.086715624503940616 0.050111599661211648 0 0.081332813241413823 0.057204715431108027 0 0.086715624503940616 0.050111599661211648 0 0.08695388833929163 0.060104465573278421 0 0.081332813241413823 0.057204715431108027 0 0.08695388833929163 0.060104465573278421 0 0.081127786507183386 0.065575271855209727 0 0.086715624503940616 0.050111599661211648 0 0.08695388833929163 0.060104465573278421 0 0.097936680678912563 0.062129793765134132 0 0.070533953615239398 0.053027524634732551 0 0.086715624503940616 0.050111599661211648 0 0.079365778346121033 0.037099555252922183 0 0.084141499782898865 0.02685402697014461 0 0.079365778346121033 0.037099555252922183 0 0.090213396026562823 0.035853972022517201 0 0.086715624503940616 0.050111599661211648 0 0.079365778346121033 0.037099555252922183 0 0.090213396026562823 0.035853972022517201 0 0.10432344955388829 0.046204360462293578 0 0.096520627945965304 0.019000317766013991 0 0.086715624503940616 0.050111599661211648 0 0.090213396026562823 0.035853972022517201 0 0.10432344955388829 0.046204360462293578 0 0.090213396026562823 0.035853972022517201 0 0.10432344955388829 0.046204360462293578 0 0.096520627945965304 0.019000317766013991 0 0.10432344955388829 0.046204360462293578 0 0.097936680678912563 0.062129793765134132 0 0.11212627116181111 0.07340840315857329 0 0.086715624503940616 0.050111599661211648 0 0.10432344955388829 0.046204360462293578 0 0.097936680678912563 0.062129793765134132 0 0.10432344955388829 0.046204360462293578 0 0.11212627116181111 0.07340840315857329 0 0.10432344955388829 0.046204360462293578 0 0.12241033492594849 0.053910071109036131 0 0.11212627116181111 0.07340840315857329 0 0.10432344955388829 0.046204360462293578 0 0.12241033492594849 0.053910071109036131 0 0.121187693009621 0.039099570776044923 0 0.10432344955388829 0.046204360462293578 0 0.121187693009621 0.039099570776044923 0 0.1183721398178114 0.023617804808984569 0 0.12241033492594849 0.053910071109036131 0 0.121187693009621 0.039099570776044923 0 0.13087179046742181 0.043861615639022487 0 0.1183721398178114 0.023617804808984569 0 0.1139785993369256 0.01210634795354475 0 0.096520627945965304 0.019000317766013991 0 0.1183721398178114 0.023617804808984569 0 0.12388624545308891 0.0047964019648707914 0 0.1139785993369256 0.01210634795354475 0 0.12388624545308891 0.0047964019648707914 0 0.1139785993369256 0.01210634795354475 0 0.1092389874442887 0.0016429025726647081 0 0.096520627945965304 0.019000317766013991 0 0.088717806338042382 -0.0082037249302653603 0 0.099371011134178996 -4.5569553201685927e-05 0 0.1092389874442887 0.0016429025726647081 0 0.096520627945965304 0.019000317766013991 0 0.099371011134178996 -4.5569553201685927e-05 0 0.1139785993369256 0.01210634795354475 0 0.1092389874442887 0.0016429025726647081 0 0.096520627945965304 0.019000317766013991 0 0.10432344955388829 0.046204360462293578 0 0.1183721398178114 0.023617804808984569 0 0.096520627945965304 0.019000317766013991 0 0.100837166660232 0.10131373595424351 0 0.1190106944703056 0.097410508426925724 0 0.10377217115643771 0.086835540236592484 0 0.100837166660232 0.10131373595424351 0 0.1123132373576009 0.11214191122456189 0 0.099294678573139408 0.12761697958614171 0 0.100837166660232 0.10131373595424351 0 0.082278848666014204 0.106961658785887 0 0.099294678573139408 0.12761697958614171 0 0.1123132373576009 0.11214191122456189 0 0.099294678573139408 0.12761697958614171 0 0.1258951177788 0.1214126136952782 0 0.1190106944703056 0.097410508426925724 0 0.1258951177788 0.1214126136952782 0 0.1123132373576009 0.11214191122456189 0 0.1190106944703056 0.097410508426925724 0 0.1258951177788 0.1214126136952782 0 0.100837166660232 0.10131373595424351 0 0.1123132373576009 0.11214191122456189 0 0.1190106944703056 0.097410508426925724 0 0.1190106944703056 0.097410508426925724 0 0.11212627116181111 0.07340840315857329 0 0.1190106944703056 0.097410508426925724 0 0.11212627116181111 0.07340840315857329 0 0.13063259154874551 0.085815781652021236 0 0.1190106944703056 0.097410508426925724 0 0.11212627116181111 0.07340840315857329 0 0.10377217115643771 0.086835540236592484 0 0.12241033492594849 0.053910071109036131 0 0.11212627116181111 0.07340840315857329 0 0.13111680556844349 0.067152037963763039 0 0.11212627116181111 0.07340840315857329 0 0.13111680556844349 0.067152037963763039 0 0.097936680678912563 0.062129793765134132 0 0.11212627116181111 0.07340840315857329 0 0.091721619399127666 0.078123019075686723 0 0.11212627116181111 0.07340840315857329 0 0.088259078973007832 0.081271366217448432 0 0.091721619399127666 0.078123019075686723 0 0.11212627116181111 0.07340840315857329 0 0.088259078973007832 0.081271366217448432 0 0.100837166660232 0.10131373595424351 0 0.10377217115643771 0.086835540236592484 0 0.088259078973007832 0.081271366217448432 0 0.11212627116181111 0.07340840315857329 0 0.10377217115643771 0.086835540236592484 0 0.088259078973007832 0.081271366217448432 0 0.100837166660232 0.10131373595424351 0 0.088259078973007832 0.081271366217448432 0 0.088259078973007832 0.081271366217448432 0 0.08421709172942865 0.086382595820584579 0 0.089068221574307133 0.094993340849273411 0 0.100837166660232 0.10131373595424351 0 0.088259078973007832 0.081271366217448432 0 0.089068221574307133 0.094993340849273411 0 0.088259078973007832 0.081271366217448432 0 0.086232069064098971 0.081939157548228309 0 0.088259078973007832 0.081271366217448432 0 0.086232069064098971 0.081939157548228309 0 0.08421709172942865 0.086382595820584579 0 0.086232069064098971 0.081939157548228309 0 0.080566656288508731 0.084357820772449951 0 0.08421709172942865 0.086382595820584579 0 0.086232069064098971 0.081939157548228309 0 0.080566656288508731 0.084357820772449951 0 0.07546536788986459 0.078734535341294765 0 0.08421709172942865 0.086382595820584579 0 0.076959432747220474 0.089351293715522598 0 0.089068221574307133 0.094993340849273411 0 0.080566656288508731 0.084357820772449951 0 0.08421709172942865 0.086382595820584579 0 0.076959432747220474 0.089351293715522598 0 0.097936680678912563 0.062129793765134132 0 0.089730384790974685 0.066298542218079792 0 0.091721619399127666 0.078123019075686723 0 0.08695388833929163 0.060104465573278421 0 0.097936680678912563 0.062129793765134132 0 0.089730384790974685 0.066298542218079792 0 0.089730384790974685 0.066298542218079792 0 0.091721619399127666 0.078123019075686723 0 0.081127786507183386 0.065575271855209727 0 0.088259078973007832 0.081271366217448432 0 0.091721619399127666 0.078123019075686723 0 0.079396516294124059 0.067149445426090165 0 0.091721619399127666 0.078123019075686723 0 0.081127786507183386 0.065575271855209727 0 0.086232069064098971 0.081939157548228309 0 0.079396516294124059 0.067149445426090165 0 0.07546536788986459 0.078734535341294765 0 0.088259078973007832 0.081271366217448432 0 0.079396516294124059 0.067149445426090165 0 0.088259078973007832 0.081271366217448432 0 0.086232069064098971 0.081939157548228309 0 0.079396516294124059 0.067149445426090165 0 0.08695388833929163 0.060104465573278421 0 0.089730384790974685 0.066298542218079792 0 0.081127786507183386 0.065575271855209727 0 0.091721619399127666 0.078123019075686723 0 0.081127786507183386 0.065575271855209727 0 0.079396516294124059 0.067149445426090165 0 0.065553693718103698 0.067063079404571457 0 0.07546536788986459 0.078734535341294765 0 0.065263018758888403 0.086306337985632878 0 0.079396516294124059 0.067149445426090165 0 0.065553693718103698 0.067063079404571457 0 0.07546536788986459 0.078734535341294765 0 0.076959432747220474 0.089351293715522598 0 0.065263018758888403 0.086306337985632878 0 0.080566656288508731 0.084357820772449951 0 0.076959432747220474 0.089351293715522598 0 0.07546536788986459 0.078734535341294765 0 0.076959432747220474 0.089351293715522598 0 0.07546536788986459 0.078734535341294765 0 0.065263018758888403 0.086306337985632878 0 0.065263018758888403 0.086306337985632878 0 0.082278848666014204 0.106961658785887 0 0.076959432747220474 0.089351293715522598 0 0.065263018758888403 0.086306337985632878 0 0.082278848666014204 0.106961658785887 0 0.065263018758888403 0.086306337985632878 0 0.065175028478852148 0.1087350625455417 0 0.082278848666014204 0.106961658785887 0 0.100837166660232 0.10131373595424351 0 0.082278848666014204 0.106961658785887 0 0.089068221574307133 0.094993340849273411 0 0.076959432747220474 0.089351293715522598 0 0.082278848666014204 0.106961658785887 0 0.089068221574307133 0.094993340849273411 0 0.082278848666014204 0.106961658785887 0 0.079809763584538895 0.1218422047790729 0 0.099294678573139408 0.12761697958614171 0 0.082278848666014204 0.106961658785887 0 0.099294678573139408 0.12761697958614171 0 0.065175028478852148 0.1087350625455417 0 0.082278848666014204 0.106961658785887 0 0.079809763584538895 0.1218422047790729 0 0.065175028478852148 0.1087350625455417 0 0.079809763584538895 0.1218422047790729 0 0.067196498518290529 0.12707157363355079 0 0.065175028478852148 0.1087350625455417 0 0.049289233350182919 0.11531739792285869 0 0.067196498518290529 0.12707157363355079 0 0.049289233350182919 0.11531739792285869 0 0.052207036435238642 0.13011027972964259 0 0.067196498518290529 0.12707157363355079 0 0.049289233350182919 0.11531739792285869 0 0.067196498518290529 0.12707157363355079 0 0.065263018758888403 0.086306337985632878 0 0.065175028478852148 0.1087350625455417 0 0.052055815113124723 0.097786307231936806 0 0.065175028478852148 0.1087350625455417 0 0.049289233350182919 0.11531739792285869 0 0.052055815113124723 0.097786307231936806 0 0.049289233350182919 0.11531739792285869 0 0.052055815113124723 0.097786307231936806 0 0.034744941010150333 0.097331470135800902 0 0.049289233350182919 0.11531739792285869 0 0.02567779190443022 0.1162036384999222 0 0.03552683430196972 0.13076857569367711 0 0.049289233350182919 0.11531739792285869 0 0.034744941010150333 0.097331470135800902 0 0.02567779190443022 0.1162036384999222 0 0.065263018758888403 0.086306337985632878 0 0.049584273010755443 0.067274088313359792 0 0.065553693718103698 0.067063079404571457 0 0.065263018758888403 0.086306337985632878 0 0.049584273010755443 0.067274088313359792 0 0.065263018758888403 0.086306337985632878 0 0.052055815113124723 0.097786307231936806 0 0.04580685396754916 0.081241267569850395 0 0.065263018758888403 0.086306337985632878 0 0.049584273010755443 0.067274088313359792 0 0.04580685396754916 0.081241267569850395 0 0.065263018758888403 0.086306337985632878 0 0.04580685396754916 0.081241267569850395 0 0.034744941010150333 0.097331470135800902 0 0.04580685396754916 0.081241267569850395 0 0.026350689176210151 0.07617619715406726 0 0.052055815113124723 0.097786307231936806 0 0.034744941010150333 0.097331470135800902 0 0.04580685396754916 0.081241267569850395 0 0.04580685396754916 0.081241267569850395 0 0.026350689176210151 0.07617619715406726 0 0.049584273010755443 0.067274088313359792 0 0.04580685396754916 0.081241267569850395 0 0.034917038789214233 0.063763803653631601 0 0.04580685396754916 0.081241267569850395 0 0.034917038789214233 0.063763803653631601 0 0.026350689176210151 0.07617619715406726 0 0.020400025823745851 0.059676482689687747 0 0.026350689176210151 0.07617619715406726 0 0.0068945243848706284 0.07111112673828629 0 0.026350689176210151 0.07617619715406726 0 0.0068945243848706284 0.07111112673828629 0 0.020400025823745851 0.059676482689687747 0 0.034917038789214233 0.063763803653631601 0 0.026350689176210151 0.07617619715406726 0 0.034744941010150333 0.097331470135800902 0 0.026350689176210151 0.07617619715406726 0 0.016750528003003959 0.096219596478501881 0 0.026350689176210151 0.07617619715406726 0 0.010521514356315889 0.081406438696196071 0 0.016750528003003959 0.096219596478501881 0 0.0012342514868991161 0.089385976589458377 0 0.010521514356315889 0.081406438696196071 0 0.016750528003003959 0.096219596478501881 0 0.0012342514868991161 0.089385976589458377 0 0.010521514356315889 0.081406438696196071 0 0.0028961032870146938 0.07449645250477821 0 0.026350689176210151 0.07617619715406726 0 0.010521514356315889 0.081406438696196071 0 0.0068945243848706284 0.07111112673828629 0 0.010521514356315889 0.081406438696196071 0 0.0028961032870146938 0.07449645250477821 0 0.0068945243848706284 0.07111112673828629 0 -0.003582455662859823 0.069200319931586138 0 0.0028961032870146938 0.07449645250477821 0 0.0014133214047551759 0.069684191915556568 0 0.0028961032870146938 0.07449645250477821 0 0.0068945243848706284 0.07111112673828629 0 0.0014133214047551759 0.069684191915556568 0 0.0028961032870146938 0.07449645250477821 0 0.0068945243848706284 0.07111112673828629 0 0.0068945243848706284 0.07111112673828629 0 0.0014133214047551759 0.069684191915556568 0 -0.0021599224084404779 0.062414655747423137 0 0.0066667328871138467 0.061830546011145418 0 0.0014133214047551759 0.069684191915556568 0 0.0066667328871138467 0.061830546011145418 0 0.0068945243848706284 0.07111112673828629 0 0.0014133214047551759 0.069684191915556568 0 0.020400025823745851 0.059676482689687747 0 0.0068945243848706284 0.07111112673828629 0 0.0066667328871138467 0.061830546011145418 0 0.020400025823745851 0.059676482689687747 0 0.0068945243848706284 0.07111112673828629 0 0.02567779190443022 0.1162036384999222 0 0.00216679324830793 0.11578751986121549 0 0.019673268724393921 0.13916696668077089 0 0.034744941010150333 0.097331470135800902 0 0.02567779190443022 0.1162036384999222 0 0.016750528003003959 0.096219596478501881 0 0.0012342514868991161 0.089385976589458377 0 0.016750528003003959 0.096219596478501881 0 0.00216679324830793 0.11578751986121549 0 0.02567779190443022 0.1162036384999222 0 0.016750528003003959 0.096219596478501881 0 0.00216679324830793 0.11578751986121549 0 0.00216679324830793 0.11578751986121549 0 0.0082359435542964307 0.1391521317058286 0 0.019673268724393921 0.13916696668077089 0 0.00216679324830793 0.11578751986121549 0 0.019673268724393921 0.13916696668077089 0 -0.0086006131490303922 0.1284864323031385 0 0.00216679324830793 0.11578751986121549 0 0.0082359435542964307 0.1391521317058286 0 0.02567779190443022 0.1162036384999222 0 0.019673268724393921 0.13916696668077089 0 0.03552683430196972 0.13076857569367711 0 0.019673268724393921 0.13916696668077089 0 0.03552683430196972 0.13076857569367711 0 0.035952899452945601 0.14481835329297291 0 0.019673268724393921 0.13916696668077089 0 0.0303952636508041 0.15348591457659219 0 0.035952899452945601 0.14481835329297291 0 0.019673268724393921 0.13916696668077089 0 0.0303952636508041 0.15348591457659219 0 0.019673268724393921 0.13916696668077089 0 0.0303952636508041 0.15348591457659219 0 0.015990208571530991 0.1513492285241598 0 0.0082359435542964307 0.1391521317058286 0 0.015990208571530991 0.1513492285241598 0 0.00035631202773353098 0.15667502639174291 0 0.0082359435542964307 0.1391521317058286 0 0.019673268724393921 0.13916696668077089 0 0.015990208571530991 0.1513492285241598 0 0.00035631202773353098 0.15667502639174291 0 0.0013893046736191701 0.17072612304771489 0 0.01396956764432091 0.16447678947229871 0 0.015990208571530991 0.1513492285241598 0 0.00035631202773353098 0.15667502639174291 0 0.01396956764432091 0.16447678947229871 0 0.0013893046736191701 0.17072612304771489 0 0.01396956764432091 0.16447678947229871 0 0.01045941382587582 0.17782057294198539 0 0.01045941382587582 0.17782057294198539 0 0.025352870990037961 0.17945568015596869 0 0.0095326002675122576 0.1929022627574257 0 -0.0021428159979618232 0.1862104870337386 0 0.01045941382587582 0.17782057294198539 0 0.0095326002675122576 0.1929022627574257 0 -0.0021428159979618232 0.1862104870337386 0 0.0013893046736191701 0.17072612304771489 0 0.01045941382587582 0.17782057294198539 0 0.01396956764432091 0.16447678947229871 0 0.01045941382587582 0.17782057294198539 0 0.025352870990037961 0.17945568015596869 0 0.0303952636508041 0.15348591457659219 0 0.025352870990037961 0.17945568015596869 0 0.037179744200479911 0.16254641350032631 0 0.0303952636508041 0.15348591457659219 0 0.025352870990037961 0.17945568015596869 0 0.0303952636508041 0.15348591457659219 0 0.015990208571530991 0.1513492285241598 0 0.01396956764432091 0.16447678947229871 0 0.0303952636508041 0.15348591457659219 0 0.01396956764432091 0.16447678947229871 0 0.025352870990037961 0.17945568015596869 0 0.0303952636508041 0.15348591457659219 0 0.037179744200479911 0.16254641350032631 0 0.037179744200479911 0.16254641350032631 0 0.044385112979874422 0.16922250440356451 0 0.05166687505334594 0.1618391881158634 0 0.037179744200479911 0.16254641350032631 0 0.044385112979874422 0.16922250440356451 0 0.040593380936798359 0.1768931296406534 0 0.037179744200479911 0.16254641350032631 0 0.05166687505334594 0.1618391881158634 0 0.044059357444246397 0.15190929694983951 0 0.025352870990037961 0.17945568015596869 0 0.037179744200479911 0.16254641350032631 0 0.040593380936798359 0.1768931296406534 0 0.025352870990037961 0.17945568015596869 0 0.03990043212765957 0.18594147802944211 0 0.034417812579519362 0.1905879879180582 0 0.025352870990037961 0.17945568015596869 0 0.040593380936798359 0.1768931296406534 0 0.03990043212765957 0.18594147802944211 0 0.040593380936798359 0.1768931296406534 0 0.046097065474755061 0.18482537155711551 0 0.04810045172887345 0.17561128635741499 0 0.044385112979874422 0.16922250440356451 0 0.040593380936798359 0.1768931296406534 0 0.04810045172887345 0.17561128635741499 0 0.040593380936798359 0.1768931296406534 0 0.046097065474755061 0.18482537155711551 0 0.03990043212765957 0.18594147802944211 0 0.056274454424828549 0.18006285276337261 0 0.060882033796311963 0.19828651741088171 0 0.06448620071764119 0.18084118378093081 0 0.04810045172887345 0.17561128635741499 0 0.056274454424828549 0.18006285276337261 0 0.05166687505334594 0.1618391881158634 0 0.046097065474755061 0.18482537155711551 0 0.04810045172887345 0.17561128635741499 0 0.056274454424828549 0.18006285276337261 0 0.046097065474755061 0.18482537155711551 0 0.056274454424828549 0.18006285276337261 0 0.049650736469725253 0.19406802925117911 0 0.056274454424828549 0.18006285276337261 0 0.060971999166690452 0.17119944510822849 0 0.06448620071764119 0.18084118378093081 0 0.05166687505334594 0.1618391881158634 0 0.058605425749731037 0.146058913362904 0 0.068090367638969709 0.16339585015097979 0 0.056274454424828549 0.18006285276337261 0 0.05166687505334594 0.1618391881158634 0 0.060971999166690452 0.17119944510822849 0 0.056274454424828549 0.18006285276337261 0 0.05166687505334594 0.1618391881158634 0 0.05166687505334594 0.1618391881158634 0 0.060971999166690452 0.17119944510822849 0 0.068090367638969709 0.16339585015097979 0 0.044385112979874422 0.16922250440356451 0 0.04810045172887345 0.17561128635741499 0 0.05166687505334594 0.1618391881158634 0 0.05166687505334594 0.1618391881158634 0 0.058605425749731037 0.146058913362904 0 0.044059357444246397 0.15190929694983951 0 0.058605425749731037 0.146058913362904 0 0.043325292593638043 0.13970051364025041 0 0.044059357444246397 0.15190929694983951 0 0.058605425749731037 0.146058913362904 0 0.052207036435238642 0.13011027972964259 0 0.043325292593638043 0.13970051364025041 0 0.058605425749731037 0.146058913362904 0 0.052207036435238642 0.13011027972964259 0 0.067196498518290529 0.12707157363355079 0 0.049289233350182919 0.11531739792285869 0 0.052207036435238642 0.13011027972964259 0 0.03552683430196972 0.13076857569367711 0 0.052207036435238642 0.13011027972964259 0 0.043325292593638043 0.13970051364025041 0 0.03552683430196972 0.13076857569367711 0 0.043325292593638043 0.13970051364025041 0 0.03552683430196972 0.13076857569367711 0 0.035952899452945601 0.14481835329297291 0 0.037179744200479911 0.16254641350032631 0 0.035952899452945601 0.14481835329297291 0 0.044059357444246397 0.15190929694983951 0 0.0303952636508041 0.15348591457659219 0 0.037179744200479911 0.16254641350032631 0 0.035952899452945601 0.14481835329297291 0 0.043325292593638043 0.13970051364025041 0 0.035952899452945601 0.14481835329297291 0 0.044059357444246397 0.15190929694983951 0 0.027870978034772301 0.2411862572349234 0 0.01415731803086369 0.24116777736433301 0 0.032605477537264872 0.22856546798663441 0 0.01415731803086369 0.24116777736433301 0 0.032605477537264872 0.22856546798663441 0 0.027870978034772301 0.2411862572349234 0 0.021164481015940751 0.24678781266816799 0 0.025831710512758919 0.25519472312695779 0 0.027870978034772301 0.2411862572349234 0 0.021164481015940751 0.24678781266816799 0 0.01415731803086369 0.24116777736433301 0 0.021164481015940751 0.24678781266816799 0 0.01415731803086369 0.24116777736433301 0 0.018077926120903118 0.25382018488078151 0 -0.0076840247107458556 0.25608803856212531 0 0.01088253848113307 0.2434048452417634 0 0.01088253848113307 0.2434048452417634 0 0.01415731803086369 0.24116777736433301 0 0.01091317381807741 0.25905014045506791 0 -0.0076840247107458556 0.25608803856212531 0 0.01088253848113307 0.2434048452417634 0 0.00052415305209933393 0.24243324055153151 0 0.01088253848113307 0.2434048452417634 0 0.01415731803086369 0.24116777736433301 0 0.01088253848113307 0.2434048452417634 0 0.00052415305209933393 0.24243324055153151 0 0.0074659912115170356 0.23806937140260179 0 0.00052415305209933393 0.24243324055153151 0 0.0074659912115170356 0.23806937140260179 0 0.0045240798909150746 0.2334553464307744 0 0.01088253848113307 0.2434048452417634 0 0.01603430221468314 0.23082147014460061 0 0.01088253848113307 0.2434048452417634 0 0.0074659912115170356 0.23806937140260179 0 0.01603430221468314 0.23082147014460061 0 0.01088253848113307 0.2434048452417634 0 0.01415731803086369 0.24116777736433301 0 0.01603430221468314 0.23082147014460061 0 0.01415731803086369 0.24116777736433301 0 0.01603430221468314 0.23082147014460061 0 0.0074659912115170356 0.23806937140260179 0 0.0045240798909150746 0.2334553464307744 0 0.01603430221468314 0.23082147014460061 0 0.0045240798909150746 0.2334553464307744 0 0.005975702702780316 0.22509425031954469 0 0.01603430221468314 0.23082147014460061 0 -0.001138377762576071 0.22768916129548639 0 0.0045240798909150746 0.2334553464307744 0 0.005975702702780316 0.22509425031954469 0 0.005975702702780316 0.22509425031954469 0 0.011081029166688719 0.21665133283937221 0 0.001078566108438643 0.2156427941523531 0 -0.001138377762576071 0.22768916129548639 0 0.005975702702780316 0.22509425031954469 0 0.001078566108438643 0.2156427941523531 0 0.005975702702780316 0.22509425031954469 0 0.01603430221468314 0.23082147014460061 0 0.011081029166688719 0.21665133283937221 0 0.01603430221468314 0.23082147014460061 0 0.025208662723237771 0.22187822000546081 0 0.032605477537264872 0.22856546798663441 0 0.01603430221468314 0.23082147014460061 0 0.025208662723237771 0.22187822000546081 0 0.025393941888648051 0.20796020109515659 0 0.01603430221468314 0.23082147014460061 0 0.025393941888648051 0.20796020109515659 0 0.01415731803086369 0.24116777736433301 0 0.01603430221468314 0.23082147014460061 0 0.032605477537264872 0.22856546798663441 0 0.025208662723237771 0.22187822000546081 0 0.031948531235117081 0.21745108598860469 0 0.032605477537264872 0.22856546798663441 0 0.01603430221468314 0.23082147014460061 0 0.025393941888648051 0.20796020109515659 0 0.02069358660236079 0.20513857515028461 0 0.01603430221468314 0.23082147014460061 0 0.02069358660236079 0.20513857515028461 0 0.011081029166688719 0.21665133283937221 0 0.01603430221468314 0.23082147014460061 0 0.02069358660236079 0.20513857515028461 0 0.025208662723237771 0.22187822000546081 0 0.028095619605658231 0.21476034094838151 0 0.025393941888648051 0.20796020109515659 0 0.025208662723237771 0.22187822000546081 0 0.028095619605658231 0.21476034094838151 0 0.031948531235117081 0.21745108598860469 0 0.028095619605658231 0.21476034094838151 0 0.031505209005876271 0.20970341214931909 0 0.031948531235117081 0.21745108598860469 0 0.028095619605658231 0.21476034094838151 0 0.025393941888648051 0.20796020109515659 0 0.031505209005876271 0.20970341214931909 0 0.025393941888648051 0.20796020109515659 0 0.030942028144612391 0.20288530147371381 0 0.031505209005876271 0.20970341214931909 0 0.025393941888648051 0.20796020109515659 0 0.026555685945914238 0.20280150209440551 0 0.030942028144612391 0.20288530147371381 0 0.025393941888648051 0.20796020109515659 0 0.02069358660236079 0.20513857515028461 0 0.026555685945914238 0.20280150209440551 0 0.011081029166688719 0.21665133283937221 0 0.001078566108438643 0.2156427941523531 0 0.0083188844746466331 0.20657284500741091 0 -0.0027703356282496221 0.2010892263023655 0 0.001078566108438643 0.2156427941523531 0 0.0083188844746466331 0.20657284500741091 0 0.02069358660236079 0.20513857515028461 0 0.011081029166688719 0.21665133283937221 0 0.0083188844746466331 0.20657284500741091 0 0.02069358660236079 0.20513857515028461 0 0.0083188844746466331 0.20657284500741091 0 0.0095326002675122576 0.1929022627574257 0 -0.0027703356282496221 0.2010892263023655 0 0.0083188844746466331 0.20657284500741091 0 0.0095326002675122576 0.1929022627574257 0 -0.0027703356282496221 0.2010892263023655 0 -0.0021428159979618232 0.1862104870337386 0 0.0095326002675122576 0.1929022627574257 0 0.025352870990037961 0.17945568015596869 0 0.02069358660236079 0.20513857515028461 0 0.0095326002675122576 0.1929022627574257 0 0.025352870990037961 0.17945568015596869 0 0.02069358660236079 0.20513857515028461 0 0.02877841107274547 0.19630749313285509 0 0.025352870990037961 0.17945568015596869 0 0.02069358660236079 0.20513857515028461 0 0.025352870990037961 0.17945568015596869 0 0.02877841107274547 0.19630749313285509 0 0.034417812579519362 0.1905879879180582 0 0.02069358660236079 0.20513857515028461 0 0.026555685945914238 0.20280150209440551 0 0.02877841107274547 0.19630749313285509 0 0.026555685945914238 0.20280150209440551 0 0.030942028144612391 0.20288530147371381 0 0.02877841107274547 0.19630749313285509 0 0.034417812579519362 0.1905879879180582 0 0.036102463714774831 0.19811913969530079 0 0.041954884992378948 0.19311614857672441 0 0.03990043212765957 0.18594147802944211 0 0.034417812579519362 0.1905879879180582 0 0.041954884992378948 0.19311614857672441 0 0.02877841107274547 0.19630749313285509 0 0.034417812579519362 0.1905879879180582 0 0.036102463714774831 0.19811913969530079 0 0.030942028144612391 0.20288530147371381 0 0.02877841107274547 0.19630749313285509 0 0.036102463714774831 0.19811913969530079 0 0.036102463714774831 0.19811913969530079 0 0.044365028170974201 0.20113825367381949 0 0.036320994659018849 0.20502541061377791 0 0.030942028144612391 0.20288530147371381 0 0.036102463714774831 0.19811913969530079 0 0.036320994659018849 0.20502541061377791 0 0.044365028170974201 0.20113825367381949 0 0.041954884992378948 0.19311614857672441 0 0.049650736469725253 0.19406802925117911 0 0.036102463714774831 0.19811913969530079 0 0.044365028170974201 0.20113825367381949 0 0.041954884992378948 0.19311614857672441 0 0.046097065474755061 0.18482537155711551 0 0.03990043212765957 0.18594147802944211 0 0.041954884992378948 0.19311614857672441 0 0.046097065474755061 0.18482537155711551 0 0.041954884992378948 0.19311614857672441 0 0.049650736469725253 0.19406802925117911 0 0.056274454424828549 0.18006285276337261 0 0.060882033796311963 0.19828651741088171 0 0.056274454424828549 0.18006285276337261 0 0.049650736469725253 0.19406802925117911 0 0.060882033796311963 0.19828651741088171 0 0.060882033796311963 0.19828651741088171 0 0.051637835176663753 0.20064138190662539 0 0.051653542269643582 0.20907272729062129 0 0.049650736469725253 0.19406802925117911 0 0.060882033796311963 0.19828651741088171 0 0.051637835176663753 0.20064138190662539 0 0.044365028170974201 0.20113825367381949 0 0.049650736469725253 0.19406802925117911 0 0.051637835176663753 0.20064138190662539 0 0.060882033796311963 0.19828651741088171 0 0.054809688013281947 0.2276786350385395 0 0.060882033796311963 0.19828651741088171 0 0.058242128908189333 0.2210721548082735 0 0.054809688013281947 0.2276786350385395 0 0.060882033796311963 0.19828651741088171 0 0.051653542269643582 0.20907272729062129 0 0.054809688013281947 0.2276786350385395 0 0.060882033796311963 0.19828651741088171 0 0.058242128908189333 0.2210721548082735 0 0.067761514181120849 0.22549588991954231 0 0.051653542269643582 0.20907272729062129 0 0.049136503021716668 0.21835469464324411 0 0.054809688013281947 0.2276786350385395 0 0.044365028170974201 0.20113825367381949 0 0.051637835176663753 0.20064138190662539 0 0.051653542269643582 0.20907272729062129 0 0.051653542269643582 0.20907272729062129 0 0.049136503021716668 0.21835469464324411 0 0.044284527871721671 0.21289036654821411 0 0.049136503021716668 0.21835469464324411 0 0.044097459133942661 0.2182855833336893 0 0.044284527871721671 0.21289036654821411 0 0.044097459133942661 0.2182855833336893 0 0.039420000999960098 0.21775065150469769 0 0.044284527871721671 0.21289036654821411 0 0.039420000999960098 0.21775065150469769 0 0.044284527871721671 0.21289036654821411 0 0.037594309421994827 0.21127975899992291 0 0.044365028170974201 0.20113825367381949 0 0.042301405041892358 0.20739835184158481 0 0.036320994659018849 0.20502541061377791 0 0.051653542269643582 0.20907272729062129 0 0.044284527871721671 0.21289036654821411 0 0.042301405041892358 0.20739835184158481 0 0.044365028170974201 0.20113825367381949 0 0.051653542269643582 0.20907272729062129 0 0.042301405041892358 0.20739835184158481 0 0.044284527871721671 0.21289036654821411 0 0.042301405041892358 0.20739835184158481 0 0.037594309421994827 0.21127975899992291 0 0.042301405041892358 0.20739835184158481 0 0.036320994659018849 0.20502541061377791 0 0.037594309421994827 0.21127975899992291 0 0.030942028144612391 0.20288530147371381 0 0.036320994659018849 0.20502541061377791 0 0.031505209005876271 0.20970341214931909 0 0.036320994659018849 0.20502541061377791 0 0.031505209005876271 0.20970341214931909 0 0.037594309421994827 0.21127975899992291 0 0.031505209005876271 0.20970341214931909 0 0.031948531235117081 0.21745108598860469 0 0.037594309421994827 0.21127975899992291 0 0.039420000999960098 0.21775065150469769 0 0.031948531235117081 0.21745108598860469 0 0.037594309421994827 0.21127975899992291 0 0.039420000999960098 0.21775065150469769 0 0.031948531235117081 0.21745108598860469 0 0.032605477537264872 0.22856546798663441 0 0.039420000999960098 0.21775065150469769 0 0.032605477537264872 0.22856546798663441 0 0.043548804642372242 0.22414662063860119 0 0.032605477537264872 0.22856546798663441 0 0.044599383185044257 0.23013237642775031 0 0.042843836940098183 0.23816082229920851 0 0.032605477537264872 0.22856546798663441 0 0.044599383185044257 0.23013237642775031 0 0.043548804642372242 0.22414662063860119 0 0.044097459133942661 0.2182855833336893 0 0.039420000999960098 0.21775065150469769 0 0.043548804642372242 0.22414662063860119 0 0.049136503021716668 0.21835469464324411 0 0.044097459133942661 0.2182855833336893 0 0.043548804642372242 0.22414662063860119 0 0.049136503021716668 0.21835469464324411 0 0.043548804642372242 0.22414662063860119 0 0.054809688013281947 0.2276786350385395 0 0.058242128908189333 0.2210721548082735 0 0.060238372797335189 0.22687442479219319 0 0.067761514181120849 0.22549588991954231 0 0.058242128908189333 0.2210721548082735 0 0.054809688013281947 0.2276786350385395 0 0.058242128908189333 0.2210721548082735 0 0.060238372797335189 0.22687442479219319 0 0.054809688013281947 0.2276786350385395 0 0.060140160086748627 0.2332510194024176 0 0.054809688013281947 0.2276786350385395 0 0.052530134807079229 0.23871240985459871 0 0.060140160086748627 0.2332510194024176 0 0.060238372797335189 0.22687442479219319 0 0.054809688013281947 0.2276786350385395 0 0.044599383185044257 0.23013237642775031 0 0.043548804642372242 0.22414662063860119 0 0.054809688013281947 0.2276786350385395 0 0.044599383185044257 0.23013237642775031 0 0.054809688013281947 0.2276786350385395 0 0.042843836940098183 0.23816082229920851 0 0.054809688013281947 0.2276786350385395 0 0.052530134807079229 0.23871240985459871 0 0.054809688013281947 0.2276786350385395 0 0.052530134807079229 0.23871240985459871 0 0.042083917977606862 0.25217215167282159 0 0.052530134807079229 0.23871240985459871 0 0.058884831997455957 0.24903490134567791 0 0.042083917977606862 0.25217215167282159 0 0.054809688013281947 0.2276786350385395 0 0.042083917977606862 0.25217215167282159 0 0.060140160086748627 0.2332510194024176 0 0.052530134807079229 0.23871240985459871 0 0.059479445224975093 0.2400663435398134 0 0.060140160086748627 0.2332510194024176 0 0.059479445224975093 0.2400663435398134 0 0.065069566023224182 0.24151395460632499 0 0.059479445224975093 0.2400663435398134 0 0.058884831997455957 0.24903490134567791 0 0.065069566023224182 0.24151395460632499 0 0.052530134807079229 0.23871240985459871 0 0.059479445224975093 0.2400663435398134 0 0.058884831997455957 0.24903490134567791 0 0.054809688013281947 0.2276786350385395 0 0.042843836940098183 0.23816082229920851 0 0.042083917977606862 0.25217215167282159 0 0.027870978034772301 0.2411862572349234 0 0.025831710512758919 0.25519472312695779 0 0.042083917977606862 0.25217215167282159 0 0.027870978034772301 0.2411862572349234 0 0.032605477537264872 0.22856546798663441 0 0.042843836940098183 0.23816082229920851 0 0.027870978034772301 0.2411862572349234 0 0.042843836940098183 0.23816082229920851 0 0.042083917977606862 0.25217215167282159 0 0.079068988963865661 0.2361497158642433 0 0.089360594940589538 0.2424729707756024 0 0.0746409945659324 0.25270526242820202 0 0.089360594940589538 0.2424729707756024 0 0.0746409945659324 0.25270526242820202 0 0.089360594940589538 0.2424729707756024 0 0.0746409945659324 0.25270526242820202 0 0.085927503214993955 0.25323785896645418 0 0.079068988963865661 0.2361497158642433 0 0.067761514181120849 0.22549588991954231 0 0.0746409945659324 0.25270526242820202 0 0.065069566023224182 0.24151395460632499 0 0.067761514181120849 0.22549588991954231 0 0.0746409945659324 0.25270526242820202 0 0.067761514181120849 0.22549588991954231 0 0.0746409945659324 0.25270526242820202 0 0.065069566023224182 0.24151395460632499 0 0.066424776004761571 0.25029972585998589 0 0.0746409945659324 0.25270526242820202 0 0.058884831997455957 0.24903490134567791 0 0.065069566023224182 0.24151395460632499 0 0.066424776004761571 0.25029972585998589 0 0.060140160086748627 0.2332510194024176 0 0.065069566023224182 0.24151395460632499 0 0.067761514181120849 0.22549588991954231 0 0.079068988963865661 0.2361497158642433 0 0.067761514181120849 0.22549588991954231 0 0.084596647653639556 0.22419772062078991 0 0.067761514181120849 0.22549588991954231 0 0.084596647653639556 0.22419772062078991 0 0.076268296550532369 0.2155960759404722 0 0.060140160086748627 0.2332510194024176 0 0.060238372797335189 0.22687442479219319 0 0.067761514181120849 0.22549588991954231 0 0.079068988963865661 0.2361497158642433 0 0.089360594940589538 0.2424729707756024 0 0.084596647653639556 0.22419772062078991 0 0.089360594940589538 0.2424729707756024 0 0.084596647653639556 0.22419772062078991 0 0.1040801953152462 0.23224067912300209 0 0.084596647653639556 0.22419772062078991 0 0.081657344438696419 0.20775825826141281 0 0.076268296550532369 0.2155960759404722 0 0.084596647653639556 0.22419772062078991 0 0.092786184994807813 0.21232271188868199 0 0.081657344438696419 0.20775825826141281 0 0.092786184994807813 0.21232271188868199 0 0.081657344438696419 0.20775825826141281 0 0.089711032520626843 0.19755743261994649 0 0.060882033796311963 0.19828651741088171 0 0.067761514181120849 0.22549588991954231 0 0.071991973220130526 0.2070233513128463 0 0.067761514181120849 0.22549588991954231 0 0.076268296550532369 0.2155960759404722 0 0.071991973220130526 0.2070233513128463 0 0.060882033796311963 0.19828651741088171 0 0.067761514181120849 0.22549588991954231 0 0.081657344438696419 0.20775825826141281 0 0.076268296550532369 0.2155960759404722 0 0.071991973220130526 0.2070233513128463 0 0.081657344438696419 0.20775825826141281 0 0.071991973220130526 0.2070233513128463 0 0.07525926371690668 0.19216184773732761 0 0.060882033796311963 0.19828651741088171 0 0.06448620071764119 0.18084118378093081 0 0.060882033796311963 0.19828651741088171 0 0.07525926371690668 0.19216184773732761 0 0.06448620071764119 0.18084118378093081 0 0.060882033796311963 0.19828651741088171 0 0.071991973220130526 0.2070233513128463 0 0.07525926371690668 0.19216184773732761 0 0.07525926371690668 0.19216184773732761 0 0.089711032520626843 0.19755743261994649 0 0.084968885773807554 0.18310479617554201 0 0.081657344438696419 0.20775825826141281 0 0.07525926371690668 0.19216184773732761 0 0.089711032520626843 0.19755743261994649 0 0.089711032520626843 0.19755743261994649 0 0.084968885773807554 0.18310479617554201 0 0.097197360948370184 0.1874141708661354 0 0.10639715525117251 0.2025828107905793 0 0.1087141151870991 0.17292494245815651 0 0.10639715525117251 0.2025828107905793 0 0.097197360948370184 0.1874141708661354 0 0.1087141151870991 0.17292494245815651 0 0.089711032520626843 0.19755743261994649 0 0.10639715525117251 0.2025828107905793 0 0.097197360948370184 0.1874141708661354 0 0.10639715525117251 0.2025828107905793 0 0.1201544527699366 0.18997444929974569 0 0.1242610694740624 0.20343463932609299 0 0.10639715525117251 0.2025828107905793 0 0.1201544527699366 0.18997444929974569 0 0.1087141151870991 0.17292494245815651 0 0.10639715525117251 0.2025828107905793 0 0.1242610694740624 0.20343463932609299 0 0.1219513580122398 0.21981758717537389 0 0.10639715525117251 0.2025828107905793 0 0.1040801953152462 0.23224067912300209 0 0.1219513580122398 0.21981758717537389 0 0.10639715525117251 0.2025828107905793 0 0.1040801953152462 0.23224067912300209 0 0.092786184994807813 0.21232271188868199 0 0.10639715525117251 0.2025828107905793 0 0.1040801953152462 0.23224067912300209 0 0.092786184994807813 0.21232271188868199 0 0.089711032520626843 0.19755743261994649 0 0.10639715525117251 0.2025828107905793 0 0.084596647653639556 0.22419772062078991 0 0.092786184994807813 0.21232271188868199 0 0.1040801953152462 0.23224067912300209 0 0.1040801953152462 0.23224067912300209 0 0.1219513580122398 0.21981758717537389 0 0.1040801953152462 0.23224067912300209 0 0.1219513580122398 0.21981758717537389 0 0.1217861261630416 0.23320084711220351 0 0.1040801953152462 0.23224067912300209 0 0.1217861261630416 0.23320084711220351 0 0.11630248525108119 0.24493773306107011 0 0.1217861261630416 0.23320084711220351 0 0.11630248525108119 0.24493773306107011 0 0.13225399440738789 0.24032725185696141 0 0.089360594940589538 0.2424729707756024 0 0.1040801953152462 0.23224067912300209 0 0.1022675438358064 0.25544322918707563 0 0.1040801953152462 0.23224067912300209 0 0.1022675438358064 0.25544322918707563 0 0.1040801953152462 0.23224067912300209 0 0.11630248525108119 0.24493773306107011 0 0.1022675438358064 0.25544322918707563 0 0.089360594940589538 0.2424729707756024 0 0.1040801953152462 0.23224067912300209 0 0.086421753356696135 0.14966211476493829 0 0.085103763686398173 0.13882574934424299 0 0.07489764621440638 0.15072674668594249 0 0.086421753356696135 0.14966211476493829 0 0.07489764621440638 0.15072674668594249 0 0.086845155422951889 0.15921226540365649 0 0.086421753356696135 0.14966211476493829 0 0.092942061315272273 0.15600111475850759 0 0.09548427889813671 0.15150074010349379 0 0.086421753356696135 0.14966211476493829 0 0.092942061315272273 0.15600111475850759 0 0.086845155422951889 0.15921226540365649 0 0.086421753356696135 0.14966211476493829 0 0.085103763686398173 0.13882574934424299 0 0.09548427889813671 0.15150074010349379 0 0.079809763584538895 0.1218422047790729 0 0.085103763686398173 0.13882574934424299 0 0.099294678573139408 0.12761697958614171 0 0.079809763584538895 0.1218422047790729 0 0.085103763686398173 0.13882574934424299 0 0.067196498518290529 0.12707157363355079 0 0.085103763686398173 0.13882574934424299 0 0.067196498518290529 0.12707157363355079 0 0.07489764621440638 0.15072674668594249 0 0.085103763686398173 0.13882574934424299 0 0.067196498518290529 0.12707157363355079 0 0.058605425749731037 0.146058913362904 0 0.067196498518290529 0.12707157363355079 0 0.07489764621440638 0.15072674668594249 0 0.058605425749731037 0.146058913362904 0 0.07489764621440638 0.15072674668594249 0 0.068090367638969709 0.16339585015097979 0 0.060971999166690452 0.17119944510822849 0 0.068090367638969709 0.16339585015097979 0 0.06448620071764119 0.18084118378093081 0 0.068090367638969709 0.16339585015097979 0 0.077944656159265255 0.16372024392511081 0 0.075726472735537328 0.1739498411238049 0 0.07489764621440638 0.15072674668594249 0 0.068090367638969709 0.16339585015097979 0 0.077944656159265255 0.16372024392511081 0 0.068090367638969709 0.16339585015097979 0 0.06448620071764119 0.18084118378093081 0 0.075726472735537328 0.1739498411238049 0 0.068090367638969709 0.16339585015097979 0 0.06448620071764119 0.18084118378093081 0 0.06448620071764119 0.18084118378093081 0 0.075726472735537328 0.1739498411238049 0 0.075110205735973185 0.18251441720440131 0 0.07525926371690668 0.19216184773732761 0 0.06448620071764119 0.18084118378093081 0 0.075110205735973185 0.18251441720440131 0 0.07525926371690668 0.19216184773732761 0 0.075110205735973185 0.18251441720440131 0 0.084968885773807554 0.18310479617554201 0 0.075726472735537328 0.1739498411238049 0 0.075110205735973185 0.18251441720440131 0 0.084968885773807554 0.18310479617554201 0 0.075726472735537328 0.1739498411238049 0 0.084968885773807554 0.18310479617554201 0 0.08595499568961526 0.17041160023930449 0 0.084968885773807554 0.18310479617554201 0 0.08595499568961526 0.17041160023930449 0 0.09551702890550974 0.17661230966016289 0 0.084968885773807554 0.18310479617554201 0 0.097197360948370184 0.1874141708661354 0 0.09551702890550974 0.17661230966016289 0 0.07489764621440638 0.15072674668594249 0 0.077944656159265255 0.16372024392511081 0 0.086845155422951889 0.15921226540365649 0 0.077944656159265255 0.16372024392511081 0 0.075726472735537328 0.1739498411238049 0 0.08595499568961526 0.17041160023930449 0 0.077944656159265255 0.16372024392511081 0 0.08595499568961526 0.17041160023930449 0 0.086845155422951889 0.15921226540365649 0 0.08595499568961526 0.17041160023930449 0 0.086845155422951889 0.15921226540365649 0 0.094933205978366852 0.16576637037440051 0 0.08595499568961526 0.17041160023930449 0 0.094933205978366852 0.16576637037440051 0 0.09551702890550974 0.17661230966016289 0 0.086845155422951889 0.15921226540365649 0 0.093271813789012711 0.15983750996134791 0 0.094933205978366852 0.16576637037440051 0 0.092942061315272273 0.15600111475850759 0 0.086845155422951889 0.15921226540365649 0 0.093271813789012711 0.15983750996134791 0 0.098366832439459845 0.1583702893088271 0 0.094933205978366852 0.16576637037440051 0 0.1047592778710842 0.1623460596042901 0 0.092942061315272273 0.15600111475850759 0 0.093271813789012711 0.15983750996134791 0 0.098366832439459845 0.1583702893088271 0 0.098366832439459845 0.1583702893088271 0 0.1036307453029494 0.15747858465611159 0 0.10043032523500631 0.1548232679190098 0 0.093271813789012711 0.15983750996134791 0 0.098366832439459845 0.1583702893088271 0 0.094933205978366852 0.16576637037440051 0 0.094933205978366852 0.16576637037440051 0 0.09551702890550974 0.17661230966016289 0 0.1087141151870991 0.17292494245815651 0 0.1047592778710842 0.1623460596042901 0 0.1087141151870991 0.17292494245815651 0 0.11168723298877679 0.1655640528984918 0 0.094933205978366852 0.16576637037440051 0 0.1047592778710842 0.1623460596042901 0 0.1087141151870991 0.17292494245815651 0 0.1091031664714565 0.1581216221852966 0 0.1047592778710842 0.1623460596042901 0 0.11168723298877679 0.1655640528984918 0 0.1091031664714565 0.1581216221852966 0 0.1036307453029494 0.15747858465611159 0 0.1047592778710842 0.1623460596042901 0 0.098366832439459845 0.1583702893088271 0 0.1036307453029494 0.15747858465611159 0 0.1047592778710842 0.1623460596042901 0 0.1091031664714565 0.1581216221852966 0 0.1036307453029494 0.15747858465611159 0 0.1035287694755062 0.15406175988433449 0 0.097197360948370184 0.1874141708661354 0 0.09551702890550974 0.17661230966016289 0 0.1087141151870991 0.17292494245815651 0 0.1087141151870991 0.17292494245815651 0 0.118073899679186 0.16847540141386441 0 0.1255071288860567 0.17804300747251589 0 0.1201544527699366 0.18997444929974569 0 0.1087141151870991 0.17292494245815651 0 0.1255071288860567 0.17804300747251589 0 0.1159471407904379 0.15907107829808531 0 0.11631050848026429 0.14827230038639669 0 0.12990179860588 0.16477061161577511 0 0.11631050848026429 0.14827230038639669 0 0.12990179860588 0.16477061161577511 0 0.1091031664714565 0.1581216221852966 0 0.1159471407904379 0.15907107829808531 0 0.11168723298877679 0.1655640528984918 0 0.1087141151870991 0.17292494245815651 0 0.11168723298877679 0.1655640528984918 0 0.118073899679186 0.16847540141386441 0 0.1159471407904379 0.15907107829808531 0 0.11168723298877679 0.1655640528984918 0 0.118073899679186 0.16847540141386441 0 0.1159471407904379 0.15907107829808531 0 0.118073899679186 0.16847540141386441 0 0.12888325272637011 0.16756223154123559 0 0.118073899679186 0.16847540141386441 0 0.12888325272637011 0.16756223154123559 0 0.1255071288860567 0.17804300747251589 0 0.1159471407904379 0.15907107829808531 0 0.12990179860588 0.16477061161577511 0 0.12888325272637011 0.16756223154123559 0 0.1159471407904379 0.15907107829808531 0 0.12888325272637011 0.16756223154123559 0 0.11631050848026429 0.14827230038639669 0 0.13277954108729359 0.1454147189636309 0 0.11631050848026429 0.14827230038639669 0 0.1061072296902333 0.14611596409085681 0 0.1159471407904379 0.15907107829808531 0 0.11631050848026429 0.14827230038639669 0 0.103011028854506 0.15057992505493481 0 0.11631050848026429 0.14827230038639669 0 0.103011028854506 0.15057992505493481 0 0.1159471407904379 0.15907107829808531 0 0.103011028854506 0.15057992505493481 0 0.085103763686398173 0.13882574934424299 0 0.103011028854506 0.15057992505493481 0 0.09548427889813671 0.15150074010349379 0 0.11631050848026429 0.14827230038639669 0 0.1061072296902333 0.14611596409085681 0 0.099294678573139408 0.12761697958614171 0 0.085103763686398173 0.13882574934424299 0 0.103011028854506 0.15057992505493481 0 0.097603721270059424 0.1399306602598332 0 0.1091031664714565 0.1581216221852966 0 0.1159471407904379 0.15907107829808531 0 0.103011028854506 0.15057992505493481 0 0.085103763686398173 0.13882574934424299 0 0.103011028854506 0.15057992505493481 0 0.1091031664714565 0.1581216221852966 0 0.1035287694755062 0.15406175988433449 0 0.103011028854506 0.15057992505493481 0 0.1035287694755062 0.15406175988433449 0 0.10043032523500631 0.1548232679190098 0 0.10114100005897959 0.152704965642282 0 0.1035287694755062 0.15406175988433449 0 0.103011028854506 0.15057992505493481 0 0.10114100005897959 0.152704965642282 0 0.1036307453029494 0.15747858465611159 0 0.1035287694755062 0.15406175988433449 0 0.10043032523500631 0.1548232679190098 0 0.103011028854506 0.15057992505493481 0 0.1061072296902333 0.14611596409085681 0 0.097603721270059424 0.1399306602598332 0 0.11631050848026429 0.14827230038639669 0 0.103011028854506 0.15057992505493481 0 0.1061072296902333 0.14611596409085681 0 0.092942061315272273 0.15600111475850759 0 0.098366832439459845 0.1583702893088271 0 0.09548427889813671 0.15150074010349379 0 0.09548427889813671 0.15150074010349379 0 0.10043032523500631 0.1548232679190098 0 0.10114100005897959 0.152704965642282 0 0.098366832439459845 0.1583702893088271 0 0.09548427889813671 0.15150074010349379 0 0.10043032523500631 0.1548232679190098 0 0.103011028854506 0.15057992505493481 0 0.09548427889813671 0.15150074010349379 0 0.10114100005897959 0.152704965642282 0 0.11631050848026429 0.14827230038639669 0 0.099294678573139408 0.12761697958614171 0 0.1061072296902333 0.14611596409085681 0 0.099294678573139408 0.12761697958614171 0 0.097603721270059424 0.1399306602598332 0 0.085103763686398173 0.13882574934424299 0 0.099294678573139408 0.12761697958614171 0 0.097603721270059424 0.1399306602598332 0 0.11631050848026429 0.14827230038639669 0 0.13277954108729359 0.1454147189636309 0 0.1258951177788 0.1214126136952782 0 0.11631050848026429 0.14827230038639669 0 0.099294678573139408 0.12761697958614171 0 0.1258951177788 0.1214126136952782 0 0.12889751092096591 0.12690757277278 0 0.138110244966969 0.14448977572378471 0 0.13277954108729359 0.1454147189636309 0 0.12889751092096591 0.12690757277278 0 0.138110244966969 0.14448977572378471 0 0.12889751092096591 0.12690757277278 0 0.13277954108729359 0.1454147189636309 0 0.1258951177788 0.1214126136952782 0 0.13277954108729359 0.1454147189636309 0 0.1258951177788 0.1214126136952782 0 0.12889751092096591 0.12690757277278 0 0.13857645802597901 0.1294948642071504 0 0.138110244966969 0.14448977572378471 0 0.13857645802597901 0.1294948642071504 0 0.14887154196001451 0.1288336181356346 0 0.138110244966969 0.14448977572378471 0 0.13857645802597901 0.1294948642071504 0 0.14887154196001451 0.1288336181356346 0 0.1384265342559666 0.11774849019640241 0 0.14887154196001451 0.1288336181356346 0 0.138110244966969 0.14448977572378471 0 0.16141939088731461 0.14044534980322751 0 0.138110244966969 0.14448977572378471 0 0.16141939088731461 0.14044534980322751 0 0.138110244966969 0.14448977572378471 0 0.14442726931352329 0.15654561100058401 0 0.16141939088731461 0.14044534980322751 0 0.138110244966969 0.14448977572378471 0 0.14442726931352329 0.15654561100058401 0 0.1352562212516436 0.15404950729040989 0 0.14442726931352329 0.15654561100058401 0 0.11631050848026429 0.14827230038639669 0 0.1352562212516436 0.15404950729040989 0 0.1352562212516436 0.15404950729040989 0 0.138110244966969 0.14448977572378471 0 0.14442726931352329 0.15654561100058401 0 0.11631050848026429 0.14827230038639669 0 0.1352562212516436 0.15404950729040989 0 0.13277954108729359 0.1454147189636309 0 0.11631050848026429 0.14827230038639669 0 0.1352562212516436 0.15404950729040989 0 0.12990179860588 0.16477061161577511 0 0.1352562212516436 0.15404950729040989 0 0.13277954108729359 0.1454147189636309 0 0.1352562212516436 0.15404950729040989 0 0.138110244966969 0.14448977572378471 0 0.13277954108729359 0.1454147189636309 0 0.138110244966969 0.14448977572378471 0 0.13277954108729359 0.1454147189636309 0 0.12990179860588 0.16477061161577511 0 0.12888325272637011 0.16756223154123559 0 0.1428339605127453 0.18046881465877249 0 0.1352562212516436 0.15404950729040989 0 0.1428339605127453 0.18046881465877249 0 0.1352562212516436 0.15404950729040989 0 0.12990179860588 0.16477061161577511 0 0.1428339605127453 0.18046881465877249 0 0.12888325272637011 0.16756223154123559 0 0.1255071288860567 0.17804300747251589 0 0.1428339605127453 0.18046881465877249 0 0.1201544527699366 0.18997444929974569 0 0.1255071288860567 0.17804300747251589 0 0.13582215861912469 0.19367722345022309 0 0.12990179860588 0.16477061161577511 0 0.1428339605127453 0.18046881465877249 0 0.1255071288860567 0.17804300747251589 0 0.1428339605127453 0.18046881465877249 0 0.13582215861912469 0.19367722345022309 0 0.1428339605127453 0.18046881465877249 0 0.15599617400448759 0.1786244889082397 0 0.1597826859504454 0.20104267811309151 0 0.1428339605127453 0.18046881465877249 0 0.15599617400448759 0.1786244889082397 0 0.14442726931352329 0.15654561100058401 0 0.1352562212516436 0.15404950729040989 0 0.1428339605127453 0.18046881465877249 0 0.14442726931352329 0.15654561100058401 0 0.15599617400448759 0.1786244889082397 0 0.14442726931352329 0.15654561100058401 0 0.15599617400448759 0.1786244889082397 0 0.14442726931352329 0.15654561100058401 0 0.16544749211945431 0.17338360382574369 0 0.14442726931352329 0.15654561100058401 0 0.16953470188012351 0.1633791544690566 0 0.14442726931352329 0.15654561100058401 0 0.16953470188012351 0.1633791544690566 0 0.16544749211945431 0.17338360382574369 0 0.16953470188012351 0.1633791544690566 0 0.16544749211945431 0.17338360382574369 0 0.18037051389905731 0.17657750182151821 0 0.15599617400448759 0.1786244889082397 0 0.16544749211945431 0.17338360382574369 0 0.1671142332420103 0.1856286625534885 0 0.16544749211945431 0.17338360382574369 0 0.1671142332420103 0.1856286625534885 0 0.17484775383709961 0.1843066935167148 0 0.1671142332420103 0.1856286625534885 0 0.17484775383709961 0.1843066935167148 0 0.1717146675535576 0.19112515970084909 0 0.16544749211945431 0.17338360382574369 0 0.17484775383709961 0.1843066935167148 0 0.18037051389905731 0.17657750182151821 0 0.18037051389905731 0.17657750182151821 0 0.18426710938817331 0.18654225938150129 0 0.19361981886895979 0.182670712096136 0 0.17484775383709961 0.1843066935167148 0 0.18037051389905731 0.17657750182151821 0 0.18426710938817331 0.18654225938150129 0 0.16953470188012351 0.1633791544690566 0 0.19464213444672329 0.17021269793753041 0 0.16953470188012351 0.1633791544690566 0 0.18444365135084981 0.1563218565846301 0 0.19464213444672329 0.17021269793753041 0 0.16953470188012351 0.1633791544690566 0 0.18037051389905731 0.17657750182151821 0 0.19464213444672329 0.17021269793753041 0 0.18444365135084981 0.1563218565846301 0 0.18472853680765999 0.13640092388267069 0 0.16141939088731461 0.14044534980322751 0 0.18472853680765999 0.13640092388267069 0 0.16141939088731461 0.14044534980322751 0 0.16949738652588681 0.12590794361156199 0 0.18472853680765999 0.13640092388267069 0 0.16141939088731461 0.14044534980322751 0 0.14887154196001451 0.1288336181356346 0 0.16141939088731461 0.14044534980322751 0 0.16949738652588681 0.12590794361156199 0 0.16953470188012351 0.1633791544690566 0 0.18444365135084981 0.1563218565846301 0 0.16141939088731461 0.14044534980322751 0 0.14442726931352329 0.15654561100058401 0 0.16953470188012351 0.1633791544690566 0 0.16141939088731461 0.14044534980322751 0 0.15042778084557951 0.24274336007600539 0 0.14348533483291709 0.2352526696255807 0 0.1583957790417794 0.2347241080600409 0 0.15042778084557951 0.24274336007600539 0 0.14348533483291709 0.2352526696255807 0 0.1405767786242699 0.24638484977982961 0 0.15042778084557951 0.24274336007600539 0 0.1405767786242699 0.24638484977982961 0 0.14243846378372199 0.25665963047529111 0 0.1405767786242699 0.24638484977982961 0 0.13225399440738789 0.24032725185696141 0 0.1301301607238752 0.25543936999925482 0 0.11630248525108119 0.24493773306107011 0 0.13225399440738789 0.24032725185696141 0 0.1301301607238752 0.25543936999925482 0 0.14348533483291709 0.2352526696255807 0 0.13225399440738789 0.24032725185696141 0 0.13434259782925281 0.22868098434460971 0 0.14348533483291709 0.2352526696255807 0 0.1405767786242699 0.24638484977982961 0 0.13225399440738789 0.24032725185696141 0 0.1219513580122398 0.21981758717537389 0 0.13434259782925281 0.22868098434460971 0 0.1440508785559278 0.21834255387227591 0 0.1219513580122398 0.21981758717537389 0 0.1217861261630416 0.23320084711220351 0 0.13434259782925281 0.22868098434460971 0 0.1217861261630416 0.23320084711220351 0 0.13225399440738789 0.24032725185696141 0 0.13434259782925281 0.22868098434460971 0 0.15061486977726199 0.20759646135940679 0 0.1440508785559278 0.21834255387227591 0 0.1583957790417794 0.2347241080600409 0 0.15061486977726199 0.20759646135940679 0 0.1583957790417794 0.2347241080600409 0 0.14348533483291709 0.2352526696255807 0 0.1440508785559278 0.21834255387227591 0 0.1583957790417794 0.2347241080600409 0 0.14348533483291709 0.2352526696255807 0 0.13434259782925281 0.22868098434460971 0 0.1440508785559278 0.21834255387227591 0 0.15061486977726199 0.20759646135940679 0 0.1440508785559278 0.21834255387227591 0 0.1398225207092334 0.2073944952277455 0 0.1219513580122398 0.21981758717537389 0 0.1440508785559278 0.21834255387227591 0 0.1398225207092334 0.2073944952277455 0 0.1219513580122398 0.21981758717537389 0 0.1398225207092334 0.2073944952277455 0 0.1242610694740624 0.20343463932609299 0 0.1219513580122398 0.21981758717537389 0 0.1398225207092334 0.2073944952277455 0 0.1242610694740624 0.20343463932609299 0 0.1398225207092334 0.2073944952277455 0 0.13582215861912469 0.19367722345022309 0 0.1201544527699366 0.18997444929974569 0 0.1242610694740624 0.20343463932609299 0 0.13582215861912469 0.19367722345022309 0 0.1428339605127453 0.18046881465877249 0 0.15061486977726199 0.20759646135940679 0 0.13582215861912469 0.19367722345022309 0 0.1428339605127453 0.18046881465877249 0 0.1597826859504454 0.20104267811309151 0 0.1428339605127453 0.18046881465877249 0 0.15061486977726199 0.20759646135940679 0 0.1428339605127453 0.18046881465877249 0 0.15061486977726199 0.20759646135940679 0 0.1597826859504454 0.20104267811309151 0 0.15061486977726199 0.20759646135940679 0 0.1398225207092334 0.2073944952277455 0 0.13582215861912469 0.19367722345022309 0 0.15599617400448759 0.1786244889082397 0 0.1597826859504454 0.20104267811309151 0 0.16756507869545259 0.2007033668158951 0 0.15599617400448759 0.1786244889082397 0 0.16756507869545259 0.2007033668158951 0 0.15599617400448759 0.1786244889082397 0 0.1671142332420103 0.1856286625534885 0 0.16756507869545259 0.2007033668158951 0 0.1671142332420103 0.1856286625534885 0 0.16756507869545259 0.2007033668158951 0 0.1717146675535576 0.19112515970084909 0 0.17484775383709961 0.1843066935167148 0 0.1717146675535576 0.19112515970084909 0 0.179953018354124 0.19534208307946599 0 0.17484775383709961 0.1843066935167148 0 0.18426710938817331 0.18654225938150129 0 0.179953018354124 0.19534208307946599 0 0.18426710938817331 0.18654225938150129 0 0.179953018354124 0.19534208307946599 0 0.19254444198162551 0.19381430639367139 0 0.179953018354124 0.19534208307946599 0 0.1875600646516983 0.20649274489462041 0 0.19254444198162551 0.19381430639367139 0 0.16756507869545259 0.2007033668158951 0 0.179953018354124 0.19534208307946599 0 0.17544528307152271 0.2083692475917944 0 0.16756507869545259 0.2007033668158951 0 0.1717146675535576 0.19112515970084909 0 0.179953018354124 0.19534208307946599 0 0.1767314113881448 0.2216165415674109 0 0.19537452507714551 0.22352646774964249 0 0.1875600646516983 0.20649274489462041 0 0.179953018354124 0.19534208307946599 0 0.17544528307152271 0.2083692475917944 0 0.1875600646516983 0.20649274489462041 0 0.17544528307152271 0.2083692475917944 0 0.1767314113881448 0.2216165415674109 0 0.1875600646516983 0.20649274489462041 0 0.1597826859504454 0.20104267811309151 0 0.16236742911306221 0.21862777808580161 0 0.1767314113881448 0.2216165415674109 0 0.15061486977726199 0.20759646135940679 0 0.1597826859504454 0.20104267811309151 0 0.16236742911306221 0.21862777808580161 0 0.1597826859504454 0.20104267811309151 0 0.16756507869545259 0.2007033668158951 0 0.17544528307152271 0.2083692475917944 0 0.1597826859504454 0.20104267811309151 0 0.17544528307152271 0.2083692475917944 0 0.1767314113881448 0.2216165415674109 0 0.1597826859504454 0.20104267811309151 0 0.1767314113881448 0.2216165415674109 0 0.16236742911306221 0.21862777808580161 0 0.16783363447152169 0.22958586620481611 0 0.1583957790417794 0.2347241080600409 0 0.15061486977726199 0.20759646135940679 0 0.16236742911306221 0.21862777808580161 0 0.1583957790417794 0.2347241080600409 0 0.16783363447152169 0.22958586620481611 0 0.16886762066514499 0.23699783478428479 0 0.1583957790417794 0.2347241080600409 0 0.16236742911306221 0.21862777808580161 0 0.16783363447152169 0.22958586620481611 0 0.1767314113881448 0.2216165415674109 0 0.1767314113881448 0.2216165415674109 0 0.19368013682584589 0.24219040502172889 0 0.16783363447152169 0.22958586620481611 0 0.1767314113881448 0.2216165415674109 0 0.1777918639312753 0.23788392101586481 0 0.1767314113881448 0.2216165415674109 0 0.1777918639312753 0.23788392101586481 0 0.19368013682584589 0.24219040502172889 0 0.1777918639312753 0.23788392101586481 0 0.17144920521600379 0.24579744385641741 0 0.16886762066514499 0.23699783478428479 0 0.1777918639312753 0.23788392101586481 0 0.19368013682584589 0.24219040502172889 0 0.18931373552882441 0.244634723920647 0 0.18013200014139971 0.24485871936931211 0 0.18418183736045379 0.24854992262481859 0 0.17998654368303951 0.25282793037694401 0 0.18013200014139971 0.24485871936931211 0 0.18418183736045379 0.24854992262481859 0 0.18931373552882441 0.244634723920647 0 0.1777918639312753 0.23788392101586481 0 0.18013200014139971 0.24485871936931211 0 0.18931373552882441 0.244634723920647 0 0.18418183736045379 0.24854992262481859 0 0.18931373552882441 0.244634723920647 0 0.18729507008855181 0.25187831683237127 0 0.18013200014139971 0.24485871936931211 0 0.17144920521600379 0.24579744385641741 0 0.17998654368303951 0.25282793037694401 0 0.1777918639312753 0.23788392101586481 0 0.18013200014139971 0.24485871936931211 0 0.17144920521600379 0.24579744385641741 0 0.1583957790417794 0.2347241080600409 0 0.16617668830629681 0.26185175476067513 0 0.15042778084557951 0.24274336007600539 0 0.1583957790417794 0.2347241080600409 0 0.16617668830629681 0.26185175476067513 0 0.17144920521600379 0.24579744385641741 0 0.1583957790417794 0.2347241080600409 0 0.16617668830629681 0.26185175476067513 0 0.16783363447152169 0.22958586620481611 0 0.1777918639312753 0.23788392101586481 0 0.16886762066514499 0.23699783478428479 0 0.17144920521600379 0.24579744385641741 0 0.16886762066514499 0.23699783478428479 0 0.1583957790417794 0.2347241080600409 0 0.1958187199019005 0.2447864064941852 0 0.2133829127542706 0.2311607574270704 0 0.20191632565252821 0.25320502586579718 0 0.2133829127542706 0.2311607574270704 0 0.20191632565252821 0.25320502586579718 0 0.21539161608852939 0.25785974014057689 0 0.19368013682584589 0.24219040502172889 0 0.2133829127542706 0.2311607574270704 0 0.1958187199019005 0.2447864064941852 0 0.19368013682584589 0.24219040502172889 0 0.2133829127542706 0.2311607574270704 0 0.1958187199019005 0.2447864064941852 0 0.19332425198665271 0.25032023723366742 0 0.20191632565252821 0.25320502586579718 0 0.1958187199019005 0.2447864064941852 0 0.18931373552882441 0.244634723920647 0 0.19332425198665271 0.25032023723366742 0 0.1958187199019005 0.2447864064941852 0 0.19368013682584589 0.24219040502172889 0 0.18931373552882441 0.244634723920647 0 0.19368013682584589 0.24219040502172889 0 0.18931373552882441 0.244634723920647 0 0.1958187199019005 0.2447864064941852 0 0.19368013682584589 0.24219040502172889 0 0.18931373552882441 0.244634723920647 0 0.18729507008855181 0.25187831683237127 0 0.19332425198665271 0.25032023723366742 0 0.1767314113881448 0.2216165415674109 0 0.19368013682584589 0.24219040502172889 0 0.19537452507714551 0.22352646774964249 0 0.19368013682584589 0.24219040502172889 0 0.19537452507714551 0.22352646774964249 0 0.2133829127542706 0.2311607574270704 0 0.19537452507714551 0.22352646774964249 0 0.2133829127542706 0.2311607574270704 0 0.20516591575607171 0.2141371703165309 0 0.2133829127542706 0.2311607574270704 0 0.20516591575607171 0.2141371703165309 0 0.2217398604297818 0.2093922524593381 0 0.20516591575607171 0.2141371703165309 0 0.20777221586746239 0.20011362905198329 0 0.2217398604297818 0.2093922524593381 0 0.19537452507714551 0.22352646774964249 0 0.20516591575607171 0.2141371703165309 0 0.1875600646516983 0.20649274489462041 0 0.1875600646516983 0.20649274489462041 0 0.20777221586746239 0.20011362905198329 0 0.20516591575607171 0.2141371703165309 0 0.1875600646516983 0.20649274489462041 0 0.20777221586746239 0.20011362905198329 0 0.1875600646516983 0.20649274489462041 0 0.19254444198162551 0.19381430639367139 0 0.20777221586746239 0.20011362905198329 0 0.18426710938817331 0.18654225938150129 0 0.19254444198162551 0.19381430639367139 0 0.19361981886895979 0.182670712096136 0 0.19254444198162551 0.19381430639367139 0 0.20338399032836829 0.1900139582279213 0 0.20777221586746239 0.20011362905198329 0 0.19254444198162551 0.19381430639367139 0 0.20338399032836829 0.1900139582279213 0 0.19361981886895979 0.182670712096136 0 0.20338399032836829 0.1900139582279213 0 0.20777221586746239 0.20011362905198329 0 0.213910490587117 0.1917155055039306 0 0.20777221586746239 0.20011362905198329 0 0.22798436708322661 0.19373451320934629 0 0.20777221586746239 0.20011362905198329 0 0.213910490587117 0.1917155055039306 0 0.22798436708322661 0.19373451320934629 0 0.20338399032836829 0.1900139582279213 0 0.213910490587117 0.1917155055039306 0 0.22090816858397519 0.1850130547314224 0 0.22798436708322661 0.19373451320934629 0 0.2411387814028654 0.20020357954236129 0 0.2217398604297818 0.2093922524593381 0 0.20777221586746239 0.20011362905198329 0 0.22798436708322661 0.19373451320934629 0 0.2217398604297818 0.2093922524593381 0 0.22798436708322661 0.19373451320934629 0 0.22090816858397519 0.1850130547314224 0 0.24819651829899059 0.18735539736670909 0 0.213910490587117 0.1917155055039306 0 0.22798436708322661 0.19373451320934629 0 0.22090816858397519 0.1850130547314224 0 0.22798436708322661 0.19373451320934629 0 0.2411387814028654 0.20020357954236129 0 0.24819651829899059 0.18735539736670909 0 0.2411387814028654 0.20020357954236129 0 0.24819651829899059 0.18735539736670909 0 0.25867327629040199 0.19650095749964441 0 0.22798436708322661 0.19373451320934629 0 0.24819651829899059 0.18735539736670909 0 0.2330856886826955 0.22013110983241219 0 0.25536870784139459 0.22613337791891211 0 0.25278846461112042 0.20910146223775411 0 0.2411387814028654 0.20020357954236129 0 0.2330856886826955 0.22013110983241219 0 0.25278846461112042 0.20910146223775411 0 0.2330856886826955 0.22013110983241219 0 0.25278846461112042 0.20910146223775411 0 0.2411387814028654 0.20020357954236129 0 0.2217398604297818 0.2093922524593381 0 0.2330856886826955 0.22013110983241219 0 0.2133829127542706 0.2311607574270704 0 0.2330856886826955 0.22013110983241219 0 0.2133829127542706 0.2311607574270704 0 0.2330856886826955 0.22013110983241219 0 0.2289881774355563 0.24559411755063551 0 0.2133829127542706 0.2311607574270704 0 0.2217398604297818 0.2093922524593381 0 0.2330856886826955 0.22013110983241219 0 0.2330856886826955 0.22013110983241219 0 0.24450056212019311 0.2394985272065252 0 0.25536870784139459 0.22613337791891211 0 0.2330856886826955 0.22013110983241219 0 0.24450056212019311 0.2394985272065252 0 0.2289881774355563 0.24559411755063551 0 0.24450056212019311 0.2394985272065252 0 0.2289881774355563 0.24559411755063551 0 0.2467802367594808 0.26227690160701139 0 0.2133829127542706 0.2311607574270704 0 0.2289881774355563 0.24559411755063551 0 0.21539161608852939 0.25785974014057689 0 0.21651853137702501 0.14943607575447129 0 0.2080376827280056 0.13235649796211391 0 0.21651853137702501 0.14943607575447129 0 0.2080376827280056 0.13235649796211391 0 0.19864550485839511 0.14778355920939901 0 0.21651853137702501 0.14943607575447129 0 0.19864550485839511 0.14778355920939901 0 0.2004942620100694 0.1587809176546644 0 0.21651853137702501 0.14943607575447129 0 0.2080376827280056 0.13235649796211391 0 0.22267261520873419 0.1298171556596146 0 0.2080376827280056 0.13235649796211391 0 0.22267261520873419 0.1298171556596146 0 0.21397299411577919 0.1216184107874851 0 0.2080376827280056 0.13235649796211391 0 0.22267261520873419 0.1298171556596146 0 0.18472853680765999 0.13640092388267069 0 0.2080376827280056 0.13235649796211391 0 0.19864550485839511 0.14778355920939901 0 0.18472853680765999 0.13640092388267069 0 0.2080376827280056 0.13235649796211391 0 0.18472853680765999 0.13640092388267069 0 0.2080376827280056 0.13235649796211391 0 0.19828845429409081 0.1127225306147835 0 0.18444365135084981 0.1563218565846301 0 0.18472853680765999 0.13640092388267069 0 0.19864550485839511 0.14778355920939901 0 0.18444365135084981 0.1563218565846301 0 0.19864550485839511 0.14778355920939901 0 0.2004942620100694 0.1587809176546644 0 0.18444365135084981 0.1563218565846301 0 0.19464213444672329 0.17021269793753041 0 0.2004942620100694 0.1587809176546644 0 0.19464213444672329 0.17021269793753041 0 0.2004942620100694 0.1587809176546644 0 0.20945232142450779 0.1653388681614891 0 0.19464213444672329 0.17021269793753041 0 0.19361981886895979 0.182670712096136 0 0.21974956701332329 0.17704624140600431 0 0.18037051389905731 0.17657750182151821 0 0.19464213444672329 0.17021269793753041 0 0.19361981886895979 0.182670712096136 0 0.19361981886895979 0.182670712096136 0 0.22090816858397519 0.1850130547314224 0 0.21974956701332329 0.17704624140600431 0 0.20338399032836829 0.1900139582279213 0 0.19361981886895979 0.182670712096136 0 0.22090816858397519 0.1850130547314224 0 0.19361981886895979 0.182670712096136 0 0.22090816858397519 0.1850130547314224 0 0.19464213444672329 0.17021269793753041 0 0.21974956701332329 0.17704624140600431 0 0.19464213444672329 0.17021269793753041 0 0.20945232142450779 0.1653388681614891 0 0.21974956701332329 0.17704624140600431 0 0.21651853137702501 0.14943607575447129 0 0.2004942620100694 0.1587809176546644 0 0.20945232142450779 0.1653388681614891 0 0.21651853137702501 0.14943607575447129 0 0.20945232142450779 0.1653388681614891 0 0.21716671683331781 0.1679205701353475 0 0.20945232142450779 0.1653388681614891 0 0.21716671683331781 0.1679205701353475 0 0.21974956701332329 0.17704624140600431 0 0.21651853137702501 0.14943607575447129 0 0.21716671683331781 0.1679205701353475 0 0.22499938002604461 0.16651565354682851 0 0.21651853137702501 0.14943607575447129 0 0.22499938002604461 0.16651565354682851 0 0.2362223834735567 0.1564379339751312 0 0.21651853137702501 0.14943607575447129 0 0.22499938002604461 0.16651565354682851 0 0.21716671683331781 0.1679205701353475 0 0.22499938002604461 0.16651565354682851 0 0.21974956701332329 0.17704624140600431 0 0.22499938002604461 0.16651565354682851 0 0.2270457088132366 0.17535968072316849 0 0.2343912423307396 0.1693536105452948 0 0.22499938002604461 0.16651565354682851 0 0.2362223834735567 0.1564379339751312 0 0.2343912423307396 0.1693536105452948 0 0.22499938002604461 0.16651565354682851 0 0.21974956701332329 0.17704624140600431 0 0.2270457088132366 0.17535968072316849 0 0.22090816858397519 0.1850130547314224 0 0.21974956701332329 0.17704624140600431 0 0.2270457088132366 0.17535968072316849 0 0.2270457088132366 0.17535968072316849 0 0.23518018611210029 0.1788698433862923 0 0.2343912423307396 0.1693536105452948 0 0.22090816858397519 0.1850130547314224 0 0.2270457088132366 0.17535968072316849 0 0.23518018611210029 0.1788698433862923 0 0.24819651829899059 0.18735539736670909 0 0.23518018611210029 0.1788698433862923 0 0.24575716741124559 0.16745184546123579 0 0.22090816858397519 0.1850130547314224 0 0.24819651829899059 0.18735539736670909 0 0.22090816858397519 0.1850130547314224 0 0.24819651829899059 0.18735539736670909 0 0.23518018611210029 0.1788698433862923 0 0.23518018611210029 0.1788698433862923 0 0.2343912423307396 0.1693536105452948 0 0.24575716741124559 0.16745184546123579 0 0.2362223834735567 0.1564379339751312 0 0.2343912423307396 0.1693536105452948 0 0.24575716741124559 0.16745184546123579 0 0.2362223834735567 0.1564379339751312 0 0.24575716741124559 0.16745184546123579 0 0.25081198860488002 0.15849984886612609 0 0.2362223834735567 0.1564379339751312 0 0.2475185690224809 0.1408852277912436 0 0.2304787389743958 0.14025401846890259 0 0.2362223834735567 0.1564379339751312 0 0.2475185690224809 0.1408852277912436 0 0.25081198860488002 0.15849984886612609 0 0.21651853137702501 0.14943607575447129 0 0.2362223834735567 0.1564379339751312 0 0.2304787389743958 0.14025401846890259 0 0.21651853137702501 0.14943607575447129 0 0.22267261520873419 0.1298171556596146 0 0.2304787389743958 0.14025401846890259 0 0.22267261520873419 0.1298171556596146 0 0.22946159579018219 0.1246936991640524 0 0.21397299411577919 0.1216184107874851 0 0.22267261520873419 0.1298171556596146 0 0.2304787389743958 0.14025401846890259 0 0.22946159579018219 0.1246936991640524 0 0.2475185690224809 0.1408852277912436 0 0.22946159579018219 0.1246936991640524 0 0.2475185690224809 0.1408852277912436 0 0.24572908158378551 0.11929198167931281 0 0.22946159579018219 0.1246936991640524 0 0.2475185690224809 0.1408852277912436 0 0.2304787389743958 0.14025401846890259 0 0.22946159579018219 0.1246936991640524 0 0.2475185690224809 0.1408852277912436 0 0.24572908158378551 0.11929198167931281 0 0.25565231191928262 0.1381843690488736 0 0.24572908158378551 0.11929198167931281 0 0.22541920930397669 0.1054342607103554 0 0.24572908158378551 0.11929198167931281 0 0.24990073319112441 0.1073804986731914 0 0.23725394700989461 0.10315655803542979 0 0.24572908158378551 0.11929198167931281 0 0.23725394700989461 0.10315655803542979 0 0.23725394700989461 0.10315655803542979 0 0.2287788124360047 0.087021134391546184 0 0.25414409343843419 0.094680672161892993 0 0.24990073319112441 0.1073804986731914 0 0.23725394700989461 0.10315655803542979 0 0.25414409343843419 0.094680672161892993 0 0.24572908158378551 0.11929198167931281 0 0.23725394700989461 0.10315655803542979 0 0.22541920930397669 0.1054342607103554 0 0.23725394700989461 0.10315655803542979 0 0.22678880229931719 0.096247874670615519 0 0.2287788124360047 0.087021134391546184 0 0.23725394700989461 0.10315655803542979 0 0.2287788124360047 0.087021134391546184 0 0.23725394700989461 0.10315655803542979 0 0.22678880229931719 0.096247874670615519 0 0.22541920930397669 0.1054342607103554 0 0.22678880229931719 0.096247874670615519 0 0.22541920930397669 0.1054342607103554 0 0.22044101648713971 0.097502157924179697 0 0.22044101648713971 0.097502157924179697 0 0.21635362976429831 0.093236013358946157 0 0.22272813736301469 0.093186737400031916 0 0.22678880229931719 0.096247874670615519 0 0.22044101648713971 0.097502157924179697 0 0.22272813736301469 0.093186737400031916 0 0.22541920930397669 0.1054342607103554 0 0.22946159579018219 0.1246936991640524 0 0.21140462255788339 0.1085021705368612 0 0.24572908158378551 0.11929198167931281 0 0.22541920930397669 0.1054342607103554 0 0.22946159579018219 0.1246936991640524 0 0.22946159579018219 0.1246936991640524 0 0.21140462255788339 0.1085021705368612 0 0.22946159579018219 0.1246936991640524 0 0.21397299411577919 0.1216184107874851 0 0.21140462255788339 0.1085021705368612 0 0.2080376827280056 0.13235649796211391 0 0.19828845429409081 0.1127225306147835 0 0.21397299411577919 0.1216184107874851 0 0.21140462255788339 0.1085021705368612 0 0.19828845429409081 0.1127225306147835 0 0.2080376827280056 0.13235649796211391 0 0.21397299411577919 0.1216184107874851 0 0.19828845429409081 0.1127225306147835 0 0.21140462255788339 0.1085021705368612 0 0.19334764932558429 0.092310641909670407 0 0.20510933702416759 0.091576539741398538 0 0.22541920930397669 0.1054342607103554 0 0.20510933702416759 0.091576539741398538 0 0.22541920930397669 0.1054342607103554 0 0.21140462255788339 0.1085021705368612 0 0.20510933702416759 0.091576539741398538 0 0.22541920930397669 0.1054342607103554 0 0.22044101648713971 0.097502157924179697 0 0.20510933702416759 0.091576539741398538 0 0.22044101648713971 0.097502157924179697 0 0.20510933702416759 0.091576539741398538 0 0.21635362976429831 0.093236013358946157 0 0.19828845429409081 0.1127225306147835 0 0.18851287138773251 0.093101649556513455 0 0.21140462255788339 0.1085021705368612 0 0.19828845429409081 0.1127225306147835 0 0.19334764932558429 0.092310641909670407 0 0.19828845429409081 0.1127225306147835 0 0.18851287138773251 0.093101649556513455 0 0.19334764932558429 0.092310641909670407 0 0.21140462255788339 0.1085021705368612 0 0.19334764932558429 0.092310641909670407 0 0.19828845429409081 0.1127225306147835 0 0.18851287138773251 0.093101649556513455 0 0.17926825083367151 0.11107326516348021 0 0.19608091203500669 0.071129916180754454 0 0.19423052420835379 0.077332598211995521 0 0.2041440335564122 0.070258952684434994 0 0.19608091203500669 0.071129916180754454 0 0.1956466649935209 0.066878358815611882 0 0.2041440335564122 0.070258952684434994 0 0.1956466649935209 0.066878358815611882 0 0.2041440335564122 0.070258952684434994 0 0.2030217758827757 0.058185177732079457 0 0.19608091203500669 0.071129916180754454 0 0.1956466649935209 0.066878358815611882 0 0.19121865927417189 0.070818325493794826 0 0.1956466649935209 0.066878358815611882 0 0.18841257763879951 0.065321326084264067 0 0.19121865927417189 0.070818325493794826 0 0.1956466649935209 0.066878358815611882 0 0.18841257763879951 0.065321326084264067 0 0.19361086908503081 0.059141453104451631 0 0.18841257763879951 0.065321326084264067 0 0.19121865927417189 0.070818325493794826 0 0.18579250738593159 0.071025294809000661 0 0.19121865927417189 0.070818325493794826 0 0.18934773072525521 0.075067028019908805 0 0.18579250738593159 0.071025294809000661 0 0.19608091203500669 0.071129916180754454 0 0.19121865927417189 0.070818325493794826 0 0.19423052420835379 0.077332598211995521 0 0.19121865927417189 0.070818325493794826 0 0.19423052420835379 0.077332598211995521 0 0.18934773072525521 0.075067028019908805 0 0.18934773072525521 0.075067028019908805 0 0.18862434720999821 0.079969770487000713 0 0.18689804381159469 0.077654805049268055 0 0.19423052420835379 0.077332598211995521 0 0.18934773072525521 0.075067028019908805 0 0.18862434720999821 0.079969770487000713 0 0.190672541573562 0.089911896384025802 0 0.2041440335564122 0.070258952684434994 0 0.19423052420835379 0.077332598211995521 0 0.190672541573562 0.089911896384025802 0 0.2041440335564122 0.070258952684434994 0 0.19423052420835379 0.077332598211995521 0 0.189246591432009 0.083455486484593583 0 0.190672541573562 0.089911896384025802 0 0.190672541573562 0.089911896384025802 0 0.19981986734121171 0.083706386137118283 0 0.2041440335564122 0.070258952684434994 0 0.19423052420835379 0.077332598211995521 0 0.18862434720999821 0.079969770487000713 0 0.189246591432009 0.083455486484593583 0 0.189246591432009 0.083455486484593583 0 0.190672541573562 0.089911896384025802 0 0.1839835922601856 0.083913974534106428 0 0.190672541573562 0.089911896384025802 0 0.19334764932558429 0.092310641909670407 0 0.19981986734121171 0.083706386137118283 0 0.18851287138773251 0.093101649556513455 0 0.190672541573562 0.089911896384025802 0 0.1839835922601856 0.083913974534106428 0 0.18851287138773251 0.093101649556513455 0 0.19334764932558429 0.092310641909670407 0 0.18851287138773251 0.093101649556513455 0 0.190672541573562 0.089911896384025802 0 0.19334764932558429 0.092310641909670407 0 0.18851287138773251 0.093101649556513455 0 0.190672541573562 0.089911896384025802 0 0.190672541573562 0.089911896384025802 0 0.19334764932558429 0.092310641909670407 0 0.19334764932558429 0.092310641909670407 0 0.19981986734121171 0.083706386137118283 0 0.20360892841398859 0.086058591202453461 0 0.19334764932558429 0.092310641909670407 0 0.20360892841398859 0.086058591202453461 0 0.20828678685046351 0.089790532139226095 0 0.19334764932558429 0.092310641909670407 0 0.20828678685046351 0.089790532139226095 0 0.19334764932558429 0.092310641909670407 0 0.20510933702416759 0.091576539741398538 0 0.20828678685046351 0.089790532139226095 0 0.20692359830456131 0.080421529281601137 0 0.21930125579343779 0.079793234377266112 0 0.2287788124360047 0.087021134391546184 0 0.20692359830456131 0.080421529281601137 0 0.2287788124360047 0.087021134391546184 0 0.19981986734121171 0.083706386137118283 0 0.20692359830456131 0.080421529281601137 0 0.2041440335564122 0.070258952684434994 0 0.20692359830456131 0.080421529281601137 0 0.21051130948608901 0.085885268748015539 0 0.22322592437534269 0.087270422368781464 0 0.19981986734121171 0.083706386137118283 0 0.20692359830456131 0.080421529281601137 0 0.20360892841398859 0.086058591202453461 0 0.20692359830456131 0.080421529281601137 0 0.21051130948608901 0.085885268748015539 0 0.20360892841398859 0.086058591202453461 0 0.20510933702416759 0.091576539741398538 0 0.20828678685046351 0.089790532139226095 0 0.21635362976429831 0.093236013358946157 0 0.21051130948608901 0.085885268748015539 0 0.20360892841398859 0.086058591202453461 0 0.20828678685046351 0.089790532139226095 0 0.20828678685046351 0.089790532139226095 0 0.22322592437534269 0.087270422368781464 0 0.21051130948608901 0.085885268748015539 0 0.20828678685046351 0.089790532139226095 0 0.22322592437534269 0.087270422368781464 0 0.20828678685046351 0.089790532139226095 0 0.21635362976429831 0.093236013358946157 0 0.22322592437534269 0.087270422368781464 0 0.20692359830456131 0.080421529281601137 0 0.21469686748169439 0.076092880894164536 0 0.21930125579343779 0.079793234377266112 0 0.2126375959443452 0.070219612199209247 0 0.22147166746000341 0.073109393074979823 0 0.21469686748169439 0.076092880894164536 0 0.22147166746000341 0.073109393074979823 0 0.21930125579343779 0.079793234377266112 0 0.21469686748169439 0.076092880894164536 0 0.2126375959443452 0.070219612199209247 0 0.22147166746000341 0.073109393074979823 0 0.2126375959443452 0.070219612199209247 0 0.21939679703833309 0.06915914155178296 0 0.22147166746000341 0.073109393074979823 0 0.2041440335564122 0.070258952684434994 0 0.2126375959443452 0.070219612199209247 0 0.21761552553926261 0.050606008984844318 0 0.21469686748169439 0.076092880894164536 0 0.20960052382175329 0.074248243764852478 0 0.2126375959443452 0.070219612199209247 0 0.20692359830456131 0.080421529281601137 0 0.20960052382175329 0.074248243764852478 0 0.2041440335564122 0.070258952684434994 0 0.20692359830456131 0.080421529281601137 0 0.21469686748169439 0.076092880894164536 0 0.20960052382175329 0.074248243764852478 0 0.20960052382175329 0.074248243764852478 0 0.2041440335564122 0.070258952684434994 0 0.2126375959443452 0.070219612199209247 0 0.2126375959443452 0.070219612199209247 0 0.21939679703833309 0.06915914155178296 0 0.22192360790043281 0.059554468937647653 0 0.22147166746000341 0.073109393074979823 0 0.24367230013985861 0.080371612271929974 0 0.22147166746000341 0.073109393074979823 0 0.24367230013985861 0.080371612271929974 0 0.23482475631619321 0.069641036610983809 0 0.22597377242276451 0.067849940398860317 0 0.2298679876601363 0.064950416696597832 0 0.22192360790043281 0.059554468937647653 0 0.22597377242276451 0.067849940398860317 0 0.21939679703833309 0.06915914155178296 0 0.22192360790043281 0.059554468937647653 0 0.22597377242276451 0.067849940398860317 0 0.21939679703833309 0.06915914155178296 0 0.22147166746000341 0.073109393074979823 0 0.21939679703833309 0.06915914155178296 0 0.22147166746000341 0.073109393074979823 0 0.22597377242276451 0.067849940398860317 0 0.22147166746000341 0.073109393074979823 0 0.23482475631619321 0.069641036610983809 0 0.22597377242276451 0.067849940398860317 0 0.2298679876601363 0.064950416696597832 0 0.23482475631619321 0.069641036610983809 0 0.2298679876601363 0.064950416696597832 0 0.23482475631619321 0.069641036610983809 0 0.23598000547393971 0.058698414986906602 0 0.20692359830456131 0.080421529281601137 0 0.22322592437534269 0.087270422368781464 0 0.2287788124360047 0.087021134391546184 0 0.22147166746000341 0.073109393074979823 0 0.2287788124360047 0.087021134391546184 0 0.24367230013985861 0.080371612271929974 0 0.22272813736301469 0.093186737400031916 0 0.2253804191184198 0.090931542207743771 0 0.22322592437534269 0.087270422368781464 0 0.22678880229931719 0.096247874670615519 0 0.22272813736301469 0.093186737400031916 0 0.2253804191184198 0.090931542207743771 0 0.21635362976429831 0.093236013358946157 0 0.22272813736301469 0.093186737400031916 0 0.22322592437534269 0.087270422368781464 0 0.2253804191184198 0.090931542207743771 0 0.22322592437534269 0.087270422368781464 0 0.2287788124360047 0.087021134391546184 0 0.22147166746000341 0.073109393074979823 0 0.21930125579343779 0.079793234377266112 0 0.2287788124360047 0.087021134391546184 0 0.22147166746000341 0.073109393074979823 0 0.2287788124360047 0.087021134391546184 0 0.22678880229931719 0.096247874670615519 0 0.2253804191184198 0.090931542207743771 0 0.2287788124360047 0.087021134391546184 0 0.2287788124360047 0.087021134391546184 0 0.25414409343843419 0.094680672161892993 0 0.2287788124360047 0.087021134391546184 0 0.24367230013985861 0.080371612271929974 0 0.25414409343843419 0.094680672161892993 0 0.23482475631619321 0.069641036610983809 0 0.2462610949675203 0.066061853943085516 0 0.23598000547393971 0.058698414986906602 0 0.24367230013985861 0.080371612271929974 0 0.23482475631619321 0.069641036610983809 0 0.2462610949675203 0.066061853943085516 0 0.24367230013985861 0.080371612271929974 0 0.2462610949675203 0.066061853943085516 0 0.25647829486002077 0.070887988280119982 0 0.2462610949675203 0.066061853943085516 0 0.23598000547393971 0.058698414986906602 0 0.24634955337953571 0.053893111669236007 0 0.23598000547393971 0.058698414986906602 0 0.2394910884849217 0.047697252614467847 0 0.24634955337953571 0.053893111669236007 0 0.23598000547393971 0.058698414986906602 0 0.2394910884849217 0.047697252614467847 0 0.23082982398751731 0.045220386751102772 0 0.24634955337953571 0.053893111669236007 0 0.24602147146836109 0.043232649391599723 0 0.25525143634872199 0.047632948710013827 0 0.2394910884849217 0.047697252614467847 0 0.24634955337953571 0.053893111669236007 0 0.24602147146836109 0.043232649391599723 0 0.24602147146836109 0.043232649391599723 0 0.2475357991980261 0.035733063029522713 0 0.25335339084341763 0.040298913609290901 0 0.24602147146836109 0.043232649391599723 0 0.2475357991980261 0.035733063029522713 0 0.2382745881152547 0.037441700273494131 0 0.2475357991980261 0.035733063029522713 0 0.2382745881152547 0.037441700273494131 0 0.24198961628985061 0.024757477467026421 0 0.2394910884849217 0.047697252614467847 0 0.24602147146836109 0.043232649391599723 0 0.2382745881152547 0.037441700273494131 0 0.2394910884849217 0.047697252614467847 0 0.2382745881152547 0.037441700273494131 0 0.23082982398751731 0.045220386751102772 0 0.231087017522113 0.03095306528525368 0 0.21761552553926261 0.050606008984844318 0 0.2178197371605155 0.034158567815162223 0 0.23082982398751731 0.045220386751102772 0 0.231087017522113 0.03095306528525368 0 0.21761552553926261 0.050606008984844318 0 0.231087017522113 0.03095306528525368 0 0.21761552553926261 0.050606008984844318 0 0.2382745881152547 0.037441700273494131 0 0.23082982398751731 0.045220386751102772 0 0.231087017522113 0.03095306528525368 0 0.23082982398751731 0.045220386751102772 0 0.22192360790043281 0.059554468937647653 0 0.21761552553926261 0.050606008984844318 0 0.2298679876601363 0.064950416696597832 0 0.23598000547393971 0.058698414986906602 0 0.22192360790043281 0.059554468937647653 0 0.23598000547393971 0.058698414986906602 0 0.23082982398751731 0.045220386751102772 0 0.22192360790043281 0.059554468937647653 0 0.24346617470820839 0.0065118492329050426 0 0.24198961628985061 0.024757477467026421 0 0.23082890357892849 0.0073310717984998303 0 0.23476030887565161 0.0016356813836254311 0 0.24346617470820839 0.0065118492329050426 0 0.23082890357892849 0.0073310717984998303 0 0.23476030887565161 0.0016356813836254311 0 0.24346617470820839 0.0065118492329050426 0 0.2379280779130678 -0.0050687464844128942 0 0.24346617470820839 0.0065118492329050426 0 0.24198961628985061 0.024757477467026421 0 0.25247642878070692 0.01642940461664151 0 0.2382745881152547 0.037441700273494131 0 0.24198961628985061 0.024757477467026421 0 0.231087017522113 0.03095306528525368 0 0.24198961628985061 0.024757477467026421 0 0.2181373651884074 0.010127797768769049 0 0.24198961628985061 0.024757477467026421 0 0.2226817252569607 0.02410252155333065 0 0.2181373651884074 0.010127797768769049 0 0.24198961628985061 0.024757477467026421 0 0.231087017522113 0.03095306528525368 0 0.2226817252569607 0.02410252155333065 0 0.231087017522113 0.03095306528525368 0 0.2226817252569607 0.02410252155333065 0 0.2178197371605155 0.034158567815162223 0 0.24198961628985061 0.024757477467026421 0 0.23082890357892849 0.0073310717984998303 0 0.2181373651884074 0.010127797768769049 0 0.22215585908939189 0.0046784505787089859 0 0.23082890357892849 0.0073310717984998303 0 0.2181373651884074 0.010127797768769049 0 0.22215585908939189 0.0046784505787089859 0 0.21283908828782991 0.0034863817600573189 0 0.2268180793024018 -0.002231449012490254 0 0.22215585908939189 0.0046784505787089859 0 0.23082890357892849 0.0073310717984998303 0 0.2268180793024018 -0.002231449012490254 0 0.23476030887565161 0.0016356813836254311 0 0.23082890357892849 0.0073310717984998303 0 0.2268180793024018 -0.002231449012490254 0 0.20669275810896379 0.0060930123869249331 0 0.21283908828782991 0.0034863817600573189 0 0.19192850551691221 0.02262281209635697 0 0.21283908828782991 0.0034863817600573189 0 0.20503183338545919 0.01582290218127003 0 0.19192850551691221 0.02262281209635697 0 0.22215585908939189 0.0046784505787089859 0 0.21283908828782991 0.0034863817600573189 0 0.2181373651884074 0.010127797768769049 0 0.2181373651884074 0.010127797768769049 0 0.21227870257579401 0.011923753532022491 0 0.2131065234414796 0.018257932417993578 0 0.21283908828782991 0.0034863817600573189 0 0.2181373651884074 0.010127797768769049 0 0.21227870257579401 0.011923753532022491 0 0.21283908828782991 0.0034863817600573189 0 0.21227870257579401 0.011923753532022491 0 0.20503183338545919 0.01582290218127003 0 0.21227870257579401 0.011923753532022491 0 0.20503183338545919 0.01582290218127003 0 0.2131065234414796 0.018257932417993578 0 0.20503183338545919 0.01582290218127003 0 0.20756621841402201 0.02176244361697427 0 0.20154656428342721 0.025012044538250539 0 0.20756621841402201 0.02176244361697427 0 0.2131065234414796 0.018257932417993578 0 0.2105799525457222 0.027956895330382928 0 0.20503183338545919 0.01582290218127003 0 0.20756621841402201 0.02176244361697427 0 0.2131065234414796 0.018257932417993578 0 0.2226817252569607 0.02410252155333065 0 0.2181373651884074 0.010127797768769049 0 0.2131065234414796 0.018257932417993578 0 0.2226817252569607 0.02410252155333065 0 0.2105799525457222 0.027956895330382928 0 0.2178197371605155 0.034158567815162223 0 0.2226817252569607 0.02410252155333065 0 0.2131065234414796 0.018257932417993578 0 0.2105799525457222 0.027956895330382928 0 0.2105799525457222 0.027956895330382928 0 0.20154656428342721 0.025012044538250539 0 0.2004755027526213 0.032887235469962847 0 0.20756621841402201 0.02176244361697427 0 0.2105799525457222 0.027956895330382928 0 0.20154656428342721 0.025012044538250539 0 0.20669275810896379 0.0060930123869249331 0 0.18564617026409569 0.02663390391646326 0 0.20669275810896379 0.0060930123869249331 0 0.19192850551691221 0.02262281209635697 0 0.18564617026409569 0.02663390391646326 0 0.20154656428342721 0.025012044538250539 0 0.19470629408461429 0.030290180015982639 0 0.19192850551691221 0.02262281209635697 0 0.20154656428342721 0.025012044538250539 0 0.19470629408461429 0.030290180015982639 0 0.2004755027526213 0.032887235469962847 0 0.19470629408461429 0.030290180015982639 0 0.19192850551691221 0.02262281209635697 0 0.18656389410600729 0.035280656284144229 0 0.20503183338545919 0.01582290218127003 0 0.20154656428342721 0.025012044538250539 0 0.19192850551691221 0.02262281209635697 0 0.20669275810896379 0.0060930123869249331 0 0.19081863220935899 0.010880894014265719 0 0.1984940644268415 0.0036511338355034811 0 0.20669275810896379 0.0060930123869249331 0 0.19081863220935899 0.010880894014265719 0 0.18564617026409569 0.02663390391646326 0 0.21283908828782991 0.0034863817600573189 0 0.19192850551691221 0.02262281209635697 0 0.19081863220935899 0.010880894014265719 0 0.1984940644268415 0.0036511338355034811 0 0.19462507271995511 -0.001555173029500406 0 0.19081863220935899 0.010880894014265719 0 0.1802107031955 -0.001862085448593918 0 0.19462507271995511 -0.001555173029500406 0 0.1984940644268415 0.0036511338355034811 0 0.20183979466908811 -0.00081419802967632252 0 0.19462507271995511 -0.001555173029500406 0 0.20669275810896379 0.0060930123869249331 0 0.1984940644268415 0.0036511338355034811 0 0.20183979466908811 -0.00081419802967632252 0 0.2126375959443452 0.070219612199209247 0 0.22192360790043281 0.059554468937647653 0 0.21761552553926261 0.050606008984844318 0 0.2041440335564122 0.070258952684434994 0 0.21761552553926261 0.050606008984844318 0 0.2041440335564122 0.070258952684434994 0 0.21761552553926261 0.050606008984844318 0 0.2030217758827757 0.058185177732079457 0 0.20756171287517791 0.049040587386493362 0 0.1988059990903209 0.05315460095976822 0 0.2030217758827757 0.058185177732079457 0 0.20756171287517791 0.049040587386493362 0 0.21761552553926261 0.050606008984844318 0 0.2030217758827757 0.058185177732079457 0 0.21761552553926261 0.050606008984844318 0 0.2178197371605155 0.034158567815162223 0 0.20893807226630179 0.039642230939464437 0 0.20756171287517791 0.049040587386493362 0 0.21761552553926261 0.050606008984844318 0 0.20893807226630179 0.039642230939464437 0 0.2105799525457222 0.027956895330382928 0 0.2178197371605155 0.034158567815162223 0 0.20893807226630179 0.039642230939464437 0 0.2105799525457222 0.027956895330382928 0 0.20893807226630179 0.039642230939464437 0 0.2004755027526213 0.032887235469962847 0 0.20756171287517791 0.049040587386493362 0 0.20893807226630179 0.039642230939464437 0 0.19883015256758241 0.043172986193068669 0 0.19883015256758241 0.043172986193068669 0 0.2004755027526213 0.032887235469962847 0 0.19386888186640799 0.036672978203241377 0 0.20893807226630179 0.039642230939464437 0 0.19883015256758241 0.043172986193068669 0 0.2004755027526213 0.032887235469962847 0 0.19470629408461429 0.030290180015982639 0 0.2004755027526213 0.032887235469962847 0 0.19386888186640799 0.036672978203241377 0 0.19470629408461429 0.030290180015982639 0 0.19386888186640799 0.036672978203241377 0 0.18656389410600729 0.035280656284144229 0 0.19386888186640799 0.036672978203241377 0 0.1887685658212151 0.041733833053048543 0 0.18656389410600729 0.035280656284144229 0 0.19883015256758241 0.043172986193068669 0 0.1887685658212151 0.041733833053048543 0 0.19016783565486731 0.051504576339586973 0 0.19883015256758241 0.043172986193068669 0 0.19386888186640799 0.036672978203241377 0 0.1887685658212151 0.041733833053048543 0 0.19016783565486731 0.051504576339586973 0 0.1988059990903209 0.05315460095976822 0 0.19361086908503081 0.059141453104451631 0 0.20756171287517791 0.049040587386493362 0 0.19883015256758241 0.043172986193068669 0 0.1988059990903209 0.05315460095976822 0 0.19883015256758241 0.043172986193068669 0 0.19016783565486731 0.051504576339586973 0 0.1988059990903209 0.05315460095976822 0 0.1988059990903209 0.05315460095976822 0 0.2030217758827757 0.058185177732079457 0 0.19361086908503081 0.059141453104451631 0 0.1956466649935209 0.066878358815611882 0 0.2030217758827757 0.058185177732079457 0 0.19361086908503081 0.059141453104451631 0 0.18841257763879951 0.065321326084264067 0 0.19361086908503081 0.059141453104451631 0 0.18496247225681309 0.05860453975433555 0 0.19016783565486731 0.051504576339586973 0 0.19361086908503081 0.059141453104451631 0 0.18496247225681309 0.05860453975433555 0 0.18496247225681309 0.05860453975433555 0 0.1760702644718633 0.057312710557451067 0 0.18016052672976079 0.066228555011209292 0 0.18496247225681309 0.05860453975433555 0 0.1760702644718633 0.057312710557451067 0 0.18142876783987341 0.048828575946083357 0 0.1760702644718633 0.057312710557451067 0 0.17381951809627591 0.049657821225194243 0 0.18142876783987341 0.048828575946083357 0 0.17381951809627591 0.049657821225194243 0 0.18142876783987341 0.048828575946083357 0 0.17680631907967129 0.045279963077902198 0 0.1887685658212151 0.041733833053048543 0 0.19016783565486731 0.051504576339586973 0 0.18142876783987341 0.048828575946083357 0 0.19016783565486731 0.051504576339586973 0 0.18496247225681309 0.05860453975433555 0 0.18142876783987341 0.048828575946083357 0 0.19192850551691221 0.02262281209635697 0 0.17059376279003841 0.041324640080540098 0 0.1887685658212151 0.041733833053048543 0 0.18142876783987341 0.048828575946083357 0 0.18095906763654149 0.04087421270767462 0 0.18142876783987341 0.048828575946083357 0 0.18095906763654149 0.04087421270767462 0 0.17680631907967129 0.045279963077902198 0 0.19192850551691221 0.02262281209635697 0 0.18656389410600729 0.035280656284144229 0 0.17059376279003841 0.041324640080540098 0 0.18095906763654149 0.04087421270767462 0 0.18656389410600729 0.035280656284144229 0 0.17059376279003841 0.041324640080540098 0 0.1887685658212151 0.041733833053048543 0 0.18095906763654149 0.04087421270767462 0 0.18656389410600729 0.035280656284144229 0 0.17059376279003841 0.041324640080540098 0 0.18564617026409569 0.02663390391646326 0 0.17110846047247921 0.028097822234199769 0 0.17059376279003841 0.041324640080540098 0 0.18564617026409569 0.02663390391646326 0 0.17381951809627591 0.049657821225194243 0 0.17680631907967129 0.045279963077902198 0 0.17059376279003841 0.041324640080540098 0 0.18095906763654149 0.04087421270767462 0 0.17680631907967129 0.045279963077902198 0 0.17059376279003841 0.041324640080540098 0 0.17059376279003841 0.041324640080540098 0 0.16453774125132009 0.047110061799428747 0 0.17110846047247921 0.028097822234199769 0 0.1610403822327626 0.034477884504553753 0 0.16453774125132009 0.047110061799428747 0 0.17110846047247921 0.028097822234199769 0 0.17059376279003841 0.041324640080540098 0 0.16453774125132009 0.047110061799428747 0 0.1610403822327626 0.034477884504553753 0 0.15772034701300741 0.042148300955203263 0 0.15067772125431481 0.035886780539012758 0 0.15772034701300741 0.042148300955203263 0 0.16453774125132009 0.047110061799428747 0 0.1514890217860124 0.048057354733433172 0 0.1610403822327626 0.034477884504553753 0 0.15772034701300741 0.042148300955203263 0 0.16453774125132009 0.047110061799428747 0 0.16453774125132009 0.047110061799428747 0 0.1501073399750773 0.060895672768956813 0 0.1637641758819699 0.056396475905429323 0 0.1501073399750773 0.060895672768956813 0 0.1637641758819699 0.056396475905429323 0 0.16453774125132009 0.047110061799428747 0 0.1501073399750773 0.060895672768956813 0 0.1637641758819699 0.056396475905429323 0 0.1501073399750773 0.060895672768956813 0 0.16309478920459661 0.06847085466865091 0 0.1760702644718633 0.057312710557451067 0 0.1637641758819699 0.056396475905429323 0 0.17229553090293501 0.065168362537877361 0 0.17381951809627591 0.049657821225194243 0 0.17059376279003841 0.041324640080540098 0 0.1637641758819699 0.056396475905429323 0 0.17059376279003841 0.041324640080540098 0 0.1637641758819699 0.056396475905429323 0 0.16453774125132009 0.047110061799428747 0 0.1760702644718633 0.057312710557451067 0 0.17381951809627591 0.049657821225194243 0 0.1637641758819699 0.056396475905429323 0 0.19081863220935899 0.010880894014265719 0 0.17512317993763049 0.01445301848680243 0 0.1802107031955 -0.001862085448593918 0 0.17512317993763049 0.01445301848680243 0 0.16543512891943959 0.0092466442880110838 0 0.1802107031955 -0.001862085448593918 0 0.19081863220935899 0.010880894014265719 0 0.17512317993763049 0.01445301848680243 0 0.18404403831575139 0.01738216033121133 0 0.19081863220935899 0.010880894014265719 0 0.18404403831575139 0.01738216033121133 0 0.18564617026409569 0.02663390391646326 0 0.19192850551691221 0.02262281209635697 0 0.17059376279003841 0.041324640080540098 0 0.18564617026409569 0.02663390391646326 0 0.17512317993763049 0.01445301848680243 0 0.1789804622474892 0.021641726242169201 0 0.18404403831575139 0.01738216033121133 0 0.17512317993763049 0.01445301848680243 0 0.1789804622474892 0.021641726242169201 0 0.17110846047247921 0.028097822234199769 0 0.1789804622474892 0.021641726242169201 0 0.18404403831575139 0.01738216033121133 0 0.18564617026409569 0.02663390391646326 0 0.1789804622474892 0.021641726242169201 0 0.18564617026409569 0.02663390391646326 0 0.17110846047247921 0.028097822234199769 0 0.1610403822327626 0.034477884504553753 0 0.17110846047247921 0.028097822234199769 0 0.1613632749544999 0.022806000596002889 0 0.1610403822327626 0.034477884504553753 0 0.1613632749544999 0.022806000596002889 0 0.15551593399448041 0.029290287563140151 0 0.17512317993763049 0.01445301848680243 0 0.17110846047247921 0.028097822234199769 0 0.1613632749544999 0.022806000596002889 0 0.16543512891943959 0.0092466442880110838 0 0.1802107031955 -0.001862085448593918 0 0.15816087145600649 -0.0013381695370729321 0 0.17512317993763049 0.01445301848680243 0 0.1613632749544999 0.022806000596002889 0 0.16543512891943959 0.0092466442880110838 0 0.1613632749544999 0.022806000596002889 0 0.16543512891943959 0.0092466442880110838 0 0.1523176150535609 0.01217445734291695 0 0.16543512891943959 0.0092466442880110838 0 0.1523176150535609 0.01217445734291695 0 0.15816087145600649 -0.0013381695370729321 0 0.1523176150535609 0.01217445734291695 0 0.13973703854307529 -0.00229007441396494 0 0.15816087145600649 -0.0013381695370729321 0 0.1523176150535609 0.01217445734291695 0 0.13656421487969131 0.014699767559407811 0 0.13973703854307529 -0.00229007441396494 0 0.1523176150535609 0.01217445734291695 0 0.14898235753634451 0.023990484612991209 0 0.13656421487969131 0.014699767559407811 0 0.1613632749544999 0.022806000596002889 0 0.1523176150535609 0.01217445734291695 0 0.14898235753634451 0.023990484612991209 0 0.1613632749544999 0.022806000596002889 0 0.15551593399448041 0.029290287563140151 0 0.14898235753634451 0.023990484612991209 0 0.15551593399448041 0.029290287563140151 0 0.14898235753634451 0.023990484612991209 0 0.15067772125431481 0.035886780539012758 0 0.14898235753634451 0.023990484612991209 0 0.15067772125431481 0.035886780539012758 0 0.13565354736584459 0.032197880538696079 0 0.1183721398178114 0.023617804808984569 0 0.13656421487969131 0.014699767559407811 0 0.13565354736584459 0.032197880538696079 0 0.14898235753634451 0.023990484612991209 0 0.13656421487969131 0.014699767559407811 0 0.13565354736584459 0.032197880538696079 0 0.1183721398178114 0.023617804808984569 0 0.12388624545308891 0.0047964019648707914 0 0.13656421487969131 0.014699767559407811 0 0.12388624545308891 0.0047964019648707914 0 0.13656421487969131 0.014699767559407811 0 0.13973703854307529 -0.00229007441396494 0 0.1501073399750773 0.060895672768956813 0 0.1514890217860124 0.048057354733433172 0 0.13767234504693721 0.05372268860017243 0 0.1514890217860124 0.048057354733433172 0 0.14127288518410619 0.042745264010067389 0 0.13767234504693721 0.05372268860017243 0 0.16453774125132009 0.047110061799428747 0 0.1501073399750773 0.060895672768956813 0 0.1514890217860124 0.048057354733433172 0 0.15772034701300741 0.042148300955203263 0 0.1514890217860124 0.048057354733433172 0 0.15067772125431481 0.035886780539012758 0 0.1610403822327626 0.034477884504553753 0 0.15551593399448041 0.029290287563140151 0 0.15067772125431481 0.035886780539012758 0 0.15067772125431481 0.035886780539012758 0 0.14127288518410619 0.042745264010067389 0 0.13565354736584459 0.032197880538696079 0 0.1514890217860124 0.048057354733433172 0 0.15067772125431481 0.035886780539012758 0 0.14127288518410619 0.042745264010067389 0 0.14127288518410619 0.042745264010067389 0 0.13087179046742181 0.043861615639022487 0 0.13767234504693721 0.05372268860017243 0 0.121187693009621 0.039099570776044923 0 0.1183721398178114 0.023617804808984569 0 0.13565354736584459 0.032197880538696079 0 0.14127288518410619 0.042745264010067389 0 0.13565354736584459 0.032197880538696079 0 0.13087179046742181 0.043861615639022487 0 0.121187693009621 0.039099570776044923 0 0.13565354736584459 0.032197880538696079 0 0.13087179046742181 0.043861615639022487 0 0.12241033492594849 0.053910071109036131 0 0.13087179046742181 0.043861615639022487 0 0.13767234504693721 0.05372268860017243 0 0.1501073399750773 0.060895672768956813 0 0.13767234504693721 0.05372268860017243 0 0.13111680556844349 0.067152037963763039 0 0.12241033492594849 0.053910071109036131 0 0.13767234504693721 0.05372268860017243 0 0.13111680556844349 0.067152037963763039 0 0.1501073399750773 0.060895672768956813 0 0.13111680556844349 0.067152037963763039 0 0.11212627116181111 0.07340840315857329 0 0.13111680556844349 0.067152037963763039 0 0.13383161297065621 0.075947890104756957 0 0.1501073399750773 0.060895672768956813 0 0.13111680556844349 0.067152037963763039 0 0.14054350207421079 0.06964806956930375 0 0.13111680556844349 0.067152037963763039 0 0.13383161297065621 0.075947890104756957 0 0.14054350207421079 0.06964806956930375 0 0.13383161297065621 0.075947890104756957 0 0.14054350207421079 0.06964806956930375 0 0.14360134055660559 0.081776962363538014 0 0.1501073399750773 0.060895672768956813 0 0.14054350207421079 0.06964806956930375 0 0.1501073399750773 0.060895672768956813 0 0.14054350207421079 0.06964806956930375 0 0.15312068384860419 0.074838098189604269 0 0.14054350207421079 0.06964806956930375 0 0.15312068384860419 0.074838098189604269 0 0.14360134055660559 0.081776962363538014 0 0.1501073399750773 0.060895672768956813 0 0.15312068384860419 0.074838098189604269 0 0.16309478920459661 0.06847085466865091 0 0.15517669693215971 0.087366424217608499 0 0.14360134055660559 0.081776962363538014 0 0.1445930385843488 0.10053514420631229 0 0.15312068384860419 0.074838098189604269 0 0.15517669693215971 0.087366424217608499 0 0.14360134055660559 0.081776962363538014 0 0.14360134055660559 0.081776962363538014 0 0.13063259154874551 0.085815781652021236 0 0.1445930385843488 0.10053514420631229 0 0.11212627116181111 0.07340840315857329 0 0.13383161297065621 0.075947890104756957 0 0.13063259154874551 0.085815781652021236 0 0.13383161297065621 0.075947890104756957 0 0.14360134055660559 0.081776962363538014 0 0.13063259154874551 0.085815781652021236 0 0.1190106944703056 0.097410508426925724 0 0.13063259154874551 0.085815781652021236 0 0.1445930385843488 0.10053514420631229 0 0.1190106944703056 0.097410508426925724 0 0.1384265342559666 0.11774849019640241 0 0.1445930385843488 0.10053514420631229 0 0.1190106944703056 0.097410508426925724 0 0.1258951177788 0.1214126136952782 0 0.1384265342559666 0.11774849019640241 0 0.12889751092096591 0.12690757277278 0 0.1258951177788 0.1214126136952782 0 0.1384265342559666 0.11774849019640241 0 0.12889751092096591 0.12690757277278 0 0.13857645802597901 0.1294948642071504 0 0.1384265342559666 0.11774849019640241 0 0.14887154196001451 0.1288336181356346 0 0.1384265342559666 0.11774849019640241 0 0.15838306988004999 0.1134645919248827 0 0.1384265342559666 0.11774849019640241 0 0.1445930385843488 0.10053514420631229 0 0.15838306988004999 0.1134645919248827 0 0.15517669693215971 0.087366424217608499 0 0.1445930385843488 0.10053514420631229 0 0.1665549708160943 0.096830346663422495 0 0.1445930385843488 0.10053514420631229 0 0.1665549708160943 0.096830346663422495 0 0.1665549708160943 0.096830346663422495 0 0.15838306988004999 0.1134645919248827 0 0.17926825083367151 0.11107326516348021 0 0.1445930385843488 0.10053514420631229 0 0.1665549708160943 0.096830346663422495 0 0.15838306988004999 0.1134645919248827 0 0.16949738652588681 0.12590794361156199 0 0.15838306988004999 0.1134645919248827 0 0.17926825083367151 0.11107326516348021 0 0.14887154196001451 0.1288336181356346 0 0.16949738652588681 0.12590794361156199 0 0.15838306988004999 0.1134645919248827 0 0.18472853680765999 0.13640092388267069 0 0.16949738652588681 0.12590794361156199 0 0.17926825083367151 0.11107326516348021 0 0.18472853680765999 0.13640092388267069 0 0.19828845429409081 0.1127225306147835 0 0.17926825083367151 0.11107326516348021 0 0.18851287138773251 0.093101649556513455 0 0.1665549708160943 0.096830346663422495 0 0.18851287138773251 0.093101649556513455 0 0.1665549708160943 0.096830346663422495 0 0.17926825083367151 0.11107326516348021 0 0.18851287138773251 0.093101649556513455 0 0.17768549788695109 0.08658251825354002 0 0.1839835922601856 0.083913974534106428 0 0.18851287138773251 0.093101649556513455 0 0.1839835922601856 0.083913974534106428 0 0.18851287138773251 0.093101649556513455 0 0.1665549708160943 0.096830346663422495 0 0.17768549788695109 0.08658251825354002 0 0.190672541573562 0.089911896384025802 0 0.1839835922601856 0.083913974534106428 0 0.17768549788695109 0.08658251825354002 0 0.17749994959050139 0.081143231211932301 0 0.16685992484556181 0.081778131965206266 0 0.17749994959050139 0.081143231211932301 0 0.17458061997003099 0.074463168892343778 0 0.16685992484556181 0.081778131965206266 0 0.18279394700673851 0.081518148421361084 0 0.18309387700068161 0.078644296183255358 0 0.17996146368486221 0.077476614621497589 0 0.17749994959050139 0.081143231211932301 0 0.18279394700673851 0.081518148421361084 0 0.17996146368486221 0.077476614621497589 0 0.17749994959050139 0.081143231211932301 0 0.18279394700673851 0.081518148421361084 0 0.1839835922601856 0.083913974534106428 0 0.17768549788695109 0.08658251825354002 0 0.17749994959050139 0.081143231211932301 0 0.1839835922601856 0.083913974534106428 0 0.18279394700673851 0.081518148421361084 0 0.1839835922601856 0.083913974534106428 0 0.18862434720999821 0.079969770487000713 0 0.189246591432009 0.083455486484593583 0 0.1839835922601856 0.083913974534106428 0 0.18279394700673851 0.081518148421361084 0 0.1839835922601856 0.083913974534106428 0 0.18502497552396349 0.079560172833974541 0 0.18862434720999821 0.079969770487000713 0 0.1839835922601856 0.083913974534106428 0 0.18502497552396349 0.079560172833974541 0 0.18279394700673851 0.081518148421361084 0 0.18309387700068161 0.078644296183255358 0 0.18502497552396349 0.079560172833974541 0 0.18862434720999821 0.079969770487000713 0 0.18502497552396349 0.079560172833974541 0 0.18689804381159469 0.077654805049268055 0 0.18934773072525521 0.075067028019908805 0 0.18689804381159469 0.077654805049268055 0 0.18459512178716209 0.076022248856188204 0 0.18309387700068161 0.078644296183255358 0 0.18502497552396349 0.079560172833974541 0 0.18459512178716209 0.076022248856188204 0 0.18502497552396349 0.079560172833974541 0 0.18689804381159469 0.077654805049268055 0 0.18459512178716209 0.076022248856188204 0 0.18934773072525521 0.075067028019908805 0 0.18459512178716209 0.076022248856188204 0 0.18579250738593159 0.071025294809000661 0 0.18459512178716209 0.076022248856188204 0 0.18579250738593159 0.071025294809000661 0 0.18101804791154949 0.073043176438047905 0 0.18309387700068161 0.078644296183255358 0 0.18459512178716209 0.076022248856188204 0 0.17996146368486221 0.077476614621497589 0 0.18459512178716209 0.076022248856188204 0 0.18101804791154949 0.073043176438047905 0 0.17996146368486221 0.077476614621497589 0 0.18841257763879951 0.065321326084264067 0 0.18579250738593159 0.071025294809000661 0 0.18016052672976079 0.066228555011209292 0 0.18841257763879951 0.065321326084264067 0 0.18496247225681309 0.05860453975433555 0 0.18016052672976079 0.066228555011209292 0 0.18579250738593159 0.071025294809000661 0 0.18101804791154949 0.073043176438047905 0 0.18016052672976079 0.066228555011209292 0 0.18016052672976079 0.066228555011209292 0 0.17229553090293501 0.065168362537877361 0 0.17458061997003099 0.074463168892343778 0 0.1760702644718633 0.057312710557451067 0 0.18016052672976079 0.066228555011209292 0 0.17229553090293501 0.065168362537877361 0 0.18101804791154949 0.073043176438047905 0 0.18016052672976079 0.066228555011209292 0 0.17458061997003099 0.074463168892343778 0 0.18101804791154949 0.073043176438047905 0 0.17996146368486221 0.077476614621497589 0 0.17458061997003099 0.074463168892343778 0 0.17749994959050139 0.081143231211932301 0 0.17996146368486221 0.077476614621497589 0 0.17458061997003099 0.074463168892343778 0 0.17458061997003099 0.074463168892343778 0 0.16309478920459661 0.06847085466865091 0 0.16685992484556181 0.081778131965206266 0 0.1637641758819699 0.056396475905429323 0 0.17229553090293501 0.065168362537877361 0 0.16309478920459661 0.06847085466865091 0 0.17229553090293501 0.065168362537877361 0 0.17458061997003099 0.074463168892343778 0 0.16309478920459661 0.06847085466865091 0 0.15312068384860419 0.074838098189604269 0 0.16309478920459661 0.06847085466865091 0 0.16685992484556181 0.081778131965206266 0 0.15312068384860419 0.074838098189604269 0 0.15517669693215971 0.087366424217608499 0 0.16685992484556181 0.081778131965206266 0 0.15517669693215971 0.087366424217608499 0 0.1665549708160943 0.096830346663422495 0 0.16685992484556181 0.081778131965206266 0 0.1665549708160943 0.096830346663422495 0 0.17768549788695109 0.08658251825354002 0 0.16685992484556181 0.081778131965206266 0 0.10254190472159511 0.47555798188224402 0 0.1147772421621417 0.49119794106439479 0 0.1041241496628655 0.5 0 0.1147772421621417 0.49119794106439479 0 0.086585095378492405 0.49999999999999978 0 0.1147772421621417 0.49119794106439479 0 0.086585095378492405 0.49999999999999978 0 0.10254190472159511 0.47555798188224402 0 0.1147772421621417 0.49119794106439479 0 0.086585095378492405 0.49999999999999978 0 0.1041241496628655 0.5 0 0.1147772421621417 0.49119794106439479 0 0.1216632039472386 0.49999999999999961 0 0.1147772421621417 0.49119794106439479 0 0.1216632039472386 0.49999999999999961 0 0.10254190472159511 0.47555798188224402 0 0.1181576947241238 0.47625042146557678 0 0.1124578928247353 0.45974693886554507 0 0.1147772421621417 0.49119794106439479 0 0.1181576947241238 0.47625042146557678 0 0.13899280335646341 0.48363743854478047 0 0.10254190472159511 0.47555798188224402 0 0.1147772421621417 0.49119794106439479 0 0.1181576947241238 0.47625042146557678 0 0.1124578928247353 0.45974693886554507 0 0.1254817450918235 0.45234751992387179 0 0.1287021395328565 0.46648913382440682 0 0.1181576947241238 0.47625042146557678 0 0.1124578928247353 0.45974693886554507 0 0.1287021395328565 0.46648913382440682 0 0.1124578928247353 0.45974693886554507 0 0.1178386376950837 0.43799059679757352 0 0.1254817450918235 0.45234751992387179 0 0.1124578928247353 0.45974693886554507 0 0.1178386376950837 0.43799059679757352 0 0.1019136693703485 0.45562965286604878 0 0.103025185762793 0.43994447485557908 0 0.091865902701716906 0.44714815646924078 0 0.08862440865680192 0.42988142122566642 0 0.1178386376950837 0.43799059679757352 0 0.1019136693703485 0.45562965286604878 0 0.091865902701716906 0.44714815646924078 0 0.1178386376950837 0.43799059679757352 0 0.091865902701716906 0.44714815646924078 0 0.1178386376950837 0.43799059679757352 0 0.103025185762793 0.43994447485557908 0 0.091865902701716906 0.44714815646924078 0 0.10254190472159511 0.47555798188224402 0 0.09030656728104669 0.45991802270009458 0 0.10254190472159511 0.47555798188224402 0 0.1124578928247353 0.45974693886554507 0 0.1019136693703485 0.45562965286604878 0 0.10254190472159511 0.47555798188224402 0 0.1019136693703485 0.45562965286604878 0 0.09030656728104669 0.45991802270009458 0 0.1019136693703485 0.45562965286604878 0 0.09030656728104669 0.45991802270009458 0 0.091865902701716906 0.44714815646924078 0 0.079167571615103335 0.46254548110782079 0 0.091865902701716906 0.44714815646924078 0 0.065893167708350159 0.45630571614090798 0 0.09030656728104669 0.45991802270009458 0 0.079167571615103335 0.46254548110782079 0 0.091865902701716906 0.44714815646924078 0 0.09030656728104669 0.45991802270009458 0 0.079167571615103335 0.46254548110782079 0 0.088313723454679416 0.47382417539055588 0 0.091865902701716906 0.44714815646924078 0 0.074819392238551968 0.44025660664438288 0 0.08862440865680192 0.42988142122566642 0 0.091865902701716906 0.44714815646924078 0 0.065893167708350159 0.45630571614090798 0 0.091865902701716906 0.44714815646924078 0 0.074819392238551968 0.44025660664438288 0 0.065893167708350159 0.45630571614090798 0 0.074819392238551968 0.44025660664438288 0 0.065893167708350159 0.45630571614090798 0 0.05789197135620186 0.43956421781926081 0 0.079167571615103335 0.46254548110782079 0 0.065893167708350159 0.45630571614090798 0 0.074513464441449961 0.47536822883488572 0 0.065893167708350159 0.45630571614090798 0 0.074513464441449961 0.47536822883488572 0 0.054172120290021053 0.47279888969079231 0 0.074513464441449961 0.47536822883488572 0 0.063297652599344278 0.4855256316106219 0 0.054172120290021053 0.47279888969079231 0 0.079167571615103335 0.46254548110782079 0 0.074513464441449961 0.47536822883488572 0 0.088313723454679416 0.47382417539055588 0 0.074513464441449961 0.47536822883488572 0 0.088313723454679416 0.47382417539055588 0 0.086585095378492405 0.49999999999999978 0 0.10254190472159511 0.47555798188224402 0 0.088313723454679416 0.47382417539055588 0 0.086585095378492405 0.49999999999999978 0 0.10254190472159511 0.47555798188224402 0 0.09030656728104669 0.45991802270009458 0 0.088313723454679416 0.47382417539055588 0 0.074513464441449961 0.47536822883488572 0 0.086585095378492405 0.49999999999999978 0 0.063297652599344278 0.4855256316106219 0 0.086585095378492405 0.49999999999999978 0 0.063297652599344278 0.4855256316106219 0 0.060001681736103152 0.5 0 0.063297652599344278 0.4855256316106219 0 0.060001681736103152 0.5 0 0.040523170719307257 0.48180422329374939 0 0.063297652599344278 0.4855256316106219 0 0.054172120290021053 0.47279888969079231 0 0.040523170719307257 0.48180422329374939 0 0.054172120290021053 0.47279888969079231 0 0.039920432714982301 0.4654632758125728 0 0.054172120290021053 0.47279888969079231 0 0.040523170719307257 0.48180422329374939 0 0.039920432714982301 0.4654632758125728 0 0.040523170719307257 0.48180422329374939 0 0.03074362582210562 0.46869886716398118 0 0.039920432714982301 0.4654632758125728 0 0.040523170719307257 0.48180422329374939 0 0.033418268093713843 0.5 0 0.022394927780545752 0.48297972431759278 0 0.060001681736103152 0.5 0 0.040523170719307257 0.48180422329374939 0 0.033418268093713843 0.5 0 0.033418268093713843 0.5 0 0.022394927780545752 0.48297972431759278 0 0.0068348544513245901 0.5 0 0.040523170719307257 0.48180422329374939 0 0.022394927780545752 0.48297972431759278 0 0.03074362582210562 0.46869886716398118 0 0.022394927780545752 0.48297972431759278 0 0.017200913387108881 0.46818070672161149 0 0.03074362582210562 0.46869886716398118 0 0.022394927780545752 0.48297972431759278 0 0.003208085519276105 0.47550482382514742 0 0.017200913387108881 0.46818070672161149 0 0.022394927780545752 0.48297972431759278 0 0.003208085519276105 0.47550482382514742 0 0.0068348544513245901 0.5 0 0.00072785141610140491 0.44529011093046461 0 0.020324142065542741 0.45537669337151693 0 0.00072785141610140491 0.44529011093046461 0 0.020324142065542741 0.45537669337151693 0 0.02359785791788923 0.43806810093436588 0 0.00072785141610140491 0.44529011093046461 0 0.0060968567349820816 0.46154879727134579 0 0.020324142065542741 0.45537669337151693 0 0.0060968567349820816 0.46154879727134579 0 0.020324142065542741 0.45537669337151693 0 0.017200913387108881 0.46818070672161149 0 0.003208085519276105 0.47550482382514742 0 0.0060968567349820816 0.46154879727134579 0 0.017200913387108881 0.46818070672161149 0 0.020324142065542741 0.45537669337151693 0 0.039920432714982301 0.4654632758125728 0 0.020324142065542741 0.45537669337151693 0 0.03074362582210562 0.46869886716398118 0 0.039920432714982301 0.4654632758125728 0 0.020324142065542741 0.45537669337151693 0 0.017200913387108881 0.46818070672161149 0 0.03074362582210562 0.46869886716398118 0 0.020324142065542741 0.45537669337151693 0 0.02359785791788923 0.43806810093436588 0 0.034666162866073928 0.44951331179911491 0 0.02359785791788923 0.43806810093436588 0 0.034666162866073928 0.44951331179911491 0 0.041623714179748542 0.43856789668660429 0 0.034666162866073928 0.44951331179911491 0 0.041623714179748542 0.43856789668660429 0 0.047864667452206813 0.45009059219051412 0 0.034666162866073928 0.44951331179911491 0 0.039920432714982301 0.4654632758125728 0 0.047864667452206813 0.45009059219051412 0 0.020324142065542741 0.45537669337151693 0 0.034666162866073928 0.44951331179911491 0 0.039920432714982301 0.4654632758125728 0 0.03074362582210562 0.46869886716398118 0 0.039920432714982301 0.4654632758125728 0 0.065893167708350159 0.45630571614090798 0 0.039920432714982301 0.4654632758125728 0 0.065893167708350159 0.45630571614090798 0 0.054172120290021053 0.47279888969079231 0 0.039920432714982301 0.4654632758125728 0 0.065893167708350159 0.45630571614090798 0 0.039920432714982301 0.4654632758125728 0 0.047864667452206813 0.45009059219051412 0 0.041623714179748542 0.43856789668660429 0 0.05789197135620186 0.43956421781926081 0 0.047864667452206813 0.45009059219051412 0 0.065893167708350159 0.45630571614090798 0 0.05789197135620186 0.43956421781926081 0 0.047864667452206813 0.45009059219051412 0 0.041623714179748542 0.43856789668660429 0 0.05789197135620186 0.43956421781926081 0 0.051852343892059838 0.42658225941770961 0 0.05789197135620186 0.43956421781926081 0 0.051852343892059838 0.42658225941770961 0 0.069821510769688983 0.4283835215668389 0 0.051852343892059838 0.42658225941770961 0 0.064371803212022349 0.41413222160761531 0 0.069821510769688983 0.4283835215668389 0 0.049024945726326402 0.41350912047772109 0 0.058181985234656057 0.39732702723919622 0 0.064371803212022349 0.41413222160761531 0 0.051852343892059838 0.42658225941770961 0 0.049024945726326402 0.41350912047772109 0 0.064371803212022349 0.41413222160761531 0 0.051852343892059838 0.42658225941770961 0 0.049024945726326402 0.41350912047772109 0 0.03569395704960418 0.42349452734512538 0 0.049024945726326402 0.41350912047772109 0 0.033277365854632472 0.4092000358191803 0 0.03569395704960418 0.42349452734512538 0 0.041623714179748542 0.43856789668660429 0 0.051852343892059838 0.42658225941770961 0 0.03569395704960418 0.42349452734512538 0 0.02359785791788923 0.43806810093436588 0 0.041623714179748542 0.43856789668660429 0 0.03569395704960418 0.42349452734512538 0 0.02359785791788923 0.43806810093436588 0 0.03569395704960418 0.42349452734512538 0 0.01932685504245775 0.41891211738150069 0 0.033277365854632472 0.4092000358191803 0 0.01932685504245775 0.41891211738150069 0 0.02108917657793433 0.3985380171896018 0 0.033277365854632472 0.4092000358191803 0 0.03569395704960418 0.42349452734512538 0 0.01932685504245775 0.41891211738150069 0 0.01932685504245775 0.41891211738150069 0 5.9505919125258169e-05 0.40930725376273419 0 0.01932685504245775 0.41891211738150069 0 5.9505919125258169e-05 0.40930725376273419 0 0.02108917657793433 0.3985380171896018 0 0.01932685504245775 0.41891211738150069 0 5.9505919125258169e-05 0.40930725376273419 0 0.0022818316242484999 0.4272906004056003 0 0.00072785141610140491 0.44529011093046461 0 0.02359785791788923 0.43806810093436588 0 0.0022818316242484999 0.4272906004056003 0 0.02359785791788923 0.43806810093436588 0 0.01932685504245775 0.41891211738150069 0 0.0022818316242484999 0.4272906004056003 0 0.0078205428699534476 0.38191700403721879 0 0.023775320778129449 0.38225290349057861 0 0.01267488018001223 0.36349536661698129 0 5.9505919125258169e-05 0.40930725376273419 0 0.0078205428699534476 0.38191700403721879 0 0.02108917657793433 0.3985380171896018 0 0.02108917657793433 0.3985380171896018 0 0.023775320778129449 0.38225290349057861 0 0.041251894876839702 0.39154639670195279 0 0.0078205428699534476 0.38191700403721879 0 0.02108917657793433 0.3985380171896018 0 0.023775320778129449 0.38225290349057861 0 0.041251894876839702 0.39154639670195279 0 0.033478844027353002 0.36958367292618449 0 0.023775320778129449 0.38225290349057861 0 0.041251894876839702 0.39154639670195279 0 0.033478844027353002 0.36958367292618449 0 0.041251894876839702 0.39154639670195279 0 0.060536686583855678 0.37273903416963822 0 0.033478844027353002 0.36958367292618449 0 0.033277365854632472 0.4092000358191803 0 0.02108917657793433 0.3985380171896018 0 0.041251894876839702 0.39154639670195279 0 0.049024945726326402 0.41350912047772109 0 0.041251894876839702 0.39154639670195279 0 0.049024945726326402 0.41350912047772109 0 0.033277365854632472 0.4092000358191803 0 0.041251894876839702 0.39154639670195279 0 0.049024945726326402 0.41350912047772109 0 0.041251894876839702 0.39154639670195279 0 0.058181985234656057 0.39732702723919622 0 0.041251894876839702 0.39154639670195279 0 0.058181985234656057 0.39732702723919622 0 0.060536686583855678 0.37273903416963822 0 0.058181985234656057 0.39732702723919622 0 0.07542455939442419 0.39367335950909732 0 0.060536686583855678 0.37273903416963822 0 0.087581926971515456 0.37941058207693418 0 0.07542455939442419 0.39367335950909732 0 0.060536686583855678 0.37273903416963822 0 0.087581926971515456 0.37941058207693418 0 0.091643626060408143 0.39873228137417271 0 0.07542455939442419 0.39367335950909732 0 0.091643626060408143 0.39873228137417271 0 0.07542455939442419 0.39367335950909732 0 0.081833326468806311 0.41372024115358119 0 0.058181985234656057 0.39732702723919622 0 0.07542455939442419 0.39367335950909732 0 0.064371803212022349 0.41413222160761531 0 0.07542455939442419 0.39367335950909732 0 0.064371803212022349 0.41413222160761531 0 0.081833326468806311 0.41372024115358119 0 0.064371803212022349 0.41413222160761531 0 0.069821510769688983 0.4283835215668389 0 0.081833326468806311 0.41372024115358119 0 0.074819392238551968 0.44025660664438288 0 0.05789197135620186 0.43956421781926081 0 0.069821510769688983 0.4283835215668389 0 0.074819392238551968 0.44025660664438288 0 0.069821510769688983 0.4283835215668389 0 0.08862440865680192 0.42988142122566642 0 0.069821510769688983 0.4283835215668389 0 0.08862440865680192 0.42988142122566642 0 0.081833326468806311 0.41372024115358119 0 0.08862440865680192 0.42988142122566642 0 0.081833326468806311 0.41372024115358119 0 0.099849429527321287 0.41589548213544208 0 0.091643626060408143 0.39873228137417271 0 0.081833326468806311 0.41372024115358119 0 0.099849429527321287 0.41589548213544208 0 0.103025185762793 0.43994447485557908 0 0.08862440865680192 0.42988142122566642 0 0.1005097319643445 0.42820855157832072 0 0.08862440865680192 0.42988142122566642 0 0.099849429527321287 0.41589548213544208 0 0.1005097319643445 0.42820855157832072 0 0.099849429527321287 0.41589548213544208 0 0.1005097319643445 0.42820855157832072 0 0.1109089034146894 0.42581565016692607 0 0.103025185762793 0.43994447485557908 0 0.1005097319643445 0.42820855157832072 0 0.1109089034146894 0.42581565016692607 0 0.103025185762793 0.43994447485557908 0 0.12853919797931479 0.42933085320764403 0 0.1109089034146894 0.42581565016692607 0 0.1212853224197144 0.41378962305542483 0 0.12853919797931479 0.42933085320764403 0 0.1178386376950837 0.43799059679757352 0 0.103025185762793 0.43994447485557908 0 0.12853919797931479 0.42933085320764403 0 0.103025185762793 0.43994447485557908 0 0.1109089034146894 0.42581565016692607 0 0.12853919797931479 0.42933085320764403 0 0.099849429527321287 0.41589548213544208 0 0.1109089034146894 0.42581565016692607 0 0.1212853224197144 0.41378962305542483 0 0.099849429527321287 0.41589548213544208 0 0.1212853224197144 0.41378962305542483 0 0.1140426138365577 0.39195336235282618 0 0.1212853224197144 0.41378962305542483 0 0.1140426138365577 0.39195336235282618 0 0.1332662305792526 0.40308709976076962 0 0.1140426138365577 0.39195336235282618 0 0.1035636980956938 0.36845345876432578 0 0.12823579814579411 0.36801124257021028 0 0.1140426138365577 0.39195336235282618 0 0.12823579814579411 0.36801124257021028 0 0.087581926971515456 0.37941058207693418 0 0.1140426138365577 0.39195336235282618 0 0.1035636980956938 0.36845345876432578 0 0.087581926971515456 0.37941058207693418 0 0.091643626060408143 0.39873228137417271 0 0.1140426138365577 0.39195336235282618 0 0.099849429527321287 0.41589548213544208 0 0.1140426138365577 0.39195336235282618 0 0.091643626060408143 0.39873228137417271 0 0.099849429527321287 0.41589548213544208 0 0.1140426138365577 0.39195336235282618 0 0.105232438398707 0.34725999763070969 0 0.1035636980956938 0.36845345876432578 0 0.083239439022478823 0.35662372954796567 0 0.105232438398707 0.34725999763070969 0 0.1035636980956938 0.36845345876432578 0 0.12823579814579411 0.36801124257021028 0 0.105232438398707 0.34725999763070969 0 0.12373770727037579 0.33792003093947293 0 0.12823579814579411 0.36801124257021028 0 0.105232438398707 0.34725999763070969 0 0.12373770727037579 0.33792003093947293 0 0.10488177006202599 0.32896335941784671 0 0.12373770727037579 0.33792003093947293 0 0.10488177006202599 0.32896335941784671 0 0.11624673382913429 0.31246344119587699 0 0.10488177006202599 0.32896335941784671 0 0.092966415204787961 0.31385792370307902 0 0.11624673382913429 0.31246344119587699 0 0.10488177006202599 0.32896335941784671 0 0.086225555607125109 0.3333154036200946 0 0.092966415204787961 0.31385792370307902 0 0.092966415204787961 0.31385792370307902 0 0.11624673382913429 0.31246344119587699 0 0.105232438398707 0.34725999763070969 0 0.10488177006202599 0.32896335941784671 0 0.086225555607125109 0.3333154036200946 0 0.086225555607125109 0.3333154036200946 0 0.092966415204787961 0.31385792370307902 0 0.069686096580441656 0.31525240621028078 0 0.092966415204787961 0.31385792370307902 0 0.069686096580441656 0.31525240621028078 0 0.086225555607125109 0.3333154036200946 0 0.069686096580441656 0.31525240621028078 0 0.060855336673157373 0.34093237391941361 0 0.086225555607125109 0.3333154036200946 0 0.083239439022478823 0.35662372954796567 0 0.060855336673157373 0.34093237391941361 0 0.083239439022478823 0.35662372954796567 0 0.060536686583855678 0.37273903416963822 0 0.060855336673157373 0.34093237391941361 0 0.105232438398707 0.34725999763070969 0 0.086225555607125109 0.3333154036200946 0 0.083239439022478823 0.35662372954796567 0 0.087581926971515456 0.37941058207693418 0 0.1035636980956938 0.36845345876432578 0 0.083239439022478823 0.35662372954796567 0 0.087581926971515456 0.37941058207693418 0 0.083239439022478823 0.35662372954796567 0 0.060536686583855678 0.37273903416963822 0 0.060536686583855678 0.37273903416963822 0 0.043165438431399347 0.35255240445226782 0 0.060855336673157373 0.34093237391941361 0 0.043165438431399347 0.35255240445226782 0 0.02570579317786631 0.34762094915041619 0 0.035250531694764393 0.33188599209568648 0 0.043165438431399347 0.35255240445226782 0 0.033478844027353002 0.36958367292618449 0 0.02570579317786631 0.34762094915041619 0 0.060536686583855678 0.37273903416963822 0 0.043165438431399347 0.35255240445226782 0 0.033478844027353002 0.36958367292618449 0 0.033478844027353002 0.36958367292618449 0 0.02570579317786631 0.34762094915041619 0 0.01267488018001223 0.36349536661698129 0 0.023775320778129449 0.38225290349057861 0 0.033478844027353002 0.36958367292618449 0 0.01267488018001223 0.36349536661698129 0 0.033478844027353002 0.36958367292618449 0 0.02570579317786631 0.34762094915041619 0 0.02570579317786631 0.34762094915041619 0 0.01267488018001223 0.36349536661698129 0 0.0095036610468177025 0.34204865673435508 0 -0.0088191621650941174 0.35014621820995018 0 0.01267488018001223 0.36349536661698129 0 0.0095036610468177025 0.34204865673435508 0 -0.0027408384749401621 0.37089816177016621 0 -0.0088191621650941174 0.35014621820995018 0 0.01267488018001223 0.36349536661698129 0 -0.0027408384749401621 0.37089816177016621 0 0.0078205428699534476 0.38191700403721879 0 0.01267488018001223 0.36349536661698129 0 0.0039066078705810902 0.32565270157566811 0 0.016632377906256369 0.30115918494138588 0 0.0039066078705810902 0.32565270157566811 0 0.023125459331748779 0.31804137122468462 0 0.017932742328379641 0.325658225374648 0 0.0039066078705810902 0.32565270157566811 0 0.023125459331748779 0.31804137122468462 0 0.016632377906256369 0.30115918494138588 0 0.0039066078705810902 0.32565270157566811 0 0.0095036610468177025 0.34204865673435508 0 0.017932742328379641 0.325658225374648 0 -0.0088191621650941174 0.35014621820995018 0 0.0039066078705810902 0.32565270157566811 0 0.0095036610468177025 0.34204865673435508 0 0.02570579317786631 0.34762094915041619 0 0.017932742328379641 0.325658225374648 0 0.035250531694764393 0.33188599209568648 0 0.02570579317786631 0.34762094915041619 0 0.0095036610468177025 0.34204865673435508 0 0.017932742328379641 0.325658225374648 0 0.02570579317786631 0.34762094915041619 0 0.017932742328379641 0.325658225374648 0 0.023125459331748779 0.31804137122468462 0 0.017932742328379641 0.325658225374648 0 0.035250531694764393 0.33188599209568648 0 0.023125459331748779 0.31804137122468462 0 0.046405777956095268 0.3166468887174827 0 0.036754534922011473 0.30510348189081271 0 0.023125459331748779 0.31804137122468462 0 0.046405777956095268 0.3166468887174827 0 0.035250531694764393 0.33188599209568648 0 0.023125459331748779 0.31804137122468462 0 0.046405777956095268 0.3166468887174827 0 0.043165438431399347 0.35255240445226782 0 0.035250531694764393 0.33188599209568648 0 0.060855336673157373 0.34093237391941361 0 0.046405777956095268 0.3166468887174827 0 0.035250531694764393 0.33188599209568648 0 0.060855336673157373 0.34093237391941361 0 0.069686096580441656 0.31525240621028078 0 0.046405777956095268 0.3166468887174827 0 0.060855336673157373 0.34093237391941361 0 0.069686096580441656 0.31525240621028078 0 0.046405777956095268 0.3166468887174827 0 0.069686096580441656 0.31525240621028078 0 0.046405777956095268 0.3166468887174827 0 0.055159544584124122 0.30139945622847308 0 0.055159544584124122 0.30139945622847308 0 0.057190067116765671 0.28259405307377949 0 0.040095951378329053 0.29009929642052329 0 0.057190067116765671 0.28259405307377949 0 0.040095951378329053 0.29009929642052329 0 0.029358147941931621 0.27666566830710382 0 0.046405777956095268 0.3166468887174827 0 0.055159544584124122 0.30139945622847308 0 0.036754534922011473 0.30510348189081271 0 0.055159544584124122 0.30139945622847308 0 0.040095951378329053 0.29009929642052329 0 0.036754534922011473 0.30510348189081271 0 0.023125459331748779 0.31804137122468462 0 0.036754534922011473 0.30510348189081271 0 0.016632377906256369 0.30115918494138588 0 0.040095951378329053 0.29009929642052329 0 0.036754534922011473 0.30510348189081271 0 0.016632377906256369 0.30115918494138588 0 0.040095951378329053 0.29009929642052329 0 0.016632377906256369 0.30115918494138588 0 0.029358147941931621 0.27666566830710382 0 0.016632377906256369 0.30115918494138588 0 0.0059625291972851919 0.29133533503307629 0 0.029358147941931621 0.27666566830710382 0 0.016632377906256369 0.30115918494138588 0 0.029358147941931621 0.27666566830710382 0 0.0059625291972851919 0.29133533503307629 0 0.0076690296052900724 0.27693250354580262 0 0.029358147941931621 0.27666566830710382 0 -0.0085320932602696124 0.29082580750067583 0 0.0059625291972851919 0.29133533503307629 0 0.0076690296052900724 0.27693250354580262 0 -0.00086725144680890539 0.3075537592967803 0 0.016632377906256369 0.30115918494138588 0 0.0059625291972851919 0.29133533503307629 0 -0.00086725144680890539 0.3075537592967803 0 0.0039066078705810902 0.32565270157566811 0 0.016632377906256369 0.30115918494138588 0 0.01088253848113307 0.2434048452417634 0 0.01091317381807741 0.25905014045506791 0 0.001175222610432694 0.26711532637121999 0 0.01415731803086369 0.24116777736433301 0 0.01091317381807741 0.25905014045506791 0 0.01415731803086369 0.24116777736433301 0 0.01091317381807741 0.25905014045506791 0 0.018077926120903118 0.25382018488078151 0 -0.0076840247107458556 0.25608803856212531 0 0.01088253848113307 0.2434048452417634 0 0.001175222610432694 0.26711532637121999 0 0.01088253848113307 0.2434048452417634 0 0.001175222610432694 0.26711532637121999 0 -0.0085320932602696124 0.29082580750067583 0 0.001175222610432694 0.26711532637121999 0 0.0076690296052900724 0.27693250354580262 0 0.01091317381807741 0.25905014045506791 0 0.0076690296052900724 0.27693250354580262 0 0.018322947226873752 0.26690047078938078 0 0.01091317381807741 0.25905014045506791 0 0.0076690296052900724 0.27693250354580262 0 0.01091317381807741 0.25905014045506791 0 0.001175222610432694 0.26711532637121999 0 0.0076690296052900724 0.27693250354580262 0 0.0076690296052900724 0.27693250354580262 0 0.018322947226873752 0.26690047078938078 0 0.029358147941931621 0.27666566830710382 0 0.018322947226873752 0.26690047078938078 0 0.029358147941931621 0.27666566830710382 0 0.025831710512758919 0.25519472312695779 0 0.01091317381807741 0.25905014045506791 0 0.018322947226873752 0.26690047078938078 0 0.018077926120903118 0.25382018488078151 0 0.018322947226873752 0.26690047078938078 0 0.018077926120903118 0.25382018488078151 0 0.025831710512758919 0.25519472312695779 0 0.021164481015940751 0.24678781266816799 0 0.018077926120903118 0.25382018488078151 0 0.025831710512758919 0.25519472312695779 0 0.029358147941931621 0.27666566830710382 0 0.042083917977606862 0.25217215167282159 0 0.029358147941931621 0.27666566830710382 0 0.025831710512758919 0.25519472312695779 0 0.042083917977606862 0.25217215167282159 0 0.029358147941931621 0.27666566830710382 0 0.042083917977606862 0.25217215167282159 0 0.053036081782931177 0.26489586350607602 0 0.057190067116765671 0.28259405307377949 0 0.029358147941931621 0.27666566830710382 0 0.053036081782931177 0.26489586350607602 0 0.057190067116765671 0.28259405307377949 0 0.053036081782931177 0.26489586350607602 0 0.063595814231393266 0.27096362157733428 0 0.058884831997455957 0.24903490134567791 0 0.042083917977606862 0.25217215167282159 0 0.053036081782931177 0.26489586350607602 0 0.058884831997455957 0.24903490134567791 0 0.053036081782931177 0.26489586350607602 0 0.067103711432433752 0.257944785059739 0 0.053036081782931177 0.26489586350607602 0 0.067103711432433752 0.257944785059739 0 0.063595814231393266 0.27096362157733428 0 0.066424776004761571 0.25029972585998589 0 0.067103711432433752 0.257944785059739 0 0.0746409945659324 0.25270526242820202 0 0.067103711432433752 0.257944785059739 0 0.0746409945659324 0.25270526242820202 0 0.08175342764652288 0.2808359976447854 0 0.058884831997455957 0.24903490134567791 0 0.066424776004761571 0.25029972585998589 0 0.067103711432433752 0.257944785059739 0 0.067103711432433752 0.257944785059739 0 0.0746409945659324 0.25270526242820202 0 0.089360594940589538 0.2424729707756024 0 0.085927503214993955 0.25323785896645418 0 0.1022675438358064 0.25544322918707563 0 0.0746409945659324 0.25270526242820202 0 0.085927503214993955 0.25323785896645418 0 0.088565908282143502 0.2638718973577619 0 0.085927503214993955 0.25323785896645418 0 0.088565908282143502 0.2638718973577619 0 0.1022675438358064 0.25544322918707563 0 0.088565908282143502 0.2638718973577619 0 0.08175342764652288 0.2808359976447854 0 0.1037055878672864 0.27442487974102309 0 0.0746409945659324 0.25270526242820202 0 0.088565908282143502 0.2638718973577619 0 0.08175342764652288 0.2808359976447854 0 0.0746409945659324 0.25270526242820202 0 0.08175342764652288 0.2808359976447854 0 0.057190067116765671 0.28259405307377949 0 0.08175342764652288 0.2808359976447854 0 0.063595814231393266 0.27096362157733428 0 0.067103711432433752 0.257944785059739 0 0.08175342764652288 0.2808359976447854 0 0.063595814231393266 0.27096362157733428 0 0.055159544584124122 0.30139945622847308 0 0.057190067116765671 0.28259405307377949 0 0.075930678839808446 0.29820804843206727 0 0.057190067116765671 0.28259405307377949 0 0.08175342764652288 0.2808359976447854 0 0.075930678839808446 0.29820804843206727 0 0.069686096580441656 0.31525240621028078 0 0.055159544584124122 0.30139945622847308 0 0.075930678839808446 0.29820804843206727 0 0.092966415204787961 0.31385792370307902 0 0.069686096580441656 0.31525240621028078 0 0.075930678839808446 0.29820804843206727 0 0.092966415204787961 0.31385792370307902 0 0.075930678839808446 0.29820804843206727 0 0.098828521906208389 0.29530845373200609 0 0.08175342764652288 0.2808359976447854 0 0.075930678839808446 0.29820804843206727 0 0.098828521906208389 0.29530845373200609 0 0.098828521906208389 0.29530845373200609 0 0.1178531451045037 0.29041180469550271 0 0.1037055878672864 0.27442487974102309 0 0.08175342764652288 0.2808359976447854 0 0.098828521906208389 0.29530845373200609 0 0.1037055878672864 0.27442487974102309 0 0.092966415204787961 0.31385792370307902 0 0.098828521906208389 0.29530845373200609 0 0.11624673382913429 0.31246344119587699 0 0.11624673382913429 0.31246344119587699 0 0.1178531451045037 0.29041180469550271 0 0.13217949093936859 0.30242990563857602 0 0.098828521906208389 0.29530845373200609 0 0.11624673382913429 0.31246344119587699 0 0.1178531451045037 0.29041180469550271 0 0.1178531451045037 0.29041180469550271 0 0.12307177671107621 0.27152020961602108 0 0.1329805850631057 0.28508656774951618 0 0.1178531451045037 0.29041180469550271 0 0.12307177671107621 0.27152020961602108 0 0.1037055878672864 0.27442487974102309 0 0.12307177671107621 0.27152020961602108 0 0.1150955108778251 0.26035308432088888 0 0.1037055878672864 0.27442487974102309 0 0.12307177671107621 0.27152020961602108 0 0.1150955108778251 0.26035308432088888 0 0.1301301607238752 0.25543936999925482 0 0.11630248525108119 0.24493773306107011 0 0.1150955108778251 0.26035308432088888 0 0.1301301607238752 0.25543936999925482 0 0.11630248525108119 0.24493773306107011 0 0.1150955108778251 0.26035308432088888 0 0.1022675438358064 0.25544322918707563 0 0.088565908282143502 0.2638718973577619 0 0.1022675438358064 0.25544322918707563 0 0.1037055878672864 0.27442487974102309 0 0.1150955108778251 0.26035308432088888 0 0.1022675438358064 0.25544322918707563 0 0.1037055878672864 0.27442487974102309 0 0.152492576151808 0.26853790771899633 0 0.15455737145803661 0.29433245536198732 0 0.161266314608767 0.28081550468564159 0 0.152492576151808 0.26853790771899633 0 0.1379080471241188 0.26979557781552149 0 0.14404932562405731 0.28227704640994589 0 0.15042778084557951 0.24274336007600539 0 0.152492576151808 0.26853790771899633 0 0.15042778084557951 0.24274336007600539 0 0.152492576151808 0.26853790771899633 0 0.14243846378372199 0.25665963047529111 0 0.152492576151808 0.26853790771899633 0 0.14243846378372199 0.25665963047529111 0 0.1379080471241188 0.26979557781552149 0 0.14243846378372199 0.25665963047529111 0 0.1301301607238752 0.25543936999925482 0 0.1379080471241188 0.26979557781552149 0 0.12307177671107621 0.27152020961602108 0 0.1301301607238752 0.25543936999925482 0 0.1379080471241188 0.26979557781552149 0 0.1405767786242699 0.24638484977982961 0 0.14243846378372199 0.25665963047529111 0 0.1301301607238752 0.25543936999925482 0 0.1379080471241188 0.26979557781552149 0 0.1329805850631057 0.28508656774951618 0 0.14404932562405731 0.28227704640994589 0 0.12307177671107621 0.27152020961602108 0 0.1379080471241188 0.26979557781552149 0 0.1329805850631057 0.28508656774951618 0 0.1178531451045037 0.29041180469550271 0 0.1329805850631057 0.28508656774951618 0 0.13217949093936859 0.30242990563857602 0 0.1329805850631057 0.28508656774951618 0 0.13217949093936859 0.30242990563857602 0 0.1423198321242285 0.29372352987229788 0 0.1329805850631057 0.28508656774951618 0 0.14404932562405731 0.28227704640994589 0 0.1423198321242285 0.29372352987229788 0 0.13217949093936859 0.30242990563857602 0 0.1444602823164535 0.30642977159986612 0 0.13662255029636799 0.32153596412149132 0 0.11624673382913429 0.31246344119587699 0 0.13217949093936859 0.30242990563857602 0 0.13662255029636799 0.32153596412149132 0 0.13217949093936859 0.30242990563857602 0 0.1444602823164535 0.30642977159986612 0 0.1423198321242285 0.29372352987229788 0 0.1444602823164535 0.30642977159986612 0 0.15455737145803661 0.29433245536198732 0 0.15662216676426599 0.32012700300497798 0 0.15455737145803661 0.29433245536198732 0 0.15662216676426599 0.32012700300497798 0 0.1444602823164535 0.30642977159986612 0 0.1423198321242285 0.29372352987229788 0 0.15455737145803661 0.29433245536198732 0 0.152492576151808 0.26853790771899633 0 0.14404932562405731 0.28227704640994589 0 0.15455737145803661 0.29433245536198732 0 0.152492576151808 0.26853790771899633 0 0.15455737145803661 0.29433245536198732 0 0.14404932562405731 0.28227704640994589 0 0.1423198321242285 0.29372352987229788 0 0.15455737145803661 0.29433245536198732 0 0.15455737145803661 0.29433245536198732 0 0.16429455735884049 0.29179028565475601 0 0.161266314608767 0.28081550468564159 0 0.15455737145803661 0.29433245536198732 0 0.16429455735884049 0.29179028565475601 0 0.16783640990800569 0.30120998292203321 0 0.16429455735884049 0.29179028565475601 0 0.16783640990800569 0.30120998292203321 0 0.17395759757081419 0.28897940146130929 0 0.16429455735884049 0.29179028565475601 0 0.17395759757081419 0.28897940146130929 0 0.161266314608767 0.28081550468564159 0 0.16783640990800569 0.30120998292203321 0 0.15662216676426599 0.32012700300497798 0 0.15455737145803661 0.29433245536198732 0 0.16783640990800569 0.30120998292203321 0 0.15662216676426599 0.32012700300497798 0 0.17395759757081419 0.28897940146130929 0 0.19870773202656941 0.29847665041000532 0 0.1817385068353316 0.31610704816194329 0 0.17395759757081419 0.28897940146130929 0 0.1817385068353316 0.31610704816194329 0 0.16783640990800569 0.30120998292203321 0 0.1817385068353316 0.31610704816194329 0 0.16939028703161491 0.31711015028920708 0 0.16783640990800569 0.30120998292203321 0 0.17395759757081419 0.28897940146130929 0 0.1817385068353316 0.31610704816194329 0 0.17395759757081419 0.28897940146130929 0 0.18007966176828349 0.2730407881982958 0 0.16617668830629681 0.26185175476067513 0 0.18007966176828349 0.2730407881982958 0 0.192964362053549 0.27904748742741631 0 0.18834487513888559 0.26826350951184319 0 0.17395759757081419 0.28897940146130929 0 0.18007966176828349 0.2730407881982958 0 0.192964362053549 0.27904748742741631 0 0.18007966176828349 0.2730407881982958 0 0.1785985215944271 0.26268263928504959 0 0.18834487513888559 0.26826350951184319 0 0.18007966176828349 0.2730407881982958 0 0.16617668830629681 0.26185175476067513 0 0.1785985215944271 0.26268263928504959 0 0.152492576151808 0.26853790771899633 0 0.161266314608767 0.28081550468564159 0 0.16617668830629681 0.26185175476067513 0 0.17395759757081419 0.28897940146130929 0 0.16617668830629681 0.26185175476067513 0 0.17395759757081419 0.28897940146130929 0 0.161266314608767 0.28081550468564159 0 0.16617668830629681 0.26185175476067513 0 0.17144920521600379 0.24579744385641741 0 0.16617668830629681 0.26185175476067513 0 0.17405273969994181 0.25578994206977151 0 0.15042778084557951 0.24274336007600539 0 0.152492576151808 0.26853790771899633 0 0.16617668830629681 0.26185175476067513 0 0.17144920521600379 0.24579744385641741 0 0.17405273969994181 0.25578994206977151 0 0.17998654368303951 0.25282793037694401 0 0.17405273969994181 0.25578994206977151 0 0.1785985215944271 0.26268263928504959 0 0.17998654368303951 0.25282793037694401 0 0.16617668830629681 0.26185175476067513 0 0.17405273969994181 0.25578994206977151 0 0.1785985215944271 0.26268263928504959 0 0.1785985215944271 0.26268263928504959 0 0.18505484043598949 0.25950216147948652 0 0.18834487513888559 0.26826350951184319 0 0.1785985215944271 0.26268263928504959 0 0.18505484043598949 0.25950216147948652 0 0.17998654368303951 0.25282793037694401 0 0.18505484043598949 0.25950216147948652 0 0.17998654368303951 0.25282793037694401 0 0.18729507008855181 0.25187831683237127 0 0.18418183736045379 0.24854992262481859 0 0.17998654368303951 0.25282793037694401 0 0.18729507008855181 0.25187831683237127 0 0.18729507008855181 0.25187831683237127 0 0.19332425198665271 0.25032023723366742 0 0.19227740876145841 0.25709671305533632 0 0.18505484043598949 0.25950216147948652 0 0.18729507008855181 0.25187831683237127 0 0.19227740876145841 0.25709671305533632 0 0.19227740876145841 0.25709671305533632 0 0.18834487513888559 0.26826350951184319 0 0.20113530824130521 0.26648231421845697 0 0.18505484043598949 0.25950216147948652 0 0.19227740876145841 0.25709671305533632 0 0.18834487513888559 0.26826350951184319 0 0.19227740876145841 0.25709671305533632 0 0.20191632565252821 0.25320502586579718 0 0.20113530824130521 0.26648231421845697 0 0.19332425198665271 0.25032023723366742 0 0.19227740876145841 0.25709671305533632 0 0.20191632565252821 0.25320502586579718 0 0.192964362053549 0.27904748742741631 0 0.18834487513888559 0.26826350951184319 0 0.20113530824130521 0.26648231421845697 0 0.20113530824130521 0.26648231421845697 0 0.2155609975754359 0.27904226076458688 0 0.21539161608852939 0.25785974014057689 0 0.192964362053549 0.27904748742741631 0 0.20113530824130521 0.26648231421845697 0 0.2155609975754359 0.27904226076458688 0 0.20191632565252821 0.25320502586579718 0 0.20113530824130521 0.26648231421845697 0 0.21539161608852939 0.25785974014057689 0 0.2289881774355563 0.24559411755063551 0 0.21539161608852939 0.25785974014057689 0 0.23355711414969799 0.27510354325069009 0 0.2155609975754359 0.27904226076458688 0 0.21539161608852939 0.25785974014057689 0 0.23355711414969799 0.27510354325069009 0 0.23355711414969799 0.27510354325069009 0 0.2467802367594808 0.26227690160701139 0 0.24905991139876851 0.2850552760074978 0 0.2467802367594808 0.26227690160701139 0 0.24905991139876851 0.2850552760074978 0 0.24450056212019311 0.2394985272065252 0 0.2467802367594808 0.26227690160701139 0 0.2289881774355563 0.24559411755063551 0 0.23355711414969799 0.27510354325069009 0 0.2467802367594808 0.26227690160701139 0 0.2155609975754359 0.27904226076458688 0 0.23355711414969799 0.27510354325069009 0 0.22588373148422219 0.30683587351320513 0 0.23355711414969799 0.27510354325069009 0 0.24905991139876851 0.2850552760074978 0 0.22588373148422219 0.30683587351320513 0 0.24905991139876851 0.2850552760074978 0 0.22588373148422219 0.30683587351320513 0 0.25133958603805617 0.30783365040798399 0 0.2155609975754359 0.27904226076458688 0 0.22588373148422219 0.30683587351320513 0 0.22588373148422219 0.30683587351320513 0 0.19870773202656941 0.29847665041000532 0 0.20184847554171009 0.31767092860636009 0 0.2155609975754359 0.27904226076458688 0 0.22588373148422219 0.30683587351320513 0 0.19870773202656941 0.29847665041000532 0 0.192964362053549 0.27904748742741631 0 0.2155609975754359 0.27904226076458688 0 0.19870773202656941 0.29847665041000532 0 0.17395759757081419 0.28897940146130929 0 0.192964362053549 0.27904748742741631 0 0.19870773202656941 0.29847665041000532 0 0.19870773202656941 0.29847665041000532 0 0.20184847554171009 0.31767092860636009 0 0.1817385068353316 0.31610704816194329 0 0.20184847554171009 0.31767092860636009 0 0.1895194160998489 0.34323469486257729 0 0.1817385068353316 0.31610704816194329 0 0.20184847554171009 0.31767092860636009 0 0.1895194160998489 0.34323469486257729 0 0.21394708691225789 0.33418396137824868 0 0.1895194160998489 0.34323469486257729 0 0.21394708691225789 0.33418396137824868 0 0.2076904550193199 0.35281021597214313 0 0.22588373148422219 0.30683587351320513 0 0.20184847554171009 0.31767092860636009 0 0.21394708691225789 0.33418396137824868 0 0.22588373148422219 0.30683587351320513 0 0.23620646539300849 0.33462948626182337 0 0.22588373148422219 0.30683587351320513 0 0.21394708691225789 0.33418396137824868 0 0.23620646539300849 0.33462948626182337 0 0.21394708691225789 0.33418396137824868 0 0.23620646539300849 0.33462948626182337 0 0.22438706129187069 0.35315993434715481 0 0.23620646539300849 0.33462948626182337 0 0.24354501830763831 0.32781182662803737 0 0.26237150713603202 0.34681822066079743 0 0.24354501830763831 0.32781182662803737 0 0.25361926067734392 0.33061202480847018 0 0.25133958603805617 0.30783365040798399 0 0.22588373148422219 0.30683587351320513 0 0.23620646539300849 0.33462948626182337 0 0.24354501830763831 0.32781182662803737 0 0.22588373148422219 0.30683587351320513 0 0.24354501830763831 0.32781182662803737 0 0.25133958603805617 0.30783365040798399 0 0.2465291993017947 0.36242309901044151 0 0.23253194718413239 0.36715771003997449 0 0.2468980379460359 0.38265756576334092 0 0.2465291993017947 0.36242309901044151 0 0.22438706129187069 0.35315993434715481 0 0.23253194718413239 0.36715771003997449 0 0.23620646539300849 0.33462948626182337 0 0.2465291993017947 0.36242309901044151 0 0.26237150713603202 0.34681822066079743 0 0.23620646539300849 0.33462948626182337 0 0.2465291993017947 0.36242309901044151 0 0.23620646539300849 0.33462948626182337 0 0.2465291993017947 0.36242309901044151 0 0.22438706129187069 0.35315993434715481 0 0.22438706129187069 0.35315993434715481 0 0.23253194718413239 0.36715771003997449 0 0.216877465982939 0.36718038625711769 0 0.23253194718413239 0.36715771003997449 0 0.216877465982939 0.36718038625711769 0 0.22675754388460309 0.3792168004032907 0 0.216877465982939 0.36718038625711769 0 0.19730032536436631 0.37036234156321141 0 0.21424819293602529 0.38342525508493502 0 0.216877465982939 0.36718038625711769 0 0.2076904550193199 0.35281021597214313 0 0.19730032536436631 0.37036234156321141 0 0.21394708691225789 0.33418396137824868 0 0.22438706129187069 0.35315993434715481 0 0.2076904550193199 0.35281021597214313 0 0.22438706129187069 0.35315993434715481 0 0.216877465982939 0.36718038625711769 0 0.2076904550193199 0.35281021597214313 0 0.1895194160998489 0.34323469486257729 0 0.2076904550193199 0.35281021597214313 0 0.19730032536436631 0.37036234156321141 0 0.1895194160998489 0.34323469486257729 0 0.19730032536436631 0.37036234156321141 0 0.19730032536436631 0.37036234156321141 0 0.17534127266305041 0.35393032851101142 0 0.17553274854984899 0.3751879371232506 0 0.16001333197549961 0.36249128596444441 0 0.17534127266305041 0.35393032851101142 0 0.17553274854984899 0.3751879371232506 0 0.16001333197549961 0.36249128596444441 0 0.16170891458111691 0.38367342744417748 0 0.17553274854984899 0.3751879371232506 0 0.16001333197549961 0.36249128596444441 0 0.16170891458111691 0.38367342744417748 0 0.16001333197549961 0.36249128596444441 0 0.15831774936988241 0.34130914448471122 0 0.16001333197549961 0.36249128596444441 0 0.17534127266305041 0.35393032851101142 0 0.15831774936988241 0.34130914448471122 0 0.1895194160998489 0.34323469486257729 0 0.19730032536436631 0.37036234156321141 0 0.17534127266305041 0.35393032851101142 0 0.1895194160998489 0.34323469486257729 0 0.1817385068353316 0.31610704816194329 0 0.1895194160998489 0.34323469486257729 0 0.1817385068353316 0.31610704816194329 0 0.17136406461885609 0.330996567067874 0 0.1895194160998489 0.34323469486257729 0 0.17534127266305041 0.35393032851101142 0 0.17136406461885609 0.330996567067874 0 0.1817385068353316 0.31610704816194329 0 0.16939028703161491 0.31711015028920708 0 0.17136406461885609 0.330996567067874 0 0.16783640990800569 0.30120998292203321 0 0.16939028703161491 0.31711015028920708 0 0.15662216676426599 0.32012700300497798 0 0.16939028703161491 0.31711015028920708 0 0.15662216676426599 0.32012700300497798 0 0.17136406461885609 0.330996567067874 0 0.17534127266305041 0.35393032851101142 0 0.15831774936988241 0.34130914448471122 0 0.17136406461885609 0.330996567067874 0 0.15662216676426599 0.32012700300497798 0 0.15831774936988241 0.34130914448471122 0 0.15662216676426599 0.32012700300497798 0 0.15831774936988241 0.34130914448471122 0 0.17136406461885609 0.330996567067874 0 0.15662216676426599 0.32012700300497798 0 0.14242898245503061 0.34406912278759449 0 0.15662216676426599 0.32012700300497798 0 0.15831774936988241 0.34130914448471122 0 0.14242898245503061 0.34406912278759449 0 0.15662216676426599 0.32012700300497798 0 0.13662255029636799 0.32153596412149132 0 0.14242898245503061 0.34406912278759449 0 0.1444602823164535 0.30642977159986612 0 0.15662216676426599 0.32012700300497798 0 0.13662255029636799 0.32153596412149132 0 0.12373770727037579 0.33792003093947293 0 0.11624673382913429 0.31246344119587699 0 0.13662255029636799 0.32153596412149132 0 0.12373770727037579 0.33792003093947293 0 0.13662255029636799 0.32153596412149132 0 0.14242898245503061 0.34406912278759449 0 0.12823579814579411 0.36801124257021028 0 0.1433501757066892 0.36079322489306032 0 0.14242898245503061 0.34406912278759449 0 0.12823579814579411 0.36801124257021028 0 0.14242898245503061 0.34406912278759449 0 0.12373770727037579 0.33792003093947293 0 0.12823579814579411 0.36801124257021028 0 0.14242898245503061 0.34406912278759449 0 0.12823579814579411 0.36801124257021028 0 0.1433501757066892 0.36079322489306032 0 0.13983152740781929 0.38553671352882862 0 0.16001333197549961 0.36249128596444441 0 0.1433501757066892 0.36079322489306032 0 0.16170891458111691 0.38367342744417748 0 0.16001333197549961 0.36249128596444441 0 0.15831774936988241 0.34130914448471122 0 0.1433501757066892 0.36079322489306032 0 0.15831774936988241 0.34130914448471122 0 0.1433501757066892 0.36079322489306032 0 0.14242898245503061 0.34406912278759449 0 0.14891704754392801 0.40165545721319879 0 0.13983152740781929 0.38553671352882862 0 0.1332662305792526 0.40308709976076962 0 0.14891704754392801 0.40165545721319879 0 0.13983152740781929 0.38553671352882862 0 0.16170891458111691 0.38367342744417748 0 0.1433501757066892 0.36079322489306032 0 0.13983152740781929 0.38553671352882862 0 0.16170891458111691 0.38367342744417748 0 0.1140426138365577 0.39195336235282618 0 0.12823579814579411 0.36801124257021028 0 0.13983152740781929 0.38553671352882862 0 0.14891704754392801 0.40165545721319879 0 0.1332662305792526 0.40308709976076962 0 0.13721220174360921 0.41331605295934909 0 0.1140426138365577 0.39195336235282618 0 0.13983152740781929 0.38553671352882862 0 0.1332662305792526 0.40308709976076962 0 0.13721220174360921 0.41331605295934909 0 0.12853919797931479 0.42933085320764403 0 0.15405321019583659 0.4187172315597088 0 0.1212853224197144 0.41378962305542483 0 0.1332662305792526 0.40308709976076962 0 0.13721220174360921 0.41331605295934909 0 0.1212853224197144 0.41378962305542483 0 0.13721220174360921 0.41331605295934909 0 0.12853919797931479 0.42933085320764403 0 0.1178386376950837 0.43799059679757352 0 0.14381137268845051 0.42883303712590631 0 0.1344598179703444 0.44356653024274412 0 0.1178386376950837 0.43799059679757352 0 0.12853919797931479 0.42933085320764403 0 0.14381137268845051 0.42883303712590631 0 0.1178386376950837 0.43799059679757352 0 0.14381137268845051 0.42883303712590631 0 0.14381137268845051 0.42883303712590631 0 0.16079376516839899 0.43488395597998353 0 0.14915926270631299 0.44422869569800111 0 0.14381137268845051 0.42883303712590631 0 0.15405321019583659 0.4187172315597088 0 0.1697841076818172 0.41967547745423889 0 0.12853919797931479 0.42933085320764403 0 0.14381137268845051 0.42883303712590631 0 0.15405321019583659 0.4187172315597088 0 0.12853919797931479 0.42933085320764403 0 0.15405321019583659 0.4187172315597088 0 0.14891704754392801 0.40165545721319879 0 0.15405321019583659 0.4187172315597088 0 0.16353684331839211 0.40226298027676699 0 0.14891704754392801 0.40165545721319879 0 0.13721220174360921 0.41331605295934909 0 0.15405321019583659 0.4187172315597088 0 0.15405321019583659 0.4187172315597088 0 0.17956722241235831 0.40810360991177369 0 0.15405321019583659 0.4187172315597088 0 0.1697841076818172 0.41967547745423889 0 0.17956722241235831 0.40810360991177369 0 0.15405321019583659 0.4187172315597088 0 0.17956722241235831 0.40810360991177369 0 0.16353684331839211 0.40226298027676699 0 0.14381137268845051 0.42883303712590631 0 0.1697841076818172 0.41967547745423889 0 0.14381137268845051 0.42883303712590631 0 0.1697841076818172 0.41967547745423889 0 0.16079376516839899 0.43488395597998353 0 0.1697841076818172 0.41967547745423889 0 0.16079376516839899 0.43488395597998353 0 0.17592079106953831 0.43500306554899643 0 0.1697841076818172 0.41967547745423889 0 0.17592079106953831 0.43500306554899643 0 0.1867662174688289 0.42181739523699802 0 0.17592079106953831 0.43500306554899643 0 0.1867662174688289 0.42181739523699802 0 0.19190972633942671 0.43516865196910592 0 0.17956722241235831 0.40810360991177369 0 0.1867662174688289 0.42181739523699802 0 0.1960580543228678 0.41194563003155632 0 0.1697841076818172 0.41967547745423889 0 0.17956722241235831 0.40810360991177369 0 0.1867662174688289 0.42181739523699802 0 0.17956722241235831 0.40810360991177369 0 0.17422595834132359 0.39523628549666751 0 0.16353684331839211 0.40226298027676699 0 0.17956722241235831 0.40810360991177369 0 0.17422595834132359 0.39523628549666751 0 0.18655327805889479 0.38860307776489489 0 0.17422595834132359 0.39523628549666751 0 0.16353684331839211 0.40226298027676699 0 0.16170891458111691 0.38367342744417748 0 0.14891704754392801 0.40165545721319879 0 0.16353684331839211 0.40226298027676699 0 0.16170891458111691 0.38367342744417748 0 0.17422595834132359 0.39523628549666751 0 0.16170891458111691 0.38367342744417748 0 0.17553274854984899 0.3751879371232506 0 0.19730032536436631 0.37036234156321141 0 0.18655327805889479 0.38860307776489489 0 0.17553274854984899 0.3751879371232506 0 0.17422595834132359 0.39523628549666751 0 0.18655327805889479 0.38860307776489489 0 0.17553274854984899 0.3751879371232506 0 0.19730032536436631 0.37036234156321141 0 0.18655327805889479 0.38860307776489489 0 0.20508123462888281 0.39748998826384552 0 0.19730032536436631 0.37036234156321141 0 0.20508123462888281 0.39748998826384552 0 0.17956722241235831 0.40810360991177369 0 0.18655327805889479 0.38860307776489489 0 0.20508123462888281 0.39748998826384552 0 0.17956722241235831 0.40810360991177369 0 0.20508123462888281 0.39748998826384552 0 0.1960580543228678 0.41194563003155632 0 0.17956722241235831 0.40810360991177369 0 0.20508123462888281 0.39748998826384552 0 0.20508123462888281 0.39748998826384552 0 0.21269123398150941 0.40391940831829037 0 0.20934871774159469 0.41236829750084791 0 0.20508123462888281 0.39748998826384552 0 0.20934871774159469 0.41236829750084791 0 0.21087608488388829 0.39851205480640278 0 0.20508123462888281 0.39748998826384552 0 0.21269123398150941 0.40391940831829037 0 0.21087608488388829 0.39851205480640278 0 0.20742553207498551 0.39651477958587639 0 0.20508123462888281 0.39748998826384552 0 0.20742553207498551 0.39651477958587639 0 0.20508123462888281 0.39748998826384552 0 0.21087608488388829 0.39851205480640278 0 0.20742553207498551 0.39651477958587639 0 0.21636194945222931 0.39570910297677742 0 0.20742553207498551 0.39651477958587639 0 0.21636194945222931 0.39570910297677742 0 0.21424819293602529 0.38342525508493502 0 0.21636194945222931 0.39570910297677742 0 0.21269123398150941 0.40391940831829037 0 0.22061100323555069 0.40743126494983839 0 0.21087608488388829 0.39851205480640278 0 0.21636194945222931 0.39570910297677742 0 0.21269123398150941 0.40391940831829037 0 0.19730032536436631 0.37036234156321141 0 0.20742553207498551 0.39651477958587639 0 0.21424819293602529 0.38342525508493502 0 0.19730032536436631 0.37036234156321141 0 0.20742553207498551 0.39651477958587639 0 0.20508123462888281 0.39748998826384552 0 0.21636194945222931 0.39570910297677742 0 0.21424819293602529 0.38342525508493502 0 0.2240553260964033 0.38838530638411722 0 0.216877465982939 0.36718038625711769 0 0.21424819293602529 0.38342525508493502 0 0.22675754388460309 0.3792168004032907 0 0.22675754388460309 0.3792168004032907 0 0.2341995509472927 0.39018485013907972 0 0.2240553260964033 0.38838530638411722 0 0.21424819293602529 0.38342525508493502 0 0.22675754388460309 0.3792168004032907 0 0.2240553260964033 0.38838530638411722 0 0.21636194945222931 0.39570910297677742 0 0.2240553260964033 0.38838530638411722 0 0.22518533009767769 0.39649286868313421 0 0.22518533009767769 0.39649286868313421 0 0.23347301828487491 0.40448890691811662 0 0.22061100323555069 0.40743126494983839 0 0.21636194945222931 0.39570910297677742 0 0.22518533009767769 0.39649286868313421 0 0.22061100323555069 0.40743126494983839 0 0.2341995509472927 0.39018485013907972 0 0.22518533009767769 0.39649286868313421 0 0.23347301828487491 0.40448890691811662 0 0.2341995509472927 0.39018485013907972 0 0.2240553260964033 0.38838530638411722 0 0.22518533009767769 0.39649286868313421 0 0.2341995509472927 0.39018485013907972 0 0.23347301828487491 0.40448890691811662 0 0.24354224596747959 0.39910090561633849 0 0.24354224596747959 0.39910090561633849 0 0.2468980379460359 0.38265756576334092 0 0.25809741908523109 0.40475902651343199 0 0.2341995509472927 0.39018485013907972 0 0.24354224596747959 0.39910090561633849 0 0.2468980379460359 0.38265756576334092 0 0.23347301828487491 0.40448890691811662 0 0.24354224596747959 0.39910090561633849 0 0.24669526777461431 0.41464958288080089 0 0.24354224596747959 0.39910090561633849 0 0.24669526777461431 0.41464958288080089 0 0.25809741908523109 0.40475902651343199 0 0.23253194718413239 0.36715771003997449 0 0.22675754388460309 0.3792168004032907 0 0.2468980379460359 0.38265756576334092 0 0.22675754388460309 0.3792168004032907 0 0.2341995509472927 0.39018485013907972 0 0.2468980379460359 0.38265756576334092 0 0.2469513405465682 0.43517060341278679 0 0.24669526777461431 0.41464958288080089 0 0.23060471168663429 0.41907396923950829 0 0.23347301828487491 0.40448890691811662 0 0.24669526777461431 0.41464958288080089 0 0.23060471168663429 0.41907396923950829 0 0.23347301828487491 0.40448890691811662 0 0.23060471168663429 0.41907396923950829 0 0.22061100323555069 0.40743126494983839 0 0.23060471168663429 0.41907396923950829 0 0.22061100323555069 0.40743126494983839 0 0.2177496220542873 0.4214889111888 0 0.2469513405465682 0.43517060341278679 0 0.23060471168663429 0.41907396923950829 0 0.22163463825453189 0.43842024292284199 0 0.23060471168663429 0.41907396923950829 0 0.2177496220542873 0.4214889111888 0 0.22163463825453189 0.43842024292284199 0 0.20654903935312471 0.43015078133096363 0 0.2177496220542873 0.4214889111888 0 0.22163463825453189 0.43842024292284199 0 0.20654903935312471 0.43015078133096363 0 0.2177496220542873 0.4214889111888 0 0.20934871774159469 0.41236829750084791 0 0.20654903935312471 0.43015078133096363 0 0.20934871774159469 0.41236829750084791 0 0.19881232409864091 0.42114339596348882 0 0.21269123398150941 0.40391940831829037 0 0.22061100323555069 0.40743126494983839 0 0.20934871774159469 0.41236829750084791 0 0.22061100323555069 0.40743126494983839 0 0.2177496220542873 0.4214889111888 0 0.20934871774159469 0.41236829750084791 0 0.20508123462888281 0.39748998826384552 0 0.20934871774159469 0.41236829750084791 0 0.1960580543228678 0.41194563003155632 0 0.20934871774159469 0.41236829750084791 0 0.1960580543228678 0.41194563003155632 0 0.19881232409864091 0.42114339596348882 0 0.1867662174688289 0.42181739523699802 0 0.1960580543228678 0.41194563003155632 0 0.19881232409864091 0.42114339596348882 0 0.20654903935312471 0.43015078133096363 0 0.19881232409864091 0.42114339596348882 0 0.19190972633942671 0.43516865196910592 0 0.1867662174688289 0.42181739523699802 0 0.19881232409864091 0.42114339596348882 0 0.19190972633942671 0.43516865196910592 0 0.19190972633942671 0.43516865196910592 0 0.19896154115095929 0.45374080280762508 0 0.18141505383596709 0.45008963201572733 0 0.20654903935312471 0.43015078133096363 0 0.19190972633942671 0.43516865196910592 0 0.19896154115095929 0.45374080280762508 0 0.19896154115095929 0.45374080280762508 0 0.1874239257451063 0.46851643350555 0 0.18141505383596709 0.45008963201572733 0 0.19896154115095929 0.45374080280762508 0 0.21230694635191949 0.47947341430761442 0 0.1874239257451063 0.46851643350555 0 0.19896154115095929 0.45374080280762508 0 0.21697079230322569 0.45894682861522818 0 0.21230694635191949 0.47947341430761442 0 0.20654903935312471 0.43015078133096363 0 0.19896154115095929 0.45374080280762508 0 0.22163463825453189 0.43842024292284199 0 0.19896154115095929 0.45374080280762508 0 0.21697079230322569 0.45894682861522818 0 0.22163463825453189 0.43842024292284199 0 0.21697079230322569 0.45894682861522818 0 0.22163463825453189 0.43842024292284199 0 0.21697079230322569 0.45894682861522818 0 0.22163463825453189 0.43842024292284199 0 0.23567002125699901 0.45228569563311249 0 0.21697079230322569 0.45894682861522818 0 0.23567002125699901 0.45228569563311249 0 0.23561677536697709 0.47080488715982499 0 0.23561677536697709 0.47080488715982499 0 0.25781420049840331 0.47792845841470372 0 0.25470465715674712 0.45650703416735539 0 0.23567002125699901 0.45228569563311249 0 0.23561677536697709 0.47080488715982499 0 0.25470465715674712 0.45650703416735539 0 0.2469513405465682 0.43517060341278679 0 0.23567002125699901 0.45228569563311249 0 0.25470465715674712 0.45650703416735539 0 0.2469513405465682 0.43517060341278679 0 0.22163463825453189 0.43842024292284199 0 0.23567002125699901 0.45228569563311249 0 0.23627532914981109 0.5 0 0.23561677536697709 0.47080488715982499 0 0.25781420049840331 0.47792845841470372 0 0.21697079230322569 0.45894682861522818 0 0.23561677536697709 0.47080488715982499 0 0.21230694635191949 0.47947341430761442 0 0.23627532914981109 0.5 0 0.23561677536697709 0.47080488715982499 0 0.21230694635191949 0.47947341430761442 0 0.20764310040061321 0.50000000000000044 0 0.21230694635191949 0.47947341430761442 0 0.18991309439291579 0.48481335676766579 0 0.23627532914981109 0.5 0 0.20764310040061321 0.50000000000000044 0 0.21230694635191949 0.47947341430761442 0 0.20764310040061321 0.50000000000000044 0 0.21230694635191949 0.47947341430761442 0 0.21697079230322569 0.45894682861522818 0 0.21230694635191949 0.47947341430761442 0 0.21230694635191949 0.47947341430761442 0 0.18991309439291579 0.48481335676766579 0 0.1874239257451063 0.46851643350555 0 0.20764310040061321 0.50000000000000044 0 0.18991309439291579 0.48481335676766579 0 0.178983134916155 0.5 0 0.18991309439291579 0.48481335676766579 0 0.178983134916155 0.5 0 0.1632083645507848 0.47607693602516521 0 0.178983134916155 0.5 0 0.1632083645507848 0.47607693602516521 0 0.15032316943169691 0.5 0 0.1632083645507848 0.47607693602516521 0 0.1874239257451063 0.46851643350555 0 0.18991309439291579 0.48481335676766579 0 0.1632083645507848 0.47607693602516521 0 0.1874239257451063 0.46851643350555 0 0.1874239257451063 0.46851643350555 0 0.18141505383596709 0.45008963201572733 0 0.17032856777323219 0.46008514377774901 0 0.1632083645507848 0.47607693602516521 0 0.1874239257451063 0.46851643350555 0 0.17032856777323219 0.46008514377774901 0 0.17592079106953831 0.43500306554899643 0 0.19190972633942671 0.43516865196910592 0 0.18141505383596709 0.45008963201572733 0 0.17592079106953831 0.43500306554899643 0 0.18141505383596709 0.45008963201572733 0 0.1647284988057767 0.44674753053486682 0 0.18141505383596709 0.45008963201572733 0 0.1647284988057767 0.44674753053486682 0 0.17032856777323219 0.46008514377774901 0 0.16079376516839899 0.43488395597998353 0 0.17592079106953831 0.43500306554899643 0 0.1647284988057767 0.44674753053486682 0 0.1647284988057767 0.44674753053486682 0 0.15486699592852601 0.45899518680743562 0 0.14915926270631299 0.44422869569800111 0 0.16079376516839899 0.43488395597998353 0 0.1647284988057767 0.44674753053486682 0 0.14915926270631299 0.44422869569800111 0 0.1632083645507848 0.47607693602516521 0 0.17032856777323219 0.46008514377774901 0 0.15486699592852601 0.45899518680743562 0 0.1647284988057767 0.44674753053486682 0 0.17032856777323219 0.46008514377774901 0 0.15486699592852601 0.45899518680743562 0 0.1632083645507848 0.47607693602516521 0 0.14478232972682831 0.46819482033215548 0 0.15486699592852601 0.45899518680743562 0 0.14478232972682831 0.46819482033215548 0 0.15486699592852601 0.45899518680743562 0 0.13814134526551089 0.45577540645898951 0 0.15486699592852601 0.45899518680743562 0 0.14915926270631299 0.44422869569800111 0 0.13814134526551089 0.45577540645898951 0 0.14381137268845051 0.42883303712590631 0 0.14915926270631299 0.44422869569800111 0 0.1344598179703444 0.44356653024274412 0 0.1178386376950837 0.43799059679757352 0 0.1344598179703444 0.44356653024274412 0 0.1254817450918235 0.45234751992387179 0 0.14915926270631299 0.44422869569800111 0 0.1344598179703444 0.44356653024274412 0 0.13814134526551089 0.45577540645898951 0 0.1344598179703444 0.44356653024274412 0 0.1254817450918235 0.45234751992387179 0 0.13814134526551089 0.45577540645898951 0 0.14478232972682831 0.46819482033215548 0 0.13814134526551089 0.45577540645898951 0 0.1287021395328565 0.46648913382440682 0 0.1254817450918235 0.45234751992387179 0 0.13814134526551089 0.45577540645898951 0 0.1287021395328565 0.46648913382440682 0 0.1181576947241238 0.47625042146557678 0 0.1287021395328565 0.46648913382440682 0 0.13899280335646341 0.48363743854478047 0 0.14478232972682831 0.46819482033215548 0 0.1287021395328565 0.46648913382440682 0 0.13899280335646341 0.48363743854478047 0 0.1147772421621417 0.49119794106439479 0 0.1216632039472386 0.49999999999999961 0 0.13899280335646341 0.48363743854478047 0 0.1216632039472386 0.49999999999999961 0 0.13899280335646341 0.48363743854478047 0 0.15032316943169691 0.5 0 0.1147772421621417 0.49119794106439479 0 0.13899280335646341 0.48363743854478047 0 0.1632083645507848 0.47607693602516521 0 0.13899280335646341 0.48363743854478047 0 0.15032316943169691 0.5 0 0.1632083645507848 0.47607693602516521 0 0.14478232972682831 0.46819482033215548 0 0.13899280335646341 0.48363743854478047 0 0.1632083645507848 0.47607693602516521 0 0.13899280335646341 0.48363743854478047 0 0.34574096374529822 0.48528581116936392 0 0.36526014879238239 0.48951875205955808 0 0.36029916421402708 0.47472016563972691 0 0.34574096374529822 0.48528581116936392 0 0.36029916421402708 0.47472016563972691 0 0.33030105979922858 0.47628382010960563 0 0.36029916421402708 0.47472016563972691 0 0.33030105979922858 0.47628382010960563 0 0.34574096374529822 0.48528581116936392 0 0.35080424414660238 0.5 0 0.36526014879238239 0.48951875205955808 0 0.35080424414660238 0.5 0 0.36526014879238239 0.48951875205955808 0 0.37943647289580018 0.5 0 0.36526014879238239 0.48951875205955808 0 0.36029916421402708 0.47472016563972691 0 0.38298698832404993 0.48815828868368899 0 0.36029916421402708 0.47472016563972691 0 0.37237747332808169 0.46572209650630919 0 0.37995238250141139 0.47369573948940441 0 0.36029916421402708 0.47472016563972691 0 0.37995238250141139 0.47369573948940441 0 0.36029916421402708 0.47472016563972691 0 0.37995238250141139 0.47369573948940441 0 0.38298698832404993 0.48815828868368899 0 0.36029916421402708 0.47472016563972691 0 0.38298698832404993 0.48815828868368899 0 0.36029916421402708 0.47472016563972691 0 0.37237747332808169 0.46572209650630919 0 0.36829772544362538 0.45483070092801098 0 0.36029916421402708 0.47472016563972691 0 0.36829772544362538 0.45483070092801098 0 0.35099184293548968 0.44873296104991572 0 0.37237747332808169 0.46572209650630919 0 0.36829772544362538 0.45483070092801098 0 0.38099170029244911 0.46181461501511772 0 0.36829772544362538 0.45483070092801098 0 0.35099184293548968 0.44873296104991572 0 0.37396840496237682 0.42971852199005989 0 0.36029916421402708 0.47472016563972691 0 0.35099184293548968 0.44873296104991572 0 0.33759801899204339 0.46127415242786202 0 0.36029916421402708 0.47472016563972691 0 0.33759801899204339 0.46127415242786202 0 0.33759801899204339 0.46127415242786202 0 0.3165434556100995 0.46403490967778482 0 0.33030105979922858 0.47628382010960563 0 0.33759801899204339 0.46127415242786202 0 0.33570030479826402 0.43859171544574771 0 0.31489687377005998 0.4478281392159964 0 0.35099184293548968 0.44873296104991572 0 0.33759801899204339 0.46127415242786202 0 0.33570030479826402 0.43859171544574771 0 0.33759801899204339 0.46127415242786202 0 0.31489687377005998 0.4478281392159964 0 0.33759801899204339 0.46127415242786202 0 0.31489687377005998 0.4478281392159964 0 0.3165434556100995 0.46403490967778482 0 0.33030105979922858 0.47628382010960563 0 0.30030295538443003 0.47784747457948512 0 0.3165434556100995 0.46403490967778482 0 0.33030105979922858 0.47628382010960563 0 0.30030295538443003 0.47784747457948512 0 0.36029916421402708 0.47472016563972691 0 0.33759801899204339 0.46127415242786202 0 0.33030105979922858 0.47628382010960563 0 0.34574096374529822 0.48528581116936392 0 0.33030105979922858 0.47628382010960563 0 0.3221720153974047 0.5 0 0.34574096374529822 0.48528581116936392 0 0.35080424414660238 0.5 0 0.3221720153974047 0.5 0 0.33030105979922858 0.47628382010960563 0 0.3221720153974047 0.5 0 0.30030295538443003 0.47784747457948512 0 0.3221720153974047 0.5 0 0.30030295538443003 0.47784747457948512 0 0.29353978664820701 0.5 0 0.30030295538443003 0.47784747457948512 0 0.27840365481868462 0.48223036595456831 0 0.27884790144093557 0.46086913747294511 0 0.30030295538443003 0.47784747457948512 0 0.29353978664820701 0.5 0 0.27840365481868462 0.48223036595456831 0 0.27840365481868462 0.48223036595456831 0 0.25781420049840331 0.47792845841470372 0 0.26490755789900899 0.5 0 0.29353978664820701 0.5 0 0.27840365481868462 0.48223036595456831 0 0.26490755789900899 0.5 0 0.27840365481868462 0.48223036595456831 0 0.25781420049840331 0.47792845841470372 0 0.27884790144093557 0.46086913747294511 0 0.23627532914981109 0.5 0 0.25781420049840331 0.47792845841470372 0 0.26490755789900899 0.5 0 0.2469513405465682 0.43517060341278679 0 0.25470465715674712 0.45650703416735539 0 0.26843884220368419 0.44157300276989669 0 0.25781420049840331 0.47792845841470372 0 0.25470465715674712 0.45650703416735539 0 0.27884790144093557 0.46086913747294511 0 0.27884790144093557 0.46086913747294511 0 0.26843884220368419 0.44157300276989669 0 0.29219572854807668 0.43438212600413079 0 0.25470465715674712 0.45650703416735539 0 0.27884790144093557 0.46086913747294511 0 0.26843884220368419 0.44157300276989669 0 0.27884790144093557 0.46086913747294511 0 0.29961837010473541 0.45694096205597479 0 0.29219572854807668 0.43438212600413079 0 0.30030295538443003 0.47784747457948512 0 0.27884790144093557 0.46086913747294511 0 0.29961837010473541 0.45694096205597479 0 0.3165434556100995 0.46403490967778482 0 0.30030295538443003 0.47784747457948512 0 0.29961837010473541 0.45694096205597479 0 0.31489687377005998 0.4478281392159964 0 0.3165434556100995 0.46403490967778482 0 0.29961837010473541 0.45694096205597479 0 0.31489687377005998 0.4478281392159964 0 0.29219572854807668 0.43438212600413079 0 0.31489687377005998 0.4478281392159964 0 0.29961837010473541 0.45694096205597479 0 0.29219572854807668 0.43438212600413079 0 0.31489687377005998 0.4478281392159964 0 0.29219572854807668 0.43438212600413079 0 0.32021003895986122 0.41843869394038641 0 0.29559429686062211 0.40712857632544391 0 0.29219572854807668 0.43438212600413079 0 0.32021003895986122 0.41843869394038641 0 0.29559429686062211 0.40712857632544391 0 0.29219572854807668 0.43438212600413079 0 0.26949458332609338 0.42093611279226528 0 0.26843884220368419 0.44157300276989669 0 0.29219572854807668 0.43438212600413079 0 0.26949458332609338 0.42093611279226528 0 0.29219572854807668 0.43438212600413079 0 0.26949458332609338 0.42093611279226528 0 0.29559429686062211 0.40712857632544391 0 0.26949458332609338 0.42093611279226528 0 0.27279849908782527 0.39136647414911641 0 0.24669526777461431 0.41464958288080089 0 0.26949458332609338 0.42093611279226528 0 0.25809741908523109 0.40475902651343199 0 0.2469513405465682 0.43517060341278679 0 0.24669526777461431 0.41464958288080089 0 0.26949458332609338 0.42093611279226528 0 0.2469513405465682 0.43517060341278679 0 0.26843884220368419 0.44157300276989669 0 0.26949458332609338 0.42093611279226528 0 0.2468980379460359 0.38265756576334092 0 0.27279849908782527 0.39136647414911641 0 0.26226429353169128 0.37062612208199569 0 0.2468980379460359 0.38265756576334092 0 0.25809741908523109 0.40475902651343199 0 0.27279849908782527 0.39136647414911641 0 0.26949458332609338 0.42093611279226528 0 0.25809741908523109 0.40475902651343199 0 0.27279849908782527 0.39136647414911641 0 0.27279849908782527 0.39136647414911641 0 0.2811979959644258 0.36582461469355743 0 0.26226429353169128 0.37062612208199569 0 0.30002448479281951 0.38483100872631709 0 0.2811979959644258 0.36582461469355743 0 0.27279849908782527 0.39136647414911641 0 0.30002448479281951 0.38483100872631709 0 0.2811979959644258 0.36582461469355743 0 0.29559429686062211 0.40712857632544391 0 0.27279849908782527 0.39136647414911641 0 0.30002448479281951 0.38483100872631709 0 0.29559429686062211 0.40712857632544391 0 0.31884244644905702 0.39281704234044768 0 0.32021003895986122 0.41843869394038641 0 0.29559429686062211 0.40712857632544391 0 0.30002448479281951 0.38483100872631709 0 0.31884244644905702 0.39281704234044768 0 0.30002448479281951 0.38483100872631709 0 0.31884244644905702 0.39281704234044768 0 0.32822961409562418 0.37122624137395432 0 0.33866497970813958 0.39776788708131722 0 0.35107517699280888 0.37705299935020159 0 0.32822961409562418 0.37122624137395432 0 0.33866497970813958 0.39776788708131722 0 0.31884244644905702 0.39281704234044768 0 0.32822961409562418 0.37122624137395432 0 0.33866497970813958 0.39776788708131722 0 0.31884244644905702 0.39281704234044768 0 0.32021003895986122 0.41843869394038641 0 0.33866497970813958 0.39776788708131722 0 0.32021003895986122 0.41843869394038641 0 0.35213577043649019 0.42284466061433412 0 0.33570030479826402 0.43859171544574771 0 0.32021003895986122 0.41843869394038641 0 0.35213577043649019 0.42284466061433412 0 0.33570030479826402 0.43859171544574771 0 0.31489687377005998 0.4478281392159964 0 0.32021003895986122 0.41843869394038641 0 0.35213577043649019 0.42284466061433412 0 0.36310001930315627 0.39733289136209982 0 0.35099184293548968 0.44873296104991572 0 0.33570030479826402 0.43859171544574771 0 0.35213577043649019 0.42284466061433412 0 0.35099184293548968 0.44873296104991572 0 0.35213577043649019 0.42284466061433412 0 0.37396840496237682 0.42971852199005989 0 0.35213577043649019 0.42284466061433412 0 0.36980503948265581 0.41190817844781941 0 0.36310001930315627 0.39733289136209982 0 0.35213577043649019 0.42284466061433412 0 0.37396840496237682 0.42971852199005989 0 0.36980503948265581 0.41190817844781941 0 0.36980503948265581 0.41190817844781941 0 0.36310001930315627 0.39733289136209982 0 0.37556947280087688 0.39818871287306778 0 0.36310001930315627 0.39733289136209982 0 0.37157090520972502 0.38697294812269661 0 0.37556947280087688 0.39818871287306778 0 0.36310001930315627 0.39733289136209982 0 0.35107517699280888 0.37705299935020159 0 0.37406426816982241 0.37182112210986568 0 0.36310001930315627 0.39733289136209982 0 0.37406426816982241 0.37182112210986568 0 0.36310001930315627 0.39733289136209982 0 0.37157090520972502 0.38697294812269661 0 0.37406426816982241 0.37182112210986568 0 0.33866497970813958 0.39776788708131722 0 0.36310001930315627 0.39733289136209982 0 0.35107517699280888 0.37705299935020159 0 0.33866497970813958 0.39776788708131722 0 0.35213577043649019 0.42284466061433412 0 0.36310001930315627 0.39733289136209982 0 0.35840070130565199 0.34997740748845252 0 0.36007517670434752 0.36397031106310762 0 0.34094099381078291 0.3558105261275647 0 0.35840070130565199 0.34997740748845252 0 0.35196382586864899 0.33260553322647052 0 0.34094099381078291 0.3558105261275647 0 0.35107517699280888 0.37705299935020159 0 0.36007517670434752 0.36397031106310762 0 0.34094099381078291 0.3558105261275647 0 0.37406426816982241 0.37182112210986568 0 0.36007517670434752 0.36397031106310762 0 0.36963859509691299 0.3544613380413914 0 0.35107517699280888 0.37705299935020159 0 0.37406426816982241 0.37182112210986568 0 0.36007517670434752 0.36397031106310762 0 0.35840070130565199 0.34997740748845252 0 0.36963859509691299 0.3544613380413914 0 0.37115581412454329 0.33688625313412512 0 0.35840070130565199 0.34997740748845252 0 0.36007517670434752 0.36397031106310762 0 0.36963859509691299 0.3544613380413914 0 0.35840070130565199 0.34997740748845252 0 0.37115581412454329 0.33688625313412512 0 0.35196382586864899 0.33260553322647052 0 0.37115581412454329 0.33688625313412512 0 0.36591047953640332 0.31716630358540809 0 0.35196382586864899 0.33260553322647052 0 0.36591047953640332 0.31716630358540809 0 0.35196382586864899 0.33260553322647052 0 0.33937759735429379 0.3102164537974666 0 0.35196382586864899 0.33260553322647052 0 0.33427775698627832 0.33812081637909608 0 0.34094099381078291 0.3558105261275647 0 0.33427775698627832 0.33812081637909608 0 0.33937759735429379 0.3102164537974666 0 0.35196382586864899 0.33260553322647052 0 0.33427775698627832 0.33812081637909608 0 0.33937759735429379 0.3102164537974666 0 0.33427775698627832 0.33812081637909608 0 0.32211345593765628 0.32147944341774742 0 0.33937759735429379 0.3102164537974666 0 0.33427775698627832 0.33812081637909608 0 0.32211345593765628 0.32147944341774742 0 0.31486491907953362 0.34635965672119601 0 0.32211345593765628 0.32147944341774742 0 0.31486491907953362 0.34635965672119601 0 0.3015002240634429 0.32149307206843769 0 0.31486491907953362 0.34635965672119601 0 0.32822961409562418 0.37122624137395432 0 0.31486491907953362 0.34635965672119601 0 0.34094099381078291 0.3558105261275647 0 0.32822961409562418 0.37122624137395432 0 0.33427775698627832 0.33812081637909608 0 0.31486491907953362 0.34635965672119601 0 0.34094099381078291 0.3558105261275647 0 0.35107517699280888 0.37705299935020159 0 0.34094099381078291 0.3558105261275647 0 0.32822961409562418 0.37122624137395432 0 0.31486491907953362 0.34635965672119601 0 0.32822961409562418 0.37122624137395432 0 0.30240095489549312 0.36364969284850313 0 0.30002448479281951 0.38483100872631709 0 0.32822961409562418 0.37122624137395432 0 0.30240095489549312 0.36364969284850313 0 0.31486491907953362 0.34635965672119601 0 0.30240095489549312 0.36364969284850313 0 0.28552317422330042 0.33981326774965409 0 0.30240095489549312 0.36364969284850313 0 0.2811979959644258 0.36582461469355743 0 0.28552317422330042 0.33981326774965409 0 0.30002448479281951 0.38483100872631709 0 0.30240095489549312 0.36364969284850313 0 0.2811979959644258 0.36582461469355743 0 0.2811979959644258 0.36582461469355743 0 0.26237150713603202 0.34681822066079743 0 0.26226429353169128 0.37062612208199569 0 0.2811979959644258 0.36582461469355743 0 0.26237150713603202 0.34681822066079743 0 0.28552317422330042 0.33981326774965409 0 0.2811979959644258 0.36582461469355743 0 0.26237150713603202 0.34681822066079743 0 0.2465291993017947 0.36242309901044151 0 0.2468980379460359 0.38265756576334092 0 0.26226429353169128 0.37062612208199569 0 0.2465291993017947 0.36242309901044151 0 0.26237150713603202 0.34681822066079743 0 0.26226429353169128 0.37062612208199569 0 0.26250773536951361 0.31822916552873309 0 0.25361926067734392 0.33061202480847018 0 0.25133958603805617 0.30783365040798399 0 0.26250773536951361 0.31822916552873309 0 0.25361926067734392 0.33061202480847018 0 0.26960257765838852 0.33244659301092072 0 0.25361926067734392 0.33061202480847018 0 0.25133958603805617 0.30783365040798399 0 0.26237150713603202 0.34681822066079743 0 0.25361926067734392 0.33061202480847018 0 0.26960257765838852 0.33244659301092072 0 0.24354501830763831 0.32781182662803737 0 0.26237150713603202 0.34681822066079743 0 0.24354501830763831 0.32781182662803737 0 0.26237150713603202 0.34681822066079743 0 0.25361926067734392 0.33061202480847018 0 0.26960257765838852 0.33244659301092072 0 0.27631378014992658 0.31832205408931402 0 0.28552317422330042 0.33981326774965409 0 0.26237150713603202 0.34681822066079743 0 0.26960257765838852 0.33244659301092072 0 0.28552317422330042 0.33981326774965409 0 0.26250773536951361 0.31822916552873309 0 0.27631378014992658 0.31832205408931402 0 0.26590830254155018 0.3015266158553716 0 0.26250773536951361 0.31822916552873309 0 0.26960257765838852 0.33244659301092072 0 0.27631378014992658 0.31832205408931402 0 0.27631378014992658 0.31832205408931402 0 0.28552317422330042 0.33981326774965409 0 0.3015002240634429 0.32149307206843769 0 0.27631378014992658 0.31832205408931402 0 0.3015002240634429 0.32149307206843769 0 0.27840408859439469 0.30493885596769221 0 0.31486491907953362 0.34635965672119601 0 0.28552317422330042 0.33981326774965409 0 0.3015002240634429 0.32149307206843769 0 0.31486491907953362 0.34635965672119601 0 0.3015002240634429 0.32149307206843769 0 0.32211345593765628 0.32147944341774742 0 0.3015002240634429 0.32149307206843769 0 0.31288736638401482 0.30127623493463102 0 0.3015002240634429 0.32149307206843769 0 0.28813552904735229 0.29662648741567937 0 0.31288736638401482 0.30127623493463102 0 0.29613793447350101 0.27956415743512819 0 0.32475694520933068 0.28649526049936652 0 0.31288736638401482 0.30127623493463102 0 0.28813552904735229 0.29662648741567937 0 0.29613793447350101 0.27956415743512819 0 0.31288736638401482 0.30127623493463102 0 0.28813552904735229 0.29662648741567937 0 0.29613793447350101 0.27956415743512819 0 0.28709339652093369 0.27117461378072621 0 0.28813552904735229 0.29662648741567937 0 0.27477083403126162 0.27175990276292111 0 0.3015002240634429 0.32149307206843769 0 0.28813552904735229 0.29662648741567937 0 0.27840408859439469 0.30493885596769221 0 0.28813552904735229 0.29662648741567937 0 0.27840408859439469 0.30493885596769221 0 0.27794700163824909 0.28918800151599461 0 0.3015002240634429 0.32149307206843769 0 0.28813552904735229 0.29662648741567937 0 0.27631378014992658 0.31832205408931402 0 0.27840408859439469 0.30493885596769221 0 0.26590830254155018 0.3015266158553716 0 0.27840408859439469 0.30493885596769221 0 0.26590830254155018 0.3015266158553716 0 0.27794700163824909 0.28918800151599461 0 0.28813552904735229 0.29662648741567937 0 0.27794700163824909 0.28918800151599461 0 0.27477083403126162 0.27175990276292111 0 0.26590830254155018 0.3015266158553716 0 0.27794700163824909 0.28918800151599461 0 0.26502408765766949 0.28573224822052629 0 0.27794700163824909 0.28918800151599461 0 0.26502408765766949 0.28573224822052629 0 0.27260635446822012 0.27775932481870702 0 0.24905991139876851 0.2850552760074978 0 0.26502408765766949 0.28573224822052629 0 0.25959886824155981 0.27513202290506061 0 0.24905991139876851 0.2850552760074978 0 0.25133958603805617 0.30783365040798399 0 0.24905991139876851 0.2850552760074978 0 0.26590830254155018 0.3015266158553716 0 0.26502408765766949 0.28573224822052629 0 0.26250773536951361 0.31822916552873309 0 0.26590830254155018 0.3015266158553716 0 0.25133958603805617 0.30783365040798399 0 0.24905991139876851 0.2850552760074978 0 0.26590830254155018 0.3015266158553716 0 0.25133958603805617 0.30783365040798399 0 0.2467802367594808 0.26227690160701139 0 0.26163940887053799 0.26365174935750368 0 0.25889775176656188 0.2445652825919592 0 0.26163940887053799 0.26365174935750368 0 0.27256798315866182 0.25119682142683669 0 0.25889775176656188 0.2445652825919592 0 0.2467802367594808 0.26227690160701139 0 0.26163940887053799 0.26365174935750368 0 0.25959886824155981 0.27513202290506061 0 0.2467802367594808 0.26227690160701139 0 0.24905991139876851 0.2850552760074978 0 0.25959886824155981 0.27513202290506061 0 0.26163940887053799 0.26365174935750368 0 0.25959886824155981 0.27513202290506061 0 0.27260635446822012 0.27775932481870702 0 0.27794700163824909 0.28918800151599461 0 0.27260635446822012 0.27775932481870702 0 0.27477083403126162 0.27175990276292111 0 0.27260635446822012 0.27775932481870702 0 0.27477083403126162 0.27175990276292111 0 0.27256798315866182 0.25119682142683669 0 0.26502408765766949 0.28573224822052629 0 0.25959886824155981 0.27513202290506061 0 0.27260635446822012 0.27775932481870702 0 0.27477083403126162 0.27175990276292111 0 0.28143949515088418 0.26342955906245752 0 0.28709339652093369 0.27117461378072621 0 0.27260635446822012 0.27775932481870702 0 0.27256798315866182 0.25119682142683669 0 0.26163940887053799 0.26365174935750368 0 0.27260635446822012 0.27775932481870702 0 0.27256798315866182 0.25119682142683669 0 0.27477083403126162 0.27175990276292111 0 0.27256798315866182 0.25119682142683669 0 0.28143949515088418 0.26342955906245752 0 0.27256798315866182 0.25119682142683669 0 0.28143949515088418 0.26342955906245752 0 0.29132576689267958 0.25958689827934611 0 0.28143949515088418 0.26342955906245752 0 0.29132576689267958 0.25958689827934611 0 0.28709339652093369 0.27117461378072621 0 0.29132576689267958 0.25958689827934611 0 0.29613793447350101 0.27956415743512819 0 0.28709339652093369 0.27117461378072621 0 0.28813552904735229 0.29662648741567937 0 0.27477083403126162 0.27175990276292111 0 0.28709339652093369 0.27117461378072621 0 0.29132576689267958 0.25958689827934611 0 0.29613793447350101 0.27956415743512819 0 0.30593299473684649 0.25967699420909929 0 0.29613793447350101 0.27956415743512819 0 0.32285760628191251 0.26698594303466749 0 0.29613793447350101 0.27956415743512819 0 0.30593299473684649 0.25967699420909929 0 0.32285760628191251 0.26698594303466749 0 0.29132576689267958 0.25958689827934611 0 0.30593299473684649 0.25967699420909929 0 0.29722887108647572 0.2390310167486541 0 0.30593299473684649 0.25967699420909929 0 0.32285760628191251 0.26698594303466749 0 0.31414106893896337 0.2461707325574938 0 0.32285760628191251 0.26698594303466749 0 0.33186812323681919 0.24140108645389699 0 0.31414106893896337 0.2461707325574938 0 0.32285760628191251 0.26698594303466749 0 0.34957727809032402 0.25440772863420741 0 0.33186812323681919 0.24140108645389699 0 0.32285760628191251 0.26698594303466749 0 0.34957727809032402 0.25440772863420741 0 0.32285760628191251 0.26698594303466749 0 0.32475694520933068 0.28649526049936652 0 0.34447743772230932 0.282312091215837 0 0.32285760628191251 0.26698594303466749 0 0.34447743772230932 0.282312091215837 0 0.34957727809032402 0.25440772863420741 0 0.29613793447350101 0.27956415743512819 0 0.32285760628191251 0.26698594303466749 0 0.32475694520933068 0.28649526049936652 0 0.32475694520933068 0.28649526049936652 0 0.31288736638401482 0.30127623493463102 0 0.33937759735429379 0.3102164537974666 0 0.32211345593765628 0.32147944341774742 0 0.31288736638401482 0.30127623493463102 0 0.33937759735429379 0.3102164537974666 0 0.32475694520933068 0.28649526049936652 0 0.33937759735429379 0.3102164537974666 0 0.34447743772230932 0.282312091215837 0 0.33937759735429379 0.3102164537974666 0 0.34447743772230932 0.282312091215837 0 0.33937759735429379 0.3102164537974666 0 0.34447743772230932 0.282312091215837 0 0.35923655977973429 0.29763562448048908 0 0.34447743772230932 0.282312091215837 0 0.35923655977973429 0.29763562448048908 0 0.36942875373186701 0.27541087527940838 0 0.36591047953640332 0.31716630358540809 0 0.33937759735429379 0.3102164537974666 0 0.35923655977973429 0.29763562448048908 0 0.36591047953640332 0.31716630358540809 0 0.35923655977973429 0.29763562448048908 0 0.37954710153486942 0.29995586090512671 0 0.35923655977973429 0.29763562448048908 0 0.36942875373186701 0.27541087527940838 0 0.37954710153486942 0.29995586090512671 0 0.36942875373186701 0.27541087527940838 0 0.37094829950658681 0.26271402471256872 0 0.37913965650864462 0.26518366836702378 0 0.37094829950658681 0.26271402471256872 0 0.37201123585035428 0.25557418402464011 0 0.37913965650864462 0.26518366836702378 0 0.36942875373186701 0.27541087527940838 0 0.37094829950658681 0.26271402471256872 0 0.36089231600794958 0.25729938197456248 0 0.37094829950658681 0.26271402471256872 0 0.37201123585035428 0.25557418402464011 0 0.36089231600794958 0.25729938197456248 0 0.37201123585035428 0.25557418402464011 0 0.36089231600794958 0.25729938197456248 0 0.36868428668044573 0.2495334580817942 0 0.37201123585035428 0.25557418402464011 0 0.36868428668044573 0.2495334580817942 0 0.37582539390411068 0.2498286501907224 0 0.36089231600794958 0.25729938197456248 0 0.36868428668044573 0.2495334580817942 0 0.36567113264076562 0.24683158943171959 0 0.36089231600794958 0.25729938197456248 0 0.34957727809032402 0.25440772863420741 0 0.36567113264076562 0.24683158943171959 0 0.34957727809032402 0.25440772863420741 0 0.36567113264076562 0.24683158943171959 0 0.34447743772230932 0.282312091215837 0 0.36089231600794958 0.25729938197456248 0 0.34957727809032402 0.25440772863420741 0 0.34447743772230932 0.282312091215837 0 0.36942875373186701 0.27541087527940838 0 0.36089231600794958 0.25729938197456248 0 0.34447743772230932 0.282312091215837 0 0.34957727809032402 0.25440772863420741 0 0.40259764291241468 0.27505107269411733 0 0.3921428227855549 0.26311008816128151 0 0.38850282716230072 0.27986865106232972 0 0.40259764291241468 0.27505107269411733 0 0.4060668125282616 0.25285594008213708 0 0.3921428227855549 0.26311008816128151 0 0.4060668125282616 0.25285594008213708 0 0.39254003951769711 0.25124133098226942 0 0.3921428227855549 0.26311008816128151 0 0.3921428227855549 0.26311008816128151 0 0.38180400001520409 0.25442418696191438 0 0.37913965650864462 0.26518366836702378 0 0.39254003951769711 0.25124133098226942 0 0.38180400001520409 0.25442418696191438 0 0.38330216731381622 0.2453377680104171 0 0.39254003951769711 0.25124133098226942 0 0.3921428227855549 0.26311008816128151 0 0.38180400001520409 0.25442418696191438 0 0.37201123585035428 0.25557418402464011 0 0.38180400001520409 0.25442418696191438 0 0.37582539390411068 0.2498286501907224 0 0.37201123585035428 0.25557418402464011 0 0.38180400001520409 0.25442418696191438 0 0.37913965650864462 0.26518366836702378 0 0.36942875373186701 0.27541087527940838 0 0.37913965650864462 0.26518366836702378 0 0.38850282716230072 0.27986865106232972 0 0.3921428227855549 0.26311008816128151 0 0.37913965650864462 0.26518366836702378 0 0.38850282716230072 0.27986865106232972 0 0.36942875373186701 0.27541087527940838 0 0.38850282716230072 0.27986865106232972 0 0.37954710153486942 0.29995586090512671 0 0.40695701476982071 0.29528581435316292 0 0.39599276590315458 0.32079758360539712 0 0.40695701476982071 0.29528581435316292 0 0.41259934374542379 0.31620807914453458 0 0.39599276590315458 0.32079758360539712 0 0.37954710153486942 0.29995586090512671 0 0.40695701476982071 0.29528581435316292 0 0.39599276590315458 0.32079758360539712 0 0.38850282716230072 0.27986865106232972 0 0.37954710153486942 0.29995586090512671 0 0.40695701476982071 0.29528581435316292 0 0.40259764291241468 0.27505107269411733 0 0.38850282716230072 0.27986865106232972 0 0.40695701476982071 0.29528581435316292 0 0.40695701476982071 0.29528581435316292 0 0.42755179919281361 0.29136714785209278 0 0.41792126363648668 0.26977404510092873 0 0.40695701476982071 0.29528581435316292 0 0.41792126363648668 0.26977404510092873 0 0.40695701476982071 0.29528581435316292 0 0.42810587923379112 0.30869879582482668 0 0.41259934374542379 0.31620807914453458 0 0.40695701476982071 0.29528581435316292 0 0.42810587923379112 0.30869879582482668 0 0.42755179919281361 0.29136714785209278 0 0.42810587923379112 0.30869879582482668 0 0.43552743795058008 0.29978084565610658 0 0.44518347162938482 0.30566614151549659 0 0.42810587923379112 0.30869879582482668 0 0.43552743795058008 0.29978084565610658 0 0.42755179919281361 0.29136714785209278 0 0.43552743795058008 0.29978084565610658 0 0.42755179919281361 0.29136714785209278 0 0.44126860174633131 0.29339129743201009 0 0.42755179919281361 0.29136714785209278 0 0.43564038683607298 0.27842182838495499 0 0.44126860174633131 0.29339129743201009 0 0.43564038683607298 0.27842182838495499 0 0.41792126363648668 0.26977404510092873 0 0.43482585723343659 0.26361103265959762 0 0.42755179919281361 0.29136714785209278 0 0.43564038683607298 0.27842182838495499 0 0.41792126363648668 0.26977404510092873 0 0.40259764291241468 0.27505107269411733 0 0.40695701476982071 0.29528581435316292 0 0.41792126363648668 0.26977404510092873 0 0.40259764291241468 0.27505107269411733 0 0.4060668125282616 0.25285594008213708 0 0.41792126363648668 0.26977404510092873 0 0.4060668125282616 0.25285594008213708 0 0.41792126363648668 0.26977404510092873 0 0.42888551250315082 0.24426227584869351 0 0.41792126363648668 0.26977404510092873 0 0.42888551250315082 0.24426227584869351 0 0.41792126363648668 0.26977404510092873 0 0.43482585723343659 0.26361103265959762 0 0.42888551250315082 0.24426227584869351 0 0.43482585723343659 0.26361103265959762 0 0.44487446423362997 0.25517176994175389 0 0.42888551250315082 0.24426227584869351 0 0.44487446423362997 0.25517176994175389 0 0.44680765895784069 0.2704252440216558 0 0.46086341596411579 0.2660812640348047 0 0.44487446423362997 0.25517176994175389 0 0.46086341596411579 0.2660812640348047 0 0.43482585723343659 0.26361103265959762 0 0.44487446423362997 0.25517176994175389 0 0.44680765895784069 0.2704252440216558 0 0.43564038683607298 0.27842182838495499 0 0.44680765895784069 0.2704252440216558 0 0.44881160537755521 0.28294615024805592 0 0.43564038683607298 0.27842182838495499 0 0.43482585723343659 0.26361103265959762 0 0.44680765895784069 0.2704252440216558 0 0.44680765895784069 0.2704252440216558 0 0.45946817495012759 0.27659774000189252 0 0.44881160537755521 0.28294615024805592 0 0.44680765895784069 0.2704252440216558 0 0.45946817495012759 0.27659774000189252 0 0.46086341596411579 0.2660812640348047 0 0.45946817495012759 0.27659774000189252 0 0.46086341596411579 0.2660812640348047 0 0.4706599314197325 0.27433453992778623 0 0.45946817495012759 0.27659774000189252 0 0.4706599314197325 0.27433453992778623 0 0.46700721944314078 0.28156130005647823 0 0.45946817495012759 0.27659774000189252 0 0.46700721944314078 0.28156130005647823 0 0.46358661323430078 0.2853394398636977 0 0.44487446423362997 0.25517176994175389 0 0.46086341596411579 0.2660812640348047 0 0.46520332147155741 0.25259731073257619 0 0.46086341596411579 0.2660812640348047 0 0.46520332147155741 0.25259731073257619 0 0.47694533837918979 0.26619031161894807 0 0.46520332147155741 0.25259731073257619 0 0.47694533837918979 0.26619031161894807 0 0.4852661445691977 0.25310741917697283 0 0.47694533837918979 0.26619031161894807 0 0.48909096839694027 0.27069701728988749 0 0.4852661445691977 0.25310741917697283 0 0.4706599314197325 0.27433453992778623 0 0.48188032685740839 0.27546360192656172 0 0.47694533837918979 0.26619031161894807 0 0.46086341596411579 0.2660812640348047 0 0.4706599314197325 0.27433453992778623 0 0.47694533837918979 0.26619031161894807 0 0.4706599314197325 0.27433453992778623 0 0.47688211897636268 0.28053097055839382 0 0.48188032685740839 0.27546360192656172 0 0.4706599314197325 0.27433453992778623 0 0.47688211897636268 0.28053097055839382 0 0.46700721944314078 0.28156130005647823 0 0.47688211897636268 0.28053097055839382 0 0.48188032685740839 0.27546360192656172 0 0.4820758331224857 0.28164108735707288 0 0.48188032685740839 0.27546360192656172 0 0.48668442283627872 0.28210896254307422 0 0.4820758331224857 0.28164108735707288 0 0.48188032685740839 0.27546360192656172 0 0.47694533837918979 0.26619031161894807 0 0.48909096839694027 0.27069701728988749 0 0.48909096839694027 0.27069701728988749 0 0.5 0.26452836784794759 0 0.49999999999999539 0.29123776365897308 0 0.48188032685740839 0.27546360192656172 0 0.48909096839694027 0.27069701728988749 0 0.48668442283627872 0.28210896254307422 0 0.4852661445691977 0.25310741917697283 0 0.5 0.26452836784794759 0 0.5 0.23781897203692209 0 0.48909096839694027 0.27069701728988749 0 0.4852661445691977 0.25310741917697283 0 0.5 0.26452836784794759 0 0.48693883524663362 0.30496080145013349 0 0.49999999999999539 0.29123776365897308 0 0.5 0.31711115318862182 0 0.49999999999999539 0.29123776365897308 0 0.48668442283627872 0.28210896254307422 0 0.48285646381989289 0.28846081440026172 0 0.49999999999999539 0.29123776365897308 0 0.48285646381989289 0.28846081440026172 0 0.48693883524663362 0.30496080145013349 0 0.49999999999999539 0.29123776365897308 0 0.48285646381989289 0.28846081440026172 0 0.48909096839694027 0.27069701728988749 0 0.49999999999999539 0.29123776365897308 0 0.48668442283627872 0.28210896254307422 0 0.48668442283627872 0.28210896254307422 0 0.48285646381989289 0.28846081440026172 0 0.47688211897636268 0.28053097055839382 0 0.48285646381989289 0.28846081440026172 0 0.46700721944314078 0.28156130005647823 0 0.48285646381989289 0.28846081440026172 0 0.46953186931869489 0.29592657215647161 0 0.46358661323430078 0.2853394398636977 0 0.48285646381989289 0.28846081440026172 0 0.46700721944314078 0.28156130005647823 0 0.46358661323430078 0.2853394398636977 0 0.48285646381989289 0.28846081440026172 0 0.46358661323430078 0.2853394398636977 0 0.47688211897636268 0.28053097055839382 0 0.4820758331224857 0.28164108735707288 0 0.48285646381989289 0.28846081440026172 0 0.48668442283627872 0.28210896254307422 0 0.4820758331224857 0.28164108735707288 0 0.48285646381989289 0.28846081440026172 0 0.48285646381989289 0.28846081440026172 0 0.46935288853503421 0.3108677182842004 0 0.48285646381989289 0.28846081440026172 0 0.46953186931869489 0.29592657215647161 0 0.46935288853503421 0.3108677182842004 0 0.48693883524663362 0.30496080145013349 0 0.46935288853503421 0.3108677182842004 0 0.48383730294441962 0.31879129982900212 0 0.48693883524663362 0.30496080145013349 0 0.48285646381989289 0.28846081440026172 0 0.46935288853503421 0.3108677182842004 0 0.46935288853503421 0.3108677182842004 0 0.45901560789223111 0.31135871692405592 0 0.45792454736252503 0.30574612808605611 0 0.46935288853503421 0.3108677182842004 0 0.46233151168555209 0.29903831607772657 0 0.45792454736252503 0.30574612808605611 0 0.46953186931869489 0.29592657215647161 0 0.46935288853503421 0.3108677182842004 0 0.46233151168555209 0.29903831607772657 0 0.46233151168555209 0.29903831607772657 0 0.45792454736252503 0.30574612808605611 0 0.45032119976705171 0.30574554330254311 0 0.45901560789223111 0.31135871692405592 0 0.45792454736252503 0.30574612808605611 0 0.45315827565651201 0.31417356055423568 0 0.45792454736252503 0.30574612808605611 0 0.45032119976705171 0.30574554330254311 0 0.45315827565651201 0.31417356055423568 0 0.46233151168555209 0.29903831607772657 0 0.46358661323430078 0.2853394398636977 0 0.45032119976705171 0.30574554330254311 0 0.46358661323430078 0.2853394398636977 0 0.44518347162938482 0.30566614151549659 0 0.46700721944314078 0.28156130005647823 0 0.46358661323430078 0.2853394398636977 0 0.46953186931869489 0.29592657215647161 0 0.46233151168555209 0.29903831607772657 0 0.46358661323430078 0.2853394398636977 0 0.46358661323430078 0.2853394398636977 0 0.44881160537755521 0.28294615024805592 0 0.45946817495012759 0.27659774000189252 0 0.46358661323430078 0.2853394398636977 0 0.44881160537755521 0.28294615024805592 0 0.46358661323430078 0.2853394398636977 0 0.44126860174633131 0.29339129743201009 0 0.44518347162938482 0.30566614151549659 0 0.46358661323430078 0.2853394398636977 0 0.44881160537755521 0.28294615024805592 0 0.44126860174633131 0.29339129743201009 0 0.43564038683607298 0.27842182838495499 0 0.44881160537755521 0.28294615024805592 0 0.44126860174633131 0.29339129743201009 0 0.46358661323430078 0.2853394398636977 0 0.45032119976705171 0.30574554330254311 0 0.44518347162938482 0.30566614151549659 0 0.43552743795058008 0.29978084565610658 0 0.44126860174633131 0.29339129743201009 0 0.44518347162938482 0.30566614151549659 0 0.45032119976705171 0.30574554330254311 0 0.44316152073818688 0.32985983884703413 0 0.44518347162938482 0.30566614151549659 0 0.44316152073818688 0.32985983884703413 0 0.4267803300244698 0.32599284316729671 0 0.44316152073818688 0.32985983884703413 0 0.4558910652202432 0.31958569656475572 0 0.45315827565651201 0.31417356055423568 0 0.45032119976705171 0.30574554330254311 0 0.44518347162938482 0.30566614151549659 0 0.44316152073818688 0.32985983884703413 0 0.45032119976705171 0.30574554330254311 0 0.44316152073818688 0.32985983884703413 0 0.45315827565651201 0.31417356055423568 0 0.44316152073818688 0.32985983884703413 0 0.45584931325017519 0.33327462216813891 0 0.4558910652202432 0.31958569656475572 0 0.44316152073818688 0.32985983884703413 0 0.4360018417093221 0.35397413439152509 0 0.44316152073818688 0.32985983884703413 0 0.45584931325017519 0.33327462216813891 0 0.44234573796531618 0.35568152605207742 0 0.45584931325017519 0.33327462216813891 0 0.465053767231416 0.33967806582089688 0 0.47333086408215602 0.32982433660910421 0 0.45584931325017519 0.33327462216813891 0 0.465053767231416 0.33967806582089688 0 0.45516618867981118 0.34813536871433148 0 0.46935288853503421 0.3108677182842004 0 0.45584931325017519 0.33327462216813891 0 0.47333086408215602 0.32982433660910421 0 0.46935288853503421 0.3108677182842004 0 0.45584931325017519 0.33327462216813891 0 0.46935288853503421 0.3108677182842004 0 0.45584931325017519 0.33327462216813891 0 0.4558910652202432 0.31958569656475572 0 0.45901560789223111 0.31135871692405592 0 0.4558910652202432 0.31958569656475572 0 0.45315827565651201 0.31417356055423568 0 0.46935288853503421 0.3108677182842004 0 0.45901560789223111 0.31135871692405592 0 0.4558910652202432 0.31958569656475572 0 0.46935288853503421 0.3108677182842004 0 0.48383730294441962 0.31879129982900212 0 0.47333086408215602 0.32982433660910421 0 0.48383730294441962 0.31879129982900212 0 0.47333086408215602 0.32982433660910421 0 0.48745210337952077 0.3312248924804162 0 0.47333086408215602 0.32982433660910421 0 0.48745210337952077 0.3312248924804162 0 0.47586870291352168 0.3474779357920133 0 0.465053767231416 0.33967806582089688 0 0.47333086408215602 0.32982433660910421 0 0.47586870291352168 0.3474779357920133 0 0.48745210337952077 0.3312248924804162 0 0.5 0.34298454271827039 0 0.5 0.31711115318862182 0 0.48745210337952077 0.3312248924804162 0 0.5 0.34298454271827039 0 0.47586870291352168 0.3474779357920133 0 0.48693883524663362 0.30496080145013349 0 0.48383730294441962 0.31879129982900212 0 0.5 0.31711115318862182 0 0.48383730294441962 0.31879129982900212 0 0.48745210337952077 0.3312248924804162 0 0.5 0.31711115318862182 0 0.5 0.36885793224791918 0 0.48623255026460532 0.35963525102198701 0 0.47839541363962512 0.3788270756391619 0 0.5 0.34298454271827039 0 0.5 0.36885793224791918 0 0.48623255026460532 0.35963525102198701 0 0.5 0.34298454271827039 0 0.48623255026460532 0.35963525102198701 0 0.47586870291352168 0.3474779357920133 0 0.48623255026460532 0.35963525102198701 0 0.47586870291352168 0.3474779357920133 0 0.4730349141391097 0.36348273161936051 0 0.4730349141391097 0.36348273161936051 0 0.45679082727925091 0.36292282950075572 0 0.47839541363962512 0.3788270756391619 0 0.48623255026460532 0.35963525102198701 0 0.4730349141391097 0.36348273161936051 0 0.47839541363962512 0.3788270756391619 0 0.45679082727925091 0.36292282950075572 0 0.45567495234027577 0.37680230050315799 0 0.47839541363962512 0.3788270756391619 0 0.45679082727925091 0.36292282950075572 0 0.47839541363962512 0.3788270756391619 0 0.45679082727925091 0.36292282950075572 0 0.44873886453011019 0.36385190616950053 0 0.45567495234027577 0.37680230050315799 0 0.47586870291352168 0.3474779357920133 0 0.4730349141391097 0.36348273161936051 0 0.45516618867981118 0.34813536871433148 0 0.4730349141391097 0.36348273161936051 0 0.45679082727925091 0.36292282950075572 0 0.45516618867981118 0.34813536871433148 0 0.465053767231416 0.33967806582089688 0 0.47586870291352168 0.3474779357920133 0 0.45516618867981118 0.34813536871433148 0 0.45679082727925091 0.36292282950075572 0 0.45516618867981118 0.34813536871433148 0 0.45078825253492849 0.35702835106913022 0 0.45584931325017519 0.33327462216813891 0 0.45516618867981118 0.34813536871433148 0 0.44234573796531618 0.35568152605207742 0 0.44316152073818688 0.32985983884703413 0 0.44234573796531618 0.35568152605207742 0 0.4360018417093221 0.35397413439152509 0 0.45584931325017519 0.33327462216813891 0 0.44234573796531618 0.35568152605207742 0 0.45078825253492849 0.35702835106913022 0 0.44234573796531618 0.35568152605207742 0 0.44873886453011019 0.36385190616950053 0 0.45516618867981118 0.34813536871433148 0 0.45078825253492849 0.35702835106913022 0 0.44234573796531618 0.35568152605207742 0 0.44234573796531618 0.35568152605207742 0 0.44372530149340972 0.37089912090761501 0 0.4366579804525923 0.3718144895253418 0 0.44873886453011019 0.36385190616950053 0 0.44372530149340972 0.37089912090761501 0 0.45567495234027577 0.37680230050315799 0 0.45679082727925091 0.36292282950075572 0 0.45078825253492849 0.35702835106913022 0 0.44873886453011019 0.36385190616950053 0 0.44234573796531618 0.35568152605207742 0 0.44873886453011019 0.36385190616950053 0 0.44372530149340972 0.37089912090761501 0 0.44372530149340972 0.37089912090761501 0 0.4366579804525923 0.3718144895253418 0 0.43904685910299962 0.37737651254860188 0 0.44234573796531618 0.35568152605207742 0 0.42884216268045727 0.37808842993601599 0 0.42563505549815323 0.36896153107117541 0 0.4360018417093221 0.35397413439152509 0 0.42884216268045727 0.37808842993601599 0 0.44234573796531618 0.35568152605207742 0 0.4366579804525923 0.3718144895253418 0 0.42884216268045727 0.37808842993601599 0 0.44234573796531618 0.35568152605207742 0 0.4360018417093221 0.35397413439152509 0 0.42884216268045727 0.37808842993601599 0 0.4360018417093221 0.35397413439152509 0 0.42884216268045727 0.37808842993601599 0 0.42563505549815323 0.36896153107117541 0 0.41813308221115358 0.36086182526021748 0 0.42708512037793339 0.35807405542739018 0 0.42563505549815323 0.36896153107117541 0 0.42708512037793339 0.35807405542739018 0 0.4360018417093221 0.35397413439152509 0 0.42563505549815323 0.36896153107117541 0 0.41602780205049511 0.37615585147678582 0 0.42884216268045727 0.37808842993601599 0 0.42563505549815323 0.36896153107117541 0 0.41813308221115358 0.36086182526021748 0 0.41602780205049511 0.37615585147678582 0 0.41813308221115358 0.36086182526021748 0 0.40705838641023528 0.36635583110262587 0 0.41602780205049511 0.37615585147678582 0 0.40705838641023528 0.36635583110262587 0 0.40277981255533302 0.38179568748613302 0 0.41602780205049511 0.37615585147678582 0 0.41813308221115358 0.36086182526021748 0 0.40705838641023528 0.36635583110262587 0 0.40837718841955489 0.3463195448190966 0 0.41813308221115358 0.36086182526021748 0 0.40837718841955489 0.3463195448190966 0 0.42353754046592812 0.34967360595500208 0 0.42353754046592812 0.34967360595500208 0 0.43037954004976881 0.34925914585524109 0 0.43218656261946048 0.33972133153620071 0 0.42353754046592812 0.34967360595500208 0 0.42940564058034569 0.35300874287327438 0 0.43037954004976881 0.34925914585524109 0 0.41813308221115358 0.36086182526021748 0 0.42353754046592812 0.34967360595500208 0 0.42708512037793339 0.35807405542739018 0 0.42353754046592812 0.34967360595500208 0 0.42708512037793339 0.35807405542739018 0 0.42940564058034569 0.35300874287327438 0 0.42708512037793339 0.35807405542739018 0 0.42940564058034569 0.35300874287327438 0 0.4360018417093221 0.35397413439152509 0 0.42940564058034569 0.35300874287327438 0 0.4360018417093221 0.35397413439152509 0 0.43037954004976881 0.34925914585524109 0 0.4360018417093221 0.35397413439152509 0 0.43037954004976881 0.34925914585524109 0 0.43218656261946048 0.33972133153620071 0 0.42353754046592812 0.34967360595500208 0 0.43218656261946048 0.33972133153620071 0 0.4267803300244698 0.32599284316729671 0 0.44316152073818688 0.32985983884703413 0 0.43218656261946048 0.33972133153620071 0 0.4267803300244698 0.32599284316729671 0 0.44316152073818688 0.32985983884703413 0 0.4360018417093221 0.35397413439152509 0 0.43218656261946048 0.33972133153620071 0 0.44518347162938482 0.30566614151549659 0 0.4267803300244698 0.32599284316729671 0 0.42810587923379112 0.30869879582482668 0 0.4267803300244698 0.32599284316729671 0 0.41259934374542379 0.31620807914453458 0 0.42810587923379112 0.30869879582482668 0 0.44518347162938482 0.30566614151549659 0 0.4267803300244698 0.32599284316729671 0 0.40837718841955489 0.3463195448190966 0 0.42353754046592812 0.34967360595500208 0 0.4267803300244698 0.32599284316729671 0 0.40837718841955489 0.3463195448190966 0 0.4267803300244698 0.32599284316729671 0 0.41259934374542379 0.31620807914453458 0 0.40837718841955489 0.3463195448190966 0 0.4267803300244698 0.32599284316729671 0 0.40837718841955489 0.3463195448190966 0 0.39599276590315458 0.32079758360539712 0 0.38502851703648849 0.34630935285763143 0 0.40837718841955489 0.3463195448190966 0 0.41259934374542379 0.31620807914453458 0 0.39599276590315458 0.32079758360539712 0 0.36591047953640332 0.31716630358540809 0 0.37954710153486942 0.29995586090512671 0 0.39599276590315458 0.32079758360539712 0 0.37115581412454329 0.33688625313412512 0 0.36591047953640332 0.31716630358540809 0 0.39599276590315458 0.32079758360539712 0 0.37115581412454329 0.33688625313412512 0 0.39599276590315458 0.32079758360539712 0 0.38502851703648849 0.34630935285763143 0 0.39599276590315458 0.32079758360539712 0 0.38502851703648849 0.34630935285763143 0 0.36963859509691299 0.3544613380413914 0 0.37115581412454329 0.33688625313412512 0 0.38502851703648849 0.34630935285763143 0 0.37406426816982241 0.37182112210986568 0 0.36963859509691299 0.3544613380413914 0 0.38502851703648849 0.34630935285763143 0 0.37406426816982241 0.37182112210986568 0 0.38502851703648849 0.34630935285763143 0 0.37406426816982241 0.37182112210986568 0 0.38502851703648849 0.34630935285763143 0 0.38997404681463987 0.36664624647089661 0 0.40705838641023528 0.36635583110262587 0 0.38997404681463987 0.36664624647089661 0 0.40277981255533302 0.38179568748613302 0 0.40705838641023528 0.36635583110262587 0 0.40837718841955489 0.3463195448190966 0 0.38997404681463987 0.36664624647089661 0 0.40837718841955489 0.3463195448190966 0 0.38502851703648849 0.34630935285763143 0 0.38997404681463987 0.36664624647089661 0 0.40837718841955489 0.3463195448190966 0 0.38997404681463987 0.36664624647089661 0 0.3985721716919588 0.40013853162956847 0 0.40277981255533302 0.38179568748613302 0 0.41518393619202348 0.40075195138833403 0 0.3985721716919588 0.40013853162956847 0 0.38837856687327221 0.38738530234925522 0 0.38499283313557509 0.40734424408346809 0 0.38997404681463987 0.36664624647089661 0 0.40277981255533302 0.38179568748613302 0 0.38837856687327221 0.38738530234925522 0 0.3985721716919588 0.40013853162956847 0 0.40277981255533302 0.38179568748613302 0 0.38837856687327221 0.38738530234925522 0 0.37157090520972502 0.38697294812269661 0 0.38997404681463987 0.36664624647089661 0 0.38837856687327221 0.38738530234925522 0 0.37157090520972502 0.38697294812269661 0 0.38997404681463987 0.36664624647089661 0 0.37157090520972502 0.38697294812269661 0 0.37406426816982241 0.37182112210986568 0 0.38997404681463987 0.36664624647089661 0 0.37157090520972502 0.38697294812269661 0 0.38837856687327221 0.38738530234925522 0 0.37556947280087688 0.39818871287306778 0 0.38837856687327221 0.38738530234925522 0 0.37556947280087688 0.39818871287306778 0 0.38499283313557509 0.40734424408346809 0 0.36980503948265581 0.41190817844781941 0 0.37556947280087688 0.39818871287306778 0 0.38499283313557509 0.40734424408346809 0 0.37396840496237682 0.42971852199005989 0 0.38499283313557509 0.40734424408346809 0 0.40152570970358997 0.42341547284065212 0 0.37396840496237682 0.42971852199005989 0 0.36980503948265581 0.41190817844781941 0 0.38499283313557509 0.40734424408346809 0 0.37396840496237682 0.42971852199005989 0 0.40152570970358997 0.42341547284065212 0 0.38786748321515641 0.4460789942929701 0 0.40152570970358997 0.42341547284065212 0 0.38786748321515641 0.4460789942929701 0 0.3985721716919588 0.40013853162956847 0 0.38499283313557509 0.40734424408346809 0 0.40152570970358997 0.42341547284065212 0 0.3985721716919588 0.40013853162956847 0 0.40152570970358997 0.42341547284065212 0 0.41518393619202348 0.40075195138833403 0 0.40152570970358997 0.42341547284065212 0 0.42577355886809032 0.4278205723142145 0 0.41518393619202348 0.40075195138833403 0 0.40152570970358997 0.42341547284065212 0 0.41518393619202348 0.40075195138833403 0 0.40152570970358997 0.42341547284065212 0 0.42577355886809032 0.4278205723142145 0 0.41641449991266299 0.4471200680001326 0 0.42577355886809032 0.4278205723142145 0 0.43630398818949923 0.4091344122868375 0 0.44530939396707048 0.42347533019284528 0 0.42577355886809032 0.4278205723142145 0 0.43630398818949923 0.4091344122868375 0 0.41518393619202348 0.40075195138833403 0 0.43630398818949923 0.4091344122868375 0 0.43111210110321141 0.39769239572529369 0 0.41518393619202348 0.40075195138833403 0 0.43630398818949923 0.4091344122868375 0 0.43111210110321141 0.39769239572529369 0 0.44120148786439489 0.39386134214420743 0 0.43111210110321141 0.39769239572529369 0 0.41518393619202348 0.40075195138833403 0 0.43040929242701481 0.38743546643404803 0 0.43111210110321141 0.39769239572529369 0 0.43040929242701481 0.38743546643404803 0 0.44120148786439489 0.39386134214420743 0 0.41518393619202348 0.40075195138833403 0 0.41602780205049511 0.37615585147678582 0 0.42884216268045727 0.37808842993601599 0 0.40277981255533302 0.38179568748613302 0 0.41518393619202348 0.40075195138833403 0 0.41602780205049511 0.37615585147678582 0 0.41518393619202348 0.40075195138833403 0 0.42884216268045727 0.37808842993601599 0 0.41518393619202348 0.40075195138833403 0 0.42821772686238602 0.38019157308039908 0 0.43040929242701481 0.38743546643404803 0 0.41518393619202348 0.40075195138833403 0 0.42821772686238602 0.38019157308039908 0 0.42884216268045727 0.37808842993601599 0 0.42821772686238602 0.38019157308039908 0 0.42884216268045727 0.37808842993601599 0 0.42821772686238602 0.38019157308039908 0 0.42884216268045727 0.37808842993601599 0 0.43096740607197959 0.38016816975289708 0 0.43040929242701481 0.38743546643404803 0 0.44037421460758402 0.38402975070786438 0 0.44120148786439489 0.39386134214420743 0 0.43040929242701481 0.38743546643404803 0 0.43392414358927672 0.38136244396196128 0 0.44037421460758402 0.38402975070786438 0 0.42821772686238602 0.38019157308039908 0 0.43040929242701481 0.38743546643404803 0 0.43087964223766417 0.38228941330732641 0 0.43040929242701481 0.38743546643404803 0 0.43087964223766417 0.38228941330732641 0 0.43392414358927672 0.38136244396196128 0 0.4366579804525923 0.3718144895253418 0 0.42884216268045727 0.37808842993601599 0 0.43383821875708622 0.37759704371260372 0 0.42884216268045727 0.37808842993601599 0 0.43096740607197959 0.38016816975289708 0 0.43383821875708622 0.37759704371260372 0 0.42821772686238602 0.38019157308039908 0 0.43096740607197959 0.38016816975289708 0 0.43087964223766417 0.38228941330732641 0 0.43096740607197959 0.38016816975289708 0 0.43087964223766417 0.38228941330732641 0 0.43392414358927672 0.38136244396196128 0 0.43096740607197959 0.38016816975289708 0 0.43392414358927672 0.38136244396196128 0 0.43383821875708622 0.37759704371260372 0 0.43392414358927672 0.38136244396196128 0 0.43383821875708622 0.37759704371260372 0 0.43904685910299962 0.37737651254860188 0 0.4366579804525923 0.3718144895253418 0 0.43383821875708622 0.37759704371260372 0 0.43904685910299962 0.37737651254860188 0 0.44372530149340972 0.37089912090761501 0 0.43904685910299962 0.37737651254860188 0 0.44595212560861819 0.3792580767643442 0 0.43904685910299962 0.37737651254860188 0 0.44037421460758402 0.38402975070786438 0 0.44595212560861819 0.3792580767643442 0 0.43392414358927672 0.38136244396196128 0 0.43904685910299962 0.37737651254860188 0 0.44037421460758402 0.38402975070786438 0 0.44037421460758402 0.38402975070786438 0 0.45093930049882208 0.38718269915448172 0 0.44120148786439489 0.39386134214420743 0 0.44037421460758402 0.38402975070786438 0 0.45093930049882208 0.38718269915448172 0 0.44595212560861819 0.3792580767643442 0 0.44372530149340972 0.37089912090761501 0 0.44595212560861819 0.3792580767643442 0 0.45567495234027577 0.37680230050315799 0 0.45093930049882208 0.38718269915448172 0 0.44595212560861819 0.3792580767643442 0 0.45567495234027577 0.37680230050315799 0 0.43630398818949923 0.4091344122868375 0 0.44120148786439489 0.39386134214420743 0 0.45174335867097631 0.39931598500194831 0 0.45093930049882208 0.38718269915448172 0 0.44120148786439489 0.39386134214420743 0 0.45174335867097631 0.39931598500194831 0 0.45174335867097631 0.39931598500194831 0 0.46656124004889188 0.3959024343900211 0 0.45753599212633161 0.41175912103384171 0 0.45093930049882208 0.38718269915448172 0 0.45174335867097631 0.39931598500194831 0 0.46656124004889188 0.3959024343900211 0 0.45093930049882208 0.38718269915448172 0 0.46656124004889188 0.3959024343900211 0 0.45567495234027577 0.37680230050315799 0 0.46656124004889188 0.3959024343900211 0 0.45567495234027577 0.37680230050315799 0 0.47839541363962512 0.3788270756391619 0 0.46656124004889188 0.3959024343900211 0 0.48474492995033619 0.40017064002308927 0 0.47876799606316411 0.41438382978084592 0 0.46656124004889188 0.3959024343900211 0 0.47839541363962512 0.3788270756391619 0 0.48474492995033619 0.40017064002308927 0 0.47839541363962512 0.3788270756391619 0 0.48474492995033619 0.40017064002308927 0 0.49999999999999961 0.39473132177756792 0 0.48474492995033619 0.40017064002308927 0 0.49999999999999961 0.39473132177756792 0 0.49999999999999639 0.41700853852784958 0 0.5 0.36885793224791918 0 0.47839541363962512 0.3788270756391619 0 0.49999999999999961 0.39473132177756792 0 0.47839541363962512 0.3788270756391619 0 0.49999999999999961 0.39473132177756792 0 0.48727228871018852 0.42734291939281022 0 0.4999999999999985 0.42424675217480518 0 0.49030262256528168 0.44634797510172802 0 0.4999999999999985 0.42424675217480518 0 0.49030262256528168 0.44634797510172802 0 0.48727228871018852 0.42734291939281022 0 0.4999999999999985 0.42424675217480518 0 0.49999999999999639 0.41700853852784958 0 0.48727228871018852 0.42734291939281022 0 0.49999999999999639 0.41700853852784958 0 0.47876799606316411 0.41438382978084592 0 0.48474492995033619 0.40017064002308927 0 0.49999999999999639 0.41700853852784958 0 0.47876799606316411 0.41438382978084592 0 0.49999999999999639 0.41700853852784958 0 0.47876799606316411 0.41438382978084592 0 0.48727228871018852 0.42734291939281022 0 0.47876799606316411 0.41438382978084592 0 0.4672908249224994 0.43472750137882271 0 0.48727228871018852 0.42734291939281022 0 0.4672908249224994 0.43472750137882271 0 0.49030262256528168 0.44634797510172802 0 0.4672908249224994 0.43472750137882271 0 0.45753599212633161 0.41175912103384171 0 0.44530939396707048 0.42347533019284528 0 0.46656124004889188 0.3959024343900211 0 0.47876799606316411 0.41438382978084592 0 0.45753599212633161 0.41175912103384171 0 0.47876799606316411 0.41438382978084592 0 0.4672908249224994 0.43472750137882271 0 0.45753599212633161 0.41175912103384171 0 0.47876799606316411 0.41438382978084592 0 0.45753599212633161 0.41175912103384171 0 0.43630398818949923 0.4091344122868375 0 0.45753599212633161 0.41175912103384171 0 0.44530939396707048 0.42347533019284528 0 0.43630398818949923 0.4091344122868375 0 0.45174335867097631 0.39931598500194831 0 0.45753599212633161 0.41175912103384171 0 0.43630398818949923 0.4091344122868375 0 0.45753599212633161 0.41175912103384171 0 0.4672908249224994 0.43472750137882271 0 0.44530939396707048 0.42347533019284528 0 0.4432318246922653 0.44028136974753918 0 0.42577355886809032 0.4278205723142145 0 0.44530939396707048 0.42347533019284528 0 0.4432318246922653 0.44028136974753918 0 0.4432318246922653 0.44028136974753918 0 0.44221175852135658 0.45797230069282863 0 0.46435760748133459 0.45357916818734062 0 0.44221175852135658 0.45797230069282863 0 0.45544202947327772 0.46976083339383978 0 0.43027881381598893 0.4710724687590282 0 0.44221175852135658 0.45797230069282863 0 0.46435760748133459 0.45357916818734062 0 0.45544202947327772 0.46976083339383978 0 0.46435760748133459 0.45357916818734062 0 0.48060524513056629 0.46844919802865131 0 0.45544202947327772 0.46976083339383978 0 0.4672908249224994 0.43472750137882271 0 0.4432318246922653 0.44028136974753918 0 0.46435760748133459 0.45357916818734062 0 0.4672908249224994 0.43472750137882271 0 0.46435760748133459 0.45357916818734062 0 0.49030262256528168 0.44634797510172802 0 0.46435760748133459 0.45357916818734062 0 0.48060524513056629 0.46844919802865131 0 0.49030262256528168 0.44634797510172802 0 0.50000000000000733 0.46743824431222708 0 0.5 0.44584249824351618 0 0.49030262256528168 0.44634797510172802 0 0.48060524513056629 0.46844919802865131 0 0.50000000000000733 0.46743824431222708 0 0.48060524513056629 0.46844919802865131 0 0.50000000000000733 0.46743824431222708 0 0.49030262256528168 0.44634797510172802 0 0.48060524513056629 0.46844919802865131 0 0.49030262256528168 0.44634797510172802 0 0.4999999999999985 0.42424675217480518 0 0.5 0.44584249824351618 0 0.49030262256528168 0.44634797510172802 0 0.50000000000000733 0.46743824431222708 0 0.5 0.5 0 0.47368345541567591 0.48422459901432641 0 0.5 0.5 0 0.47368345541567591 0.48422459901432641 0 0.46676166570078498 0.50000000000000133 0 0.48060524513056629 0.46844919802865131 0 0.50000000000000733 0.46743824431222708 0 0.47368345541567591 0.48422459901432641 0 0.48060524513056629 0.46844919802865131 0 0.47368345541567591 0.48422459901432641 0 0.45544202947327772 0.46976083339383978 0 0.48060524513056629 0.46844919802865131 0 0.47368345541567591 0.48422459901432641 0 0.47368345541567591 0.48422459901432641 0 0.46676166570078498 0.50000000000000133 0 0.47368345541567591 0.48422459901432641 0 0.46676166570078498 0.50000000000000133 0 0.452716229615724 0.48501158023343921 0 0.47368345541567591 0.48422459901432641 0 0.45544202947327772 0.46976083339383978 0 0.452716229615724 0.48501158023343921 0 0.48060524513056629 0.46844919802865131 0 0.45544202947327772 0.46976083339383978 0 0.45544202947327772 0.46976083339383978 0 0.43027881381598893 0.4710724687590282 0 0.45544202947327772 0.46976083339383978 0 0.452716229615724 0.48501158023343921 0 0.43027881381598893 0.4710724687590282 0 0.452716229615724 0.48501158023343921 0 0.43741518367289151 0.5 0 0.43027881381598893 0.4710724687590282 0 0.46676166570078498 0.50000000000000133 0 0.452716229615724 0.48501158023343921 0 0.43741518367289151 0.5 0 0.43741518367289151 0.5 0 0.41838539586653639 0.48493094230381051 0 0.43027881381598893 0.4710724687590282 0 0.41838539586653639 0.48493094230381051 0 0.40806870164499798 0.49999999999999939 0 0.39401054207320502 0.48684786974470168 0 0.43741518367289151 0.5 0 0.41838539586653639 0.48493094230381051 0 0.40806870164499798 0.49999999999999939 0 0.43027881381598893 0.4710724687590282 0 0.40511559815870019 0.4723841041242165 0 0.41838539586653639 0.48493094230381051 0 0.43027881381598893 0.4710724687590282 0 0.40511559815870019 0.4723841041242165 0 0.44221175852135658 0.45797230069282863 0 0.43027881381598893 0.4710724687590282 0 0.41641449991266299 0.4471200680001326 0 0.4432318246922653 0.44028136974753918 0 0.44221175852135658 0.45797230069282863 0 0.41641449991266299 0.4471200680001326 0 0.42577355886809032 0.4278205723142145 0 0.4432318246922653 0.44028136974753918 0 0.41641449991266299 0.4471200680001326 0 0.43027881381598893 0.4710724687590282 0 0.41641449991266299 0.4471200680001326 0 0.40511559815870019 0.4723841041242165 0 0.39511499566584452 0.45970433572175762 0 0.37995238250141139 0.47369573948940441 0 0.40511559815870019 0.4723841041242165 0 0.41641449991266299 0.4471200680001326 0 0.39511499566584452 0.45970433572175762 0 0.40511559815870019 0.4723841041242165 0 0.41641449991266299 0.4471200680001326 0 0.39511499566584452 0.45970433572175762 0 0.38786748321515641 0.4460789942929701 0 0.40152570970358997 0.42341547284065212 0 0.41641449991266299 0.4471200680001326 0 0.38786748321515641 0.4460789942929701 0 0.36829772544362538 0.45483070092801098 0 0.37396840496237682 0.42971852199005989 0 0.38786748321515641 0.4460789942929701 0 0.36829772544362538 0.45483070092801098 0 0.38786748321515641 0.4460789942929701 0 0.38099170029244911 0.46181461501511772 0 0.39511499566584452 0.45970433572175762 0 0.38786748321515641 0.4460789942929701 0 0.38099170029244911 0.46181461501511772 0 0.39511499566584452 0.45970433572175762 0 0.38099170029244911 0.46181461501511772 0 0.37995238250141139 0.47369573948940441 0 0.37237747332808169 0.46572209650630919 0 0.38099170029244911 0.46181461501511772 0 0.37995238250141139 0.47369573948940441 0 0.37995238250141139 0.47369573948940441 0 0.38298698832404993 0.48815828868368899 0 0.39401054207320502 0.48684786974470168 0 0.37995238250141139 0.47369573948940441 0 0.39401054207320502 0.48684786974470168 0 0.36526014879238239 0.48951875205955808 0 0.37943647289580018 0.5 0 0.38298698832404993 0.48815828868368899 0 0.37943647289580018 0.5 0 0.38298698832404993 0.48815828868368899 0 0.39401054207320502 0.48684786974470168 0 0.40806870164499798 0.49999999999999939 0 0.37943647289580018 0.5 0 0.39401054207320502 0.48684786974470168 0 0.40806870164499798 0.49999999999999939 0 0.39401054207320502 0.48684786974470168 0 0.37995238250141139 0.47369573948940441 0 0.39401054207320502 0.48684786974470168 0 0.40511559815870019 0.4723841041242165 0 0.41838539586653639 0.48493094230381051 0 0.39401054207320502 0.48684786974470168 0 0.40511559815870019 0.4723841041242165 0 0.37995238250141139 0.47369573948940441 0 0.40511559815870019 0.4723841041242165 0 0.33451434297009458 0.082071307437014684 0 0.33501749551879051 0.076969539187330335 0 0.33055701077096239 0.076552001080402596 0 0.33451434297009458 0.082071307437014684 0 0.33055701077096239 0.076552001080402596 0 0.32724626214137409 0.082173451114805146 0 0.33451434297009458 0.082071307437014684 0 0.32724626214137409 0.082173451114805146 0 0.32752898329174251 0.087275571638775917 0 0.33499230639411082 0.090701540621842214 0 0.32608070834711989 0.093559127526075814 0 0.32752898329174251 0.087275571638775917 0 0.33451434297009458 0.082071307437014684 0 0.33499230639411082 0.090701540621842214 0 0.32752898329174251 0.087275571638775917 0 0.33499230639411082 0.090701540621842214 0 0.34457074205589422 0.09634688017618287 0 0.34587720242734871 0.08702217650023128 0 0.33451434297009458 0.082071307437014684 0 0.33499230639411082 0.090701540621842214 0 0.34587720242734871 0.08702217650023128 0 0.33451434297009458 0.082071307437014684 0 0.34175143557817561 0.077188172822820311 0 0.34587720242734871 0.08702217650023128 0 0.33451434297009458 0.082071307437014684 0 0.34175143557817561 0.077188172822820311 0 0.33501749551879051 0.076969539187330335 0 0.32359277965117839 0.069754925132464729 0 0.34410035701304331 0.067304992612198883 0 0.33393492657034529 0.058799633863998363 0 0.34175143557817561 0.077188172822820311 0 0.33501749551879051 0.076969539187330335 0 0.33324719275592929 0.072066675409083764 0 0.33324719275592929 0.072066675409083764 0 0.32359277965117839 0.069754925132464729 0 0.34410035701304331 0.067304992612198883 0 0.34175143557817561 0.077188172822820311 0 0.33324719275592929 0.072066675409083764 0 0.34410035701304331 0.067304992612198883 0 0.32359277965117839 0.069754925132464729 0 0.34410035701304331 0.067304992612198883 0 0.33324719275592929 0.072066675409083764 0 0.32784490910965608 0.073539432255345899 0 0.32359277965117839 0.069754925132464729 0 0.33501749551879051 0.076969539187330335 0 0.33324719275592929 0.072066675409083764 0 0.33055701077096239 0.076552001080402596 0 0.33324719275592929 0.072066675409083764 0 0.33055701077096239 0.076552001080402596 0 0.32784490910965608 0.073539432255345899 0 0.33055701077096239 0.076552001080402596 0 0.32718898748136749 0.075662310154003681 0 0.32784490910965608 0.073539432255345899 0 0.32463594730669459 0.074020862628027345 0 0.32269382265876401 0.076840270054920168 0 0.32571808273815678 0.078536944652238871 0 0.32718898748136749 0.075662310154003681 0 0.32463594730669459 0.074020862628027345 0 0.32571808273815678 0.078536944652238871 0 0.33055701077096239 0.076552001080402596 0 0.32718898748136749 0.075662310154003681 0 0.32571808273815678 0.078536944652238871 0 0.32718898748136749 0.075662310154003681 0 0.32784490910965608 0.073539432255345899 0 0.32463594730669459 0.074020862628027345 0 0.32784490910965608 0.073539432255345899 0 0.32463594730669459 0.074020862628027345 0 0.32359277965117839 0.069754925132464729 0 0.32463594730669459 0.074020862628027345 0 0.32033765193639341 0.071278036714769386 0 0.32359277965117839 0.069754925132464729 0 0.32463594730669459 0.074020862628027345 0 0.32033765193639341 0.071278036714769386 0 0.32269382265876401 0.076840270054920168 0 0.32033765193639341 0.071278036714769386 0 0.32269382265876401 0.076840270054920168 0 0.31959113780351828 0.078664743284083391 0 0.32033765193639341 0.071278036714769386 0 0.31542065392333768 0.067783702150067557 0 0.31659726695020879 0.057741099701928013 0 0.31542065392333768 0.067783702150067557 0 0.31659726695020879 0.057741099701928013 0 0.31191052942345943 0.06461996542148904 0 0.31542065392333768 0.067783702150067557 0 0.31272170493105778 0.071057610328129364 0 0.31191052942345943 0.06461996542148904 0 0.32033765193639341 0.071278036714769386 0 0.31553611637556928 0.074221798584021947 0 0.31536511128719191 0.080889152336115377 0 0.32033765193639341 0.071278036714769386 0 0.31542065392333768 0.067783702150067557 0 0.31553611637556928 0.074221798584021947 0 0.31272170493105778 0.071057610328129364 0 0.31553611637556928 0.074221798584021947 0 0.30991239423794648 0.075972456002361882 0 0.31542065392333768 0.067783702150067557 0 0.31272170493105778 0.071057610328129364 0 0.31553611637556928 0.074221798584021947 0 0.31553611637556928 0.074221798584021947 0 0.31336302534830279 0.078499270296709972 0 0.31536511128719191 0.080889152336115377 0 0.31553611637556928 0.074221798584021947 0 0.31336302534830279 0.078499270296709972 0 0.30991239423794648 0.075972456002361882 0 0.32033765193639341 0.071278036714769386 0 0.3127161207277861 0.097159161232785202 0 0.32033765193639341 0.071278036714769386 0 0.31959113780351828 0.078664743284083391 0 0.31444738342268502 0.09439980445508829 0 0.31900986159575229 0.084416431823393118 0 0.31959113780351828 0.078664743284083391 0 0.31444738342268502 0.09439980445508829 0 0.32033765193639341 0.071278036714769386 0 0.31444738342268502 0.09439980445508829 0 0.3127161207277861 0.097159161232785202 0 0.32033765193639341 0.071278036714769386 0 0.31536511128719191 0.080889152336115377 0 0.3127161207277861 0.097159161232785202 0 0.31336302534830279 0.078499270296709972 0 0.31536511128719191 0.080889152336115377 0 0.31263847949250367 0.082913674264340667 0 0.31536511128719191 0.080889152336115377 0 0.31263847949250367 0.082913674264340667 0 0.3127161207277861 0.097159161232785202 0 0.31900986159575229 0.084416431823393118 0 0.31959113780351828 0.078664743284083391 0 0.32284479382604159 0.081666250410292351 0 0.32269382265876401 0.076840270054920168 0 0.32284479382604159 0.081666250410292351 0 0.32571808273815678 0.078536944652238871 0 0.32269382265876401 0.076840270054920168 0 0.31959113780351828 0.078664743284083391 0 0.32284479382604159 0.081666250410292351 0 0.31900986159575229 0.084416431823393118 0 0.32284479382604159 0.081666250410292351 0 0.32280334085820628 0.085415831156240268 0 0.31900986159575229 0.084416431823393118 0 0.32280334085820628 0.085415831156240268 0 0.32035282931680542 0.087643754501534998 0 0.32284479382604159 0.081666250410292351 0 0.32280334085820628 0.085415831156240268 0 0.32724626214137409 0.082173451114805146 0 0.32280334085820628 0.085415831156240268 0 0.32724626214137409 0.082173451114805146 0 0.32752898329174251 0.087275571638775917 0 0.32284479382604159 0.081666250410292351 0 0.32724626214137409 0.082173451114805146 0 0.32571808273815678 0.078536944652238871 0 0.33055701077096239 0.076552001080402596 0 0.32724626214137409 0.082173451114805146 0 0.32571808273815678 0.078536944652238871 0 0.32608070834711989 0.093559127526075814 0 0.32752898329174251 0.087275571638775917 0 0.32250200999163903 0.089282838375054296 0 0.32280334085820628 0.085415831156240268 0 0.32752898329174251 0.087275571638775917 0 0.32250200999163903 0.089282838375054296 0 0.32280334085820628 0.085415831156240268 0 0.32250200999163903 0.089282838375054296 0 0.32035282931680542 0.087643754501534998 0 0.32250200999163903 0.089282838375054296 0 0.32035282931680542 0.087643754501534998 0 0.32002923398033067 0.090204744395543712 0 0.32250200999163903 0.089282838375054296 0 0.32065294180093012 0.093193220518229924 0 0.32002923398033067 0.090204744395543712 0 0.32608070834711989 0.093559127526075814 0 0.32250200999163903 0.089282838375054296 0 0.32065294180093012 0.093193220518229924 0 0.32002923398033067 0.090204744395543712 0 0.31755661622149128 0.092836271335589207 0 0.31856539782525239 0.088814370601496023 0 0.32065294180093012 0.093193220518229924 0 0.31755661622149128 0.092836271335589207 0 0.31867149744223933 0.094754154309848682 0 0.32065294180093012 0.093193220518229924 0 0.32002923398033067 0.090204744395543712 0 0.31755661622149128 0.092836271335589207 0 0.31755661622149128 0.092836271335589207 0 0.31856539782525239 0.088814370601496023 0 0.31444738342268502 0.09439980445508829 0 0.31900986159575229 0.084416431823393118 0 0.31856539782525239 0.088814370601496023 0 0.31444738342268502 0.09439980445508829 0 0.31900986159575229 0.084416431823393118 0 0.32035282931680542 0.087643754501534998 0 0.31856539782525239 0.088814370601496023 0 0.32035282931680542 0.087643754501534998 0 0.32002923398033067 0.090204744395543712 0 0.31856539782525239 0.088814370601496023 0 0.31905105828989389 0.1074777541473535 0 0.32447168062796272 0.1019354209429922 0 0.33023993644572291 0.1176592854729345 0 0.31444738342268502 0.09439980445508829 0 0.3127161207277861 0.097159161232785202 0 0.31523744640455642 0.096674561195270847 0 0.31755661622149128 0.092836271335589207 0 0.31444738342268502 0.09439980445508829 0 0.31648798250618571 0.094715110389085866 0 0.31444738342268502 0.09439980445508829 0 0.31523744640455642 0.096674561195270847 0 0.31648798250618571 0.094715110389085866 0 0.31755661622149128 0.092836271335589207 0 0.31648798250618571 0.094715110389085866 0 0.31867149744223933 0.094754154309848682 0 0.31648798250618571 0.094715110389085866 0 0.31772673606519097 0.09702753165697181 0 0.31867149744223933 0.094754154309848682 0 0.31523744640455642 0.096674561195270847 0 0.31648798250618571 0.094715110389085866 0 0.31772673606519097 0.09702753165697181 0 0.31772673606519097 0.09702753165697181 0 0.31867149744223933 0.094754154309848682 0 0.321227538341531 0.096550823100517047 0 0.32065294180093012 0.093193220518229924 0 0.31867149744223933 0.094754154309848682 0 0.321227538341531 0.096550823100517047 0 0.31772673606519097 0.09702753165697181 0 0.31977832651942317 0.09963358831696123 0 0.31552444133333668 0.10043340680398009 0 0.31772673606519097 0.09702753165697181 0 0.31977832651942317 0.09963358831696123 0 0.321227538341531 0.096550823100517047 0 0.31523744640455642 0.096674561195270847 0 0.31772673606519097 0.09702753165697181 0 0.31552444133333668 0.10043340680398009 0 0.3127161207277861 0.097159161232785202 0 0.31523744640455642 0.096674561195270847 0 0.31552444133333668 0.10043340680398009 0 0.3127161207277861 0.097159161232785202 0 0.31552444133333668 0.10043340680398009 0 0.31977832651942317 0.09963358831696123 0 0.31552444133333668 0.10043340680398009 0 0.31905105828989389 0.1074777541473535 0 0.31552444133333668 0.10043340680398009 0 0.31905105828989389 0.1074777541473535 0 0.31181623054981727 0.10496222661763149 0 0.31977832651942317 0.09963358831696123 0 0.31905105828989389 0.1074777541473535 0 0.32447168062796272 0.1019354209429922 0 0.32608070834711989 0.093559127526075814 0 0.32447168062796272 0.1019354209429922 0 0.321227538341531 0.096550823100517047 0 0.32608070834711989 0.093559127526075814 0 0.32447168062796272 0.1019354209429922 0 0.33250343723234771 0.099891447498657693 0 0.32608070834711989 0.093559127526075814 0 0.32065294180093012 0.093193220518229924 0 0.321227538341531 0.096550823100517047 0 0.31977832651942317 0.09963358831696123 0 0.32447168062796272 0.1019354209429922 0 0.321227538341531 0.096550823100517047 0 0.33023993644572291 0.1176592854729345 0 0.30487465544329329 0.1099997477025873 0 0.31076897999698122 0.13138561813381491 0 0.31905105828989389 0.1074777541473535 0 0.33023993644572291 0.1176592854729345 0 0.30487465544329329 0.1099997477025873 0 0.33023993644572291 0.1176592854729345 0 0.30487465544329329 0.1099997477025873 0 0.33023993644572291 0.1176592854729345 0 0.3408201801757057 0.1063098624684146 0 0.34394585264602451 0.1146221556197865 0 0.33023993644572291 0.1176592854729345 0 0.34394585264602451 0.1146221556197865 0 0.3428203498718726 0.12900944394918951 0 0.33023993644572291 0.1176592854729345 0 0.33250343723234771 0.099891447498657693 0 0.3408201801757057 0.1063098624684146 0 0.32447168062796272 0.1019354209429922 0 0.33023993644572291 0.1176592854729345 0 0.33250343723234771 0.099891447498657693 0 0.33499230639411082 0.090701540621842214 0 0.32608070834711989 0.093559127526075814 0 0.33250343723234771 0.099891447498657693 0 0.33499230639411082 0.090701540621842214 0 0.33250343723234771 0.099891447498657693 0 0.34457074205589422 0.09634688017618287 0 0.33250343723234771 0.099891447498657693 0 0.3408201801757057 0.1063098624684146 0 0.34457074205589422 0.09634688017618287 0 0.34457074205589422 0.09634688017618287 0 0.35470294575278571 0.1071465869995563 0 0.35452872311843853 0.094951567902463271 0 0.3408201801757057 0.1063098624684146 0 0.35470294575278571 0.1071465869995563 0 0.34394585264602451 0.1146221556197865 0 0.3408201801757057 0.1063098624684146 0 0.34457074205589422 0.09634688017618287 0 0.35470294575278571 0.1071465869995563 0 0.35470294575278571 0.1071465869995563 0 0.35452872311843853 0.094951567902463271 0 0.36348099922853111 0.1005190175339222 0 0.3503072700460676 0.1202964735167345 0 0.35967453495892859 0.1169579172156992 0 0.36234717415526407 0.1364010195192335 0 0.3503072700460676 0.1202964735167345 0 0.34394585264602451 0.1146221556197865 0 0.3428203498718726 0.12900944394918951 0 0.35470294575278571 0.1071465869995563 0 0.3503072700460676 0.1202964735167345 0 0.34394585264602451 0.1146221556197865 0 0.35470294575278571 0.1071465869995563 0 0.3503072700460676 0.1202964735167345 0 0.35967453495892859 0.1169579172156992 0 0.35470294575278571 0.1071465869995563 0 0.36295027232942828 0.11731485676542069 0 0.35967453495892859 0.1169579172156992 0 0.36295027232942828 0.11731485676542069 0 0.36234717415526407 0.1364010195192335 0 0.38504533440221611 0.119722437293203 0 0.36295027232942828 0.11731485676542069 0 0.38504533440221611 0.119722437293203 0 0.36295027232942828 0.11731485676542069 0 0.35967453495892859 0.1169579172156992 0 0.36234717415526407 0.1364010195192335 0 0.36295027232942828 0.11731485676542069 0 0.37477750142135058 0.1088187176377943 0 0.38504533440221611 0.119722437293203 0 0.36295027232942828 0.11731485676542069 0 0.35967453495892859 0.1169579172156992 0 0.36295027232942828 0.11731485676542069 0 0.36348099922853111 0.1005190175339222 0 0.35470294575278571 0.1071465869995563 0 0.36295027232942828 0.11731485676542069 0 0.36348099922853111 0.1005190175339222 0 0.36295027232942828 0.11731485676542069 0 0.36348099922853111 0.1005190175339222 0 0.37477750142135058 0.1088187176377943 0 0.36348099922853111 0.1005190175339222 0 0.37429536881623687 0.098074604033427826 0 0.36401172612763322 0.083723178302423651 0 0.36348099922853111 0.1005190175339222 0 0.37477750142135058 0.1088187176377943 0 0.37429536881623687 0.098074604033427826 0 0.36401172612763322 0.083723178302423651 0 0.38429234146977098 0.08967700590840777 0 0.35452872311843853 0.094951567902463271 0 0.36348099922853111 0.1005190175339222 0 0.36401172612763322 0.083723178302423651 0 0.36348099922853111 0.1005190175339222 0 0.36401172612763322 0.083723178302423651 0 0.36401172612763322 0.083723178302423651 0 0.37406678312049202 0.075217668842640778 0 0.38429234146977098 0.08967700590840777 0 0.37429536881623687 0.098074604033427826 0 0.36401172612763322 0.083723178302423651 0 0.38429234146977098 0.08967700590840777 0 0.35452872311843853 0.094951567902463271 0 0.36401172612763322 0.083723178302423651 0 0.34587720242734871 0.08702217650023128 0 0.34175143557817561 0.077188172822820311 0 0.36401172612763322 0.083723178302423651 0 0.34587720242734871 0.08702217650023128 0 0.34175143557817561 0.077188172822820311 0 0.36401172612763322 0.083723178302423651 0 0.34457074205589422 0.09634688017618287 0 0.35452872311843853 0.094951567902463271 0 0.34587720242734871 0.08702217650023128 0 0.34410035701304331 0.067304992612198883 0 0.36460793437490813 0.064855060091933106 0 0.34410035701304331 0.067304992612198883 0 0.36460793437490813 0.064855060091933106 0 0.35382517865032531 0.060128207359962618 0 0.34175143557817561 0.077188172822820311 0 0.36401172612763322 0.083723178302423651 0 0.35361786327343991 0.073267850957343977 0 0.34410035701304331 0.067304992612198883 0 0.35361786327343991 0.073267850957343977 0 0.36460793437490813 0.064855060091933106 0 0.34175143557817561 0.077188172822820311 0 0.34410035701304331 0.067304992612198883 0 0.35361786327343991 0.073267850957343977 0 0.36401172612763322 0.083723178302423651 0 0.35361786327343991 0.073267850957343977 0 0.36460793437490813 0.064855060091933106 0 0.36460793437490813 0.064855060091933106 0 0.37406678312049202 0.075217668842640778 0 0.38335513050965248 0.062615431067798891 0 0.36401172612763322 0.083723178302423651 0 0.36460793437490813 0.064855060091933106 0 0.37406678312049202 0.075217668842640778 0 0.36460793437490813 0.064855060091933106 0 0.38335513050965248 0.062615431067798891 0 0.36401172612763322 0.083723178302423651 0 0.36460793437490813 0.064855060091933106 0 0.36495861964216392 0.053756972959655029 0 0.38335513050965248 0.062615431067798891 0 0.37627607455317308 0.046739383711733092 0 0.36460793437490813 0.064855060091933106 0 0.36495861964216392 0.053756972959655029 0 0.38335513050965248 0.062615431067798891 0 0.36460793437490813 0.064855060091933106 0 0.36495861964216392 0.053756972959655029 0 0.36460793437490813 0.064855060091933106 0 0.36495861964216392 0.053756972959655029 0 0.35382517865032531 0.060128207359962618 0 0.36495861964216392 0.053756972959655029 0 0.36345308941255949 0.042459066694132047 0 0.35649846992077372 0.046317552771796992 0 0.36495861964216392 0.053756972959655029 0 0.36345308941255949 0.042459066694132047 0 0.37627607455317308 0.046739383711733092 0 0.36345308941255949 0.042459066694132047 0 0.36336446860223121 0.03009399076072955 0 0.37627607455317308 0.046739383711733092 0 0.36711094393614468 0.019122235597616451 0 0.37627607455317308 0.046739383711733092 0 0.36711094393614468 0.019122235597616451 0 0.36336446860223121 0.03009399076072955 0 0.37627607455317308 0.046739383711733092 0 0.36345308941255949 0.042459066694132047 0 0.35522830845076858 0.035768052048995899 0 0.36336446860223121 0.03009399076072955 0 0.36345308941255949 0.042459066694132047 0 0.35649846992077372 0.046317552771796992 0 0.35522830845076858 0.035768052048995899 0 0.35649846992077372 0.046317552771796992 0 0.35522830845076858 0.035768052048995899 0 0.34571649380843678 0.043407475026188892 0 0.35522830845076858 0.035768052048995899 0 0.36336446860223121 0.03009399076072955 0 0.3564466263842383 0.029180467000669119 0 0.35522830845076858 0.035768052048995899 0 0.3564466263842383 0.029180467000669119 0 0.34600227713147708 0.02987843874610422 0 0.35522830845076858 0.035768052048995899 0 0.34571649380843678 0.043407475026188892 0 0.34600227713147708 0.02987843874610422 0 0.35649846992077372 0.046317552771796992 0 0.34571649380843678 0.043407475026188892 0 0.34839684243299313 0.051089282673160437 0 0.34839684243299313 0.051089282673160437 0 0.34390633610852561 0.057939469402378589 0 0.33953253204834782 0.051993059995984942 0 0.34571649380843678 0.043407475026188892 0 0.34839684243299313 0.051089282673160437 0 0.33953253204834782 0.051993059995984942 0 0.34839684243299313 0.051089282673160437 0 0.34390633610852561 0.057939469402378589 0 0.35382517865032531 0.060128207359962618 0 0.34410035701304331 0.067304992612198883 0 0.34390633610852561 0.057939469402378589 0 0.35382517865032531 0.060128207359962618 0 0.36495861964216392 0.053756972959655029 0 0.35382517865032531 0.060128207359962618 0 0.35591977766156402 0.05282300394114376 0 0.35649846992077372 0.046317552771796992 0 0.34839684243299313 0.051089282673160437 0 0.35591977766156402 0.05282300394114376 0 0.34839684243299313 0.051089282673160437 0 0.35382517865032531 0.060128207359962618 0 0.35591977766156402 0.05282300394114376 0 0.36495861964216392 0.053756972959655029 0 0.35649846992077372 0.046317552771796992 0 0.35591977766156402 0.05282300394114376 0 0.37225611890662658 0.01286632186202278 0 0.36711094393614468 0.019122235597616451 0 0.35794581331911368 -0.0084949125164993592 0 0.37090191095536529 0.001615015053724872 0 0.37225611890662658 0.01286632186202278 0 0.36214492886995592 -0.0083598523967395033 0 0.37225611890662658 0.01286632186202278 0 0.36214492886995592 -0.0083598523967395033 0 0.36711094393614468 0.019122235597616451 0 0.35794581331911368 -0.0084949125164993592 0 0.36711094393614468 0.019122235597616451 0 0.35592258435839152 0.0075058852653484128 0 0.35794581331911368 -0.0084949125164993592 0 0.37090191095536529 0.001615015053724872 0 0.37225611890662658 0.01286632186202278 0 0.3750355928727056 0.0054101789931870429 0 0.37090191095536529 0.001615015053724872 0 0.37559324224349883 0.0012545259934697111 0 0.37346814742201712 -0.0024962307414294238 0 0.37090191095536529 0.001615015053724872 0 0.3750355928727056 0.0054101789931870429 0 0.37559324224349883 0.0012545259934697111 0 0.36711094393614468 0.019122235597616451 0 0.35785451202996088 0.01738318013491378 0 0.35592258435839152 0.0075058852653484128 0 0.37225611890662658 0.01286632186202278 0 0.36711094393614468 0.019122235597616451 0 0.38236730894329912 0.034092496120784167 0 0.36711094393614468 0.019122235597616451 0 0.36056009426804991 0.023072933415598029 0 0.35785451202996088 0.01738318013491378 0 0.36711094393614468 0.019122235597616451 0 0.36056009426804991 0.023072933415598029 0 0.36336446860223121 0.03009399076072955 0 0.36056009426804991 0.023072933415598029 0 0.36336446860223121 0.03009399076072955 0 0.3564466263842383 0.029180467000669119 0 0.3564466263842383 0.029180467000669119 0 0.34600227713147708 0.02987843874610422 0 0.35458532257813941 0.022744931009210451 0 0.36056009426804991 0.023072933415598029 0 0.3564466263842383 0.029180467000669119 0 0.35458532257813941 0.022744931009210451 0 0.34600227713147708 0.02987843874610422 0 0.34826910990683879 0.0210479817161962 0 0.34338576724485381 0.02330923585316946 0 0.34600227713147708 0.02987843874610422 0 0.34826910990683879 0.0210479817161962 0 0.35458532257813941 0.022744931009210451 0 0.34826910990683879 0.0210479817161962 0 0.35037724046542579 0.015128277350368299 0 0.34176376488838062 0.020373692755154101 0 0.34826910990683879 0.0210479817161962 0 0.35458532257813941 0.022744931009210451 0 0.35037724046542579 0.015128277350368299 0 0.34826910990683879 0.0210479817161962 0 0.34176376488838062 0.020373692755154101 0 0.34338576724485381 0.02330923585316946 0 0.35458532257813941 0.022744931009210451 0 0.35785451202996088 0.01738318013491378 0 0.35037724046542579 0.015128277350368299 0 0.36056009426804991 0.023072933415598029 0 0.35458532257813941 0.022744931009210451 0 0.35785451202996088 0.01738318013491378 0 0.34815491648886387 0.0067821436265049617 0 0.35592258435839152 0.0075058852653484128 0 0.35794581331911368 -0.0084949125164993592 0 0.34815491648886387 0.0067821436265049617 0 0.34059737981349952 0.0024802419492871192 0 0.35794581331911368 -0.0084949125164993592 0 0.35785451202996088 0.01738318013491378 0 0.35037724046542579 0.015128277350368299 0 0.35592258435839152 0.0075058852653484128 0 0.35037724046542579 0.015128277350368299 0 0.34815491648886387 0.0067821436265049617 0 0.35592258435839152 0.0075058852653484128 0 0.35037724046542579 0.015128277350368299 0 0.34815491648886387 0.0067821436265049617 0 0.34176376488838062 0.020373692755154101 0 0.34059737981349952 0.0024802419492871192 0 0.33558071435360692 0.019515787678737451 0 0.34815491648886387 0.0067821436265049617 0 0.34059737981349952 0.0024802419492871192 0 0.34176376488838062 0.020373692755154101 0 0.34059737981349952 0.0024802419492871192 0 0.33558071435360692 0.019515787678737451 0 0.31761056603664078 0.017022409793763051 0 0.34059737981349952 0.0024802419492871192 0 0.31761056603664078 0.017022409793763051 0 0.34059737981349952 0.0024802419492871192 0 0.33558071435360692 0.019515787678737451 0 0.34176376488838062 0.020373692755154101 0 0.33558071435360692 0.019515787678737451 0 0.34176376488838062 0.020373692755154101 0 0.34338576724485381 0.02330923585316946 0 0.33558071435360692 0.019515787678737451 0 0.34176376488838062 0.020373692755154101 0 0.34600227713147708 0.02987843874610422 0 0.33558071435360692 0.019515787678737451 0 0.34338576724485381 0.02330923585316946 0 0.31761056603664078 0.017022409793763051 0 0.31321186938030848 0.034232197795136518 0 0.30804476918037921 0.023074028117219859 0 0.32359058322888917 0.029041826866097471 0 0.31761056603664078 0.017022409793763051 0 0.31321186938030848 0.034232197795136518 0 0.33558071435360692 0.019515787678737451 0 0.31761056603664078 0.017022409793763051 0 0.33558071435360692 0.019515787678737451 0 0.32359058322888917 0.029041826866097471 0 0.31761056603664078 0.017022409793763051 0 0.31761056603664078 0.017022409793763051 0 0.30804476918037921 0.023074028117219859 0 0.34059737981349952 0.0024802419492871192 0 0.31761056603664078 0.017022409793763051 0 0.31692077213570408 0.0033865027296077219 0 0.31761056603664078 0.017022409793763051 0 0.31692077213570408 0.0033865027296077219 0 0.30551679155196743 0.0042433732952555916 0 0.32359277965117839 0.069754925132464729 0 0.33393492657034529 0.058799633863998363 0 0.3279591831450005 0.0453969121967535 0 0.34571649380843678 0.043407475026188892 0 0.33953253204834782 0.051993059995984942 0 0.3279591831450005 0.0453969121967535 0 0.33393492657034529 0.058799633863998363 0 0.33953253204834782 0.051993059995984942 0 0.3279591831450005 0.0453969121967535 0 0.34410035701304331 0.067304992612198883 0 0.34390633610852561 0.057939469402378589 0 0.33393492657034529 0.058799633863998363 0 0.34390633610852561 0.057939469402378589 0 0.33393492657034529 0.058799633863998363 0 0.33953253204834782 0.051993059995984942 0 0.34571649380843678 0.043407475026188892 0 0.34600227713147708 0.02987843874610422 0 0.3279591831450005 0.0453969121967535 0 0.33558071435360692 0.019515787678737451 0 0.32359058322888917 0.029041826866097471 0 0.3279591831450005 0.0453969121967535 0 0.34600227713147708 0.02987843874610422 0 0.33558071435360692 0.019515787678737451 0 0.3279591831450005 0.0453969121967535 0 0.33558071435360692 0.019515787678737451 0 0.3279591831450005 0.0453969121967535 0 0.32359058322888917 0.029041826866097471 0 0.3279591831450005 0.0453969121967535 0 0.31321186938030848 0.034232197795136518 0 0.3279591831450005 0.0453969121967535 0 0.31321186938030848 0.034232197795136518 0 0.31135418713416713 0.047907527637148457 0 0.32033765193639341 0.071278036714769386 0 0.3279591831450005 0.0453969121967535 0 0.3279591831450005 0.0453969121967535 0 0.31659726695020879 0.057741099701928013 0 0.31135418713416713 0.047907527637148457 0 0.32033765193639341 0.071278036714769386 0 0.3279591831450005 0.0453969121967535 0 0.31659726695020879 0.057741099701928013 0 0.32033765193639341 0.071278036714769386 0 0.32359277965117839 0.069754925132464729 0 0.3279591831450005 0.0453969121967535 0 0.31659726695020879 0.057741099701928013 0 0.30759447206042068 0.058064646314817593 0 0.31191052942345943 0.06461996542148904 0 0.30759447206042068 0.058064646314817593 0 0.31191052942345943 0.06461996542148904 0 0.30583238908608268 0.064514886139365471 0 0.30759447206042068 0.058064646314817593 0 0.29673924059311918 0.064154296007503053 0 0.30583238908608268 0.064514886139365471 0 0.30759447206042068 0.058064646314817593 0 0.29985690938384751 0.051071338199449347 0 0.29673924059311918 0.064154296007503053 0 0.30759447206042068 0.058064646314817593 0 0.29985690938384751 0.051071338199449347 0 0.31135418713416713 0.047907527637148457 0 0.31659726695020879 0.057741099701928013 0 0.30759447206042068 0.058064646314817593 0 0.31135418713416713 0.047907527637148457 0 0.31321186938030848 0.034232197795136518 0 0.30290542188521691 0.040938971614805877 0 0.29701742382200741 0.030110563854659451 0 0.29985690938384751 0.051071338199449347 0 0.31135418713416713 0.047907527637148457 0 0.30290542188521691 0.040938971614805877 0 0.31321186938030848 0.034232197795136518 0 0.31135418713416713 0.047907527637148457 0 0.30290542188521691 0.040938971614805877 0 0.30290542188521691 0.040938971614805877 0 0.29291891202970488 0.041822225762844917 0 0.29701742382200741 0.030110563854659451 0 0.29985690938384751 0.051071338199449347 0 0.30290542188521691 0.040938971614805877 0 0.29291891202970488 0.041822225762844917 0 0.29291891202970488 0.041822225762844917 0 0.28587890106132929 0.033477960595785249 0 0.29701742382200741 0.030110563854659451 0 0.28587890106132929 0.033477960595785249 0 0.28216069753309142 0.041317683448828448 0 0.27580714429573838 0.036047996497855478 0 0.29291891202970488 0.041822225762844917 0 0.28587890106132929 0.033477960595785249 0 0.28216069753309142 0.041317683448828448 0 0.29291891202970488 0.041822225762844917 0 0.28216069753309142 0.041317683448828448 0 0.28969411849273702 0.054016836863541189 0 0.28969411849273702 0.054016836863541189 0 0.2790750041872343 0.057936689045949508 0 0.29673924059311918 0.064154296007503053 0 0.29985690938384751 0.051071338199449347 0 0.28969411849273702 0.054016836863541189 0 0.29673924059311918 0.064154296007503053 0 0.29985690938384751 0.051071338199449347 0 0.29291891202970488 0.041822225762844917 0 0.28969411849273702 0.054016836863541189 0 0.31761056603664078 0.017022409793763051 0 0.30551679155196743 0.0042433732952555916 0 0.29177903457023119 0.01343825633229275 0 0.31761056603664078 0.017022409793763051 0 0.29177903457023119 0.01343825633229275 0 0.30551679155196743 0.0042433732952555916 0 0.29177903457023119 0.01343825633229275 0 0.29374775224230598 -0.0067401621391478634 0 0.31692077213570408 0.0033865027296077219 0 0.30551679155196743 0.0042433732952555916 0 0.30752583277495482 -0.005890140240237136 0 0.31761056603664078 0.017022409793763051 0 0.30804476918037921 0.023074028117219859 0 0.29177903457023119 0.01343825633229275 0 0.30804476918037921 0.023074028117219859 0 0.29701742382200741 0.030110563854659451 0 0.29177903457023119 0.01343825633229275 0 0.31321186938030848 0.034232197795136518 0 0.30804476918037921 0.023074028117219859 0 0.29701742382200741 0.030110563854659451 0 0.29701742382200741 0.030110563854659451 0 0.28277000029150912 0.022801513619568819 0 0.29177903457023119 0.01343825633229275 0 0.28587890106132929 0.033477960595785249 0 0.29701742382200741 0.030110563854659451 0 0.28277000029150912 0.022801513619568819 0 0.29177903457023119 0.01343825633229275 0 0.27875288582191682 -0.0023548690430809189 0 0.29374775224230598 -0.0067401621391478634 0 0.26594750310382148 0.0098541028708230075 0 0.2621765913496944 -0.0068918630554423406 0 0.27875288582191682 -0.0023548690430809189 0 0.29177903457023119 0.01343825633229275 0 0.26594750310382148 0.0098541028708230075 0 0.27875288582191682 -0.0023548690430809189 0 0.29177903457023119 0.01343825633229275 0 0.26594750310382148 0.0098541028708230075 0 0.28277000029150912 0.022801513619568819 0 0.29177903457023119 0.01343825633229275 0 0.26594750310382148 0.0098541028708230075 0 0.28277000029150912 0.022801513619568819 0 0.26594750310382148 0.0098541028708230075 0 0.27322713890015582 0.027126684444283612 0 0.26594750310382148 0.0098541028708230075 0 0.2661017984892769 0.02281803414120482 0 0.27322713890015582 0.027126684444283612 0 0.28587890106132929 0.033477960595785249 0 0.28277000029150912 0.022801513619568819 0 0.27322713890015582 0.027126684444283612 0 0.27322713890015582 0.027126684444283612 0 0.26673013093218328 0.029697160353901051 0 0.27011315775408551 0.034019583062793672 0 0.2661017984892769 0.02281803414120482 0 0.27322713890015582 0.027126684444283612 0 0.26673013093218328 0.029697160353901051 0 0.24198961628985061 0.024757477467026421 0 0.25850242102094689 0.024594188895811581 0 0.25247642878070692 0.01642940461664151 0 0.24198961628985061 0.024757477467026421 0 0.25850242102094689 0.024594188895811581 0 0.2658418673912939 0.039387157165283869 0 0.2661017984892769 0.02281803414120482 0 0.26673013093218328 0.029697160353901051 0 0.25850242102094689 0.024594188895811581 0 0.26673013093218328 0.029697160353901051 0 0.25850242102094689 0.024594188895811581 0 0.2658418673912939 0.039387157165283869 0 0.26594750310382148 0.0098541028708230075 0 0.25850242102094689 0.024594188895811581 0 0.25247642878070692 0.01642940461664151 0 0.26594750310382148 0.0098541028708230075 0 0.2661017984892769 0.02281803414120482 0 0.25850242102094689 0.024594188895811581 0 0.24346617470820839 0.0065118492329050426 0 0.26594750310382148 0.0098541028708230075 0 0.25247642878070692 0.01642940461664151 0 0.24346617470820839 0.0065118492329050426 0 0.26594750310382148 0.0098541028708230075 0 0.2621765913496944 -0.0068918630554423406 0 0.28969411849273702 0.054016836863541189 0 0.2790750041872343 0.057936689045949508 0 0.2658418673912939 0.039387157165283869 0 0.26723811199204522 0.050919037691422808 0 0.2790750041872343 0.057936689045949508 0 0.26225444591695868 0.038325452952531591 0 0.2790750041872343 0.057936689045949508 0 0.26225444591695868 0.038325452952531591 0 0.26723811199204522 0.050919037691422808 0 0.2689059272703701 0.060451162918747157 0 0.26151665249852779 0.052757877113579328 0 0.26723811199204522 0.050919037691422808 0 0.2689059272703701 0.060451162918747157 0 0.2790750041872343 0.057936689045949508 0 0.28216069753309142 0.041317683448828448 0 0.28969411849273702 0.054016836863541189 0 0.2658418673912939 0.039387157165283869 0 0.28969411849273702 0.054016836863541189 0 0.2658418673912939 0.039387157165283869 0 0.28216069753309142 0.041317683448828448 0 0.27580714429573838 0.036047996497855478 0 0.2658418673912939 0.039387157165283869 0 0.2790750041872343 0.057936689045949508 0 0.2658418673912939 0.039387157165283869 0 0.26225444591695868 0.038325452952531591 0 0.28587890106132929 0.033477960595785249 0 0.27322713890015582 0.027126684444283612 0 0.27580714429573838 0.036047996497855478 0 0.27322713890015582 0.027126684444283612 0 0.27580714429573838 0.036047996497855478 0 0.27011315775408551 0.034019583062793672 0 0.27580714429573838 0.036047996497855478 0 0.27011315775408551 0.034019583062793672 0 0.2658418673912939 0.039387157165283869 0 0.26673013093218328 0.029697160353901051 0 0.27011315775408551 0.034019583062793672 0 0.2658418673912939 0.039387157165283869 0 0.24198961628985061 0.024757477467026421 0 0.2658418673912939 0.039387157165283869 0 0.25791080901751018 0.042862374278140228 0 0.26082869913321832 0.046354276337091667 0 0.26225444591695868 0.038325452952531591 0 0.26723811199204522 0.050919037691422808 0 0.26082869913321832 0.046354276337091667 0 0.26225444591695868 0.038325452952531591 0 0.25791080901751018 0.042862374278140228 0 0.26225444591695868 0.038325452952531591 0 0.25335339084341763 0.040298913609290901 0 0.2475357991980261 0.035733063029522713 0 0.24198961628985061 0.024757477467026421 0 0.26225444591695868 0.038325452952531591 0 0.24198961628985061 0.024757477467026421 0 0.2658418673912939 0.039387157165283869 0 0.26225444591695868 0.038325452952531591 0 0.25791080901751018 0.042862374278140228 0 0.26082869913321832 0.046354276337091667 0 0.25525143634872199 0.047632948710013827 0 0.2475357991980261 0.035733063029522713 0 0.26225444591695868 0.038325452952531591 0 0.25335339084341763 0.040298913609290901 0 0.24602147146836109 0.043232649391599723 0 0.25335339084341763 0.040298913609290901 0 0.25525143634872199 0.047632948710013827 0 0.25791080901751018 0.042862374278140228 0 0.25335339084341763 0.040298913609290901 0 0.25525143634872199 0.047632948710013827 0 0.24634955337953571 0.053893111669236007 0 0.25525143634872199 0.047632948710013827 0 0.25787761389685071 0.060043714717027297 0 0.25525143634872199 0.047632948710013827 0 0.26151665249852779 0.052757877113579328 0 0.25787761389685071 0.060043714717027297 0 0.26082869913321832 0.046354276337091667 0 0.25525143634872199 0.047632948710013827 0 0.26151665249852779 0.052757877113579328 0 0.26723811199204522 0.050919037691422808 0 0.26082869913321832 0.046354276337091667 0 0.26151665249852779 0.052757877113579328 0 0.2689059272703701 0.060451162918747157 0 0.26151665249852779 0.052757877113579328 0 0.25787761389685071 0.060043714717027297 0 0.2462610949675203 0.066061853943085516 0 0.24634955337953571 0.053893111669236007 0 0.25787761389685071 0.060043714717027297 0 0.24367230013985861 0.080371612271929974 0 0.25647829486002077 0.070887988280119982 0 0.26295159735622781 0.078238523240717658 0 0.2462610949675203 0.066061853943085516 0 0.25787761389685071 0.060043714717027297 0 0.25647829486002077 0.070887988280119982 0 0.25647829486002077 0.070887988280119982 0 0.26295159735622781 0.078238523240717658 0 0.26918409610933902 0.071322724585838992 0 0.25787761389685071 0.060043714717027297 0 0.25647829486002077 0.070887988280119982 0 0.26918409610933902 0.071322724585838992 0 0.2689059272703701 0.060451162918747157 0 0.25787761389685071 0.060043714717027297 0 0.26918409610933902 0.071322724585838992 0 0.24367230013985861 0.080371612271929974 0 0.26295159735622781 0.078238523240717658 0 0.2658729328197138 0.087633831468880416 0 0.24367230013985861 0.080371612271929974 0 0.2658729328197138 0.087633831468880416 0 0.25414409343843419 0.094680672161892993 0 0.24367230013985861 0.080371612271929974 0 0.2658729328197138 0.087633831468880416 0 0.2658729328197138 0.087633831468880416 0 0.28807356549956892 0.094896050665830844 0 0.2658729328197138 0.087633831468880416 0 0.27955036285220652 0.080976459596818873 0 0.28807356549956892 0.094896050665830844 0 0.26295159735622781 0.078238523240717658 0 0.2658729328197138 0.087633831468880416 0 0.27955036285220652 0.080976459596818873 0 0.26295159735622781 0.078238523240717658 0 0.27955036285220652 0.080976459596818873 0 0.26918409610933902 0.071322724585838992 0 0.2689059272703701 0.060451162918747157 0 0.26918409610933902 0.071322724585838992 0 0.27854408493822358 0.069726934358665046 0 0.27955036285220652 0.080976459596818873 0 0.26918409610933902 0.071322724585838992 0 0.27854408493822358 0.069726934358665046 0 0.2689059272703701 0.060451162918747157 0 0.2790750041872343 0.057936689045949508 0 0.27854408493822358 0.069726934358665046 0 0.2790750041872343 0.057936689045949508 0 0.29589556245750998 0.077547925139367507 0 0.27955036285220652 0.080976459596818873 0 0.27854408493822358 0.069726934358665046 0 0.29589556245750998 0.077547925139367507 0 0.2790750041872343 0.057936689045949508 0 0.29673924059311918 0.064154296007503053 0 0.29589556245750998 0.077547925139367507 0 0.2790750041872343 0.057936689045949508 0 0.27854408493822358 0.069726934358665046 0 0.29589556245750998 0.077547925139367507 0 0.27955036285220652 0.080976459596818873 0 0.29589556245750998 0.077547925139367507 0 0.29249958534706549 0.087947596939160613 0 0.27955036285220652 0.080976459596818873 0 0.29249958534706549 0.087947596939160613 0 0.28807356549956892 0.094896050665830844 0 0.29249958534706549 0.087947596939160613 0 0.29846314880882868 0.092216417854824054 0 0.29469678560355822 0.098645951823760583 0 0.29589556245750998 0.077547925139367507 0 0.29249958534706549 0.087947596939160613 0 0.29846314880882868 0.092216417854824054 0 0.3127161207277861 0.097159161232785202 0 0.29589556245750998 0.077547925139367507 0 0.30421091155776969 0.094929838866363983 0 0.31263847949250367 0.082913674264340667 0 0.3127161207277861 0.097159161232785202 0 0.29589556245750998 0.077547925139367507 0 0.31263847949250367 0.082913674264340667 0 0.29589556245750998 0.077547925139367507 0 0.30991239423794648 0.075972456002361882 0 0.29589556245750998 0.077547925139367507 0 0.29846314880882868 0.092216417854824054 0 0.30421091155776969 0.094929838866363983 0 0.3127161207277861 0.097159161232785202 0 0.29589556245750998 0.077547925139367507 0 0.31336302534830279 0.078499270296709972 0 0.31263847949250367 0.082913674264340667 0 0.30991239423794648 0.075972456002361882 0 0.31272170493105778 0.071057610328129364 0 0.30991239423794648 0.075972456002361882 0 0.3070853142673316 0.071220636813652191 0 0.31272170493105778 0.071057610328129364 0 0.3070853142673316 0.071220636813652191 0 0.31191052942345943 0.06461996542148904 0 0.3070853142673316 0.071220636813652191 0 0.31191052942345943 0.06461996542148904 0 0.30583238908608268 0.064514886139365471 0 0.29673924059311918 0.064154296007503053 0 0.3070853142673316 0.071220636813652191 0 0.30583238908608268 0.064514886139365471 0 0.29589556245750998 0.077547925139367507 0 0.30991239423794648 0.075972456002361882 0 0.3070853142673316 0.071220636813652191 0 0.29673924059311918 0.064154296007503053 0 0.29589556245750998 0.077547925139367507 0 0.3070853142673316 0.071220636813652191 0 0.30487465544329329 0.1099997477025873 0 0.28721430642559082 0.1226541295657389 0 0.31076897999698122 0.13138561813381491 0 0.31905105828989389 0.1074777541473535 0 0.30487465544329329 0.1099997477025873 0 0.31181623054981727 0.10496222661763149 0 0.30487465544329329 0.1099997477025873 0 0.31181623054981727 0.10496222661763149 0 0.3078147671327453 0.10193799781660499 0 0.30487465544329329 0.1099997477025873 0 0.3078147671327453 0.10193799781660499 0 0.30201205370923911 0.099545990812828208 0 0.31552444133333668 0.10043340680398009 0 0.31181623054981727 0.10496222661763149 0 0.3078147671327453 0.10193799781660499 0 0.3127161207277861 0.097159161232785202 0 0.30933103794875211 0.09791010211654376 0 0.30421091155776969 0.094929838866363983 0 0.3127161207277861 0.097159161232785202 0 0.3078147671327453 0.10193799781660499 0 0.30933103794875211 0.09791010211654376 0 0.3127161207277861 0.097159161232785202 0 0.31552444133333668 0.10043340680398009 0 0.3078147671327453 0.10193799781660499 0 0.3078147671327453 0.10193799781660499 0 0.30933103794875211 0.09791010211654376 0 0.30421091155776969 0.094929838866363983 0 0.29846314880882868 0.092216417854824054 0 0.30421091155776969 0.094929838866363983 0 0.30201205370923911 0.099545990812828208 0 0.3078147671327453 0.10193799781660499 0 0.30421091155776969 0.094929838866363983 0 0.30201205370923911 0.099545990812828208 0 0.29846314880882868 0.092216417854824054 0 0.30201205370923911 0.099545990812828208 0 0.29469678560355822 0.098645951823760583 0 0.30487465544329329 0.1099997477025873 0 0.30201205370923911 0.099545990812828208 0 0.29469678560355822 0.098645951823760583 0 0.30487465544329329 0.1099997477025873 0 0.29469678560355822 0.098645951823760583 0 0.27950937444086382 0.1023402099322402 0 0.30487465544329329 0.1099997477025873 0 0.27950937444086382 0.1023402099322402 0 0.29249958534706549 0.087947596939160613 0 0.29469678560355822 0.098645951823760583 0 0.28807356549956892 0.094896050665830844 0 0.29469678560355822 0.098645951823760583 0 0.28807356549956892 0.094896050665830844 0 0.27950937444086382 0.1023402099322402 0 0.30487465544329329 0.1099997477025873 0 0.28721430642559082 0.1226541295657389 0 0.27950937444086382 0.1023402099322402 0 0.28721430642559082 0.1226541295657389 0 0.27585420173472958 0.1153447662041039 0 0.27950937444086382 0.1023402099322402 0 0.28721430642559082 0.1226541295657389 0 0.27585420173472958 0.1153447662041039 0 0.26990966348927953 0.13579074406919031 0 0.27585420173472958 0.1153447662041039 0 0.27950937444086382 0.1023402099322402 0 0.26247581073238402 0.1123927828161298 0 0.27585420173472958 0.1153447662041039 0 0.26247581073238402 0.1123927828161298 0 0.26990966348927953 0.13579074406919031 0 0.27950937444086382 0.1023402099322402 0 0.25414409343843419 0.094680672161892993 0 0.2658729328197138 0.087633831468880416 0 0.28807356549956892 0.094896050665830844 0 0.27950937444086382 0.1023402099322402 0 0.2658729328197138 0.087633831468880416 0 0.27950937444086382 0.1023402099322402 0 0.25414409343843419 0.094680672161892993 0 0.24990073319112441 0.1073804986731914 0 0.25414409343843419 0.094680672161892993 0 0.26247581073238402 0.1123927828161298 0 0.27950937444086382 0.1023402099322402 0 0.25414409343843419 0.094680672161892993 0 0.26247581073238402 0.1123927828161298 0 0.24572908158378551 0.11929198167931281 0 0.24990073319112441 0.1073804986731914 0 0.26247581073238402 0.1123927828161298 0 0.24572908158378551 0.11929198167931281 0 0.26247581073238402 0.1123927828161298 0 0.26990966348927953 0.13579074406919031 0 0.24572908158378551 0.11929198167931281 0 0.25565231191928262 0.1381843690488736 0 0.26990966348927953 0.13579074406919031 0 0.24572908158378551 0.11929198167931281 0 0.26990966348927953 0.13579074406919031 0 0.24572908158378551 0.11929198167931281 0 0.25565231191928262 0.1381843690488736 0 0.26990966348927953 0.13579074406919031 0 0.26557554225477992 0.15707675641843441 0 0.29409024539477341 0.15228950645906841 0 0.25565231191928262 0.1381843690488736 0 0.26990966348927953 0.13579074406919031 0 0.26557554225477992 0.15707675641843441 0 0.2475185690224809 0.1408852277912436 0 0.25081198860488002 0.15849984886612609 0 0.26557554225477992 0.15707675641843441 0 0.25565231191928262 0.1381843690488736 0 0.26557554225477992 0.15707675641843441 0 0.2475185690224809 0.1408852277912436 0 0.26557554225477992 0.15707675641843441 0 0.2475185690224809 0.1408852277912436 0 0.25565231191928262 0.1381843690488736 0 0.26557554225477992 0.15707675641843441 0 0.24575716741124559 0.16745184546123579 0 0.25081198860488002 0.15849984886612609 0 0.25898628086233733 0.1706474806845848 0 0.25081198860488002 0.15849984886612609 0 0.25898628086233733 0.1706474806845848 0 0.26557554225477992 0.15707675641843441 0 0.24819651829899059 0.18735539736670909 0 0.25898628086233733 0.1706474806845848 0 0.26711192328666128 0.18138554495769721 0 0.24819651829899059 0.18735539736670909 0 0.26711192328666128 0.18138554495769721 0 0.24819651829899059 0.18735539736670909 0 0.26711192328666128 0.18138554495769721 0 0.27247877088296912 0.18943970646206451 0 0.24819651829899059 0.18735539736670909 0 0.24575716741124559 0.16745184546123579 0 0.25898628086233733 0.1706474806845848 0 0.26711192328666128 0.18138554495769721 0 0.27244310790657578 0.1701516026321192 0 0.28602732827433208 0.17541569254868519 0 0.26711192328666128 0.18138554495769721 0 0.27246904350932849 0.18270594109834659 0 0.28602732827433208 0.17541569254868519 0 0.26711192328666128 0.18138554495769721 0 0.28602732827433208 0.17541569254868519 0 0.26711192328666128 0.18138554495769721 0 0.27246904350932849 0.18270594109834659 0 0.27247877088296912 0.18943970646206451 0 0.27246904350932849 0.18270594109834659 0 0.27247877088296912 0.18943970646206451 0 0.25898628086233733 0.1706474806845848 0 0.26711192328666128 0.18138554495769721 0 0.27244310790657578 0.1701516026321192 0 0.27246904350932849 0.18270594109834659 0 0.2818147938743939 0.1835409301712482 0 0.28602732827433208 0.17541569254868519 0 0.27246904350932849 0.18270594109834659 0 0.2818147938743939 0.1835409301712482 0 0.27247877088296912 0.18943970646206451 0 0.26557554225477992 0.15707675641843441 0 0.28591118997876069 0.1630262197324848 0 0.28602732827433208 0.17541569254868519 0 0.26557554225477992 0.15707675641843441 0 0.27244310790657578 0.1701516026321192 0 0.28602732827433208 0.17541569254868519 0 0.26557554225477992 0.15707675641843441 0 0.28602732827433208 0.17541569254868519 0 0.26557554225477992 0.15707675641843441 0 0.27244310790657578 0.1701516026321192 0 0.25898628086233733 0.1706474806845848 0 0.26557554225477992 0.15707675641843441 0 0.27244310790657578 0.1701516026321192 0 0.26557554225477992 0.15707675641843441 0 0.28591118997876069 0.1630262197324848 0 0.29409024539477341 0.15228950645906841 0 0.28591118997876069 0.1630262197324848 0 0.29386570465520012 0.17294183855768841 0 0.29409024539477341 0.15228950645906841 0 0.28591118997876069 0.1630262197324848 0 0.28602732827433208 0.17541569254868519 0 0.29386570465520012 0.17294183855768841 0 0.2818147938743939 0.1835409301712482 0 0.28602732827433208 0.17541569254868519 0 0.29737874440499112 0.18413974749967649 0 0.2818147938743939 0.1835409301712482 0 0.29737874440499112 0.18413974749967649 0 0.2858594623935794 0.190588261231491 0 0.28602732827433208 0.17541569254868519 0 0.29386570465520012 0.17294183855768841 0 0.29737874440499112 0.18413974749967649 0 0.28602732827433208 0.17541569254868519 0 0.29386570465520012 0.17294183855768841 0 0.29737874440499112 0.18413974749967649 0 0.2858594623935794 0.190588261231491 0 0.28602732827433208 0.17541569254868519 0 0.29737874440499112 0.18413974749967649 0 0.29737874440499112 0.18413974749967649 0 0.29075123697929189 0.1890096323868434 0 0.29737874440499112 0.18413974749967649 0 0.31645388397394442 0.17346145181033951 0 0.29737874440499112 0.18413974749967649 0 0.3182708273002639 0.16878826884895129 0 0.31645388397394442 0.17346145181033951 0 0.29737874440499112 0.18413974749967649 0 0.3108655626748546 0.18256187855391259 0 0.31645388397394442 0.17346145181033951 0 0.29737874440499112 0.18413974749967649 0 0.3182708273002639 0.16878826884895129 0 0.29386570465520012 0.17294183855768841 0 0.29737874440499112 0.18413974749967649 0 0.3182708273002639 0.16878826884895129 0 0.29737874440499112 0.18413974749967649 0 0.3108655626748546 0.18256187855391259 0 0.30919348894739179 0.18828593269627389 0 0.3108655626748546 0.18256187855391259 0 0.30919348894739179 0.18828593269627389 0 0.31582147598188082 0.18648509390117829 0 0.29386570465520012 0.17294183855768841 0 0.29409024539477341 0.15228950645906841 0 0.3182708273002639 0.16878826884895129 0 0.29409024539477341 0.15228950645906841 0 0.31867733849807223 0.14893024962906781 0 0.3182708273002639 0.16878826884895129 0 0.29409024539477341 0.15228950645906841 0 0.3182708273002639 0.16878826884895129 0 0.31076897999698122 0.13138561813381491 0 0.29409024539477341 0.15228950645906841 0 0.31867733849807223 0.14893024962906781 0 0.28721430642559082 0.1226541295657389 0 0.31076897999698122 0.13138561813381491 0 0.29409024539477341 0.15228950645906841 0 0.28721430642559082 0.1226541295657389 0 0.26990966348927953 0.13579074406919031 0 0.29409024539477341 0.15228950645906841 0 0.26990966348927953 0.13579074406919031 0 0.29409024539477341 0.15228950645906841 0 0.27256798315866182 0.25119682142683669 0 0.27252961184910351 0.22463431803496631 0 0.27256798315866182 0.25119682142683669 0 0.25889775176656188 0.2445652825919592 0 0.27252961184910351 0.22463431803496631 0 0.27256798315866182 0.25119682142683669 0 0.27252961184910351 0.22463431803496631 0 0.29722887108647572 0.2390310167486541 0 0.24450056212019311 0.2394985272065252 0 0.25889775176656188 0.2445652825919592 0 0.25536870784139459 0.22613337791891211 0 0.24450056212019311 0.2394985272065252 0 0.2467802367594808 0.26227690160701139 0 0.25889775176656188 0.2445652825919592 0 0.25889775176656188 0.2445652825919592 0 0.25536870784139459 0.22613337791891211 0 0.27252961184910351 0.22463431803496631 0 0.25536870784139459 0.22613337791891211 0 0.27252961184910351 0.22463431803496631 0 0.25278846461112042 0.20910146223775411 0 0.27252961184910351 0.22463431803496631 0 0.27249124053954521 0.19807181464309601 0 0.28540057366853511 0.20395157164218189 0 0.27252961184910351 0.22463431803496631 0 0.25278846461112042 0.20910146223775411 0 0.27249124053954521 0.19807181464309601 0 0.27252961184910351 0.22463431803496631 0 0.27249124053954521 0.19807181464309601 0 0.25278846461112042 0.20910146223775411 0 0.27249124053954521 0.19807181464309601 0 0.24819651829899059 0.18735539736670909 0 0.27247877088296912 0.18943970646206451 0 0.2411387814028654 0.20020357954236129 0 0.25278846461112042 0.20910146223775411 0 0.25867327629040199 0.19650095749964441 0 0.24819651829899059 0.18735539736670909 0 0.25867327629040199 0.19650095749964441 0 0.27247877088296912 0.18943970646206451 0 0.25278846461112042 0.20910146223775411 0 0.25867327629040199 0.19650095749964441 0 0.27249124053954521 0.19807181464309601 0 0.25867327629040199 0.19650095749964441 0 0.27247877088296912 0.18943970646206451 0 0.27249124053954521 0.19807181464309601 0 0.27247877088296912 0.18943970646206451 0 0.27249124053954521 0.19807181464309601 0 0.2818147938743939 0.1835409301712482 0 0.27247877088296912 0.18943970646206451 0 0.2858594623935794 0.190588261231491 0 0.27249124053954521 0.19807181464309601 0 0.2858594623935794 0.190588261231491 0 0.27247877088296912 0.18943970646206451 0 0.27249124053954521 0.19807181464309601 0 0.2858594623935794 0.190588261231491 0 0.27247877088296912 0.18943970646206451 0 0.2858594623935794 0.190588261231491 0 0.2858594623935794 0.190588261231491 0 0.29075123697929189 0.1890096323868434 0 0.30475692604576382 0.1922103576672794 0 0.2858594623935794 0.190588261231491 0 0.30475692604576382 0.1922103576672794 0 0.28540057366853511 0.20395157164218189 0 0.2858594623935794 0.190588261231491 0 0.30475692604576382 0.1922103576672794 0 0.27249124053954521 0.19807181464309601 0 0.2858594623935794 0.190588261231491 0 0.28540057366853511 0.20395157164218189 0 0.29737874440499112 0.18413974749967649 0 0.2858594623935794 0.190588261231491 0 0.29075123697929189 0.1890096323868434 0 0.29737874440499112 0.18413974749967649 0 0.30475692604576382 0.1922103576672794 0 0.30919348894739179 0.18828593269627389 0 0.29737874440499112 0.18413974749967649 0 0.30475692604576382 0.1922103576672794 0 0.29737874440499112 0.18413974749967649 0 0.29075123697929189 0.1890096323868434 0 0.30475692604576382 0.1922103576672794 0 0.30475692604576382 0.1922103576672794 0 0.31333361908722213 0.1929465529297465 0 0.30475692604576382 0.1922103576672794 0 0.30919348894739179 0.18828593269627389 0 0.31333361908722213 0.1929465529297465 0 0.30475692604576382 0.1922103576672794 0 0.3183604833395105 0.20440854750340251 0 0.30475692604576382 0.1922103576672794 0 0.3183604833395105 0.20440854750340251 0 0.31333361908722213 0.1929465529297465 0 0.30475692604576382 0.1922103576672794 0 0.30799574953729519 0.21474981898204701 0 0.29338082653536629 0.2148552066167578 0 0.30475692604576382 0.1922103576672794 0 0.30799574953729519 0.21474981898204701 0 0.3183604833395105 0.20440854750340251 0 0.30475692604576382 0.1922103576672794 0 0.29338082653536629 0.2148552066167578 0 0.28540057366853511 0.20395157164218189 0 0.27252961184910351 0.22463431803496631 0 0.29338082653536629 0.2148552066167578 0 0.28540057366853511 0.20395157164218189 0 0.27252961184910351 0.22463431803496631 0 0.29338082653536629 0.2148552066167578 0 0.29722887108647572 0.2390310167486541 0 0.30799574953729519 0.21474981898204701 0 0.29338082653536629 0.2148552066167578 0 0.29722887108647572 0.2390310167486541 0 0.30799574953729519 0.21474981898204701 0 0.29722887108647572 0.2390310167486541 0 0.31459645585986618 0.22781887704408729 0 0.29722887108647572 0.2390310167486541 0 0.31459645585986618 0.22781887704408729 0 0.29722887108647572 0.2390310167486541 0 0.31414106893896337 0.2461707325574938 0 0.31459645585986618 0.22781887704408729 0 0.30593299473684649 0.25967699420909929 0 0.29722887108647572 0.2390310167486541 0 0.31414106893896337 0.2461707325574938 0 0.27256798315866182 0.25119682142683669 0 0.29132576689267958 0.25958689827934611 0 0.29722887108647572 0.2390310167486541 0 0.33186812323681919 0.24140108645389699 0 0.31414106893896337 0.2461707325574938 0 0.31459645585986618 0.22781887704408729 0 0.31459645585986618 0.22781887704408729 0 0.33196404063325891 0.21660673733952371 0 0.30799574953729519 0.21474981898204701 0 0.31459645585986618 0.22781887704408729 0 0.33196404063325891 0.21660673733952371 0 0.33186812323681919 0.24140108645389699 0 0.31459645585986618 0.22781887704408729 0 0.33196404063325891 0.21660673733952371 0 0.33186812323681919 0.24140108645389699 0 0.33196404063325891 0.21660673733952371 0 0.3530330411022739 0.2354991242225174 0 0.33196404063325891 0.21660673733952371 0 0.3530330411022739 0.2354991242225174 0 0.33196404063325891 0.21660673733952371 0 0.33254674909190918 0.20127184566262241 0 0.35049590656901197 0.20464296272323951 0 0.33196404063325891 0.21660673733952371 0 0.35049590656901197 0.20464296272323951 0 0.30799574953729519 0.21474981898204701 0 0.33196404063325891 0.21660673733952371 0 0.3183604833395105 0.20440854750340251 0 0.33196404063325891 0.21660673733952371 0 0.3183604833395105 0.20440854750340251 0 0.33196404063325891 0.21660673733952371 0 0.3183604833395105 0.20440854750340251 0 0.33254674909190918 0.20127184566262241 0 0.3183604833395105 0.20440854750340251 0 0.32217806718897363 0.19259790445065869 0 0.33254674909190918 0.20127184566262241 0 0.3183604833395105 0.20440854750340251 0 0.31333361908722213 0.1929465529297465 0 0.32217806718897363 0.19259790445065869 0 0.31333361908722213 0.1929465529297465 0 0.32217806718897363 0.19259790445065869 0 0.31582147598188082 0.18648509390117829 0 0.30919348894739179 0.18828593269627389 0 0.31333361908722213 0.1929465529297465 0 0.31582147598188082 0.18648509390117829 0 0.32217806718897363 0.19259790445065869 0 0.33203691995324203 0.19089787198296129 0 0.32293486032328661 0.1822189719108781 0 0.33254674909190918 0.20127184566262241 0 0.35049590656901197 0.20464296272323951 0 0.32217806718897363 0.19259790445065869 0 0.33203691995324203 0.19089787198296129 0 0.33254674909190918 0.20127184566262241 0 0.33254674909190918 0.20127184566262241 0 0.34292010634503761 0.19505587800106089 0 0.35049590656901197 0.20464296272323951 0 0.33203691995324203 0.19089787198296129 0 0.33254674909190918 0.20127184566262241 0 0.34292010634503761 0.19505587800106089 0 0.33203691995324203 0.19089787198296129 0 0.34292010634503761 0.19505587800106089 0 0.33960481681700322 0.18334475988958629 0 0.36093880633373898 0.1979012509302264 0 0.33960481681700322 0.18334475988958629 0 0.34292010634503761 0.19505587800106089 0 0.36093880633373898 0.1979012509302264 0 0.33960481681700322 0.18334475988958629 0 0.34292010634503761 0.19505587800106089 0 0.36093880633373898 0.1979012509302264 0 0.35049590656901197 0.20464296272323951 0 0.36093880633373898 0.1979012509302264 0 0.35049590656901197 0.20464296272323951 0 0.36093880633373898 0.1979012509302264 0 0.3861215670973418 0.1816438014625962 0 0.35049590656901197 0.20464296272323951 0 0.37853849713822019 0.20990977569829611 0 0.35049590656901197 0.20464296272323951 0 0.35518822441590991 0.22370679107601621 0 0.37853849713822019 0.20990977569829611 0 0.36093880633373898 0.1979012509302264 0 0.35049590656901197 0.20464296272323951 0 0.37853849713822019 0.20990977569829611 0 0.36093880633373898 0.1979012509302264 0 0.37853849713822019 0.20990977569829611 0 0.33196404063325891 0.21660673733952371 0 0.35049590656901197 0.20464296272323951 0 0.35518822441590991 0.22370679107601621 0 0.33196404063325891 0.21660673733952371 0 0.35518822441590991 0.22370679107601621 0 0.3530330411022739 0.2354991242225174 0 0.35518822441590991 0.22370679107601621 0 0.3530330411022739 0.2354991242225174 0 0.35518822441590991 0.22370679107601621 0 0.36603778423470712 0.23495826934288569 0 0.3530330411022739 0.2354991242225174 0 0.35518822441590991 0.22370679107601621 0 0.3751388754443255 0.22474331488278329 0 0.37853849713822019 0.20990977569829611 0 0.35518822441590991 0.22370679107601621 0 0.36603778423470712 0.23495826934288569 0 0.3751388754443255 0.22474331488278329 0 0.36603778423470712 0.23495826934288569 0 0.3813789865692932 0.23452089684175559 0 0.3751388754443255 0.22474331488278329 0 0.36603778423470712 0.23495826934288569 0 0.36567113264076562 0.24683158943171959 0 0.3530330411022739 0.2354991242225174 0 0.36603778423470712 0.23495826934288569 0 0.37396229017491173 0.24292854908600561 0 0.36567113264076562 0.24683158943171959 0 0.36603778423470712 0.23495826934288569 0 0.37396229017491173 0.24292854908600561 0 0.3813789865692932 0.23452089684175559 0 0.37396229017491173 0.24292854908600561 0 0.36868428668044573 0.2495334580817942 0 0.36567113264076562 0.24683158943171959 0 0.37396229017491173 0.24292854908600561 0 0.36567113264076562 0.24683158943171959 0 0.37396229017491173 0.24292854908600561 0 0.36868428668044573 0.2495334580817942 0 0.37582539390411068 0.2498286501907224 0 0.36868428668044573 0.2495334580817942 0 0.36567113264076562 0.24683158943171959 0 0.34957727809032402 0.25440772863420741 0 0.36567113264076562 0.24683158943171959 0 0.3530330411022739 0.2354991242225174 0 0.34957727809032402 0.25440772863420741 0 0.33186812323681919 0.24140108645389699 0 0.3530330411022739 0.2354991242225174 0 0.34957727809032402 0.25440772863420741 0 0.3530330411022739 0.2354991242225174 0 0.36567113264076562 0.24683158943171959 0 0.3530330411022739 0.2354991242225174 0 0.34030900072776449 0.15259464418409299 0 0.32868898637740029 0.13625015393250989 0 0.31867733849807223 0.14893024962906781 0 0.34030900072776449 0.15259464418409299 0 0.32868898637740029 0.13625015393250989 0 0.3428203498718726 0.12900944394918951 0 0.33023993644572291 0.1176592854729345 0 0.32868898637740029 0.13625015393250989 0 0.3428203498718726 0.12900944394918951 0 0.31076897999698122 0.13138561813381491 0 0.32868898637740029 0.13625015393250989 0 0.31867733849807223 0.14893024962906781 0 0.33023993644572291 0.1176592854729345 0 0.31076897999698122 0.13138561813381491 0 0.32868898637740029 0.13625015393250989 0 0.34030900072776449 0.15259464418409299 0 0.31867733849807223 0.14893024962906781 0 0.3182708273002639 0.16878826884895129 0 0.3182708273002639 0.16878826884895129 0 0.32293486032328661 0.1822189719108781 0 0.33960481681700322 0.18334475988958629 0 0.32217806718897363 0.19259790445065869 0 0.31582147598188082 0.18648509390117829 0 0.32293486032328661 0.1822189719108781 0 0.3108655626748546 0.18256187855391259 0 0.31582147598188082 0.18648509390117829 0 0.31642325766955681 0.18029932286560019 0 0.31582147598188082 0.18648509390117829 0 0.31642325766955681 0.18029932286560019 0 0.32293486032328661 0.1822189719108781 0 0.3182708273002639 0.16878826884895129 0 0.31645388397394442 0.17346145181033951 0 0.32293486032328661 0.1822189719108781 0 0.31642325766955681 0.18029932286560019 0 0.31645388397394442 0.17346145181033951 0 0.32293486032328661 0.1822189719108781 0 0.3108655626748546 0.18256187855391259 0 0.31642325766955681 0.18029932286560019 0 0.31645388397394442 0.17346145181033951 0 0.33203691995324203 0.19089787198296129 0 0.32293486032328661 0.1822189719108781 0 0.33960481681700322 0.18334475988958629 0 0.3182708273002639 0.16878826884895129 0 0.33960481681700322 0.18334475988958629 0 0.34030900072776449 0.15259464418409299 0 0.3182708273002639 0.16878826884895129 0 0.34030900072776449 0.15259464418409299 0 0.3182708273002639 0.16878826884895129 0 0.33960481681700322 0.18334475988958629 0 0.34030900072776449 0.15259464418409299 0 0.33960481681700322 0.18334475988958629 0 0.36144311597383472 0.16501162112415901 0 0.36093880633373898 0.1979012509302264 0 0.33960481681700322 0.18334475988958629 0 0.36144311597383472 0.16501162112415901 0 0.36093880633373898 0.1979012509302264 0 0.36144311597383472 0.16501162112415901 0 0.3861215670973418 0.1816438014625962 0 0.36144311597383472 0.16501162112415901 0 0.36234717415526407 0.1364010195192335 0 0.36144311597383472 0.16501162112415901 0 0.36234717415526407 0.1364010195192335 0 0.38227365258842849 0.15941885546936199 0 0.34030900072776449 0.15259464418409299 0 0.36144311597383472 0.16501162112415901 0 0.36234717415526407 0.1364010195192335 0 0.34030900072776449 0.15259464418409299 0 0.36234717415526407 0.1364010195192335 0 0.3503072700460676 0.1202964735167345 0 0.3428203498718726 0.12900944394918951 0 0.36234717415526407 0.1364010195192335 0 0.34030900072776449 0.15259464418409299 0 0.3428203498718726 0.12900944394918951 0 0.36234717415526407 0.1364010195192335 0 0.36234717415526407 0.1364010195192335 0 0.38504533440221611 0.119722437293203 0 0.36295027232942828 0.11731485676542069 0 0.36234717415526407 0.1364010195192335 0 0.36234717415526407 0.1364010195192335 0 0.3828153054269996 0.13689450432379 0 0.38504533440221611 0.119722437293203 0 0.3828153054269996 0.13689450432379 0 0.3958420267309477 0.13144496116536189 0 0.38504533440221611 0.119722437293203 0 0.3958420267309477 0.13144496116536189 0 0.40691087543878662 0.13892096966640119 0 0.40976003688631008 0.1224154660004516 0 0.3828153054269996 0.13689450432379 0 0.3958420267309477 0.13144496116536189 0 0.39485341184072809 0.1444643738476164 0 0.3958420267309477 0.13144496116536189 0 0.39485341184072809 0.1444643738476164 0 0.40691087543878662 0.13892096966640119 0 0.39485341184072809 0.1444643738476164 0 0.41130432786094412 0.16538635199496529 0 0.40691087543878662 0.13892096966640119 0 0.36234717415526407 0.1364010195192335 0 0.3828153054269996 0.13689450432379 0 0.38227365258842849 0.15941885546936199 0 0.3828153054269996 0.13689450432379 0 0.39485341184072809 0.1444643738476164 0 0.38227365258842849 0.15941885546936199 0 0.36144311597383472 0.16501162112415901 0 0.38227365258842849 0.15941885546936199 0 0.3861215670973418 0.1816438014625962 0 0.3861215670973418 0.1816438014625962 0 0.41130432786094412 0.16538635199496529 0 0.40692980097633791 0.1886170705758303 0 0.3861215670973418 0.1816438014625962 0 0.41130432786094412 0.16538635199496529 0 0.39485341184072809 0.1444643738476164 0 0.38227365258842849 0.15941885546936199 0 0.41130432786094412 0.16538635199496529 0 0.38227365258842849 0.15941885546936199 0 0.3861215670973418 0.1816438014625962 0 0.41130432786094412 0.16538635199496529 0 0.41130432786094412 0.16538635199496529 0 0.42478744716737271 0.1818122494120975 0 0.40692980097633791 0.1886170705758303 0 0.41130432786094412 0.16538635199496529 0 0.42478744716737271 0.1818122494120975 0 0.43845258778463131 0.1688515803450393 0 0.42478744716737271 0.1818122494120975 0 0.43845258778463131 0.1688515803450393 0 0.43982504198640943 0.1853769081210549 0 0.41130432786094412 0.16538635199496529 0 0.43648708862454633 0.14912890252733441 0 0.43845258778463131 0.1688515803450393 0 0.41130432786094412 0.16538635199496529 0 0.43648708862454633 0.14912890252733441 0 0.41130432786094412 0.16538635199496529 0 0.43648708862454633 0.14912890252733441 0 0.4205254543128647 0.13837161690132491 0 0.43648708862454633 0.14912890252733441 0 0.43447473937040371 0.12510849470770391 0 0.4205254543128647 0.13837161690132491 0 0.4205254543128647 0.13837161690132491 0 0.40691087543878662 0.13892096966640119 0 0.40976003688631008 0.1224154660004516 0 0.43447473937040371 0.12510849470770391 0 0.4205254543128647 0.13837161690132491 0 0.40976003688631008 0.1224154660004516 0 0.41130432786094412 0.16538635199496529 0 0.4205254543128647 0.13837161690132491 0 0.40691087543878662 0.13892096966640119 0 0.4060668125282616 0.25285594008213708 0 0.39430229370168018 0.2390829939998354 0 0.41210317404816971 0.232811442465234 0 0.4060668125282616 0.25285594008213708 0 0.39254003951769711 0.25124133098226942 0 0.39430229370168018 0.2390829939998354 0 0.39254003951769711 0.25124133098226942 0 0.39430229370168018 0.2390829939998354 0 0.38330216731381622 0.2453377680104171 0 0.37396229017491173 0.24292854908600561 0 0.38330216731381622 0.2453377680104171 0 0.37582539390411068 0.2498286501907224 0 0.38180400001520409 0.25442418696191438 0 0.38330216731381622 0.2453377680104171 0 0.37582539390411068 0.2498286501907224 0 0.37396229017491173 0.24292854908600561 0 0.38330216731381622 0.2453377680104171 0 0.3813789865692932 0.23452089684175559 0 0.39430229370168018 0.2390829939998354 0 0.38330216731381622 0.2453377680104171 0 0.3813789865692932 0.23452089684175559 0 0.3813789865692932 0.23452089684175559 0 0.3751388754443255 0.22474331488278329 0 0.39532083559319497 0.2213606090817648 0 0.39430229370168018 0.2390829939998354 0 0.3813789865692932 0.23452089684175559 0 0.39532083559319497 0.2213606090817648 0 0.39430229370168018 0.2390829939998354 0 0.39532083559319497 0.2213606090817648 0 0.41210317404816971 0.232811442465234 0 0.39532083559319497 0.2213606090817648 0 0.41210317404816971 0.232811442465234 0 0.39532083559319497 0.2213606090817648 0 0.40962331124611467 0.21574796321762199 0 0.41210317404816971 0.232811442465234 0 0.40481726850830291 0.20353042794914389 0 0.3940809041921674 0.21282886945795931 0 0.38870816553905341 0.19819991840789389 0 0.3940809041921674 0.21282886945795931 0 0.40962331124611467 0.21574796321762199 0 0.39532083559319497 0.2213606090817648 0 0.3940809041921674 0.21282886945795931 0 0.40962331124611467 0.21574796321762199 0 0.40481726850830291 0.20353042794914389 0 0.3940809041921674 0.21282886945795931 0 0.40962331124611467 0.21574796321762199 0 0.3751388754443255 0.22474331488278329 0 0.39532083559319497 0.2213606090817648 0 0.37853849713822019 0.20990977569829611 0 0.39532083559319497 0.2213606090817648 0 0.3940809041921674 0.21282886945795931 0 0.37853849713822019 0.20990977569829611 0 0.3940809041921674 0.21282886945795931 0 0.37853849713822019 0.20990977569829611 0 0.39532083559319497 0.2213606090817648 0 0.37853849713822019 0.20990977569829611 0 0.3940809041921674 0.21282886945795931 0 0.37853849713822019 0.20990977569829611 0 0.38870816553905341 0.19819991840789389 0 0.36093880633373898 0.1979012509302264 0 0.3861215670973418 0.1816438014625962 0 0.38870816553905341 0.19819991840789389 0 0.36093880633373898 0.1979012509302264 0 0.37853849713822019 0.20990977569829611 0 0.38870816553905341 0.19819991840789389 0 0.3861215670973418 0.1816438014625962 0 0.38870816553905341 0.19819991840789389 0 0.40692980097633791 0.1886170705758303 0 0.40481726850830291 0.20353042794914389 0 0.38870816553905341 0.19819991840789389 0 0.40692980097633791 0.1886170705758303 0 0.40481726850830291 0.20353042794914389 0 0.40692980097633791 0.1886170705758303 0 0.42474416058784109 0.2022583180864139 0 0.42478744716737271 0.1818122494120975 0 0.40692980097633791 0.1886170705758303 0 0.42474416058784109 0.2022583180864139 0 0.42478744716737271 0.1818122494120975 0 0.42474416058784109 0.2022583180864139 0 0.43982504198640943 0.1853769081210549 0 0.42474416058784109 0.2022583180864139 0 0.43848698372405209 0.22192143688668781 0 0.44808845494495142 0.1995805979246813 0 0.42474416058784109 0.2022583180864139 0 0.42276862842186608 0.22340028730093039 0 0.43848698372405209 0.22192143688668781 0 0.42474416058784109 0.2022583180864139 0 0.40962331124611467 0.21574796321762199 0 0.42276862842186608 0.22340028730093039 0 0.40481726850830291 0.20353042794914389 0 0.42474416058784109 0.2022583180864139 0 0.40962331124611467 0.21574796321762199 0 0.40962331124611467 0.21574796321762199 0 0.41210317404816971 0.232811442465234 0 0.42276862842186608 0.22340028730093039 0 0.41210317404816971 0.232811442465234 0 0.42276862842186608 0.22340028730093039 0 0.42888551250315082 0.24426227584869351 0 0.42276862842186608 0.22340028730093039 0 0.42888551250315082 0.24426227584869351 0 0.43848698372405209 0.22192143688668781 0 0.42888551250315082 0.24426227584869351 0 0.43848698372405209 0.22192143688668781 0 0.44487446423362997 0.25517176994175389 0 0.42888551250315082 0.24426227584869351 0 0.41210317404816971 0.232811442465234 0 0.42888551250315082 0.24426227584869351 0 0.4060668125282616 0.25285594008213708 0 0.41210317404816971 0.232811442465234 0 0.42888551250315082 0.24426227584869351 0 0.46520332147155741 0.25259731073257619 0 0.45246503853038089 0.23858522868366519 0 0.47080552715283008 0.23644787093931299 0 0.44487446423362997 0.25517176994175389 0 0.46520332147155741 0.25259731073257619 0 0.45246503853038089 0.23858522868366519 0 0.44487446423362997 0.25517176994175389 0 0.42888551250315082 0.24426227584869351 0 0.45246503853038089 0.23858522868366519 0 0.42888551250315082 0.24426227584869351 0 0.45246503853038089 0.23858522868366519 0 0.43848698372405209 0.22192143688668781 0 0.45246503853038089 0.23858522868366519 0 0.43848698372405209 0.22192143688668781 0 0.46077380058378159 0.21913629490045711 0 0.45246503853038089 0.23858522868366519 0 0.46077380058378159 0.21913629490045711 0 0.47080552715283008 0.23644787093931299 0 0.46077380058378159 0.21913629490045711 0 0.44808845494495142 0.1995805979246813 0 0.47529804556861688 0.1996995187614162 0 0.43848698372405209 0.22192143688668781 0 0.44808845494495142 0.1995805979246813 0 0.43848698372405209 0.22192143688668781 0 0.46077380058378159 0.21913629490045711 0 0.44808845494495142 0.1995805979246813 0 0.44808845494495142 0.1995805979246813 0 0.45768992616585058 0.1772397589626748 0 0.42474416058784109 0.2022583180864139 0 0.44808845494495142 0.1995805979246813 0 0.43982504198640943 0.1853769081210549 0 0.44808845494495142 0.1995805979246813 0 0.47529804556861688 0.1996995187614162 0 0.45768992616585058 0.1772397589626748 0 0.47529804556861688 0.1996995187614162 0 0.5 0.21110957622589671 0 0.5 0.18440018041487119 0 0.47529804556861688 0.1996995187614162 0 0.5 0.21110957622589671 0 0.48170620354982918 0.22026938077285099 0 0.46077380058378159 0.21913629490045711 0 0.47529804556861688 0.1996995187614162 0 0.48170620354982918 0.22026938077285099 0 0.48170620354982918 0.22026938077285099 0 0.5 0.23781897203692209 0 0.47080552715283008 0.23644787093931299 0 0.46077380058378159 0.21913629490045711 0 0.48170620354982918 0.22026938077285099 0 0.47080552715283008 0.23644787093931299 0 0.5 0.21110957622589671 0 0.48170620354982918 0.22026938077285099 0 0.5 0.23781897203692209 0 0.4852661445691977 0.25310741917697283 0 0.5 0.23781897203692209 0 0.47080552715283008 0.23644787093931299 0 0.46520332147155741 0.25259731073257619 0 0.4852661445691977 0.25310741917697283 0 0.47080552715283008 0.23644787093931299 0 0.43648708862454633 0.14912890252733441 0 0.46518846954220988 0.14701361711788169 0 0.46166984938814842 0.13287145305970341 0 0.46679879731298801 0.15348590412944971 0 0.46518846954220988 0.14701361711788169 0 0.45724644659924402 0.15682242477661559 0 0.46518846954220988 0.14701361711788169 0 0.45724644659924402 0.15682242477661559 0 0.46679879731298801 0.15348590412944971 0 0.46518846954220988 0.14701361711788169 0 0.46518846954220988 0.14701361711788169 0 0.46166984938814842 0.13287145305970341 0 0.46518846954220988 0.14701361711788169 0 0.46166984938814842 0.13287145305970341 0 0.47689286860765118 0.13255808103866279 0 0.46166984938814842 0.13287145305970341 0 0.46808248150126308 0.1287315954995209 0 0.43648708862454633 0.14912890252733441 0 0.46166984938814842 0.13287145305970341 0 0.45918944185449723 0.12780152341495621 0 0.43648708862454633 0.14912890252733441 0 0.43447473937040371 0.12510849470770391 0 0.45918944185449723 0.12780152341495621 0 0.43447473937040371 0.12510849470770391 0 0.45918944185449723 0.12780152341495621 0 0.44720553329256918 0.1230278176952878 0 0.43447473937040371 0.12510849470770391 0 0.45918944185449723 0.12780152341495621 0 0.43648708862454633 0.14912890252733441 0 0.46166984938814842 0.13287145305970341 0 0.43648708862454633 0.14912890252733441 0 0.46518846954220988 0.14701361711788169 0 0.45724644659924402 0.15682242477661559 0 0.43648708862454633 0.14912890252733441 0 0.43845258778463131 0.1688515803450393 0 0.45724644659924402 0.15682242477661559 0 0.43845258778463131 0.1688515803450393 0 0.45768992616585058 0.1772397589626748 0 0.45724644659924402 0.15682242477661559 0 0.43845258778463131 0.1688515803450393 0 0.43982504198640943 0.1853769081210549 0 0.45768992616585058 0.1772397589626748 0 0.44808845494495142 0.1995805979246813 0 0.43982504198640943 0.1853769081210549 0 0.45768992616585058 0.1772397589626748 0 0.46679879731298801 0.15348590412944971 0 0.45768992616585058 0.1772397589626748 0 0.45724644659924402 0.15682242477661559 0 0.46679879731298801 0.15348590412944971 0 0.45768992616585058 0.1772397589626748 0 0.46679879731298801 0.15348590412944971 0 0.45768992616585058 0.1772397589626748 0 0.4805994733787784 0.17077021577762261 0 0.46679879731298801 0.15348590412944971 0 0.4805994733787784 0.17077021577762261 0 0.4833174711514529 0.15069213192225939 0 0.47529804556861688 0.1996995187614162 0 0.45768992616585058 0.1772397589626748 0 0.4805994733787784 0.17077021577762261 0 0.47529804556861688 0.1996995187614162 0 0.4805994733787784 0.17077021577762261 0 0.5 0.18440018041487119 0 0.4805994733787784 0.17077021577762261 0 0.5 0.1576907846038457 0 0.4833174711514529 0.15069213192225939 0 0.4805994733787784 0.17077021577762261 0 0.5 0.18440018041487119 0 0.5 0.1576907846038457 0 0.5 0.1576907846038457 0 0.49999999999999928 0.13098138879282009 0 0.48902584533600041 0.1389135842252375 0 0.5 0.1576907846038457 0 0.4833174711514529 0.15069213192225939 0 0.48902584533600041 0.1389135842252375 0 0.46679879731298801 0.15348590412944971 0 0.4833174711514529 0.15069213192225939 0 0.47689286860765118 0.13255808103866279 0 0.46679879731298801 0.15348590412944971 0 0.46518846954220988 0.14701361711788169 0 0.47689286860765118 0.13255808103866279 0 0.46679879731298801 0.15348590412944971 0 0.47689286860765118 0.13255808103866279 0 0.4833174711514529 0.15069213192225939 0 0.47792602990328492 0.13015410673134109 0 0.4833174711514529 0.15069213192225939 0 0.47792602990328492 0.13015410673134109 0 0.48902584533600041 0.1389135842252375 0 0.4833174711514529 0.15069213192225939 0 0.47792602990328492 0.13015410673134109 0 0.47689286860765118 0.13255808103866279 0 0.46808248150126308 0.1287315954995209 0 0.47792602990328492 0.13015410673134109 0 0.47689286860765118 0.13255808103866279 0 0.46166984938814842 0.13287145305970341 0 0.46808248150126308 0.1287315954995209 0 0.47689286860765118 0.13255808103866279 0 0.46808248150126308 0.1287315954995209 0 0.47792602990328492 0.13015410673134109 0 0.47546943347550552 0.12079600803465761 0 0.46518846954220988 0.14701361711788169 0 0.47689286860765118 0.13255808103866279 0 0.47792602990328492 0.13015410673134109 0 0.48902584533600041 0.1389135842252375 0 0.48366211909685419 0.12419770780388439 0 0.47792602990328492 0.13015410673134109 0 0.47546943347550552 0.12079600803465761 0 0.47792602990328492 0.13015410673134109 0 0.47689286860765118 0.13255808103866279 0 0.47792602990328492 0.13015410673134109 0 0.48096688037292901 0.12307861287347879 0 0.47792602990328492 0.13015410673134109 0 0.48366211909685419 0.12419770780388439 0 0.47792602990328492 0.13015410673134109 0 0.48096688037292901 0.12307861287347879 0 0.48366211909685419 0.12419770780388439 0 0.49999999999999928 0.13098138879282009 0 0.48902584533600041 0.1389135842252375 0 0.48366211909685419 0.12419770780388439 0 0.49999999999999928 0.13098138879282009 0 0.48366211909685419 0.12419770780388439 0 0.50000000000000111 0.1040195828499364 0 0.48366211909685419 0.12419770780388439 0 0.490483440186471 0.1009353469744081 0 0.48096688037292901 0.12307861287347879 0 0.49999999999999928 0.13098138879282009 0 0.50000000000000111 0.1040195828499364 0 0.48366211909685419 0.12419770780388439 0 0.490483440186471 0.1009353469744081 0 0.48096688037292901 0.12307861287347879 0 0.48366211909685419 0.12419770780388439 0 0.50000000000000111 0.1040195828499364 0 0.490483440186471 0.1009353469744081 0 0.48366211909685419 0.12419770780388439 0 0.50000000000000111 0.1040195828499364 0 0.490483440186471 0.1009353469744081 0 0.50000000000000711 0.078792081075334891 0 0.4692542551581963 0.097120058882768007 0 0.47546943347550552 0.12079600803465761 0 0.47871240621626271 0.1089636383089731 0 0.4692542551581963 0.097120058882768007 0 0.47546943347550552 0.12079600803465761 0 0.490483440186471 0.1009353469744081 0 0.47871240621626271 0.1089636383089731 0 0.4692542551581963 0.097120058882768007 0 0.490483440186471 0.1009353469744081 0 0.4692542551581963 0.097120058882768007 0 0.48092346821054882 0.084157647719266648 0 0.490483440186471 0.1009353469744081 0 0.47871240621626271 0.1089636383089731 0 0.48096688037292901 0.12307861287347879 0 0.47871240621626271 0.1089636383089731 0 0.47546943347550552 0.12079600803465761 0 0.48096688037292901 0.12307861287347879 0 0.47792602990328492 0.13015410673134109 0 0.47546943347550552 0.12079600803465761 0 0.48096688037292901 0.12307861287347879 0 0.47546943347550552 0.12079600803465761 0 0.48096688037292901 0.12307861287347879 0 0.48096688037292901 0.12307861287347879 0 0.48366211909685419 0.12419770780388439 0 0.50000000000000711 0.078792081075334891 0 0.48092346821054882 0.084157647719266648 0 0.48184056886719001 0.070496641932943638 0 0.50000000000000711 0.078792081075334891 0 0.48184056886719001 0.070496641932943638 0 0.5 0.055494070535966222 0 0.490483440186471 0.1009353469744081 0 0.50000000000000711 0.078792081075334891 0 0.490483440186471 0.1009353469744081 0 0.50000000000000711 0.078792081075334891 0 0.48092346821054882 0.084157647719266648 0 0.4692542551581963 0.097120058882768007 0 0.48092346821054882 0.084157647719266648 0 0.46303907684088658 0.073444109730878698 0 0.48184056886719001 0.070496641932943638 0 0.46303907684088658 0.073444109730878698 0 0.4670599630391038 0.059458181839241037 0 0.48184056886719001 0.070496641932943638 0 0.4670599630391038 0.059458181839241037 0 0.48398995103807302 0.057552901645814523 0 0.48092346821054882 0.084157647719266648 0 0.48184056886719001 0.070496641932943638 0 0.46303907684088658 0.073444109730878698 0 0.4470606538322085 0.074153651403373405 0 0.45273783394296357 0.057934492696890619 0 0.4670599630391038 0.059458181839241037 0 0.46303907684088658 0.073444109730878698 0 0.4470606538322085 0.074153651403373405 0 0.4670599630391038 0.059458181839241037 0 0.46303907684088658 0.073444109730878698 0 0.45543126476232632 0.082387750814737329 0 0.4470606538322085 0.074153651403373405 0 0.4470606538322085 0.074153651403373405 0 0.4670599630391038 0.059458181839241037 0 0.4692542551581963 0.097120058882768007 0 0.46303907684088658 0.073444109730878698 0 0.4692542551581963 0.097120058882768007 0 0.46303907684088658 0.073444109730878698 0 0.45543126476232632 0.082387750814737329 0 0.4692542551581963 0.097120058882768007 0 0.45543126476232632 0.082387750814737329 0 0.45189506893713249 0.093584305621707026 0 0.45189506893713249 0.093584305621707026 0 0.4470606538322085 0.074153651403373405 0 0.43899289418680593 0.09377445012161352 0 0.45189506893713249 0.093584305621707026 0 0.4470606538322085 0.074153651403373405 0 0.4470606538322085 0.074153651403373405 0 0.43899289418680593 0.09377445012161352 0 0.43055377636886683 0.086282886111032547 0 0.45543126476232632 0.082387750814737329 0 0.45189506893713249 0.093584305621707026 0 0.4470606538322085 0.074153651403373405 0 0.4470606538322085 0.074153651403373405 0 0.43055377636886683 0.086282886111032547 0 0.4470606538322085 0.074153651403373405 0 0.43055377636886683 0.086282886111032547 0 0.43513733802305371 0.071369836487043703 0 0.4470606538322085 0.074153651403373405 0 0.44488859035514311 0.065423616136024182 0 0.45273783394296357 0.057934492696890619 0 0.4470606538322085 0.074153651403373405 0 0.44488859035514311 0.065423616136024182 0 0.43513733802305371 0.071369836487043703 0 0.44488859035514311 0.065423616136024182 0 0.43653715938991372 0.064289366408891754 0 0.43513733802305371 0.071369836487043703 0 0.4470606538322085 0.074153651403373405 0 0.44488859035514311 0.065423616136024182 0 0.46166984938814842 0.13287145305970341 0 0.46808248150126308 0.1287315954995209 0 0.45672948404206037 0.1130149598400397 0 0.46808248150126308 0.1287315954995209 0 0.47546943347550552 0.12079600803465761 0 0.45672948404206037 0.1130149598400397 0 0.46166984938814842 0.13287145305970341 0 0.45672948404206037 0.1130149598400397 0 0.4692542551581963 0.097120058882768007 0 0.47546943347550552 0.12079600803465761 0 0.45672948404206037 0.1130149598400397 0 0.47546943347550552 0.12079600803465761 0 0.45672948404206037 0.1130149598400397 0 0.46166984938814842 0.13287145305970341 0 0.45918944185449723 0.12780152341495621 0 0.45672948404206037 0.1130149598400397 0 0.45672948404206037 0.1130149598400397 0 0.45220841737702938 0.11113775959803281 0 0.45672948404206037 0.1130149598400397 0 0.45348629705126481 0.12028087152961819 0 0.4508207290159314 0.11727918516818921 0 0.45672948404206037 0.1130149598400397 0 0.45220841737702938 0.11113775959803281 0 0.4508207290159314 0.11727918516818921 0 0.45918944185449723 0.12780152341495621 0 0.45348629705126481 0.12028087152961819 0 0.44720553329256918 0.1230278176952878 0 0.45918944185449723 0.12780152341495621 0 0.45672948404206037 0.1130149598400397 0 0.45348629705126481 0.12028087152961819 0 0.45189506893713249 0.093584305621707026 0 0.45672948404206037 0.1130149598400397 0 0.4692542551581963 0.097120058882768007 0 0.45189506893713249 0.093584305621707026 0 0.45672948404206037 0.1130149598400397 0 0.45189506893713249 0.093584305621707026 0 0.45672948404206037 0.1130149598400397 0 0.45220841737702938 0.11113775959803281 0 0.45189506893713249 0.093584305621707026 0 0.44175704169771851 0.1065470521478782 0 0.45220841737702938 0.11113775959803281 0 0.45189506893713249 0.093584305621707026 0 0.43899289418680593 0.09377445012161352 0 0.44175704169771851 0.1065470521478782 0 0.44175704169771851 0.1065470521478782 0 0.44435274294830951 0.1148299313627207 0 0.4330777308611245 0.1143700926419227 0 0.44435274294830951 0.1148299313627207 0 0.43977768661810168 0.11933408410190879 0 0.4330777308611245 0.1143700926419227 0 0.44175704169771851 0.1065470521478782 0 0.44435274294830951 0.1148299313627207 0 0.45220841737702938 0.11113775959803281 0 0.44435274294830951 0.1148299313627207 0 0.45220841737702938 0.11113775959803281 0 0.4508207290159314 0.11727918516818921 0 0.44435274294830951 0.1148299313627207 0 0.4508207290159314 0.11727918516818921 0 0.44720553329256918 0.1230278176952878 0 0.45348629705126481 0.12028087152961819 0 0.4508207290159314 0.11727918516818921 0 0.44720553329256918 0.1230278176952878 0 0.44435274294830951 0.1148299313627207 0 0.44720553329256918 0.1230278176952878 0 0.43977768661810168 0.11933408410190879 0 0.43447473937040371 0.12510849470770391 0 0.44720553329256918 0.1230278176952878 0 0.43977768661810168 0.11933408410190879 0 0.43447473937040371 0.12510849470770391 0 0.43977768661810168 0.11933408410190879 0 0.4330777308611245 0.1143700926419227 0 0.4330777308611245 0.1143700926419227 0 0.42352378514064032 0.1204912812759554 0 0.41283708511705919 0.098056952959611865 0 0.43447473937040371 0.12510849470770391 0 0.40976003688631008 0.1224154660004516 0 0.43447473937040371 0.12510849470770391 0 0.4330777308611245 0.1143700926419227 0 0.42352378514064032 0.1204912812759554 0 0.43447473937040371 0.12510849470770391 0 0.42352378514064032 0.1204912812759554 0 0.40976003688631008 0.1224154660004516 0 0.42352378514064032 0.1204912812759554 0 0.41143015144377643 0.1128089362413546 0 0.41283708511705919 0.098056952959611865 0 0.42352378514064032 0.1204912812759554 0 0.41143015144377643 0.1128089362413546 0 0.40976003688631008 0.1224154660004516 0 0.41143015144377643 0.1128089362413546 0 0.40976003688631008 0.1224154660004516 0 0.39916070605012438 0.10935047832740551 0 0.42352378514064032 0.1204912812759554 0 0.41283708511705919 0.098056952959611865 0 0.41143015144377643 0.1128089362413546 0 0.41283708511705919 0.098056952959611865 0 0.39916070605012438 0.10935047832740551 0 0.44175704169771851 0.1065470521478782 0 0.41283708511705919 0.098056952959611865 0 0.43899289418680593 0.09377445012161352 0 0.44175704169771851 0.1065470521478782 0 0.41283708511705919 0.098056952959611865 0 0.44175704169771851 0.1065470521478782 0 0.4330777308611245 0.1143700926419227 0 0.41283708511705919 0.098056952959611865 0 0.43899289418680593 0.09377445012161352 0 0.41283708511705919 0.098056952959611865 0 0.43055377636886683 0.086282886111032547 0 0.43055377636886683 0.086282886111032547 0 0.42497133653564961 0.075782884569867481 0 0.41720570706854038 0.085414135899249344 0 0.43653715938991372 0.064289366408891754 0 0.43513733802305371 0.071369836487043703 0 0.42692077835036057 0.064385262159194517 0 0.43055377636886683 0.086282886111032547 0 0.43513733802305371 0.071369836487043703 0 0.42497133653564961 0.075782884569867481 0 0.42497133653564961 0.075782884569867481 0 0.42692077835036057 0.064385262159194517 0 0.4150390828674268 0.071462302192817254 0 0.43513733802305371 0.071369836487043703 0 0.42497133653564961 0.075782884569867481 0 0.42692077835036057 0.064385262159194517 0 0.4150390828674268 0.071462302192817254 0 0.40405652261155123 0.079624132573884357 0 0.40812082340537931 0.059656803856912972 0 0.42692077835036057 0.064385262159194517 0 0.4150390828674268 0.071462302192817254 0 0.41768547205885742 0.061872937613093142 0 0.42497133653564961 0.075782884569867481 0 0.4150390828674268 0.071462302192817254 0 0.41720570706854038 0.085414135899249344 0 0.4150390828674268 0.071462302192817254 0 0.40812082340537931 0.059656803856912972 0 0.41768547205885742 0.061872937613093142 0 0.41283708511705919 0.098056952959611865 0 0.43055377636886683 0.086282886111032547 0 0.41720570706854038 0.085414135899249344 0 0.41283708511705919 0.098056952959611865 0 0.41720570706854038 0.085414135899249344 0 0.40405652261155123 0.079624132573884357 0 0.41283708511705919 0.098056952959611865 0 0.43055377636886683 0.086282886111032547 0 0.41283708511705919 0.098056952959611865 0 0.40405652261155123 0.079624132573884357 0 0.4150390828674268 0.071462302192817254 0 0.41720570706854038 0.085414135899249344 0 0.40405652261155123 0.079624132573884357 0 0.41283708511705919 0.098056952959611865 0 0.40405652261155123 0.079624132573884357 0 0.38429234146977098 0.08967700590840777 0 0.40405652261155123 0.079624132573884357 0 0.38335513050965248 0.062615431067798891 0 0.39527596010604199 0.061191312188157279 0 0.40405652261155123 0.079624132573884357 0 0.39527596010604199 0.061191312188157279 0 0.40812082340537931 0.059656803856912972 0 0.40405652261155123 0.079624132573884357 0 0.39527596010604199 0.061191312188157279 0 0.37406678312049202 0.075217668842640778 0 0.38335513050965248 0.062615431067798891 0 0.38429234146977098 0.08967700590840777 0 0.38335513050965248 0.062615431067798891 0 0.38429234146977098 0.08967700590840777 0 0.40405652261155123 0.079624132573884357 0 0.38335513050965248 0.062615431067798891 0 0.38429234146977098 0.08967700590840777 0 0.37429536881623687 0.098074604033427826 0 0.38429234146977098 0.08967700590840777 0 0.38491427583389881 0.1076351007845912 0 0.38429234146977098 0.08967700590840777 0 0.38491427583389881 0.1076351007845912 0 0.38429234146977098 0.08967700590840777 0 0.38491427583389881 0.1076351007845912 0 0.39916070605012438 0.10935047832740551 0 0.37477750142135058 0.1088187176377943 0 0.37429536881623687 0.098074604033427826 0 0.38491427583389881 0.1076351007845912 0 0.37477750142135058 0.1088187176377943 0 0.38491427583389881 0.1076351007845912 0 0.38504533440221611 0.119722437293203 0 0.38491427583389881 0.1076351007845912 0 0.38504533440221611 0.119722437293203 0 0.39916070605012438 0.10935047832740551 0 0.38504533440221611 0.119722437293203 0 0.39916070605012438 0.10935047832740551 0 0.40976003688631008 0.1224154660004516 0 0.38504533440221611 0.119722437293203 0 0.39916070605012438 0.10935047832740551 0 0.3958420267309477 0.13144496116536189 0 0.40976003688631008 0.1224154660004516 0 0.38504533440221611 0.119722437293203 0 0.40976003688631008 0.1224154660004516 0 0.38504533440221611 0.119722437293203 0 0.41283708511705919 0.098056952959611865 0 0.38429234146977098 0.08967700590840777 0 0.39916070605012438 0.10935047832740551 0 0.41283708511705919 0.098056952959611865 0 0.39916070605012438 0.10935047832740551 0 0.41283708511705919 0.098056952959611865 0 0.38429234146977098 0.08967700590840777 0 0.39253921489542482 0.019243618452354939 0 0.39878667051211941 0.030775861537628939 0 0.38236730894329912 0.034092496120784167 0 0.39878667051211941 0.030775861537628939 0 0.40450826990958239 0.018715206489515 0 0.41204322500984703 0.028312273102604809 0 0.39253921489542482 0.019243618452354939 0 0.39878667051211941 0.030775861537628939 0 0.40450826990958239 0.018715206489515 0 0.40450826990958239 0.018715206489515 0 0.39646131119101252 0.0063387033518144849 0 0.41208116715549609 0.00862370537309173 0 0.39253921489542482 0.019243618452354939 0 0.40450826990958239 0.018715206489515 0 0.39646131119101252 0.0063387033518144849 0 0.39253921489542482 0.019243618452354939 0 0.39646131119101252 0.0063387033518144849 0 0.38139109938533161 0.0059048530635308037 0 0.39646131119101252 0.0063387033518144849 0 0.38139109938533161 0.0059048530635308037 0 0.39074799021336648 -0.005830356121479442 0 0.38139109938533161 0.0059048530635308037 0 0.3750355928727056 0.0054101789931870429 0 0.37559324224349883 0.0012545259934697111 0 0.37225611890662658 0.01286632186202278 0 0.38139109938533161 0.0059048530635308037 0 0.3750355928727056 0.0054101789931870429 0 0.37225611890662658 0.01286632186202278 0 0.38236730894329912 0.034092496120784167 0 0.39253921489542482 0.019243618452354939 0 0.38139109938533161 0.0059048530635308037 0 0.38236730894329912 0.034092496120784167 0 0.37225611890662658 0.01286632186202278 0 0.38139109938533161 0.0059048530635308037 0 0.38236730894329912 0.034092496120784167 0 0.38139109938533161 0.0059048530635308037 0 0.38236730894329912 0.034092496120784167 0 0.36711094393614468 0.019122235597616451 0 0.38236730894329912 0.034092496120784167 0 0.37627607455317308 0.046739383711733092 0 0.38335513050965248 0.062615431067798891 0 0.38236730894329912 0.034092496120784167 0 0.37627607455317308 0.046739383711733092 0 0.38335513050965248 0.062615431067798891 0 0.38236730894329912 0.034092496120784167 0 0.38335513050965248 0.062615431067798891 0 0.38236730894329912 0.034092496120784167 0 0.39527596010604199 0.061191312188157279 0 0.38236730894329912 0.034092496120784167 0 0.39527596010604199 0.061191312188157279 0 0.38335513050965248 0.062615431067798891 0 0.39527596010604199 0.061191312188157279 0 0.39527596010604199 0.061191312188157279 0 0.39689639200718901 0.043443992054311938 0 0.40635834079995758 0.049485645447768609 0 0.39527596010604199 0.061191312188157279 0 0.40812082340537931 0.059656803856912972 0 0.39527596010604199 0.061191312188157279 0 0.40812082340537931 0.059656803856912972 0 0.40635834079995758 0.049485645447768609 0 0.38236730894329912 0.034092496120784167 0 0.39527596010604199 0.061191312188157279 0 0.39689639200718901 0.043443992054311938 0 0.39878667051211941 0.030775861537628939 0 0.38236730894329912 0.034092496120784167 0 0.39689639200718901 0.043443992054311938 0 0.39689639200718901 0.043443992054311938 0 0.40908066458129971 0.038595586022835027 0 0.40635834079995758 0.049485645447768609 0 0.39878667051211941 0.030775861537628939 0 0.39689639200718901 0.043443992054311938 0 0.40908066458129971 0.038595586022835027 0 0.39878667051211941 0.030775861537628939 0 0.40908066458129971 0.038595586022835027 0 0.41204322500984703 0.028312273102604809 0 0.40908066458129971 0.038595586022835027 0 0.41855401107815188 0.043239744469022429 0 0.40635834079995758 0.049485645447768609 0 0.40908066458129971 0.038595586022835027 0 0.41855401107815188 0.043239744469022429 0 0.42304090783847231 0.032669996656775932 0 0.40908066458129971 0.038595586022835027 0 0.42304090783847231 0.032669996656775932 0 0.41204322500984703 0.028312273102604809 0 0.40812082340537931 0.059656803856912972 0 0.40635834079995758 0.049485645447768609 0 0.41912507869899462 0.053152184621445622 0 0.41855401107815188 0.043239744469022429 0 0.40635834079995758 0.049485645447768609 0 0.41912507869899462 0.053152184621445622 0 0.41912507869899462 0.053152184621445622 0 0.41768547205885742 0.061872937613093142 0 0.4276778137772258 0.055060770939470767 0 0.40812082340537931 0.059656803856912972 0 0.41912507869899462 0.053152184621445622 0 0.41768547205885742 0.061872937613093142 0 0.42692077835036057 0.064385262159194517 0 0.41768547205885742 0.061872937613093142 0 0.4276778137772258 0.055060770939470767 0 0.41855401107815188 0.043239744469022429 0 0.41912507869899462 0.053152184621445622 0 0.42920928954028142 0.045296460741754418 0 0.41912507869899462 0.053152184621445622 0 0.4276778137772258 0.055060770939470767 0 0.42920928954028142 0.045296460741754418 0 0.4276778137772258 0.055060770939470767 0 0.43640418245434481 0.05586231243107119 0 0.42920928954028142 0.045296460741754418 0 0.43640418245434481 0.05586231243107119 0 0.42920928954028142 0.045296460741754418 0 0.43908070687427492 0.046307080866720127 0 0.42692077835036057 0.064385262159194517 0 0.4276778137772258 0.055060770939470767 0 0.43640418245434481 0.05586231243107119 0 0.43653715938991372 0.064289366408891754 0 0.42692077835036057 0.064385262159194517 0 0.43640418245434481 0.05586231243107119 0 0.42304090783847231 0.032669996656775932 0 0.42920928954028142 0.045296460741754418 0 0.43895501871485371 0.035142852722463001 0 0.41855401107815188 0.043239744469022429 0 0.42304090783847231 0.032669996656775932 0 0.42920928954028142 0.045296460741754418 0 0.42920928954028142 0.045296460741754418 0 0.43908070687427492 0.046307080866720127 0 0.43895501871485371 0.035142852722463001 0 0.42304090783847231 0.032669996656775932 0 0.43333019351782948 0.02056103331594171 0 0.43895501871485371 0.035142852722463001 0 0.43333019351782948 0.02056103331594171 0 0.41892884484279802 0.019215647859429891 0 0.42784085480975298 0.009372140721838975 0 0.42304090783847231 0.032669996656775932 0 0.43333019351782948 0.02056103331594171 0 0.41892884484279802 0.019215647859429891 0 0.42304090783847231 0.032669996656775932 0 0.41892884484279802 0.019215647859429891 0 0.41204322500984703 0.028312273102604809 0 0.40450826990958239 0.018715206489515 0 0.41892884484279802 0.019215647859429891 0 0.41204322500984703 0.028312273102604809 0 0.41892884484279802 0.019215647859429891 0 0.41208116715549609 0.00862370537309173 0 0.42784085480975298 0.009372140721838975 0 0.41208116715549609 0.00862370537309173 0 0.42784085480975298 0.009372140721838975 0 0.42196421625006858 -0.00094241258698947905 0 0.39646131119101252 0.0063387033518144849 0 0.41208116715549609 0.00862370537309173 0 0.41090940584913133 -0.004882187314461486 0 0.40450826990958239 0.018715206489515 0 0.41892884484279802 0.019215647859429891 0 0.41208116715549609 0.00862370537309173 0 0.41208116715549609 0.00862370537309173 0 0.41090940584913133 -0.004882187314461486 0 0.42196421625006858 -0.00094241258698947905 0 0.42784085480975298 0.009372140721838975 0 0.43758831404730508 -0.0060692489465229912 0 0.42196421625006858 -0.00094241258698947905 0 0.43333019351782948 0.02056103331594171 0 0.42784085480975298 0.009372140721838975 0 0.44127780305687597 0.0093983758346993934 0 0.42784085480975298 0.009372140721838975 0 0.44127780305687597 0.0093983758346993934 0 0.43758831404730508 -0.0060692489465229912 0 0.44127780305687597 0.0093983758346993934 0 0.45350321781255137 0.0029033549089739542 0 0.43758831404730508 -0.0060692489465229912 0 0.44127780305687597 0.0093983758346993934 0 0.44895157623434501 0.021579026508036291 0 0.45350321781255137 0.0029033549089739542 0 0.43333019351782948 0.02056103331594171 0 0.44127780305687597 0.0093983758346993934 0 0.44895157623434501 0.021579026508036291 0 0.43333019351782948 0.02056103331594171 0 0.44895157623434501 0.021579026508036291 0 0.43895501871485371 0.035142852722463001 0 0.44895157623434501 0.021579026508036291 0 0.43895501871485371 0.035142852722463001 0 0.45110261598183332 0.035217485449474631 0 0.46145131602827238 0.0164372082774559 0 0.46277467341670891 0.031839396030855817 0 0.47828304994853699 0.029943715504421521 0 0.44895157623434501 0.021579026508036291 0 0.46145131602827238 0.0164372082774559 0 0.46277467341670891 0.031839396030855817 0 0.44895157623434501 0.021579026508036291 0 0.45110261598183332 0.035217485449474631 0 0.46277467341670891 0.031839396030855817 0 0.46145131602827238 0.0164372082774559 0 0.45350321781255137 0.0029033549089739542 0 0.47040819822614038 -0.0032691525658517248 0 0.44895157623434501 0.021579026508036291 0 0.46145131602827238 0.0164372082774559 0 0.45350321781255137 0.0029033549089739542 0 0.44488859035514311 0.065423616136024182 0 0.45273783394296357 0.057934492696890619 0 0.44429495313952649 0.056139668173327079 0 0.44488859035514311 0.065423616136024182 0 0.43653715938991372 0.064289366408891754 0 0.44429495313952649 0.056139668173327079 0 0.43653715938991372 0.064289366408891754 0 0.43640418245434481 0.05586231243107119 0 0.44429495313952649 0.056139668173327079 0 0.44429495313952649 0.056139668173327079 0 0.44900038413724369 0.046049716888281828 0 0.43908070687427492 0.046307080866720127 0 0.43640418245434481 0.05586231243107119 0 0.44429495313952649 0.056139668173327079 0 0.43908070687427492 0.046307080866720127 0 0.45273783394296357 0.057934492696890619 0 0.44429495313952649 0.056139668173327079 0 0.44900038413724369 0.046049716888281828 0 0.44900038413724369 0.046049716888281828 0 0.43908070687427492 0.046307080866720127 0 0.43895501871485371 0.035142852722463001 0 0.44900038413724369 0.046049716888281828 0 0.43895501871485371 0.035142852722463001 0 0.45110261598183332 0.035217485449474631 0 0.45110261598183332 0.035217485449474631 0 0.46277467341670891 0.031839396030855817 0 0.46048102390414181 0.045613758492915338 0 0.46277467341670891 0.031839396030855817 0 0.46048102390414181 0.045613758492915338 0 0.47113159651089792 0.042323552828508193 0 0.44900038413724369 0.046049716888281828 0 0.45110261598183332 0.035217485449474631 0 0.46048102390414181 0.045613758492915338 0 0.46048102390414181 0.045613758492915338 0 0.4670599630391038 0.059458181839241037 0 0.47113159651089792 0.042323552828508193 0 0.45273783394296357 0.057934492696890619 0 0.44900038413724369 0.046049716888281828 0 0.46048102390414181 0.045613758492915338 0 0.45273783394296357 0.057934492696890619 0 0.46048102390414181 0.045613758492915338 0 0.4670599630391038 0.059458181839241037 0 0.4670599630391038 0.059458181839241037 0 0.47113159651089792 0.042323552828508193 0 0.4870592722459981 0.044762712275107197 0 0.4670599630391038 0.059458181839241037 0 0.48398995103807302 0.057552901645814523 0 0.4870592722459981 0.044762712275107197 0 0.4670599630391038 0.059458181839241037 0 0.4870592722459981 0.044762712275107197 0 0.47113159651089792 0.042323552828508193 0 0.4870592722459981 0.044762712275107197 0 0.47828304994853699 0.029943715504421521 0 0.46277467341670891 0.031839396030855817 0 0.47113159651089792 0.042323552828508193 0 0.47828304994853699 0.029943715504421521 0 0.4870592722459981 0.044762712275107197 0 0.5 0.032196059996597581 0 0.47828304994853699 0.029943715504421521 0 0.4870592722459981 0.044762712275107197 0 0.5 0.032196059996597581 0 0.5 0.055494070535966222 0 0.48184056886719001 0.070496641932943638 0 0.48398995103807302 0.057552901645814523 0 0.5 0.055494070535966222 0 0.48398995103807302 0.057552901645814523 0 0.4870592722459981 0.044762712275107197 0 0.5 0.055494070535966222 0 0.46145131602827238 0.0164372082774559 0 0.4767689805059761 0.01278759890341976 0 0.47040819822614038 -0.0032691525658517248 0 0.4767689805059761 0.01278759890341976 0 0.48672956792171662 -0.00083076382065689529 0 0.47040819822614038 -0.0032691525658517248 0 0.46145131602827238 0.0164372082774559 0 0.4767689805059761 0.01278759890341976 0 0.47828304994853699 0.029943715504421521 0 0.4767689805059761 0.01278759890341976 0 0.47828304994853699 0.029943715504421521 0 0.49023288655803732 0.020547054726913261 0 0.5 0.032196059996597581 0 0.47828304994853699 0.029943715504421521 0 0.49023288655803732 0.020547054726913261 0 0.5 0.032196059996597581 0 0.49023288655803732 0.020547054726913261 0 0.5 0.0088980494572289404 0 0.4767689805059761 0.01278759890341976 0 0.49023288655803732 0.020547054726913261 0 0.48672956792171662 -0.00083076382065689529 0 0.49023288655803732 0.020547054726913261 0 0.5 0.0088980494572289404 0 0.48672956792171662 -0.00083076382065689529 0 0.50000000000000133 -0.014399961082139709 0 0.48672956792171662 -0.00083076382065689529 0 0.47857334154572978 -0.018487866490752639 0 0.5 0.0088980494572289404 0 0.50000000000000133 -0.014399961082139709 0 0.48672956792171662 -0.00083076382065689529 0 0.48672956792171662 -0.00083076382065689529 0 0.47040819822614038 -0.0032691525658517248 0 0.47857334154572978 -0.018487866490752639 0 0.47857334154572978 -0.018487866490752639 0 0.47637437217441619 -0.045789647914252517 0 0.45714668309145828 -0.022575771899365289 0 0.50000000000000133 -0.014399961082139709 0 0.47857334154572978 -0.018487866490752639 0 0.50000000000000133 -0.014399961082139709 0 0.47857334154572978 -0.018487866490752639 0 0.5 -0.037815332372999548 0 0.47857334154572978 -0.018487866490752639 0 0.5 -0.037815332372999548 0 0.47637437217441619 -0.045789647914252517 0 0.5 -0.037815332372999548 0 0.5 -0.061230703663859583 0 0.47637437217441619 -0.045789647914252517 0 0.5 -0.061230703663859583 0 0.47637437217441619 -0.045789647914252517 0 0.48213175973049399 -0.069723561674720144 0 0.47637437217441619 -0.045789647914252517 0 0.48213175973049399 -0.069723561674720144 0 0.46449999741203929 -0.063938934774529568 0 0.47637437217441619 -0.045789647914252517 0 0.45093308863690468 -0.046603432551134111 0 0.45714668309145828 -0.022575771899365289 0 0.47637437217441619 -0.045789647914252517 0 0.45093308863690468 -0.046603432551134111 0 0.46449999741203929 -0.063938934774529568 0 0.45093308863690468 -0.046603432551134111 0 0.46449999741203929 -0.063938934774529568 0 0.44836872218896878 -0.071884100785311239 0 0.45093308863690468 -0.046603432551134111 0 0.4325754329133083 -0.062395553398913492 0 0.45093308863690468 -0.046603432551134111 0 0.44836872218896878 -0.071884100785311239 0 0.4325754329133083 -0.062395553398913492 0 0.45093308863690468 -0.046603432551134111 0 0.45714668309145828 -0.022575771899365289 0 0.4357200246371869 -0.026663677307977932 0 0.43758831404730508 -0.0060692489465229912 0 0.45714668309145828 -0.022575771899365289 0 0.4357200246371869 -0.026663677307977932 0 0.45714668309145828 -0.022575771899365289 0 0.4357200246371869 -0.026663677307977932 0 0.45350321781255137 0.0029033549089739542 0 0.43758831404730508 -0.0060692489465229912 0 0.45714668309145828 -0.022575771899365289 0 0.45350321781255137 0.0029033549089739542 0 0.47040819822614038 -0.0032691525658517248 0 0.45714668309145828 -0.022575771899365289 0 0.47040819822614038 -0.0032691525658517248 0 0.47857334154572978 -0.018487866490752639 0 0.45714668309145828 -0.022575771899365289 0 0.47857334154572978 -0.018487866490752639 0 0.45714668309145828 -0.022575771899365289 0 0.47309109009170303 -0.1137267302890093 0 0.5 -0.1134118586727121 0 0.47902155328364449 -0.1365819190454812 0 0.47309109009170303 -0.1137267302890093 0 0.5 -0.1134118586727121 0 0.48539319568630779 -0.10030176114069091 0 0.5 -0.1134118586727121 0 0.48539319568630779 -0.10030176114069091 0 0.50000000000000244 -0.084646074954719541 0 0.47309109009170303 -0.1137267302890093 0 0.48539319568630779 -0.10030176114069091 0 0.46994283161762362 -0.095208783239065647 0 0.47965774566908842 -0.085675026514205249 0 0.4593154913381744 -0.086703978073690846 0 0.46994283161762362 -0.095208783239065647 0 0.47965774566908842 -0.085675026514205249 0 0.4593154913381744 -0.086703978073690846 0 0.47965774566908842 -0.085675026514205249 0 0.46905267959713137 -0.076696345492978185 0 0.4593154913381744 -0.086703978073690846 0 0.48539319568630779 -0.10030176114069091 0 0.46994283161762362 -0.095208783239065647 0 0.47965774566908842 -0.085675026514205249 0 0.47965774566908842 -0.085675026514205249 0 0.50000000000000244 -0.084646074954719541 0 0.48539319568630779 -0.10030176114069091 0 0.47965774566908842 -0.085675026514205249 0 0.50000000000000244 -0.084646074954719541 0 0.47965774566908842 -0.085675026514205249 0 0.50000000000000244 -0.084646074954719541 0 0.48213175973049399 -0.069723561674720144 0 0.5 -0.061230703663859583 0 0.50000000000000244 -0.084646074954719541 0 0.48213175973049399 -0.069723561674720144 0 0.47965774566908842 -0.085675026514205249 0 0.48213175973049399 -0.069723561674720144 0 0.46905267959713137 -0.076696345492978185 0 0.48213175973049399 -0.069723561674720144 0 0.46905267959713137 -0.076696345492978185 0 0.46449999741203929 -0.063938934774529568 0 0.46449999741203929 -0.063938934774529568 0 0.46030922263407842 -0.074805839781627456 0 0.44836872218896878 -0.071884100785311239 0 0.46905267959713137 -0.076696345492978185 0 0.46449999741203929 -0.063938934774529568 0 0.46030922263407842 -0.074805839781627456 0 0.46030922263407842 -0.074805839781627456 0 0.44836872218896878 -0.071884100785311239 0 0.4593154913381744 -0.086703978073690846 0 0.44836872218896878 -0.071884100785311239 0 0.43897323700726032 -0.087732929633175583 0 0.4325754329133083 -0.062395553398913492 0 0.43897323700726032 -0.087732929633175583 0 0.4593154913381744 -0.086703978073690846 0 0.44836872218896878 -0.071884100785311239 0 0.43897323700726032 -0.087732929633175583 0 0.4593154913381744 -0.086703978073690846 0 0.43897323700726032 -0.087732929633175583 0 0.4593154913381744 -0.086703978073690846 0 0.45635340869959617 -0.094434407961065447 0 0.43897323700726032 -0.087732929633175583 0 0.45635340869959617 -0.094434407961065447 0 0.46905267959713137 -0.076696345492978185 0 0.46030922263407842 -0.074805839781627456 0 0.4593154913381744 -0.086703978073690846 0 0.46994283161762362 -0.095208783239065647 0 0.4593154913381744 -0.086703978073690846 0 0.45635340869959617 -0.094434407961065447 0 0.47309109009170303 -0.1137267302890093 0 0.46994283161762362 -0.095208783239065647 0 0.46218677785683271 -0.10345920048475429 0 0.46994283161762362 -0.095208783239065647 0 0.46218677785683271 -0.10345920048475429 0 0.45635340869959617 -0.094434407961065447 0 0.46218677785683271 -0.10345920048475429 0 0.45297125082579098 -0.1031630078581852 0 0.45625703565913578 -0.11192834105643309 0 0.46218677785683271 -0.10345920048475429 0 0.45635340869959617 -0.094434407961065447 0 0.45297125082579098 -0.1031630078581852 0 0.43897323700726032 -0.087732929633175583 0 0.45635340869959617 -0.094434407961065447 0 0.44359415862376661 -0.1001263909541857 0 0.45635340869959617 -0.094434407961065447 0 0.44359415862376661 -0.1001263909541857 0 0.45297125082579098 -0.1031630078581852 0 0.44359415862376661 -0.1001263909541857 0 0.44154075363270512 -0.11305836587679099 0 0.4281321429534804 -0.1022432434417103 0 0.44359415862376661 -0.1001263909541857 0 0.45297125082579098 -0.1031630078581852 0 0.44154075363270512 -0.11305836587679099 0 0.44154075363270512 -0.11305836587679099 0 0.44872637596207721 -0.1232381898623706 0 0.45625703565913578 -0.11192834105643309 0 0.44154075363270512 -0.11305836587679099 0 0.44872637596207721 -0.1232381898623706 0 0.43704140534854169 -0.13115238873675911 0 0.45297125082579098 -0.1031630078581852 0 0.44154075363270512 -0.11305836587679099 0 0.45625703565913578 -0.11192834105643309 0 0.44872637596207721 -0.1232381898623706 0 0.45625703565913578 -0.11192834105643309 0 0.45801678070099427 -0.133853701857399 0 0.47309109009170303 -0.1137267302890093 0 0.45625703565913578 -0.11192834105643309 0 0.45801678070099427 -0.133853701857399 0 0.47309109009170303 -0.1137267302890093 0 0.46218677785683271 -0.10345920048475429 0 0.45625703565913578 -0.11192834105643309 0 0.4248282053674774 -0.11606685272955949 0 0.40726726091253668 -0.1065744635255466 0 0.41462213756072752 -0.12949306930101159 0 0.44154075363270512 -0.11305836587679099 0 0.4248282053674774 -0.11606685272955949 0 0.43704140534854169 -0.13115238873675911 0 0.44154075363270512 -0.11305836587679099 0 0.4248282053674774 -0.11606685272955949 0 0.4281321429534804 -0.1022432434417103 0 0.43897323700726032 -0.087732929633175583 0 0.44359415862376661 -0.1001263909541857 0 0.4281321429534804 -0.1022432434417103 0 0.4248282053674774 -0.11606685272955949 0 0.4281321429534804 -0.1022432434417103 0 0.40726726091253668 -0.1065744635255466 0 0.4281321429534804 -0.1022432434417103 0 0.40726726091253668 -0.1065744635255466 0 0.41992766698941297 -0.088696292328990067 0 0.40726726091253668 -0.1065744635255466 0 0.41992766698941297 -0.088696292328990067 0 0.40088209697156568 -0.089659655024804344 0 0.41992766698941297 -0.088696292328990067 0 0.41421777718971092 -0.078187674246691624 0 0.40088209697156568 -0.089659655024804344 0 0.41992766698941297 -0.088696292328990067 0 0.40088209697156568 -0.089659655024804344 0 0.41421777718971092 -0.078187674246691624 0 0.40088209697156568 -0.089659655024804344 0 0.43897323700726032 -0.087732929633175583 0 0.41992766698941297 -0.088696292328990067 0 0.41421777718971092 -0.078187674246691624 0 0.43897323700726032 -0.087732929633175583 0 0.4281321429534804 -0.1022432434417103 0 0.41992766698941297 -0.088696292328990067 0 0.43897323700726032 -0.087732929633175583 0 0.41992766698941297 -0.088696292328990067 0 0.43897323700726032 -0.087732929633175583 0 0.41421777718971092 -0.078187674246691624 0 0.41421777718971092 -0.078187674246691624 0 0.4325754329133083 -0.062395553398913492 0 0.43897323700726032 -0.087732929633175583 0 0.41421777718971092 -0.078187674246691624 0 0.4325754329133083 -0.062395553398913492 0 0.41421777718971092 -0.078187674246691624 0 0.39710484090129411 -0.071589237033669831 0 0.4106712241858983 -0.062457124055437088 0 0.41421777718971092 -0.078187674246691624 0 0.4325754329133083 -0.062395553398913492 0 0.4106712241858983 -0.062457124055437088 0 0.41421777718971092 -0.078187674246691624 0 0.39710484090129411 -0.071589237033669831 0 0.39710484090129411 -0.071589237033669831 0 0.37999190461287702 -0.064990799820648759 0 0.39545203599071388 -0.056459195329805832 0 0.39710484090129411 -0.071589237033669831 0 0.4106712241858983 -0.062457124055437088 0 0.39545203599071388 -0.056459195329805832 0 0.39710484090129411 -0.071589237033669831 0 0.37999190461287702 -0.064990799820648759 0 0.39710484090129411 -0.071589237033669831 0 0.37999190461287702 -0.064990799820648759 0 0.38712705472969539 -0.079021659245704479 0 0.37999190461287702 -0.064990799820648759 0 0.38712705472969539 -0.079021659245704479 0 0.37391854070377911 -0.078341761364976822 0 0.38373789045896112 -0.090526842984423289 0 0.36659368394635627 -0.091394030944042859 0 0.38373789045896112 -0.090526842984423289 0 0.38189019976834399 -0.098947913813934432 0 0.36659368394635627 -0.091394030944042859 0 0.38712705472969539 -0.079021659245704479 0 0.38373789045896112 -0.090526842984423289 0 0.40088209697156568 -0.089659655024804344 0 0.38712705472969539 -0.079021659245704479 0 0.38373789045896112 -0.090526842984423289 0 0.37391854070377911 -0.078341761364976822 0 0.39710484090129411 -0.071589237033669831 0 0.38712705472969539 -0.079021659245704479 0 0.40088209697156568 -0.089659655024804344 0 0.40088209697156568 -0.089659655024804344 0 0.3914963110931069 -0.097733750490790333 0 0.41421777718971092 -0.078187674246691624 0 0.39710484090129411 -0.071589237033669831 0 0.40088209697156568 -0.089659655024804344 0 0.38373789045896112 -0.090526842984423289 0 0.40088209697156568 -0.089659655024804344 0 0.3914963110931069 -0.097733750490790333 0 0.38373789045896112 -0.090526842984423289 0 0.40088209697156568 -0.089659655024804344 0 0.40726726091253668 -0.1065744635255466 0 0.3914963110931069 -0.097733750490790333 0 0.38884248923230907 -0.1096943649800084 0 0.40726726091253668 -0.1065744635255466 0 0.40088209697156568 -0.089659655024804344 0 0.3914963110931069 -0.097733750490790333 0 0.38373789045896112 -0.090526842984423289 0 0.3914963110931069 -0.097733750490790333 0 0.38189019976834399 -0.098947913813934432 0 0.38189019976834399 -0.098947913813934432 0 0.37612567255082702 -0.1055536258050767 0 0.38884248923230907 -0.1096943649800084 0 0.3914963110931069 -0.097733750490790333 0 0.38189019976834399 -0.098947913813934432 0 0.38884248923230907 -0.1096943649800084 0 0.38884248923230907 -0.1096943649800084 0 0.37755240684453989 -0.1188739954682984 0 0.39574209548742212 -0.1218954134259438 0 0.37755240684453989 -0.1188739954682984 0 0.39574209548742212 -0.1218954134259438 0 0.3854298397113608 -0.13109886431214221 0 0.37612567255082702 -0.1055536258050767 0 0.38884248923230907 -0.1096943649800084 0 0.37755240684453989 -0.1188739954682984 0 0.40726726091253668 -0.1065744635255466 0 0.39574209548742212 -0.1218954134259438 0 0.41462213756072752 -0.12949306930101159 0 0.40726726091253668 -0.1065744635255466 0 0.38884248923230907 -0.1096943649800084 0 0.39574209548742212 -0.1218954134259438 0 0.41264085407088291 -0.02225080956250158 0 0.41090940584913133 -0.004882187314461486 0 0.39771353842330848 -0.0074711009232587521 0 0.41264085407088291 -0.02225080956250158 0 0.41090940584913133 -0.004882187314461486 0 0.42376456297091503 -0.012161667143690691 0 0.41090940584913133 -0.004882187314461486 0 0.42376456297091503 -0.012161667143690691 0 0.42196421625006858 -0.00094241258698947905 0 0.43758831404730508 -0.0060692489465229912 0 0.42376456297091503 -0.012161667143690691 0 0.4357200246371869 -0.026663677307977932 0 0.43758831404730508 -0.0060692489465229912 0 0.42376456297091503 -0.012161667143690691 0 0.42196421625006858 -0.00094241258698947905 0 0.41264085407088291 -0.02225080956250158 0 0.42376456297091503 -0.012161667143690691 0 0.4357200246371869 -0.026663677307977932 0 0.41264085407088291 -0.02225080956250158 0 0.4357200246371869 -0.026663677307977932 0 0.42556810121339278 -0.044576547384739408 0 0.45093308863690468 -0.046603432551134111 0 0.4357200246371869 -0.026663677307977932 0 0.42556810121339278 -0.044576547384739408 0 0.42556810121339278 -0.044576547384739408 0 0.4325754329133083 -0.062395553398913492 0 0.4106712241858983 -0.062457124055437088 0 0.45093308863690468 -0.046603432551134111 0 0.42556810121339278 -0.044576547384739408 0 0.4325754329133083 -0.062395553398913492 0 0.42556810121339278 -0.044576547384739408 0 0.40805158096256688 -0.047920964099898759 0 0.4106712241858983 -0.062457124055437088 0 0.41264085407088291 -0.02225080956250158 0 0.42556810121339278 -0.044576547384739408 0 0.40805158096256688 -0.047920964099898759 0 0.41264085407088291 -0.02225080956250158 0 0.40805158096256688 -0.047920964099898759 0 0.3965491761049118 -0.040659696031541133 0 0.3965491761049118 -0.040659696031541133 0 0.39545203599071388 -0.056459195329805832 0 0.38415904904606107 -0.046152838093838557 0 0.40805158096256688 -0.047920964099898759 0 0.3965491761049118 -0.040659696031541133 0 0.39545203599071388 -0.056459195329805832 0 0.40805158096256688 -0.047920964099898759 0 0.4106712241858983 -0.062457124055437088 0 0.39545203599071388 -0.056459195329805832 0 0.37999190461287702 -0.064990799820648759 0 0.39545203599071388 -0.056459195329805832 0 0.38415904904606107 -0.046152838093838557 0 0.37999190461287702 -0.064990799820648759 0 0.38415904904606107 -0.046152838093838557 0 0.37289639350944542 -0.050573649083074053 0 0.38415904904606107 -0.046152838093838557 0 0.36912318633336277 -0.034336847790419678 0 0.37289639350944542 -0.050573649083074053 0 0.3965491761049118 -0.040659696031541133 0 0.38415904904606107 -0.046152838093838557 0 0.39088202020212282 -0.02829382867646062 0 0.38415904904606107 -0.046152838093838557 0 0.39088202020212282 -0.02829382867646062 0 0.36912318633336277 -0.034336847790419678 0 0.39088202020212282 -0.02829382867646062 0 0.36912318633336277 -0.034336847790419678 0 0.39088202020212282 -0.02829382867646062 0 0.3729499267331679 -0.02639749704241319 0 0.36912318633336277 -0.034336847790419678 0 0.38115397044382782 -0.023177108994217589 0 0.39088202020212282 -0.02829382867646062 0 0.3729499267331679 -0.02639749704241319 0 0.38115397044382782 -0.023177108994217589 0 0.38501271009722049 -0.018101448616385549 0 0.39088202020212282 -0.02829382867646062 0 0.38501271009722049 -0.018101448616385549 0 0.39088202020212282 -0.02829382867646062 0 0.39316129196995908 -0.015822787483098191 0 0.41264085407088291 -0.02225080956250158 0 0.39088202020212282 -0.02829382867646062 0 0.41264085407088291 -0.02225080956250158 0 0.39088202020212282 -0.02829382867646062 0 0.39316129196995908 -0.015822787483098191 0 0.41264085407088291 -0.02225080956250158 0 0.3965491761049118 -0.040659696031541133 0 0.39088202020212282 -0.02829382867646062 0 0.41264085407088291 -0.02225080956250158 0 0.39316129196995908 -0.015822787483098191 0 0.39771353842330848 -0.0074711009232587521 0 0.39646131119101252 0.0063387033518144849 0 0.41090940584913133 -0.004882187314461486 0 0.39771353842330848 -0.0074711009232587521 0 0.39316129196995908 -0.015822787483098191 0 0.39771353842330848 -0.0074711009232587521 0 0.39074799021336648 -0.005830356121479442 0 0.39646131119101252 0.0063387033518144849 0 0.39771353842330848 -0.0074711009232587521 0 0.39074799021336648 -0.005830356121479442 0 0.38139109938533161 0.0059048530635308037 0 0.38115397044382782 -0.023177108994217589 0 0.38139109938533161 0.0059048530635308037 0 0.38501271009722049 -0.018101448616385549 0 0.39074799021336648 -0.005830356121479442 0 0.38115397044382782 -0.023177108994217589 0 0.37682292379904458 -0.0080476652666984193 0 0.36943554405577139 -0.0059289858718590766 0 0.38139109938533161 0.0059048530635308037 0 0.38115397044382782 -0.023177108994217589 0 0.38501271009722049 -0.018101448616385549 0 0.38139109938533161 0.0059048530635308037 0 0.38115397044382782 -0.023177108994217589 0 0.37682292379904458 -0.0080476652666984193 0 0.38501271009722049 -0.018101448616385549 0 0.39316129196995908 -0.015822787483098191 0 0.39074799021336648 -0.005830356121479442 0 0.37559324224349883 0.0012545259934697111 0 0.37682292379904458 -0.0080476652666984193 0 0.37346814742201712 -0.0024962307414294238 0 0.38139109938533161 0.0059048530635308037 0 0.37559324224349883 0.0012545259934697111 0 0.37682292379904458 -0.0080476652666984193 0 0.37090191095536529 0.001615015053724872 0 0.36943554405577139 -0.0059289858718590766 0 0.36214492886995592 -0.0083598523967395033 0 0.38115397044382782 -0.023177108994217589 0 0.36943554405577139 -0.0059289858718590766 0 0.36214492886995592 -0.0083598523967395033 0 0.37090191095536529 0.001615015053724872 0 0.37346814742201712 -0.0024962307414294238 0 0.36943554405577139 -0.0059289858718590766 0 0.37225611890662658 0.01286632186202278 0 0.36214492886995592 -0.0083598523967395033 0 0.35794581331911368 -0.0084949125164993592 0 0.38115397044382782 -0.023177108994217589 0 0.36214492886995592 -0.0083598523967395033 0 0.35794581331911368 -0.0084949125164993592 0 0.37682292379904458 -0.0080476652666984193 0 0.37346814742201712 -0.0024962307414294238 0 0.36943554405577139 -0.0059289858718590766 0 0.38115397044382782 -0.023177108994217589 0 0.36658893362357209 -0.018821723873113549 0 0.35794581331911368 -0.0084949125164993592 0 0.38115397044382782 -0.023177108994217589 0 0.35794581331911368 -0.0084949125164993592 0 0.38115397044382782 -0.023177108994217589 0 0.3729499267331679 -0.02639749704241319 0 0.36751886438719039 -0.022539996453972928 0 0.3729499267331679 -0.02639749704241319 0 0.36166553766624221 -0.0280955444343206 0 0.36912318633336277 -0.034336847790419678 0 0.3729499267331679 -0.02639749704241319 0 0.36751886438719039 -0.022539996453972928 0 0.36166553766624221 -0.0280955444343206 0 0.38115397044382782 -0.023177108994217589 0 0.36751886438719039 -0.022539996453972928 0 0.36658893362357209 -0.018821723873113549 0 0.36658893362357209 -0.018821723873113549 0 0.3597370863441568 -0.021074877527764341 0 0.35794581331911368 -0.0084949125164993592 0 0.36751886438719039 -0.022539996453972928 0 0.36658893362357209 -0.018821723873113549 0 0.3597370863441568 -0.021074877527764341 0 0.3597370863441568 -0.021074877527764341 0 0.36166553766624221 -0.0280955444343206 0 0.35734215584502549 -0.02660886562172337 0 0.36751886438719039 -0.022539996453972928 0 0.3597370863441568 -0.021074877527764341 0 0.36166553766624221 -0.0280955444343206 0 0.35265508289185871 -0.024437389710438809 0 0.35794581331911368 -0.0084949125164993592 0 0.3597370863441568 -0.021074877527764341 0 0.35265508289185871 -0.024437389710438809 0 0.35794581331911368 -0.0084949125164993592 0 0.35265508289185871 -0.024437389710438809 0 0.34967856707629302 -0.028357568969126331 0 0.34736435246460251 -0.040379866904377809 0 0.35734215584502549 -0.02660886562172337 0 0.35265508289185871 -0.024437389710438809 0 0.35531091647784452 -0.032827650814369752 0 0.36166553766624221 -0.0280955444343206 0 0.35734215584502549 -0.02660886562172337 0 0.35531091647784452 -0.032827650814369752 0 0.3597370863441568 -0.021074877527764341 0 0.35734215584502549 -0.02660886562172337 0 0.35265508289185871 -0.024437389710438809 0 0.35265508289185871 -0.024437389710438809 0 0.34967856707629302 -0.028357568969126331 0 0.34513797344489561 -0.012938663509919769 0 0.34967856707629302 -0.028357568969126331 0 0.34513797344489561 -0.012938663509919769 0 0.34045991879861981 -0.022833059404823448 0 0.34967856707629302 -0.028357568969126331 0 0.34513797344489561 -0.012938663509919769 0 0.34967856707629302 -0.028357568969126331 0 0.34045991879861981 -0.022833059404823448 0 0.342596554037642 -0.030283554596438542 0 0.35265508289185871 -0.024437389710438809 0 0.35794581331911368 -0.0084949125164993592 0 0.34513797344489561 -0.012938663509919769 0 0.34059737981349952 0.0024802419492871192 0 0.35794581331911368 -0.0084949125164993592 0 0.34059737981349952 0.0024802419492871192 0 0.35794581331911368 -0.0084949125164993592 0 0.34513797344489561 -0.012938663509919769 0 0.34059737981349952 0.0024802419492871192 0 0.33300714367229761 -0.01439361073260324 0 0.32272660960442928 -0.0070198398668182534 0 0.34059737981349952 0.0024802419492871192 0 0.34513797344489561 -0.012938663509919769 0 0.33300714367229761 -0.01439361073260324 0 0.34059737981349952 0.0024802419492871192 0 0.34513797344489561 -0.012938663509919769 0 0.34513797344489561 -0.012938663509919769 0 0.33300714367229761 -0.01439361073260324 0 0.34045991879861981 -0.022833059404823448 0 0.34045991879861981 -0.022833059404823448 0 0.33257905378986918 -0.024084983841851339 0 0.33577058803153792 -0.031523948868354967 0 0.34045991879861981 -0.022833059404823448 0 0.342596554037642 -0.030283554596438542 0 0.33577058803153792 -0.031523948868354967 0 0.33257905378986918 -0.024084983841851339 0 0.32824742846534682 -0.02946867944546263 0 0.3254579271787732 -0.02159695545865014 0 0.33257905378986918 -0.024084983841851339 0 0.32824742846534682 -0.02946867944546263 0 0.33577058803153792 -0.031523948868354967 0 0.33300714367229761 -0.01439361073260324 0 0.33257905378986918 -0.024084983841851339 0 0.3254579271787732 -0.02159695545865014 0 0.33300714367229761 -0.01439361073260324 0 0.34045991879861981 -0.022833059404823448 0 0.33257905378986918 -0.024084983841851339 0 0.33300714367229761 -0.01439361073260324 0 0.3254579271787732 -0.02159695545865014 0 0.32369434602366448 -0.015019204002413361 0 0.3254579271787732 -0.02159695545865014 0 0.32046667014953001 -0.027312133543517289 0 0.31820669674572388 -0.020529827945322571 0 0.3254579271787732 -0.02159695545865014 0 0.31820669674572388 -0.020529827945322571 0 0.32369434602366448 -0.015019204002413361 0 0.32824742846534682 -0.02946867944546263 0 0.32046667014953001 -0.027312133543517289 0 0.32339756541624892 -0.035348958208954152 0 0.32824742846534682 -0.02946867944546263 0 0.3254579271787732 -0.02159695545865014 0 0.32046667014953001 -0.027312133543517289 0 0.32046667014953001 -0.027312133543517289 0 0.31367446442993879 -0.025329200155486821 0 0.31552745144054939 -0.031948585990134247 0 0.32046667014953001 -0.027312133543517289 0 0.31367446442993879 -0.025329200155486821 0 0.31820669674572388 -0.020529827945322571 0 0.31367446442993879 -0.025329200155486821 0 0.31552745144054939 -0.031948585990134247 0 0.30867577268861057 -0.028450762598681061 0 0.31820669674572388 -0.020529827945322571 0 0.31619883436604102 -0.013794070366643639 0 0.3097479383263963 -0.020127404145224199 0 0.31367446442993879 -0.025329200155486821 0 0.31820669674572388 -0.020529827945322571 0 0.3097479383263963 -0.020127404145224199 0 0.31820669674572388 -0.020529827945322571 0 0.31619883436604102 -0.013794070366643639 0 0.32369434602366448 -0.015019204002413361 0 0.34059737981349952 0.0024802419492871192 0 0.31692077213570408 0.0033865027296077219 0 0.32272660960442928 -0.0070198398668182534 0 0.31619883436604102 -0.013794070366643639 0 0.32272660960442928 -0.0070198398668182534 0 0.30752583277495482 -0.005890140240237136 0 0.31692077213570408 0.0033865027296077219 0 0.32272660960442928 -0.0070198398668182534 0 0.30752583277495482 -0.005890140240237136 0 0.33300714367229761 -0.01439361073260324 0 0.32272660960442928 -0.0070198398668182534 0 0.32369434602366448 -0.015019204002413361 0 0.31619883436604102 -0.013794070366643639 0 0.32272660960442928 -0.0070198398668182534 0 0.32369434602366448 -0.015019204002413361 0 0.31768303164256512 -0.046655400666162361 0 0.327460125552057 -0.04590781129728963 0 0.30755589863951133 -0.051435755690200542 0 0.31913436040344217 -0.0568728005240728 0 0.327460125552057 -0.04590781129728963 0 0.30755589863951133 -0.051435755690200542 0 0.327460125552057 -0.04590781129728963 0 0.30755589863951133 -0.051435755690200542 0 0.31913436040344217 -0.0568728005240728 0 0.327460125552057 -0.04590781129728963 0 0.32870624345968691 -0.055516373980950877 0 0.32495798825087202 -0.062350394926605927 0 0.31913436040344217 -0.0568728005240728 0 0.32870624345968691 -0.055516373980950877 0 0.32495798825087202 -0.062350394926605927 0 0.31913436040344217 -0.0568728005240728 0 0.31632746201845141 -0.067629513368109129 0 0.31913436040344217 -0.0568728005240728 0 0.31632746201845141 -0.067629513368109129 0 0.30911452545005041 -0.060871416712022557 0 0.31768303164256512 -0.046655400666162361 0 0.31794533612302289 -0.039508344501184588 0 0.31101112213275728 -0.036867782327202461 0 0.32046667014953001 -0.027312133543517289 0 0.31552745144054939 -0.031948585990134247 0 0.32339756541624892 -0.035348958208954152 0 0.31794533612302289 -0.039508344501184588 0 0.31552745144054939 -0.031948585990134247 0 0.32339756541624892 -0.035348958208954152 0 0.31794533612302289 -0.039508344501184588 0 0.31552745144054939 -0.031948585990134247 0 0.31101112213275728 -0.036867782327202461 0 0.31794533612302289 -0.039508344501184588 0 0.32339756541624892 -0.035348958208954152 0 0.327460125552057 -0.04590781129728963 0 0.32339756541624892 -0.035348958208954152 0 0.327460125552057 -0.04590781129728963 0 0.33344225600821908 -0.03812799638104182 0 0.31768303164256512 -0.046655400666162361 0 0.31794533612302289 -0.039508344501184588 0 0.327460125552057 -0.04590781129728963 0 0.327460125552057 -0.04590781129728963 0 0.34736435246460251 -0.040379866904377809 0 0.327460125552057 -0.04590781129728963 0 0.34736435246460251 -0.040379866904377809 0 0.34524490911979511 -0.046766353166147703 0 0.327460125552057 -0.04590781129728963 0 0.33344225600821908 -0.03812799638104182 0 0.34736435246460251 -0.040379866904377809 0 0.32824742846534682 -0.02946867944546263 0 0.33344225600821908 -0.03812799638104182 0 0.33577058803153792 -0.031523948868354967 0 0.32824742846534682 -0.02946867944546263 0 0.32339756541624892 -0.035348958208954152 0 0.33344225600821908 -0.03812799638104182 0 0.342596554037642 -0.030283554596438542 0 0.33972727822358878 -0.035510208474377053 0 0.34736435246460251 -0.040379866904377809 0 0.33344225600821908 -0.03812799638104182 0 0.33972727822358878 -0.035510208474377053 0 0.34736435246460251 -0.040379866904377809 0 0.342596554037642 -0.030283554596438542 0 0.33577058803153792 -0.031523948868354967 0 0.33972727822358878 -0.035510208474377053 0 0.33344225600821908 -0.03812799638104182 0 0.33577058803153792 -0.031523948868354967 0 0.33972727822358878 -0.035510208474377053 0 0.3359518372197125 -0.052212277121608211 0 0.34298098910118369 -0.054159293495825787 0 0.34524490911979511 -0.046766353166147703 0 0.327460125552057 -0.04590781129728963 0 0.3359518372197125 -0.052212277121608211 0 0.34524490911979511 -0.046766353166147703 0 0.327460125552057 -0.04590781129728963 0 0.3359518372197125 -0.052212277121608211 0 0.32870624345968691 -0.055516373980950877 0 0.32495798825087202 -0.062350394926605927 0 0.32870624345968691 -0.055516373980950877 0 0.33602690587235101 -0.060238586035177913 0 0.3359518372197125 -0.052212277121608211 0 0.32870624345968691 -0.055516373980950877 0 0.33602690587235101 -0.060238586035177913 0 0.3359518372197125 -0.052212277121608211 0 0.34298098910118369 -0.054159293495825787 0 0.33602690587235101 -0.060238586035177913 0 0.34298098910118369 -0.054159293495825787 0 0.33602690587235101 -0.060238586035177913 0 0.34778467447479727 -0.060547089756453107 0 0.34298098910118369 -0.054159293495825787 0 0.34778467447479727 -0.060547089756453107 0 0.35148745360579042 -0.052668097455490982 0 0.34298098910118369 -0.054159293495825787 0 0.35148745360579042 -0.052668097455490982 0 0.34524490911979511 -0.046766353166147703 0 0.35148745360579042 -0.052668097455490982 0 0.34524490911979511 -0.046766353166147703 0 0.35349217098192098 -0.045958394148661999 0 0.35148745360579042 -0.052668097455490982 0 0.35349217098192098 -0.045958394148661999 0 0.36175610939236802 -0.050281551687940643 0 0.35148745360579042 -0.052668097455490982 0 0.35746419347773462 -0.05834061257296029 0 0.36175610939236802 -0.050281551687940643 0 0.34778467447479727 -0.060547089756453107 0 0.35148745360579042 -0.052668097455490982 0 0.35746419347773462 -0.05834061257296029 0 0.34778467447479727 -0.060547089756453107 0 0.35746419347773462 -0.05834061257296029 0 0.3561555440376869 -0.068200764916277509 0 0.34736435246460251 -0.040379866904377809 0 0.36912318633336277 -0.034336847790419678 0 0.34736435246460251 -0.040379866904377809 0 0.35349217098192098 -0.045958394148661999 0 0.36912318633336277 -0.034336847790419678 0 0.34736435246460251 -0.040379866904377809 0 0.35531091647784452 -0.032827650814369752 0 0.36912318633336277 -0.034336847790419678 0 0.35265508289185871 -0.024437389710438809 0 0.34736435246460251 -0.040379866904377809 0 0.35531091647784452 -0.032827650814369752 0 0.35265508289185871 -0.024437389710438809 0 0.34736435246460251 -0.040379866904377809 0 0.34967856707629302 -0.028357568969126331 0 0.342596554037642 -0.030283554596438542 0 0.34736435246460251 -0.040379866904377809 0 0.34736435246460251 -0.040379866904377809 0 0.34524490911979511 -0.046766353166147703 0 0.35349217098192098 -0.045958394148661999 0 0.34736435246460251 -0.040379866904377809 0 0.34524490911979511 -0.046766353166147703 0 0.36912318633336277 -0.034336847790419678 0 0.36175610939236802 -0.050281551687940643 0 0.37289639350944542 -0.050573649083074053 0 0.35349217098192098 -0.045958394148661999 0 0.36912318633336277 -0.034336847790419678 0 0.36175610939236802 -0.050281551687940643 0 0.36166553766624221 -0.0280955444343206 0 0.35531091647784452 -0.032827650814369752 0 0.36912318633336277 -0.034336847790419678 0 0.35746419347773462 -0.05834061257296029 0 0.36175610939236802 -0.050281551687940643 0 0.36727178624274992 -0.0606408000790193 0 0.35746419347773462 -0.05834061257296029 0 0.36727178624274992 -0.0606408000790193 0 0.3561555440376869 -0.068200764916277509 0 0.36175610939236802 -0.050281551687940643 0 0.37289639350944542 -0.050573649083074053 0 0.36727178624274992 -0.0606408000790193 0 0.37999190461287702 -0.064990799820648759 0 0.37289639350944542 -0.050573649083074053 0 0.36727178624274992 -0.0606408000790193 0 0.37391854070377911 -0.078341761364976822 0 0.35916709167792649 -0.080790894350131454 0 0.3561555440376869 -0.068200764916277509 0 0.36727178624274992 -0.0606408000790193 0 0.37391854070377911 -0.078341761364976822 0 0.3561555440376869 -0.068200764916277509 0 0.37999190461287702 -0.064990799820648759 0 0.36727178624274992 -0.0606408000790193 0 0.37391854070377911 -0.078341761364976822 0 0.38373789045896112 -0.090526842984423289 0 0.37391854070377911 -0.078341761364976822 0 0.36659368394635627 -0.091394030944042859 0 0.37391854070377911 -0.078341761364976822 0 0.36659368394635627 -0.091394030944042859 0 0.35916709167792649 -0.080790894350131454 0 0.36659368394635627 -0.091394030944042859 0 0.35916709167792649 -0.080790894350131454 0 0.34894411997966063 -0.08641908281461963 0 0.35916709167792649 -0.080790894350131454 0 0.34894411997966063 -0.08641908281461963 0 0.34442229750894099 -0.072315568727619933 0 0.34778467447479727 -0.060547089756453107 0 0.34442229750894099 -0.072315568727619933 0 0.3561555440376869 -0.068200764916277509 0 0.35916709167792649 -0.080790894350131454 0 0.34442229750894099 -0.072315568727619933 0 0.3561555440376869 -0.068200764916277509 0 0.37755240684453989 -0.1188739954682984 0 0.36086003635123443 -0.12011428743179051 0 0.36963711174656888 -0.13459028271353121 0 0.37755240684453989 -0.1188739954682984 0 0.36086003635123443 -0.12011428743179051 0 0.36442210718250578 -0.1089393468864341 0 0.37612567255082702 -0.1055536258050767 0 0.37755240684453989 -0.1188739954682984 0 0.36442210718250578 -0.1089393468864341 0 0.37612567255082702 -0.1055536258050767 0 0.36659368394635627 -0.091394030944042859 0 0.36442210718250578 -0.1089393468864341 0 0.36659368394635627 -0.091394030944042859 0 0.36442210718250578 -0.1089393468864341 0 0.35225387496742538 -0.1043113700986044 0 0.38189019976834399 -0.098947913813934432 0 0.37612567255082702 -0.1055536258050767 0 0.36659368394635627 -0.091394030944042859 0 0.34894411997966063 -0.08641908281461963 0 0.35225387496742538 -0.1043113700986044 0 0.3374835039770363 -0.094414827050224359 0 0.36659368394635627 -0.091394030944042859 0 0.34894411997966063 -0.08641908281461963 0 0.35225387496742538 -0.1043113700986044 0 0.36086003635123443 -0.12011428743179051 0 0.35225387496742538 -0.1043113700986044 0 0.34854009669619501 -0.1182997790001224 0 0.36086003635123443 -0.12011428743179051 0 0.36442210718250578 -0.1089393468864341 0 0.35225387496742538 -0.1043113700986044 0 0.35225387496742538 -0.1043113700986044 0 0.34854009669619501 -0.1182997790001224 0 0.33878062788988189 -0.1101939717838742 0 0.36086003635123443 -0.12011428743179051 0 0.34854009669619501 -0.1182997790001224 0 0.35310764773959119 -0.13214583658180559 0 0.33769829653284211 -0.12473342910453721 0 0.32330203839479082 -0.1150999903248256 0 0.32561066577661929 -0.12960040029428499 0 0.34854009669619501 -0.1182997790001224 0 0.33769829653284211 -0.12473342910453721 0 0.33878062788988189 -0.1101939717838742 0 0.33769829653284211 -0.12473342910453721 0 0.33878062788988189 -0.1101939717838742 0 0.32330203839479082 -0.1150999903248256 0 0.35225387496742538 -0.1043113700986044 0 0.33878062788988189 -0.1101939717838742 0 0.3374835039770363 -0.094414827050224359 0 0.33878062788988189 -0.1101939717838742 0 0.32849342960403149 -0.1017008017498273 0 0.3374835039770363 -0.094414827050224359 0 0.33878062788988189 -0.1101939717838742 0 0.32849342960403149 -0.1017008017498273 0 0.32330203839479082 -0.1150999903248256 0 0.32849342960403149 -0.1017008017498273 0 0.3374835039770363 -0.094414827050224359 0 0.32471190833559488 -0.090757889922665369 0 0.31591581518471901 -0.1009061656923009 0 0.32330203839479082 -0.1150999903248256 0 0.3067225776660879 -0.1110597238186216 0 0.32849342960403149 -0.1017008017498273 0 0.31591581518471901 -0.1009061656923009 0 0.32471190833559488 -0.090757889922665369 0 0.32849342960403149 -0.1017008017498273 0 0.31591581518471901 -0.1009061656923009 0 0.32330203839479082 -0.1150999903248256 0 0.32330203839479082 -0.1150999903248256 0 0.3067225776660879 -0.1110597238186216 0 0.31033335472965679 -0.1263159789647389 0 0.32330203839479082 -0.1150999903248256 0 0.31033335472965679 -0.1263159789647389 0 0.32561066577661929 -0.12960040029428499 0 0.32495798825087202 -0.062350394926605927 0 0.33602690587235101 -0.060238586035177913 0 0.32887734319096529 -0.07015177190525948 0 0.33602690587235101 -0.060238586035177913 0 0.34442229750894099 -0.072315568727619933 0 0.32887734319096529 -0.07015177190525948 0 0.33602690587235101 -0.060238586035177913 0 0.34778467447479727 -0.060547089756453107 0 0.34442229750894099 -0.072315568727619933 0 0.34442229750894099 -0.072315568727619933 0 0.32887734319096529 -0.07015177190525948 0 0.33454864935626938 -0.079961633392443776 0 0.34894411997966063 -0.08641908281461963 0 0.34442229750894099 -0.072315568727619933 0 0.33454864935626938 -0.079961633392443776 0 0.34894411997966063 -0.08641908281461963 0 0.3374835039770363 -0.094414827050224359 0 0.33454864935626938 -0.079961633392443776 0 0.3374835039770363 -0.094414827050224359 0 0.33454864935626938 -0.079961633392443776 0 0.32471190833559488 -0.090757889922665369 0 0.33454864935626938 -0.079961633392443776 0 0.32471190833559488 -0.090757889922665369 0 0.32013865325483032 -0.078995785345254338 0 0.32471190833559488 -0.090757889922665369 0 0.32013865325483032 -0.078995785345254338 0 0.31169139863668288 -0.0885681263059417 0 0.31591581518471901 -0.1009061656923009 0 0.32471190833559488 -0.090757889922665369 0 0.31169139863668288 -0.0885681263059417 0 0.32013865325483032 -0.078995785345254338 0 0.30722554189886009 -0.076268988640273261 0 0.31169139863668288 -0.0885681263059417 0 0.32013865325483032 -0.078995785345254338 0 0.31632746201845141 -0.067629513368109129 0 0.30722554189886009 -0.076268988640273261 0 0.32887734319096529 -0.07015177190525948 0 0.32013865325483032 -0.078995785345254338 0 0.31632746201845141 -0.067629513368109129 0 0.32887734319096529 -0.07015177190525948 0 0.33454864935626938 -0.079961633392443776 0 0.32013865325483032 -0.078995785345254338 0 0.32495798825087202 -0.062350394926605927 0 0.32887734319096529 -0.07015177190525948 0 0.31632746201845141 -0.067629513368109129 0 0.31632746201845141 -0.067629513368109129 0 0.30336297665616913 -0.067657234100837196 0 0.30911452545005041 -0.060871416712022557 0 0.30336297665616913 -0.067657234100837196 0 0.30911452545005041 -0.060871416712022557 0 0.29919192953267781 -0.060761779876893122 0 0.30336297665616913 -0.067657234100837196 0 0.29425699883548467 -0.07102364937543032 0 0.29919192953267781 -0.060761779876893122 0 0.30336297665616913 -0.067657234100837196 0 0.30722554189886009 -0.076268988640273261 0 0.29425699883548467 -0.07102364937543032 0 0.30722554189886009 -0.076268988640273261 0 0.30055917378564712 -0.084383450737463617 0 0.29425699883548467 -0.07102364937543032 0 0.31632746201845141 -0.067629513368109129 0 0.30336297665616913 -0.067657234100837196 0 0.30722554189886009 -0.076268988640273261 0 0.30722554189886009 -0.076268988640273261 0 0.31169139863668288 -0.0885681263059417 0 0.30055917378564712 -0.084383450737463617 0 0.31169139863668288 -0.0885681263059417 0 0.30055917378564712 -0.084383450737463617 0 0.3025756763518983 -0.097512831418067492 0 0.30055917378564712 -0.084383450737463617 0 0.28765559222732429 -0.085571542692910257 0 0.3025756763518983 -0.097512831418067492 0 0.30055917378564712 -0.084383450737463617 0 0.28765559222732429 -0.085571542692910257 0 0.29425699883548467 -0.07102364937543032 0 0.28765559222732429 -0.085571542692910257 0 0.28138905490483879 -0.069160177100710568 0 0.29425699883548467 -0.07102364937543032 0 0.28765559222732429 -0.085571542692910257 0 0.28138905490483879 -0.069160177100710568 0 0.28138905490483879 -0.069160177100710568 0 0.27777891890281098 -0.059705631676671013 0 0.28485181120207081 -0.062416442205813591 0 0.28138905490483879 -0.069160177100710568 0 0.29425699883548467 -0.07102364937543032 0 0.28485181120207081 -0.062416442205813591 0 0.28138905490483879 -0.069160177100710568 0 0.28485181120207081 -0.062416442205813591 0 0.29229413790548331 -0.062792705908791088 0 0.29425699883548467 -0.07102364937543032 0 0.28485181120207081 -0.062416442205813591 0 0.29425699883548467 -0.07102364937543032 0 0.28485181120207081 -0.062416442205813591 0 0.29229413790548331 -0.062792705908791088 0 0.29425699883548467 -0.07102364937543032 0 0.29919192953267781 -0.060761779876893122 0 0.29718455968872148 -0.11721437342052719 0 0.3067225776660879 -0.1110597238186216 0 0.29044309181755651 -0.1040699009949617 0 0.29718455968872148 -0.11721437342052719 0 0.31033335472965679 -0.1263159789647389 0 0.29729545370049543 -0.12965197193993649 0 0.29718455968872148 -0.11721437342052719 0 0.3067225776660879 -0.1110597238186216 0 0.31033335472965679 -0.1263159789647389 0 0.3067225776660879 -0.1110597238186216 0 0.3025756763518983 -0.097512831418067492 0 0.29044309181755651 -0.1040699009949617 0 0.31591581518471901 -0.1009061656923009 0 0.3067225776660879 -0.1110597238186216 0 0.3025756763518983 -0.097512831418067492 0 0.31591581518471901 -0.1009061656923009 0 0.31169139863668288 -0.0885681263059417 0 0.3025756763518983 -0.097512831418067492 0 0.28765559222732429 -0.085571542692910257 0 0.3025756763518983 -0.097512831418067492 0 0.29044309181755651 -0.1040699009949617 0 0.28765559222732429 -0.085571542692910257 0 0.29044309181755651 -0.1040699009949617 0 0.27774916387291609 -0.099363463938226634 0 0.29044309181755651 -0.1040699009949617 0 0.27698698704129299 -0.1121481487176601 0 0.27774916387291609 -0.099363463938226634 0 0.29718455968872148 -0.11721437342052719 0 0.29044309181755651 -0.1040699009949617 0 0.28662622465966459 -0.12138271362653071 0 0.29044309181755651 -0.1040699009949617 0 0.28662622465966459 -0.12138271362653071 0 0.27698698704129299 -0.1121481487176601 0 0.29718455968872148 -0.11721437342052719 0 0.28662622465966459 -0.12138271362653071 0 0.29729545370049543 -0.12965197193993649 0 0.26607591458594793 -0.1209428000062331 0 0.27698698704129299 -0.1121481487176601 0 0.27652819128739259 -0.12868608893485689 0 0.28662622465966459 -0.12138271362653071 0 0.27698698704129299 -0.1121481487176601 0 0.27652819128739259 -0.12868608893485689 0 0.26607591458594793 -0.1209428000062331 0 0.27698698704129299 -0.1121481487176601 0 0.26197708055065799 -0.1069650924901637 0 0.26197708055065799 -0.1069650924901637 0 0.27168306772774881 -0.088062634795437314 0 0.27774916387291609 -0.099363463938226634 0 0.26197708055065799 -0.1069650924901637 0 0.27168306772774881 -0.088062634795437314 0 0.27698698704129299 -0.1121481487176601 0 0.27774916387291609 -0.099363463938226634 0 0.26197708055065799 -0.1069650924901637 0 0.26197708055065799 -0.1069650924901637 0 0.24245197763722129 -0.093420504680645 0 0.24864889483125269 -0.11136115844460839 0 0.26197708055065799 -0.1069650924901637 0 0.25776336550045031 -0.085650467196631261 0 0.24245197763722129 -0.093420504680645 0 0.26607591458594793 -0.1209428000062331 0 0.26197708055065799 -0.1069650924901637 0 0.25227109337356712 -0.12586755018488999 0 0.26197708055065799 -0.1069650924901637 0 0.25227109337356712 -0.12586755018488999 0 0.26197708055065799 -0.1069650924901637 0 0.25227109337356712 -0.12586755018488999 0 0.24864889483125269 -0.11136115844460839 0 0.28138905490483879 -0.069160177100710568 0 0.26761490095288631 -0.073909486709646102 0 0.27168306772774881 -0.088062634795437314 0 0.28138905490483879 -0.069160177100710568 0 0.27777891890281098 -0.059705631676671013 0 0.28138905490483879 -0.069160177100710568 0 0.26761490095288631 -0.073909486709646102 0 0.27777891890281098 -0.059705631676671013 0 0.28765559222732429 -0.085571542692910257 0 0.28138905490483879 -0.069160177100710568 0 0.27168306772774881 -0.088062634795437314 0 0.28765559222732429 -0.085571542692910257 0 0.27774916387291609 -0.099363463938226634 0 0.27168306772774881 -0.088062634795437314 0 0.28138905490483879 -0.069160177100710568 0 0.27168306772774881 -0.088062634795437314 0 0.26761490095288631 -0.073909486709646102 0 0.27168306772774881 -0.088062634795437314 0 0.25776336550045031 -0.085650467196631261 0 0.26197708055065799 -0.1069650924901637 0 0.27168306772774881 -0.088062634795437314 0 0.25776336550045031 -0.085650467196631261 0 0.25776336550045031 -0.085650467196631261 0 0.2506101759114408 -0.067251129481808614 0 0.24245197763722129 -0.093420504680645 0 0.26761490095288631 -0.073909486709646102 0 0.2506101759114408 -0.067251129481808614 0 0.27777891890281098 -0.059705631676671013 0 0.2506101759114408 -0.067251129481808614 0 0.27777891890281098 -0.059705631676671013 0 0.26761490095288631 -0.073909486709646102 0 0.25776336550045031 -0.085650467196631261 0 0.2506101759114408 -0.067251129481808614 0 0.2506101759114408 -0.067251129481808614 0 0.25836292394737542 -0.051733355798602942 0 0.27777891890281098 -0.059705631676671013 0 0.25836292394737542 -0.051733355798602942 0 0.27557083660058102 -0.05392290924884427 0 0.27777891890281098 -0.059705631676671013 0 0.27557083660058102 -0.05392290924884427 0 0.27903452129962869 -0.048318547798888237 0 0.27645505275494742 -0.040788883562132512 0 0.27903452129962869 -0.048318547798888237 0 0.28058214390464081 -0.053829862538288781 0 0.28241972797842879 -0.049122112854103533 0 0.27903452129962869 -0.048318547798888237 0 0.28063101359187348 -0.044371531616830051 0 0.28241972797842879 -0.049122112854103533 0 0.27557083660058102 -0.05392290924884427 0 0.27903452129962869 -0.048318547798888237 0 0.28058214390464081 -0.053829862538288781 0 0.27557083660058102 -0.05392290924884427 0 0.28058214390464081 -0.053829862538288781 0 0.28093261125348151 -0.058829765659694437 0 0.27557083660058102 -0.05392290924884427 0 0.28093261125348151 -0.058829765659694437 0 0.27557083660058102 -0.05392290924884427 0 0.28093261125348151 -0.058829765659694437 0 0.27777891890281098 -0.059705631676671013 0 0.28093261125348151 -0.058829765659694437 0 0.27777891890281098 -0.059705631676671013 0 0.28093261125348151 -0.058829765659694437 0 0.27777891890281098 -0.059705631676671013 0 0.28485181120207081 -0.062416442205813591 0 0.27557083660058102 -0.05392290924884427 0 0.27777891890281098 -0.059705631676671013 0 0.27557083660058102 -0.05392290924884427 0 0.27645505275494742 -0.040788883562132512 0 0.26762304044013302 -0.033108513398479082 0 0.27557083660058102 -0.05392290924884427 0 0.26762304044013302 -0.033108513398479082 0 0.27557083660058102 -0.05392290924884427 0 0.26762304044013302 -0.033108513398479082 0 0.25466025382966551 -0.034786478912542051 0 0.27891980187884502 -0.031531027332987557 0 0.27645505275494742 -0.040788883562132512 0 0.2852400783175108 -0.04102625703156914 0 0.27891980187884502 -0.031531027332987557 0 0.27645505275494742 -0.040788883562132512 0 0.26762304044013302 -0.033108513398479082 0 0.28063101359187348 -0.044371531616830051 0 0.27645505275494742 -0.040788883562132512 0 0.2852400783175108 -0.04102625703156914 0 0.27903452129962869 -0.048318547798888237 0 0.28063101359187348 -0.044371531616830051 0 0.27645505275494742 -0.040788883562132512 0 0.27557083660058102 -0.05392290924884427 0 0.25466025382966551 -0.034786478912542051 0 0.25836292394737542 -0.051733355798602942 0 0.25466025382966551 -0.034786478912542051 0 0.24710016916265751 -0.041626061942450707 0 0.25836292394737542 -0.051733355798602942 0 0.27557083660058102 -0.05392290924884427 0 0.25466025382966551 -0.034786478912542051 0 0.26762304044013302 -0.033108513398479082 0 0.25967524427968852 -0.01229411754811258 0 0.26857383029654391 -0.020820866184469749 0 0.26762304044013302 -0.033108513398479082 0 0.25967524427968852 -0.01229411754811258 0 0.25466025382966551 -0.034786478912542051 0 0.25700131884559968 -0.023720274589020131 0 0.248593371939453 -0.020530026291062028 0 0.26762304044013302 -0.033108513398479082 0 0.25700131884559968 -0.023720274589020131 0 0.25967524427968852 -0.01229411754811258 0 0.25446842560175897 -0.017160170344855629 0 0.25269608468155402 -0.01205180352529236 0 0.248593371939453 -0.020530026291062028 0 0.25700131884559968 -0.023720274589020131 0 0.25446842560175897 -0.017160170344855629 0 0.248593371939453 -0.020530026291062028 0 0.25700131884559968 -0.023720274589020131 0 0.25446842560175897 -0.017160170344855629 0 0.25967524427968852 -0.01229411754811258 0 0.26762304044013302 -0.033108513398479082 0 0.25466025382966551 -0.034786478912542051 0 0.25700131884559968 -0.023720274589020131 0 0.24346617470820839 0.0065118492329050426 0 0.2621765913496944 -0.0068918630554423406 0 0.24346617470820839 0.0065118492329050426 0 0.2621765913496944 -0.0068918630554423406 0 0.2473769106111714 -0.0063856007180439411 0 0.25269608468155402 -0.01205180352529236 0 0.2621765913496944 -0.0068918630554423406 0 0.2473769106111714 -0.0063856007180439411 0 0.25446842560175897 -0.017160170344855629 0 0.25269608468155402 -0.01205180352529236 0 0.25967524427968852 -0.01229411754811258 0 0.25967524427968852 -0.01229411754811258 0 0.2621765913496944 -0.0068918630554423406 0 0.26857383029654391 -0.020820866184469749 0 0.25269608468155402 -0.01205180352529236 0 0.25967524427968852 -0.01229411754811258 0 0.2621765913496944 -0.0068918630554423406 0 0.2621765913496944 -0.0068918630554423406 0 0.27875288582191682 -0.0023548690430809189 0 0.28088700799118038 -0.020295575343789719 0 0.2621765913496944 -0.0068918630554423406 0 0.28088700799118038 -0.020295575343789719 0 0.2621765913496944 -0.0068918630554423406 0 0.26857383029654391 -0.020820866184469749 0 0.28088700799118038 -0.020295575343789719 0 0.27891980187884502 -0.031531027332987557 0 0.26762304044013302 -0.033108513398479082 0 0.26857383029654391 -0.020820866184469749 0 0.27891980187884502 -0.031531027332987557 0 0.26857383029654391 -0.020820866184469749 0 0.28088700799118038 -0.020295575343789719 0 0.28088700799118038 -0.020295575343789719 0 0.29259019578094442 -0.022000532278357309 0 0.29959742463266892 -0.033699287632133597 0 0.27891980187884502 -0.031531027332987557 0 0.28088700799118038 -0.020295575343789719 0 0.29959742463266892 -0.033699287632133597 0 0.28088700799118038 -0.020295575343789719 0 0.29959742463266892 -0.033699287632133597 0 0.28088700799118038 -0.020295575343789719 0 0.29259019578094442 -0.022000532278357309 0 0.29374775224230598 -0.0067401621391478634 0 0.27875288582191682 -0.0023548690430809189 0 0.28088700799118038 -0.020295575343789719 0 0.29374775224230598 -0.0067401621391478634 0 0.29259019578094442 -0.022000532278357309 0 0.29374775224230598 -0.0067401621391478634 0 0.30188147867887971 -0.016733634175455439 0 0.30551679155196743 0.0042433732952555916 0 0.29374775224230598 -0.0067401621391478634 0 0.30752583277495482 -0.005890140240237136 0 0.29374775224230598 -0.0067401621391478634 0 0.30752583277495482 -0.005890140240237136 0 0.30188147867887971 -0.016733634175455439 0 0.30891247614631412 -0.013794316277317699 0 0.30752583277495482 -0.005890140240237136 0 0.30188147867887971 -0.016733634175455439 0 0.31619883436604102 -0.013794070366643639 0 0.30891247614631412 -0.013794316277317699 0 0.30752583277495482 -0.005890140240237136 0 0.29259019578094442 -0.022000532278357309 0 0.29937675587037321 -0.02499663817309087 0 0.29959742463266892 -0.033699287632133597 0 0.30178531707748713 -0.029438356350832289 0 0.29937675587037321 -0.02499663817309087 0 0.29959742463266892 -0.033699287632133597 0 0.30387185716672149 -0.023564059049860302 0 0.30178531707748713 -0.029438356350832289 0 0.29937675587037321 -0.02499663817309087 0 0.29259019578094442 -0.022000532278357309 0 0.29937675587037321 -0.02499663817309087 0 0.30188147867887971 -0.016733634175455439 0 0.30387185716672149 -0.023564059049860302 0 0.29937675587037321 -0.02499663817309087 0 0.30188147867887971 -0.016733634175455439 0 0.30387185716672149 -0.023564059049860302 0 0.30188147867887971 -0.016733634175455439 0 0.3097479383263963 -0.020127404145224199 0 0.30891247614631412 -0.013794316277317699 0 0.30188147867887971 -0.016733634175455439 0 0.3097479383263963 -0.020127404145224199 0 0.31619883436604102 -0.013794070366643639 0 0.30891247614631412 -0.013794316277317699 0 0.3097479383263963 -0.020127404145224199 0 0.31367446442993879 -0.025329200155486821 0 0.3097479383263963 -0.020127404145224199 0 0.30867577268861057 -0.028450762598681061 0 0.30387185716672149 -0.023564059049860302 0 0.3097479383263963 -0.020127404145224199 0 0.30867577268861057 -0.028450762598681061 0 0.30387185716672149 -0.023564059049860302 0 0.30178531707748713 -0.029438356350832289 0 0.30867577268861057 -0.028450762598681061 0 0.30178531707748713 -0.029438356350832289 0 0.30867577268861057 -0.028450762598681061 0 0.30501539121516069 -0.032128610287959262 0 0.31768303164256512 -0.046655400666162361 0 0.29959742463266892 -0.033699287632133597 0 0.30755589863951133 -0.051435755690200542 0 0.31768303164256512 -0.046655400666162361 0 0.29959742463266892 -0.033699287632133597 0 0.31552745144054939 -0.031948585990134247 0 0.30867577268861057 -0.028450762598681061 0 0.31101112213275728 -0.036867782327202461 0 0.31768303164256512 -0.046655400666162361 0 0.31101112213275728 -0.036867782327202461 0 0.29959742463266892 -0.033699287632133597 0 0.31101112213275728 -0.036867782327202461 0 0.30501539121516069 -0.032128610287959262 0 0.29959742463266892 -0.033699287632133597 0 0.30867577268861057 -0.028450762598681061 0 0.31101112213275728 -0.036867782327202461 0 0.30501539121516069 -0.032128610287959262 0 0.30178531707748713 -0.029438356350832289 0 0.30501539121516069 -0.032128610287959262 0 0.29959742463266892 -0.033699287632133597 0 0.30178531707748713 -0.029438356350832289 0 0.29959742463266892 -0.033699287632133597 0 0.29959742463266892 -0.033699287632133597 0 0.30755589863951133 -0.051435755690200542 0 0.28765167172696537 -0.056963700083110892 0 0.30755589863951133 -0.051435755690200542 0 0.29919192953267781 -0.060761779876893122 0 0.28765167172696537 -0.056963700083110892 0 0.30755589863951133 -0.051435755690200542 0 0.28765167172696537 -0.056963700083110892 0 0.31913436040344217 -0.0568728005240728 0 0.30755589863951133 -0.051435755690200542 0 0.30911452545005041 -0.060871416712022557 0 0.30755589863951133 -0.051435755690200542 0 0.30911452545005041 -0.060871416712022557 0 0.29919192953267781 -0.060761779876893122 0 0.28765167172696537 -0.056963700083110892 0 0.28241972797842879 -0.049122112854103533 0 0.2852400783175108 -0.04102625703156914 0 0.29229413790548331 -0.062792705908791088 0 0.29919192953267781 -0.060761779876893122 0 0.28765167172696537 -0.056963700083110892 0 0.29229413790548331 -0.062792705908791088 0 0.28765167172696537 -0.056963700083110892 0 0.28485181120207081 -0.062416442205813591 0 0.28765167172696537 -0.056963700083110892 0 0.28485181120207081 -0.062416442205813591 0 0.28093261125348151 -0.058829765659694437 0 0.28765167172696537 -0.056963700083110892 0 0.28058214390464081 -0.053829862538288781 0 0.28093261125348151 -0.058829765659694437 0 0.28765167172696537 -0.056963700083110892 0 0.28093261125348151 -0.058829765659694437 0 0.28485181120207081 -0.062416442205813591 0 0.28093261125348151 -0.058829765659694437 0 0.28765167172696537 -0.056963700083110892 0 0.28485181120207081 -0.062416442205813591 0 0.28058214390464081 -0.053829862538288781 0 0.28765167172696537 -0.056963700083110892 0 0.28241972797842879 -0.049122112854103533 0 0.27891980187884502 -0.031531027332987557 0 0.29959742463266892 -0.033699287632133597 0 0.2852400783175108 -0.04102625703156914 0 0.29959742463266892 -0.033699287632133597 0 0.28765167172696537 -0.056963700083110892 0 0.2852400783175108 -0.04102625703156914 0 0.29959742463266892 -0.033699287632133597 0 0.28765167172696537 -0.056963700083110892 0 0.28063101359187348 -0.044371531616830051 0 0.28241972797842879 -0.049122112854103533 0 0.2852400783175108 -0.04102625703156914 0 0.29988239741584871 -0.19787078888157431 0 0.29666784025299131 -0.2231235104144593 0 0.27844777164032147 -0.20606233606362659 0 0.28136548705905973 -0.1880545050322012 0 0.29988239741584871 -0.19787078888157431 0 0.29474208815259118 -0.18223346488699921 0 0.28136548705905973 -0.1880545050322012 0 0.29988239741584871 -0.19787078888157431 0 0.27844777164032147 -0.20606233606362659 0 0.29988239741584871 -0.19787078888157431 0 0.30817238583864232 -0.18075801584339021 0 0.32342110838317317 -0.18707752612338879 0 0.29988239741584871 -0.19787078888157431 0 0.31232169042138019 -0.21582432259627771 0 0.29666784025299131 -0.2231235104144593 0 0.29988239741584871 -0.19787078888157431 0 0.31232169042138019 -0.21582432259627771 0 0.32515970995380372 -0.20426982466756691 0 0.29090316876158312 -0.2413033834464432 0 0.29666784025299131 -0.2231235104144593 0 0.31815073946620459 -0.2374583266766232 0 0.31232169042138019 -0.21582432259627771 0 0.29666784025299131 -0.2231235104144593 0 0.31815073946620459 -0.2374583266766232 0 0.29090316876158312 -0.2413033834464432 0 0.31815073946620459 -0.2374583266766232 0 0.30217147700714991 -0.25669053555935212 0 0.31815073946620459 -0.2374583266766232 0 0.30217147700714991 -0.25669053555935212 0 0.29090316876158312 -0.2413033834464432 0 0.29666784025299131 -0.2231235104144593 0 0.27230323498926978 -0.23168901835141889 0 0.29666784025299131 -0.2231235104144593 0 0.27230323498926978 -0.23168901835141889 0 0.27844777164032147 -0.20606233606362659 0 0.27230323498926978 -0.23168901835141889 0 0.27667494479208232 -0.25127162593105867 0 0.25873669704215813 -0.25345417408551763 0 0.29090316876158312 -0.2413033834464432 0 0.27230323498926978 -0.23168901835141889 0 0.27667494479208232 -0.25127162593105867 0 0.27230323498926978 -0.23168901835141889 0 0.25873669704215813 -0.25345417408551763 0 0.24978513541844341 -0.23179118158198689 0 0.27230323498926978 -0.23168901835141889 0 0.2547363638535789 -0.20793585365257461 0 0.27230323498926978 -0.23168901835141889 0 0.2547363638535789 -0.20793585365257461 0 0.24978513541844341 -0.23179118158198689 0 0.27230323498926978 -0.23168901835141889 0 0.2547363638535789 -0.20793585365257461 0 0.27844777164032147 -0.20606233606362659 0 0.28136548705905973 -0.1880545050322012 0 0.27844777164032147 -0.20606233606362659 0 0.26712974609925699 -0.19107005874782451 0 0.2547363638535789 -0.20793585365257461 0 0.27844777164032147 -0.20606233606362659 0 0.26712974609925699 -0.19107005874782451 0 0.2547363638535789 -0.20793585365257461 0 0.26712974609925699 -0.19107005874782451 0 0.25317721396154569 -0.18028292718302399 0 0.26712974609925699 -0.19107005874782451 0 0.25317721396154569 -0.18028292718302399 0 0.26792189398177929 -0.17301467180769581 0 0.25317721396154569 -0.18028292718302399 0 0.26792189398177929 -0.17301467180769581 0 0.24860272105205911 -0.16649091279191619 0 0.26082766458527379 -0.15745175225016669 0 0.26792189398177929 -0.17301467180769581 0 0.24860272105205911 -0.16649091279191619 0 0.26082766458527379 -0.15745175225016669 0 0.245688150904773 -0.15499013695222619 0 0.24860272105205911 -0.16649091279191619 0 0.27567941325516709 -0.1586237131794126 0 0.26792189398177929 -0.17301467180769581 0 0.28580776181314088 -0.17052532030454251 0 0.26082766458527379 -0.15745175225016669 0 0.27567941325516709 -0.1586237131794126 0 0.26792189398177929 -0.17301467180769581 0 0.28136548705905973 -0.1880545050322012 0 0.26792189398177929 -0.17301467180769581 0 0.28580776181314088 -0.17052532030454251 0 0.28136548705905973 -0.1880545050322012 0 0.26712974609925699 -0.19107005874782451 0 0.26792189398177929 -0.17301467180769581 0 0.26532322116382051 -0.13414119786242579 0 0.25456149935772998 -0.1437041848715522 0 0.24894816783196361 -0.13233896399647471 0 0.25227109337356712 -0.12586755018488999 0 0.26532322116382051 -0.13414119786242579 0 0.24894816783196361 -0.13233896399647471 0 0.25227109337356712 -0.12586755018488999 0 0.26532322116382051 -0.13414119786242579 0 0.26607591458594793 -0.1209428000062331 0 0.25227109337356712 -0.12586755018488999 0 0.26532322116382051 -0.13414119786242579 0 0.25227109337356712 -0.12586755018488999 0 0.24894816783196361 -0.13233896399647471 0 0.26082766458527379 -0.15745175225016669 0 0.25456149935772998 -0.1437041848715522 0 0.245688150904773 -0.15499013695222619 0 0.26082766458527379 -0.15745175225016669 0 0.25456149935772998 -0.1437041848715522 0 0.26736098153806148 -0.15054862396027291 0 0.25456149935772998 -0.1437041848715522 0 0.27837534895407501 -0.14241484553995989 0 0.27567941325516709 -0.1586237131794126 0 0.27837534895407501 -0.14241484553995989 0 0.28514312449719331 -0.15679546766706029 0 0.25456149935772998 -0.1437041848715522 0 0.26736098153806148 -0.15054862396027291 0 0.27837534895407501 -0.14241484553995989 0 0.27567941325516709 -0.1586237131794126 0 0.26736098153806148 -0.15054862396027291 0 0.27837534895407501 -0.14241484553995989 0 0.26082766458527379 -0.15745175225016669 0 0.27567941325516709 -0.1586237131794126 0 0.26736098153806148 -0.15054862396027291 0 0.26532322116382051 -0.13414119786242579 0 0.25456149935772998 -0.1437041848715522 0 0.27837534895407501 -0.14241484553995989 0 0.26532322116382051 -0.13414119786242579 0 0.27837534895407501 -0.14241484553995989 0 0.26532322116382051 -0.13414119786242579 0 0.27837534895407501 -0.14241484553995989 0 0.27652819128739259 -0.12868608893485689 0 0.27837534895407501 -0.14241484553995989 0 0.27652819128739259 -0.12868608893485689 0 0.28718497825982642 -0.13270733709427759 0 0.26607591458594793 -0.1209428000062331 0 0.26532322116382051 -0.13414119786242579 0 0.27652819128739259 -0.12868608893485689 0 0.27837534895407501 -0.14241484553995989 0 0.28718497825982642 -0.13270733709427759 0 0.29709967269750409 -0.14140106543010431 0 0.28662622465966459 -0.12138271362653071 0 0.28718497825982642 -0.13270733709427759 0 0.29729545370049543 -0.12965197193993649 0 0.28662622465966459 -0.12138271362653071 0 0.27652819128739259 -0.12868608893485689 0 0.28718497825982642 -0.13270733709427759 0 0.28718497825982642 -0.13270733709427759 0 0.29709967269750409 -0.14140106543010431 0 0.29729545370049543 -0.12965197193993649 0 0.27837534895407501 -0.14241484553995989 0 0.29166879670430529 -0.15084146416280481 0 0.29709967269750409 -0.14140106543010431 0 0.27837534895407501 -0.14241484553995989 0 0.29709967269750409 -0.14140106543010431 0 0.29166879670430529 -0.15084146416280481 0 0.29858671034542428 -0.15248532976654719 0 0.29709967269750409 -0.14140106543010431 0 0.27837534895407501 -0.14241484553995989 0 0.29166879670430529 -0.15084146416280481 0 0.27837534895407501 -0.14241484553995989 0 0.29166879670430529 -0.15084146416280481 0 0.28514312449719331 -0.15679546766706029 0 0.29858671034542428 -0.15248532976654719 0 0.3082197211249873 -0.14555110790190229 0 0.31689659114832303 -0.15283294076008239 0 0.29166879670430529 -0.15084146416280481 0 0.30496224445453562 -0.15926808278564969 0 0.29166879670430529 -0.15084146416280481 0 0.29858671034542428 -0.15248532976654719 0 0.30496224445453562 -0.15926808278564969 0 0.3082197211249873 -0.14555110790190229 0 0.30650971181559178 -0.13702034786692741 0 0.31960035682531551 -0.14218161509795491 0 0.3082197211249873 -0.14555110790190229 0 0.29709967269750409 -0.14140106543010431 0 0.30650971181559178 -0.13702034786692741 0 0.29858671034542428 -0.15248532976654719 0 0.3082197211249873 -0.14555110790190229 0 0.29709967269750409 -0.14140106543010431 0 0.30650971181559178 -0.13702034786692741 0 0.31033335472965679 -0.1263159789647389 0 0.31960035682531551 -0.14218161509795491 0 0.29709967269750409 -0.14140106543010431 0 0.30650971181559178 -0.13702034786692741 0 0.29729545370049543 -0.12965197193993649 0 0.30650971181559178 -0.13702034786692741 0 0.31033335472965679 -0.1263159789647389 0 0.29729545370049543 -0.12965197193993649 0 0.28136548705905973 -0.1880545050322012 0 0.29474208815259118 -0.18223346488699921 0 0.28580776181314088 -0.17052532030454251 0 0.29474208815259118 -0.18223346488699921 0 0.28580776181314088 -0.17052532030454251 0 0.3014276176122262 -0.17049739677351869 0 0.28580776181314088 -0.17052532030454251 0 0.28514312449719331 -0.15679546766706029 0 0.29418430175927818 -0.16157199514858159 0 0.27567941325516709 -0.1586237131794126 0 0.28580776181314088 -0.17052532030454251 0 0.28514312449719331 -0.15679546766706029 0 0.29166879670430529 -0.15084146416280481 0 0.28514312449719331 -0.15679546766706029 0 0.29418430175927818 -0.16157199514858159 0 0.28580776181314088 -0.17052532030454251 0 0.29418430175927818 -0.16157199514858159 0 0.3014276176122262 -0.17049739677351869 0 0.29858671034542428 -0.15248532976654719 0 0.30496224445453562 -0.15926808278564969 0 0.32216952814315031 -0.16689685287206429 0 0.3014276176122262 -0.17049739677351869 0 0.30496224445453562 -0.15926808278564969 0 0.32216952814315031 -0.16689685287206429 0 0.29858671034542428 -0.15248532976654719 0 0.32216952814315031 -0.16689685287206429 0 0.29166879670430529 -0.15084146416280481 0 0.29418430175927818 -0.16157199514858159 0 0.30496224445453562 -0.15926808278564969 0 0.29418430175927818 -0.16157199514858159 0 0.3014276176122262 -0.17049739677351869 0 0.30496224445453562 -0.15926808278564969 0 0.29988239741584871 -0.19787078888157431 0 0.29474208815259118 -0.18223346488699921 0 0.30817238583864232 -0.18075801584339021 0 0.3014276176122262 -0.17049739677351869 0 0.30817238583864232 -0.18075801584339021 0 0.32216952814315031 -0.16689685287206429 0 0.29474208815259118 -0.18223346488699921 0 0.3014276176122262 -0.17049739677351869 0 0.30817238583864232 -0.18075801584339021 0 0.30817238583864232 -0.18075801584339021 0 0.32342110838317317 -0.18707752612338879 0 0.32216952814315031 -0.16689685287206429 0 0.29858671034542428 -0.15248532976654719 0 0.32216952814315031 -0.16689685287206429 0 0.31689659114832303 -0.15283294076008239 0 0.32216952814315031 -0.16689685287206429 0 0.33590663930273762 -0.15704979816194289 0 0.31689659114832303 -0.15283294076008239 0 0.32216952814315031 -0.16689685287206429 0 0.33590663930273762 -0.15704979816194289 0 0.34575234594087612 -0.18130837597758129 0 0.32342110838317317 -0.18707752612338879 0 0.32216952814315031 -0.16689685287206429 0 0.34575234594087612 -0.18130837597758129 0 0.32216952814315031 -0.16689685287206429 0 0.34575234594087612 -0.18130837597758129 0 0.32561066577661929 -0.12960040029428499 0 0.31960035682531551 -0.14218161509795491 0 0.3371192824004916 -0.13967098797936839 0 0.31033335472965679 -0.1263159789647389 0 0.32561066577661929 -0.12960040029428499 0 0.31960035682531551 -0.14218161509795491 0 0.33590663930273762 -0.15704979816194289 0 0.31960035682531551 -0.14218161509795491 0 0.31689659114832303 -0.15283294076008239 0 0.3082197211249873 -0.14555110790190229 0 0.31960035682531551 -0.14218161509795491 0 0.31689659114832303 -0.15283294076008239 0 0.33590663930273762 -0.15704979816194289 0 0.31960035682531551 -0.14218161509795491 0 0.3371192824004916 -0.13967098797936839 0 0.33590663930273762 -0.15704979816194289 0 0.3371192824004916 -0.13967098797936839 0 0.35137904212924331 -0.14796756434295591 0 0.33769829653284211 -0.12473342910453721 0 0.3371192824004916 -0.13967098797936839 0 0.35310764773959119 -0.13214583658180559 0 0.33769829653284211 -0.12473342910453721 0 0.32561066577661929 -0.12960040029428499 0 0.3371192824004916 -0.13967098797936839 0 0.3371192824004916 -0.13967098797936839 0 0.35310764773959119 -0.13214583658180559 0 0.35137904212924331 -0.14796756434295591 0 0.35310764773959119 -0.13214583658180559 0 0.35137904212924331 -0.14796756434295591 0 0.3599723015870282 -0.14167889058225999 0 0.34854009669619501 -0.1182997790001224 0 0.33769829653284211 -0.12473342910453721 0 0.35310764773959119 -0.13214583658180559 0 0.35137904212924331 -0.14796756434295591 0 0.36687017328887411 -0.15251733822536581 0 0.35456680201973029 -0.16444151567853391 0 0.36687017328887411 -0.15251733822536581 0 0.3599723015870282 -0.14167889058225999 0 0.36963711174656888 -0.13459028271353121 0 0.36687017328887411 -0.15251733822536581 0 0.36963711174656888 -0.13459028271353121 0 0.3834508092767106 -0.1454123826621718 0 0.35137904212924331 -0.14796756434295591 0 0.36687017328887411 -0.15251733822536581 0 0.3599723015870282 -0.14167889058225999 0 0.35310764773959119 -0.13214583658180559 0 0.3599723015870282 -0.14167889058225999 0 0.36963711174656888 -0.13459028271353121 0 0.36086003635123443 -0.12011428743179051 0 0.35310764773959119 -0.13214583658180559 0 0.36963711174656888 -0.13459028271353121 0 0.34575234594087612 -0.18130837597758129 0 0.3629516038109637 -0.17815723273670489 0 0.36933516373860198 -0.19571989908309831 0 0.34575234594087612 -0.18130837597758129 0 0.35456680201973029 -0.16444151567853391 0 0.3629516038109637 -0.17815723273670489 0 0.33590663930273762 -0.15704979816194289 0 0.34575234594087612 -0.18130837597758129 0 0.35456680201973029 -0.16444151567853391 0 0.33590663930273762 -0.15704979816194289 0 0.35137904212924331 -0.14796756434295591 0 0.35456680201973029 -0.16444151567853391 0 0.36687017328887411 -0.15251733822536581 0 0.35456680201973029 -0.16444151567853391 0 0.36837523011242529 -0.1690223772016102 0 0.35456680201973029 -0.16444151567853391 0 0.36837523011242529 -0.1690223772016102 0 0.3629516038109637 -0.17815723273670489 0 0.36687017328887411 -0.15251733822536581 0 0.36837523011242529 -0.1690223772016102 0 0.381880587336902 -0.16258965433209491 0 0.36837523011242529 -0.1690223772016102 0 0.3629516038109637 -0.17815723273670489 0 0.3767284772431847 -0.180293995742701 0 0.3629516038109637 -0.17815723273670489 0 0.36933516373860198 -0.19571989908309831 0 0.3767284772431847 -0.180293995742701 0 0.36933516373860198 -0.19571989908309831 0 0.36575181089590542 -0.2135715797795382 0 0.35261044610636288 -0.20082392969823279 0 0.36575181089590542 -0.2135715797795382 0 0.35261044610636288 -0.20082392969823279 0 0.34662099655419581 -0.2217292142592148 0 0.35261044610636288 -0.20082392969823279 0 0.34662099655419581 -0.2217292142592148 0 0.35261044610636288 -0.20082392969823279 0 0.33818306627090272 -0.20908550564058781 0 0.34662099655419581 -0.2217292142592148 0 0.34575234594087612 -0.18130837597758129 0 0.36933516373860198 -0.19571989908309831 0 0.34575234594087612 -0.18130837597758129 0 0.36933516373860198 -0.19571989908309831 0 0.35261044610636288 -0.20082392969823279 0 0.34575234594087612 -0.18130837597758129 0 0.35261044610636288 -0.20082392969823279 0 0.33758247703804428 -0.19645576857816671 0 0.32342110838317317 -0.18707752612338879 0 0.34575234594087612 -0.18130837597758129 0 0.33758247703804428 -0.19645576857816671 0 0.32342110838317317 -0.18707752612338879 0 0.33758247703804428 -0.19645576857816671 0 0.32515970995380372 -0.20426982466756691 0 0.35261044610636288 -0.20082392969823279 0 0.33758247703804428 -0.19645576857816671 0 0.33818306627090272 -0.20908550564058781 0 0.33818306627090272 -0.20908550564058781 0 0.32515970995380372 -0.20426982466756691 0 0.32894170170210668 -0.2221487909997579 0 0.33818306627090272 -0.20908550564058781 0 0.32894170170210668 -0.2221487909997579 0 0.34662099655419581 -0.2217292142592148 0 0.33758247703804428 -0.19645576857816671 0 0.33818306627090272 -0.20908550564058781 0 0.32515970995380372 -0.20426982466756691 0 0.31232169042138019 -0.21582432259627771 0 0.32515970995380372 -0.20426982466756691 0 0.32894170170210668 -0.2221487909997579 0 0.29988239741584871 -0.19787078888157431 0 0.32342110838317317 -0.18707752612338879 0 0.32515970995380372 -0.20426982466756691 0 0.31815073946620459 -0.2374583266766232 0 0.31816164567006189 -0.25563535461071818 0 0.30217147700714991 -0.25669053555935212 0 0.31815073946620459 -0.2374583266766232 0 0.31816164567006189 -0.25563535461071818 0 0.32941657983921618 -0.25109649794001032 0 0.31232169042138019 -0.21582432259627771 0 0.31815073946620459 -0.2374583266766232 0 0.32894170170210668 -0.2221487909997579 0 0.34063154700202858 -0.2426344988201968 0 0.34662099655419581 -0.2217292142592148 0 0.31815073946620459 -0.2374583266766232 0 0.32894170170210668 -0.2221487909997579 0 0.34063154700202858 -0.2426344988201968 0 0.32894170170210668 -0.2221487909997579 0 0.34063154700202858 -0.2426344988201968 0 0.34662099655419581 -0.2217292142592148 0 0.31815073946620459 -0.2374583266766232 0 0.34063154700202858 -0.2426344988201968 0 0.32941657983921618 -0.25109649794001032 0 0.34063154700202858 -0.2426344988201968 0 0.36172752501230382 -0.2410402075623013 0 0.35145024036267292 -0.25166419076683122 0 0.34063154700202858 -0.2426344988201968 0 0.34662099655419581 -0.2217292142592148 0 0.36172752501230382 -0.2410402075623013 0 0.36575181089590542 -0.2135715797795382 0 0.34662099655419581 -0.2217292142592148 0 0.36172752501230382 -0.2410402075623013 0 0.36575181089590542 -0.2135715797795382 0 0.36172752501230382 -0.2410402075623013 0 0.37732275327431519 -0.22558581487545731 0 0.36172752501230382 -0.2410402075623013 0 0.37732275327431519 -0.22558581487545731 0 0.36172752501230382 -0.2410402075623013 0 0.35145024036267292 -0.25166419076683122 0 0.37035261659035312 -0.25391201290931142 0 0.36172752501230382 -0.2410402075623013 0 0.37732275327431519 -0.22558581487545731 0 0.37035261659035312 -0.25391201290931142 0 0.39867821645675211 -0.2325260860064372 0 0.37732275327431519 -0.22558581487545731 0 0.39191098905543342 -0.25369157454195268 0 0.37732275327431519 -0.22558581487545731 0 0.39191098905543342 -0.25369157454195268 0 0.37035261659035312 -0.25391201290931142 0 0.39867821645675211 -0.2325260860064372 0 0.42066187246995718 -0.24440456858103701 0 0.39191098905543342 -0.25369157454195268 0 0.39867821645675211 -0.2325260860064372 0 0.39291798153632812 -0.21013142218861491 0 0.41704814915483629 -0.22487743223528869 0 0.39867821645675211 -0.2325260860064372 0 0.37732275327431519 -0.22558581487545731 0 0.39291798153632812 -0.21013142218861491 0 0.36575181089590542 -0.2135715797795382 0 0.37732275327431519 -0.22558581487545731 0 0.39291798153632812 -0.21013142218861491 0 0.36933516373860198 -0.19571989908309831 0 0.36575181089590542 -0.2135715797795382 0 0.39291798153632812 -0.21013142218861491 0 0.37732275327431519 -0.22558581487545731 0 0.39291798153632812 -0.21013142218861491 0 0.36933516373860198 -0.19571989908309831 0 0.3894015834450425 -0.19000586870681579 0 0.3767284772431847 -0.180293995742701 0 0.36933516373860198 -0.19571989908309831 0 0.3894015834450425 -0.19000586870681579 0 0.39291798153632812 -0.21013142218861491 0 0.36933516373860198 -0.19571989908309831 0 0.39291798153632812 -0.21013142218861491 0 0.3894015834450425 -0.19000586870681579 0 0.39291798153632812 -0.21013142218861491 0 0.41389465123823421 -0.1893441861578862 0 0.39291798153632812 -0.21013142218861491 0 0.41389465123823421 -0.1893441861578862 0 0.39291798153632812 -0.21013142218861491 0 0.41704814915483629 -0.22487743223528869 0 0.41389465123823421 -0.1893441861578862 0 0.43679471763355537 -0.1967676865312708 0 0.41704814915483629 -0.22487743223528869 0 0.39291798153632812 -0.21013142218861491 0 0.41389465123823421 -0.1893441861578862 0 0.41704814915483629 -0.22487743223528869 0 0.43679471763355537 -0.1967676865312708 0 0.41704814915483629 -0.22487743223528869 0 0.44271632406659411 -0.21849469419510109 0 0.41704814915483629 -0.22487743223528869 0 0.44117831677334468 -0.239623442281962 0 0.44271632406659411 -0.21849469419510109 0 0.41704814915483629 -0.22487743223528869 0 0.44117831677334468 -0.239623442281962 0 0.42066187246995718 -0.24440456858103701 0 0.44117831677334468 -0.239623442281962 0 0.43838492990053918 -0.25472838910031792 0 0.42066187246995718 -0.24440456858103701 0 0.41704814915483629 -0.22487743223528869 0 0.44117831677334468 -0.239623442281962 0 0.39867821645675211 -0.2325260860064372 0 0.42066187246995718 -0.24440456858103701 0 0.41704814915483629 -0.22487743223528869 0 0.39574209548742212 -0.1218954134259438 0 0.39811782474021018 -0.13740118311102059 0 0.41462213756072752 -0.12949306930101159 0 0.39574209548742212 -0.1218954134259438 0 0.39811782474021018 -0.13740118311102059 0 0.3854298397113608 -0.13109886431214221 0 0.36963711174656888 -0.13459028271353121 0 0.3854298397113608 -0.13109886431214221 0 0.3834508092767106 -0.1454123826621718 0 0.37755240684453989 -0.1188739954682984 0 0.36963711174656888 -0.13459028271353121 0 0.3854298397113608 -0.13109886431214221 0 0.39811782474021018 -0.13740118311102059 0 0.3854298397113608 -0.13109886431214221 0 0.3834508092767106 -0.1454123826621718 0 0.36687017328887411 -0.15251733822536581 0 0.3834508092767106 -0.1454123826621718 0 0.381880587336902 -0.16258965433209491 0 0.3834508092767106 -0.1454123826621718 0 0.39405879977088359 -0.15500850947339559 0 0.381880587336902 -0.16258965433209491 0 0.39811782474021018 -0.13740118311102059 0 0.39405879977088359 -0.15500850947339559 0 0.40904578552691201 -0.14792830546007049 0 0.39811782474021018 -0.13740118311102059 0 0.3834508092767106 -0.1454123826621718 0 0.39405879977088359 -0.15500850947339559 0 0.39405879977088359 -0.15500850947339559 0 0.41351831839595049 -0.1653523512580419 0 0.40904578552691201 -0.14792830546007049 0 0.39405879977088359 -0.15500850947339559 0 0.39531206157059778 -0.17242254014684461 0 0.41351831839595049 -0.1653523512580419 0 0.39405879977088359 -0.15500850947339559 0 0.381880587336902 -0.16258965433209491 0 0.39531206157059778 -0.17242254014684461 0 0.36837523011242529 -0.1690223772016102 0 0.381880587336902 -0.16258965433209491 0 0.3767284772431847 -0.180293995742701 0 0.381880587336902 -0.16258965433209491 0 0.3767284772431847 -0.180293995742701 0 0.39531206157059778 -0.17242254014684461 0 0.3894015834450425 -0.19000586870681579 0 0.3767284772431847 -0.180293995742701 0 0.39531206157059778 -0.17242254014684461 0 0.3894015834450425 -0.19000586870681579 0 0.41389465123823421 -0.1893441861578862 0 0.39531206157059778 -0.17242254014684461 0 0.41389465123823421 -0.1893441861578862 0 0.43487132094014158 -0.1685569501271591 0 0.41351831839595049 -0.1653523512580419 0 0.41389465123823421 -0.1893441861578862 0 0.39531206157059778 -0.17242254014684461 0 0.41351831839595049 -0.1653523512580419 0 0.41389465123823421 -0.1893441861578862 0 0.43679471763355537 -0.1967676865312708 0 0.43487132094014158 -0.1685569501271591 0 0.41389465123823421 -0.1893441861578862 0 0.43487132094014158 -0.1685569501271591 0 0.43487132094014158 -0.1685569501271591 0 0.41351831839595049 -0.1653523512580419 0 0.42600502631659509 -0.1492855896360549 0 0.43487132094014158 -0.1685569501271591 0 0.42600502631659509 -0.1492855896360549 0 0.44555579689598862 -0.15156935721334949 0 0.40904578552691201 -0.14792830546007049 0 0.42600502631659509 -0.1492855896360549 0 0.41462213756072752 -0.12949306930101159 0 0.41351831839595049 -0.1653523512580419 0 0.40904578552691201 -0.14792830546007049 0 0.42600502631659509 -0.1492855896360549 0 0.42600502631659509 -0.1492855896360549 0 0.43704140534854169 -0.13115238873675911 0 0.44555579689598862 -0.15156935721334949 0 0.4248282053674774 -0.11606685272955949 0 0.43704140534854169 -0.13115238873675911 0 0.41462213756072752 -0.12949306930101159 0 0.42600502631659509 -0.1492855896360549 0 0.43704140534854169 -0.13115238873675911 0 0.41462213756072752 -0.12949306930101159 0 0.39811782474021018 -0.13740118311102059 0 0.40904578552691201 -0.14792830546007049 0 0.41462213756072752 -0.12949306930101159 0 0.45801678070099427 -0.133853701857399 0 0.44555579689598862 -0.15156935721334949 0 0.46759451433462002 -0.16541494969873741 0 0.45801678070099427 -0.133853701857399 0 0.46759451433462002 -0.16541494969873741 0 0.47902155328364449 -0.1365819190454812 0 0.44872637596207721 -0.1232381898623706 0 0.43704140534854169 -0.13115238873675911 0 0.45801678070099427 -0.133853701857399 0 0.43704140534854169 -0.13115238873675911 0 0.45801678070099427 -0.133853701857399 0 0.44555579689598862 -0.15156935721334949 0 0.44555579689598862 -0.15156935721334949 0 0.46759451433462002 -0.16541494969873741 0 0.45361162883620759 -0.1803669147296772 0 0.43487132094014158 -0.1685569501271591 0 0.44555579689598862 -0.15156935721334949 0 0.45361162883620759 -0.1803669147296772 0 0.43679471763355537 -0.1967676865312708 0 0.43487132094014158 -0.1685569501271591 0 0.45361162883620759 -0.1803669147296772 0 0.46759451433462002 -0.16541494969873741 0 0.45361162883620759 -0.1803669147296772 0 0.47778570684379229 -0.18438005714225411 0 0.47778570684379229 -0.18438005714225411 0 0.5 -0.17094342610869709 0 0.5 -0.19970920982668969 0 0.47778570684379229 -0.18438005714225411 0 0.5 -0.17094342610869709 0 0.48487239672059612 -0.15529562722455409 0 0.46759451433462002 -0.16541494969873741 0 0.47778570684379229 -0.18438005714225411 0 0.48487239672059612 -0.15529562722455409 0 0.46759451433462002 -0.16541494969873741 0 0.48487239672059612 -0.15529562722455409 0 0.47902155328364449 -0.1365819190454812 0 0.5 -0.17094342610869709 0 0.5 -0.1421776423907046 0 0.48487239672059612 -0.15529562722455409 0 0.5 -0.1421776423907046 0 0.48487239672059612 -0.15529562722455409 0 0.47902155328364449 -0.1365819190454812 0 0.5 -0.1134118586727121 0 0.5 -0.1421776423907046 0 0.47902155328364449 -0.1365819190454812 0 0.47309109009170303 -0.1137267302890093 0 0.45801678070099427 -0.133853701857399 0 0.47902155328364449 -0.1365819190454812 0 0.45982489235276441 -0.2302663580715785 0 0.48087368448664147 -0.24099426119765399 0 0.46536138058936211 -0.25265426371698729 0 0.45982489235276441 -0.2302663580715785 0 0.45139896475592572 -0.24858710814233179 0 0.46536138058936211 -0.25265426371698729 0 0.45982489235276441 -0.2302663580715785 0 0.45139896475592572 -0.24858710814233179 0 0.44117831677334468 -0.239623442281962 0 0.45139896475592572 -0.24858710814233179 0 0.44117831677334468 -0.239623442281962 0 0.43838492990053918 -0.25472838910031792 0 0.45982489235276441 -0.2302663580715785 0 0.44117831677334468 -0.239623442281962 0 0.44271632406659411 -0.21849469419510109 0 0.43679471763355537 -0.1967676865312708 0 0.44271632406659411 -0.21849469419510109 0 0.45882986131130049 -0.20318879007435009 0 0.43679471763355537 -0.1967676865312708 0 0.45361162883620759 -0.1803669147296772 0 0.45882986131130049 -0.20318879007435009 0 0.45361162883620759 -0.1803669147296772 0 0.47778570684379229 -0.18438005714225411 0 0.45882986131130049 -0.20318879007435009 0 0.45982489235276441 -0.2302663580715785 0 0.44271632406659411 -0.21849469419510109 0 0.45882986131130049 -0.20318879007435009 0 0.45982489235276441 -0.2302663580715785 0 0.45882986131130049 -0.20318879007435009 0 0.47956881590700928 -0.21456375893944349 0 0.47778570684379229 -0.18438005714225411 0 0.45882986131130049 -0.20318879007435009 0 0.47956881590700928 -0.21456375893944349 0 0.47778570684379229 -0.18438005714225411 0 0.47956881590700928 -0.21456375893944349 0 0.5 -0.19970920982668969 0 0.47956881590700928 -0.21456375893944349 0 0.5 -0.19970920982668969 0 0.5 -0.2284749935446822 0 0.47956881590700928 -0.21456375893944349 0 0.5 -0.2284749935446822 0 0.48087368448664147 -0.24099426119765399 0 0.45982489235276441 -0.2302663580715785 0 0.47956881590700928 -0.21456375893944349 0 0.48087368448664147 -0.24099426119765399 0 0.5 -0.2284749935446822 0 0.48087368448664147 -0.24099426119765399 0 0.5 -0.25724077726267469 0 0.48087368448664147 -0.24099426119765399 0 0.5 -0.25724077726267469 0 0.47897845769322173 -0.26118481388260528 0 0.5 -0.25724077726267469 0 0.48149592470227981 -0.28118669707736399 0 0.47897845769322173 -0.26118481388260528 0 0.5 -0.25724077726267469 0 0.48149592470227981 -0.28118669707736399 0 0.50000000000000044 -0.28600656098066718 0 0.48149592470227981 -0.28118669707736399 0 0.47897845769322173 -0.26118481388260528 0 0.46581663593756978 -0.27319746973586528 0 0.48149592470227981 -0.28118669707736399 0 0.46581663593756978 -0.27319746973586528 0 0.46352123546916019 -0.28764862914147799 0 0.47897845769322173 -0.26118481388260528 0 0.46536138058936211 -0.25265426371698729 0 0.46581663593756978 -0.27319746973586528 0 0.48087368448664147 -0.24099426119765399 0 0.47897845769322173 -0.26118481388260528 0 0.46536138058936211 -0.25265426371698729 0 0.46536138058936211 -0.25265426371698729 0 0.46581663593756978 -0.27319746973586528 0 0.45224530416361808 -0.26566308754081308 0 0.45139896475592572 -0.24858710814233179 0 0.46536138058936211 -0.25265426371698729 0 0.45224530416361808 -0.26566308754081308 0 0.46581663593756978 -0.27319746973586528 0 0.45447409801284078 -0.2797432686441067 0 0.46352123546916019 -0.28764862914147799 0 0.46581663593756978 -0.27319746973586528 0 0.45447409801284078 -0.2797432686441067 0 0.45224530416361808 -0.26566308754081308 0 0.45447409801284078 -0.2797432686441067 0 0.45224530416361808 -0.26566308754081308 0 0.44091456296562409 -0.28073044798355512 0 0.45224530416361808 -0.26566308754081308 0 0.44091456296562409 -0.28073044798355512 0 0.43990628475703342 -0.26838477795385468 0 0.45139896475592572 -0.24858710814233179 0 0.45224530416361808 -0.26566308754081308 0 0.43838492990053918 -0.25472838910031792 0 0.45224530416361808 -0.26566308754081308 0 0.43990628475703342 -0.26838477795385468 0 0.43838492990053918 -0.25472838910031792 0 0.44637886247085612 -0.30413356707808331 0 0.43879388846518858 -0.29530339041374032 0 0.43065368748369182 -0.30728740351924738 0 0.44637886247085612 -0.30413356707808331 0 0.44545700300470031 -0.3179826170422872 0 0.43065368748369182 -0.30728740351924738 0 0.44637886247085612 -0.30413356707808331 0 0.44987275152823181 -0.29147670881882198 0 0.45879344752443058 -0.30157371469863958 0 0.44637886247085612 -0.30413356707808331 0 0.45668333807473088 -0.31142876347718951 0 0.44545700300470031 -0.3179826170422872 0 0.44637886247085612 -0.30413356707808331 0 0.43879388846518858 -0.29530339041374032 0 0.44987275152823181 -0.29147670881882198 0 0.44091456296562409 -0.28073044798355512 0 0.43879388846518858 -0.29530339041374032 0 0.44987275152823181 -0.29147670881882198 0 0.45447409801284078 -0.2797432686441067 0 0.44091456296562409 -0.28073044798355512 0 0.44987275152823181 -0.29147670881882198 0 0.44987275152823181 -0.29147670881882198 0 0.46352123546916019 -0.28764862914147799 0 0.45879344752443058 -0.30157371469863958 0 0.45447409801284078 -0.2797432686441067 0 0.44987275152823181 -0.29147670881882198 0 0.46352123546916019 -0.28764862914147799 0 0.46352123546916019 -0.28764862914147799 0 0.45879344752443058 -0.30157371469863958 0 0.47146734077085167 -0.29896722572332679 0 0.45879344752443058 -0.30157371469863958 0 0.46703180798633981 -0.30678477131628418 0 0.47146734077085167 -0.29896722572332679 0 0.45879344752443058 -0.30157371469863958 0 0.45668333807473088 -0.31142876347718951 0 0.46703180798633981 -0.30678477131628418 0 0.44637886247085612 -0.30413356707808331 0 0.45879344752443058 -0.30157371469863958 0 0.45668333807473088 -0.31142876347718951 0 0.45668333807473088 -0.31142876347718951 0 0.46703180798633981 -0.30678477131628418 0 0.4649591772697349 -0.31486019974690371 0 0.46703180798633981 -0.30678477131628418 0 0.47439237699557141 -0.31165422763534689 0 0.47146734077085167 -0.29896722572332679 0 0.46703180798633981 -0.30678477131628418 0 0.47439237699557141 -0.31165422763534689 0 0.4649591772697349 -0.31486019974690371 0 0.47439237699557141 -0.31165422763534689 0 0.47146734077085167 -0.29896722572332679 0 0.48330000684943519 -0.29826031834886768 0 0.47439237699557141 -0.31165422763534689 0 0.48330000684943519 -0.29826031834886768 0 0.48779972902821739 -0.31283627990515223 0 0.48149592470227981 -0.28118669707736399 0 0.46352123546916019 -0.28764862914147799 0 0.47146734077085167 -0.29896722572332679 0 0.48149592470227981 -0.28118669707736399 0 0.47146734077085167 -0.29896722572332679 0 0.48330000684943519 -0.29826031834886768 0 0.48149592470227981 -0.28118669707736399 0 0.48330000684943519 -0.29826031834886768 0 0.50000000000000044 -0.28600656098066718 0 0.48330000684943519 -0.29826031834886768 0 0.50000000000000044 -0.28600656098066718 0 0.48779972902821739 -0.31283627990515223 0 0.50000000000000044 -0.28600656098066718 0 0.5 -0.31508187447584979 0 0.48779972902821739 -0.31283627990515223 0 0.50000000000000044 -0.28600656098066718 0 0.48779972902821739 -0.31283627990515223 0 0.5 -0.31508187447584979 0 0.48779972902821739 -0.31283627990515223 0 0.48998844774145822 -0.33002032783931462 0 0.48779972902821739 -0.31283627990515223 0 0.48998844774145822 -0.33002032783931462 0 0.47559945805643411 -0.33966599882963688 0 0.5 -0.31508187447584979 0 0.48998844774145822 -0.33002032783931462 0 0.5 -0.34415718797103251 0 0.48645819655106681 -0.34234418062978822 0 0.48998844774145822 -0.33002032783931462 0 0.5 -0.34415718797103251 0 0.47559945805643411 -0.33966599882963688 0 0.47335393006740822 -0.33042033027653922 0 0.47703804088510487 -0.32354578612524831 0 0.48645819655106681 -0.34234418062978822 0 0.48998844774145822 -0.33002032783931462 0 0.47559945805643411 -0.33966599882963688 0 0.48645819655106681 -0.34234418062978822 0 0.47559945805643411 -0.33966599882963688 0 0.48036641028587129 -0.34613933732831059 0 0.47312492115886312 -0.33821335696768079 0 0.47559945805643411 -0.33966599882963688 0 0.47478641676232147 -0.35149893790394249 0 0.47312492115886312 -0.33821335696768079 0 0.47559945805643411 -0.33966599882963688 0 0.47233870126712441 -0.33519180320825093 0 0.47559945805643411 -0.33966599882963688 0 0.47335393006740822 -0.33042033027653922 0 0.47233870126712441 -0.33519180320825093 0 0.47335393006740822 -0.33042033027653922 0 0.47233870126712441 -0.33519180320825093 0 0.46741035755228633 -0.33391374626746451 0 0.47312492115886312 -0.33821335696768079 0 0.47233870126712441 -0.33519180320825093 0 0.46741035755228633 -0.33391374626746451 0 0.47335393006740822 -0.33042033027653922 0 0.46925184538551101 -0.32176987505905841 0 0.47703804088510487 -0.32354578612524831 0 0.48779972902821739 -0.31283627990515223 0 0.47559945805643411 -0.33966599882963688 0 0.48779972902821739 -0.31283627990515223 0 0.47559945805643411 -0.33966599882963688 0 0.47703804088510487 -0.32354578612524831 0 0.47335393006740822 -0.33042033027653922 0 0.46925184538551101 -0.32176987505905841 0 0.46537679067428928 -0.32822328969780917 0 0.47439237699557141 -0.31165422763534689 0 0.46925184538551101 -0.32176987505905841 0 0.47703804088510487 -0.32354578612524831 0 0.47439237699557141 -0.31165422763534689 0 0.46925184538551101 -0.32176987505905841 0 0.4649591772697349 -0.31486019974690371 0 0.47439237699557141 -0.31165422763534689 0 0.48779972902821739 -0.31283627990515223 0 0.47703804088510487 -0.32354578612524831 0 0.49999999999999911 -0.37323250146621512 0 0.48694057402998853 -0.3519809452759885 0 0.48258149645614379 -0.36434940118800702 0 0.49999999999999911 -0.37323250146621512 0 0.48258149645614379 -0.36434940118800702 0 0.48240994226307637 -0.3789274567244697 0 0.49999999999999911 -0.37323250146621512 0 0.48694057402998853 -0.3519809452759885 0 0.5 -0.34415718797103251 0 0.48645819655106681 -0.34234418062978822 0 0.48694057402998853 -0.3519809452759885 0 0.5 -0.34415718797103251 0 0.48645819655106681 -0.34234418062978822 0 0.48694057402998853 -0.3519809452759885 0 0.48036641028587129 -0.34613933732831059 0 0.47559945805643411 -0.33966599882963688 0 0.48036641028587129 -0.34613933732831059 0 0.47478641676232147 -0.35149893790394249 0 0.48694057402998853 -0.3519809452759885 0 0.48036641028587129 -0.34613933732831059 0 0.47478641676232147 -0.35149893790394249 0 0.48694057402998853 -0.3519809452759885 0 0.47478641676232147 -0.35149893790394249 0 0.48258149645614379 -0.36434940118800702 0 0.47478641676232147 -0.35149893790394249 0 0.48258149645614379 -0.36434940118800702 0 0.46980354931298618 -0.36989479353917931 0 0.48258149645614379 -0.36434940118800702 0 0.46980354931298618 -0.36989479353917931 0 0.48240994226307637 -0.3789274567244697 0 0.47478641676232147 -0.35149893790394249 0 0.46980354931298618 -0.36989479353917931 0 0.45715899251779551 -0.35886268243884523 0 0.46980354931298618 -0.36989479353917931 0 0.45715899251779551 -0.35886268243884523 0 0.45755551593795019 -0.38079475950720071 0 0.45715899251779551 -0.35886268243884523 0 0.46031271845828209 -0.33997473891028379 0 0.44765446978474133 -0.33563943648598532 0 0.47312492115886312 -0.33821335696768079 0 0.45715899251779551 -0.35886268243884523 0 0.46031271845828209 -0.33997473891028379 0 0.47312492115886312 -0.33821335696768079 0 0.45715899251779551 -0.35886268243884523 0 0.47312492115886312 -0.33821335696768079 0 0.47478641676232147 -0.35149893790394249 0 0.45715899251779551 -0.35886268243884523 0 0.45715899251779551 -0.35886268243884523 0 0.44765446978474133 -0.33563943648598532 0 0.43492621876456639 -0.3521454317394011 0 0.45715899251779551 -0.35886268243884523 0 0.43069799502392808 -0.36738115090176421 0 0.43492621876456639 -0.3521454317394011 0 0.45715899251779551 -0.35886268243884523 0 0.43069799502392808 -0.36738115090176421 0 0.44119306387672791 -0.37951200791000972 0 0.45715899251779551 -0.35886268243884523 0 0.44119306387672791 -0.37951200791000972 0 0.45715899251779551 -0.35886268243884523 0 0.45755551593795019 -0.38079475950720071 0 0.44119306387672791 -0.37951200791000972 0 0.45747973019232491 -0.32323771098093929 0 0.46537679067428928 -0.32822328969780917 0 0.45964681333238477 -0.33219778446849652 0 0.45668333807473088 -0.31142876347718951 0 0.45747973019232491 -0.32323771098093929 0 0.4649591772697349 -0.31486019974690371 0 0.45668333807473088 -0.31142876347718951 0 0.45747973019232491 -0.32323771098093929 0 0.44545700300470031 -0.3179826170422872 0 0.46925184538551101 -0.32176987505905841 0 0.45747973019232491 -0.32323771098093929 0 0.4649591772697349 -0.31486019974690371 0 0.46925184538551101 -0.32176987505905841 0 0.45747973019232491 -0.32323771098093929 0 0.46537679067428928 -0.32822328969780917 0 0.47335393006740822 -0.33042033027653922 0 0.46537679067428928 -0.32822328969780917 0 0.46741035755228633 -0.33391374626746451 0 0.46741035755228633 -0.33391374626746451 0 0.46031271845828209 -0.33997473891028379 0 0.45964681333238477 -0.33219778446849652 0 0.46537679067428928 -0.32822328969780917 0 0.46741035755228633 -0.33391374626746451 0 0.45964681333238477 -0.33219778446849652 0 0.47312492115886312 -0.33821335696768079 0 0.46741035755228633 -0.33391374626746451 0 0.46031271845828209 -0.33997473891028379 0 0.46031271845828209 -0.33997473891028379 0 0.45964681333238477 -0.33219778446849652 0 0.44765446978474133 -0.33563943648598532 0 0.45747973019232491 -0.32323771098093929 0 0.45964681333238477 -0.33219778446849652 0 0.44765446978474133 -0.33563943648598532 0 0.44765446978474133 -0.33563943648598532 0 0.44545700300470031 -0.3179826170422872 0 0.42973961513795622 -0.32264594391472562 0 0.45747973019232491 -0.32323771098093929 0 0.44765446978474133 -0.33563943648598532 0 0.44545700300470031 -0.3179826170422872 0 0.44545700300470031 -0.3179826170422872 0 0.42973961513795622 -0.32264594391472562 0 0.43065368748369182 -0.30728740351924738 0 0.42973961513795622 -0.32264594391472562 0 0.43065368748369182 -0.30728740351924738 0 0.41299199277247489 -0.30932372678098319 0 0.42973961513795622 -0.32264594391472562 0 0.42516923841722609 -0.33889145705766782 0 0.41403068330156417 -0.32557289249525773 0 0.44765446978474133 -0.33563943648598532 0 0.42516923841722609 -0.33889145705766782 0 0.43492621876456639 -0.3521454317394011 0 0.44765446978474133 -0.33563943648598532 0 0.42973961513795622 -0.32264594391472562 0 0.42516923841722609 -0.33889145705766782 0 0.40796448761631482 -0.34082234241395021 0 0.41403068330156417 -0.32557289249525773 0 0.39859625090643702 -0.32396468918594978 0 0.42516923841722609 -0.33889145705766782 0 0.40796448761631482 -0.34082234241395021 0 0.41403068330156417 -0.32557289249525773 0 0.42973961513795622 -0.32264594391472562 0 0.41403068330156417 -0.32557289249525773 0 0.41299199277247489 -0.30932372678098319 0 0.41403068330156417 -0.32557289249525773 0 0.39859625090643702 -0.32396468918594978 0 0.41299199277247489 -0.30932372678098319 0 0.43069799502392808 -0.36738115090176421 0 0.41255635208850711 -0.3738673229446125 0 0.42407616088559053 -0.38288563776950968 0 0.43069799502392808 -0.36738115090176421 0 0.43492621876456639 -0.3521454317394011 0 0.4151952980542305 -0.35664406825628708 0 0.42516923841722609 -0.33889145705766782 0 0.43492621876456639 -0.3521454317394011 0 0.4151952980542305 -0.35664406825628708 0 0.42516923841722609 -0.33889145705766782 0 0.40796448761631482 -0.34082234241395021 0 0.4151952980542305 -0.35664406825628708 0 0.43069799502392808 -0.36738115090176421 0 0.4151952980542305 -0.35664406825628708 0 0.41255635208850711 -0.3738673229446125 0 0.4151952980542305 -0.35664406825628708 0 0.41255635208850711 -0.3738673229446125 0 0.39551100771605507 -0.3604525406818288 0 0.41255635208850711 -0.3738673229446125 0 0.39551100771605507 -0.3604525406818288 0 0.39900016818148321 -0.38128715923795098 0 0.39551100771605507 -0.3604525406818288 0 0.39900016818148321 -0.38128715923795098 0 0.37889185518456842 -0.38067152265555332 0 0.40796448761631482 -0.34082234241395021 0 0.39551100771605507 -0.3604525406818288 0 0.39127883458897939 -0.34086756880329871 0 0.40796448761631482 -0.34082234241395021 0 0.4151952980542305 -0.35664406825628708 0 0.39551100771605507 -0.3604525406818288 0 0.39551100771605507 -0.3604525406818288 0 0.37676007664897421 -0.3502612446685372 0 0.39127883458897939 -0.34086756880329871 0 0.39551100771605507 -0.3604525406818288 0 0.37676007664897421 -0.3502612446685372 0 0.37889185518456842 -0.38067152265555332 0 0.39859625090643702 -0.32396468918594978 0 0.39344672169408079 -0.30494844360269852 0 0.41299199277247489 -0.30932372678098319 0 0.39859625090643702 -0.32396468918594978 0 0.37983810678998442 -0.32441133461784899 0 0.39344672169408079 -0.30494844360269852 0 0.40796448761631482 -0.34082234241395021 0 0.39859625090643702 -0.32396468918594978 0 0.39127883458897939 -0.34086756880329871 0 0.39859625090643702 -0.32396468918594978 0 0.39127883458897939 -0.34086756880329871 0 0.37983810678998442 -0.32441133461784899 0 0.37676007664897421 -0.3502612446685372 0 0.39127883458897939 -0.34086756880329871 0 0.37983810678998442 -0.32441133461784899 0 0.37983810678998442 -0.32441133461784899 0 0.39344672169408079 -0.30494844360269852 0 0.36906092768396792 -0.29745343488172599 0 0.39344672169408079 -0.30494844360269852 0 0.41299199277247489 -0.30932372678098319 0 0.4113545082171064 -0.28897948848232902 0 0.39344672169408079 -0.30494844360269852 0 0.39216892842282502 -0.28321175295459 0 0.4113545082171064 -0.28897948848232902 0 0.39344672169408079 -0.30494844360269852 0 0.39216892842282502 -0.28321175295459 0 0.36906092768396792 -0.29745343488172599 0 0.39216892842282502 -0.28321175295459 0 0.37406158200927619 -0.27077034988824372 0 0.36906092768396792 -0.29745343488172599 0 0.39216892842282502 -0.28321175295459 0 0.36906092768396792 -0.29745343488172599 0 0.39216892842282502 -0.28321175295459 0 0.39191098905543342 -0.25369157454195268 0 0.37406158200927619 -0.27077034988824372 0 0.39191098905543342 -0.25369157454195268 0 0.37035261659035312 -0.25391201290931142 0 0.37406158200927619 -0.27077034988824372 0 0.39216892842282502 -0.28321175295459 0 0.39191098905543342 -0.25369157454195268 0 0.41527692916168207 -0.26897007102745391 0 0.39216892842282502 -0.28321175295459 0 0.41527692916168207 -0.26897007102745391 0 0.39216892842282502 -0.28321175295459 0 0.41527692916168207 -0.26897007102745391 0 0.4113545082171064 -0.28897948848232902 0 0.41527692916168207 -0.26897007102745391 0 0.42838451473418149 -0.27516993907532422 0 0.4113545082171064 -0.28897948848232902 0 0.42066187246995718 -0.24440456858103701 0 0.39191098905543342 -0.25369157454195268 0 0.41527692916168207 -0.26897007102745391 0 0.43838492990053918 -0.25472838910031792 0 0.41527692916168207 -0.26897007102745391 0 0.42066187246995718 -0.24440456858103701 0 0.43838492990053918 -0.25472838910031792 0 0.41527692916168207 -0.26897007102745391 0 0.43990628475703342 -0.26838477795385468 0 0.43838492990053918 -0.25472838910031792 0 0.42838451473418149 -0.27516993907532422 0 0.43838492990053918 -0.25472838910031792 0 0.41527692916168207 -0.26897007102745391 0 0.42838451473418149 -0.27516993907532422 0 0.44091456296562409 -0.28073044798355512 0 0.43990628475703342 -0.26838477795385468 0 0.42838451473418149 -0.27516993907532422 0 0.44091456296562409 -0.28073044798355512 0 0.42838451473418149 -0.27516993907532422 0 0.42614957787753882 -0.29288882466899391 0 0.42838451473418149 -0.27516993907532422 0 0.42614957787753882 -0.29288882466899391 0 0.4113545082171064 -0.28897948848232902 0 0.44091456296562409 -0.28073044798355512 0 0.43879388846518858 -0.29530339041374032 0 0.42614957787753882 -0.29288882466899391 0 0.42614957787753882 -0.29288882466899391 0 0.43065368748369182 -0.30728740351924738 0 0.41299199277247489 -0.30932372678098319 0 0.43879388846518858 -0.29530339041374032 0 0.42614957787753882 -0.29288882466899391 0 0.43065368748369182 -0.30728740351924738 0 0.42614957787753882 -0.29288882466899391 0 0.41299199277247489 -0.30932372678098319 0 0.4113545082171064 -0.28897948848232902 0 0.5 -0.5 0 0.47919277931029169 -0.46035266373997202 0 0.49999999999999739 -0.43699692325332118 0 0.43770988461538562 -0.5 0 0.46260338776327181 -0.47415767752646942 0 0.5 -0.5 0 0.43770988461538562 -0.5 0 0.46260338776327181 -0.47415767752646942 0 0.4368572979864816 -0.45931701093847338 0 0.46260338776327181 -0.47415767752646942 0 0.5 -0.5 0 0.47919277931029169 -0.46035266373997202 0 0.47919277931029169 -0.46035266373997202 0 0.47174127219071771 -0.43739222430073671 0 0.49999999999999739 -0.43699692325332118 0 0.47919277931029169 -0.46035266373997202 0 0.45870486417567191 -0.45302096630029842 0 0.47174127219071771 -0.43739222430073671 0 0.45870486417567191 -0.45302096630029842 0 0.44348254438143803 -0.43778752534815218 0 0.47174127219071771 -0.43739222430073671 0 0.44348254438143803 -0.43778752534815218 0 0.47174127219071771 -0.43739222430073671 0 0.46260338776327181 -0.47415767752646942 0 0.47919277931029169 -0.46035266373997202 0 0.45870486417567191 -0.45302096630029842 0 0.46260338776327181 -0.47415767752646942 0 0.45870486417567191 -0.45302096630029842 0 0.4368572979864816 -0.45931701093847338 0 0.45870486417567191 -0.45302096630029842 0 0.44348254438143803 -0.43778752534815218 0 0.4368572979864816 -0.45931701093847338 0 0.44348254438143803 -0.43778752534815218 0 0.44487269458277751 -0.41925761671514439 0 0.45711612364399729 -0.42731842325328961 0 0.44487269458277751 -0.41925761671514439 0 0.4487151737929076 -0.39429190879317128 0 0.4263824910891641 -0.41132925569015538 0 0.44487269458277751 -0.41925761671514439 0 0.46775530234318868 -0.41131065040405879 0 0.45711612364399729 -0.42731842325328961 0 0.44487269458277751 -0.41925761671514439 0 0.46775530234318868 -0.41131065040405879 0 0.46314302949323483 -0.39731056931168368 0 0.44487269458277751 -0.41925761671514439 0 0.46775530234318868 -0.41131065040405879 0 0.44348254438143803 -0.43778752534815218 0 0.45711612364399729 -0.42731842325328961 0 0.47174127219071771 -0.43739222430073671 0 0.46775530234318868 -0.41131065040405879 0 0.45711612364399729 -0.42731842325328961 0 0.47174127219071771 -0.43739222430073671 0 0.46775530234318868 -0.41131065040405879 0 0.48262157476654022 -0.42916365682460361 0 0.47174127219071771 -0.43739222430073671 0 0.47174127219071771 -0.43739222430073671 0 0.49999999999999739 -0.43699692325332118 0 0.48262157476654022 -0.42916365682460361 0 0.49999999999999739 -0.43699692325332118 0 0.5 -0.41855461018167428 0 0.48262157476654022 -0.42916365682460361 0 0.47174127219071771 -0.43739222430073671 0 0.49999999999999739 -0.43699692325332118 0 0.5 -0.41855461018167428 0 0.49063791010359931 -0.4033636840929713 0 0.50000000000000044 -0.40011229711002738 0 0.48262157476654022 -0.42916365682460361 0 0.49063791010359931 -0.4033636840929713 0 0.48262157476654022 -0.42916365682460361 0 0.5 -0.41855461018167428 0 0.49063791010359931 -0.4033636840929713 0 0.46775530234318868 -0.41131065040405879 0 0.49063791010359931 -0.4033636840929713 0 0.46775530234318868 -0.41131065040405879 0 0.48262157476654022 -0.42916365682460361 0 0.49063791010359931 -0.4033636840929713 0 0.46775530234318868 -0.41131065040405879 0 0.47868950481705319 -0.39355651851362877 0 0.49063791010359931 -0.4033636840929713 0 0.46775530234318868 -0.41131065040405879 0 0.47868950481705319 -0.39355651851362877 0 0.46314302949323483 -0.39731056931168368 0 0.47868950481705319 -0.39355651851362877 0 0.47073558794036841 -0.38373193956561341 0 0.46314302949323483 -0.39731056931168368 0 0.47868950481705319 -0.39355651851362877 0 0.49063791010359931 -0.4033636840929713 0 0.49531895505179829 -0.38829809277959287 0 0.49063791010359931 -0.4033636840929713 0 0.50000000000000044 -0.40011229711002738 0 0.49531895505179829 -0.38829809277959287 0 0.49063791010359931 -0.4033636840929713 0 0.49531895505179829 -0.38829809277959287 0 0.49063791010359931 -0.4033636840929713 0 0.50000000000000044 -0.40011229711002738 0 0.49999999999999911 -0.37323250146621512 0 0.50000000000000044 -0.40011229711002738 0 0.49531895505179829 -0.38829809277959287 0 0.49999999999999911 -0.37323250146621512 0 0.49531895505179829 -0.38829809277959287 0 0.48240994226307637 -0.3789274567244697 0 0.47868950481705319 -0.39355651851362877 0 0.49531895505179829 -0.38829809277959287 0 0.48240994226307637 -0.3789274567244697 0 0.49999999999999911 -0.37323250146621512 0 0.49531895505179829 -0.38829809277959287 0 0.47868950481705319 -0.39355651851362877 0 0.48240994226307637 -0.3789274567244697 0 0.47073558794036841 -0.38373193956561341 0 0.46980354931298618 -0.36989479353917931 0 0.48240994226307637 -0.3789274567244697 0 0.47073558794036841 -0.38373193956561341 0 0.47073558794036841 -0.38373193956561341 0 0.45755551593795019 -0.38079475950720071 0 0.46314302949323483 -0.39731056931168368 0 0.46980354931298618 -0.36989479353917931 0 0.47073558794036841 -0.38373193956561341 0 0.45755551593795019 -0.38079475950720071 0 0.45755551593795019 -0.38079475950720071 0 0.46314302949323483 -0.39731056931168368 0 0.4487151737929076 -0.39429190879317128 0 0.44487269458277751 -0.41925761671514439 0 0.46314302949323483 -0.39731056931168368 0 0.4487151737929076 -0.39429190879317128 0 0.4487151737929076 -0.39429190879317128 0 0.4263824910891641 -0.41132925569015538 0 0.4487151737929076 -0.39429190879317128 0 0.44119306387672791 -0.37951200791000972 0 0.42522713523566019 -0.40016133338117421 0 0.45755551593795019 -0.38079475950720071 0 0.4487151737929076 -0.39429190879317128 0 0.44119306387672791 -0.37951200791000972 0 0.44119306387672791 -0.37951200791000972 0 0.42407616088559053 -0.38288563776950968 0 0.42522713523566019 -0.40016133338117421 0 0.43069799502392808 -0.36738115090176421 0 0.44119306387672791 -0.37951200791000972 0 0.42407616088559053 -0.38288563776950968 0 0.44119306387672791 -0.37951200791000972 0 0.42522713523566019 -0.40016133338117421 0 0.4487151737929076 -0.39429190879317128 0 0.42522713523566019 -0.40016133338117421 0 0.4263824910891641 -0.41132925569015538 0 0.42407616088559053 -0.38288563776950968 0 0.42522713523566019 -0.40016133338117421 0 0.41216887346592268 -0.39059139438635559 0 0.42522713523566019 -0.40016133338117421 0 0.41024658441603412 -0.40483187488401201 0 0.41216887346592268 -0.39059139438635559 0 0.41024658441603412 -0.40483187488401201 0 0.41216887346592268 -0.39059139438635559 0 0.39757416484400682 -0.39891643062873883 0 0.41255635208850711 -0.3738673229446125 0 0.42407616088559053 -0.38288563776950968 0 0.41216887346592268 -0.39059139438635559 0 0.41255635208850711 -0.3738673229446125 0 0.41216887346592268 -0.39059139438635559 0 0.39900016818148321 -0.38128715923795098 0 0.41216887346592268 -0.39059139438635559 0 0.39900016818148321 -0.38128715923795098 0 0.39757416484400682 -0.39891643062873883 0 0.39900016818148321 -0.38128715923795098 0 0.37889185518456842 -0.38067152265555332 0 0.39757416484400682 -0.39891643062873883 0 0.37889185518456842 -0.38067152265555332 0 0.39757416484400682 -0.39891643062873883 0 0.37889185518456842 -0.38067152265555332 0 0.39757416484400682 -0.39891643062873883 0 0.37122687795537868 -0.40135981751420008 0 0.41024658441603412 -0.40483187488401201 0 0.39757416484400682 -0.39891643062873883 0 0.40443729110426119 -0.41257053675984739 0 0.39757416484400682 -0.39891643062873883 0 0.40443729110426119 -0.41257053675984739 0 0.39617862619617439 -0.41736263720672351 0 0.39617862619617439 -0.41736263720672351 0 0.38199492303472721 -0.41918232752938228 0 0.40404980838542059 -0.42836660258713938 0 0.39757416484400682 -0.39891643062873883 0 0.39617862619617439 -0.41736263720672351 0 0.38199492303472721 -0.41918232752938228 0 0.40443729110426119 -0.41257053675984739 0 0.39617862619617439 -0.41736263720672351 0 0.40926120659459259 -0.42081065885233859 0 0.39757416484400682 -0.39891643062873883 0 0.38199492303472721 -0.41918232752938228 0 0.37122687795537868 -0.40135981751420008 0 0.38199492303472721 -0.41918232752938228 0 0.40404980838542059 -0.42836660258713938 0 0.38171712568167698 -0.44540394948412337 0 0.38199492303472721 -0.41918232752938228 0 0.38171712568167698 -0.44540394948412337 0 0.36171104107529439 -0.4292326932117525 0 0.40404980838542059 -0.42836660258713938 0 0.38171712568167698 -0.44540394948412337 0 0.39617862619617439 -0.41736263720672351 0 0.40404980838542059 -0.42836660258713938 0 0.40926120659459259 -0.42081065885233859 0 0.40404980838542059 -0.42836660258713938 0 0.4263824910891641 -0.41132925569015538 0 0.42199008682236627 -0.42720458302622999 0 0.40404980838542059 -0.42836660258713938 0 0.42199008682236627 -0.42720458302622999 0 0.41317131604981278 -0.44851038865106713 0 0.40404980838542059 -0.42836660258713938 0 0.4263824910891641 -0.41132925569015538 0 0.41024658441603412 -0.40483187488401201 0 0.40443729110426119 -0.41257053675984739 0 0.40926120659459259 -0.42081065885233859 0 0.42522713523566019 -0.40016133338117421 0 0.40926120659459259 -0.42081065885233859 0 0.4263824910891641 -0.41132925569015538 0 0.42522713523566019 -0.40016133338117421 0 0.41024658441603412 -0.40483187488401201 0 0.40926120659459259 -0.42081065885233859 0 0.40404980838542059 -0.42836660258713938 0 0.40926120659459259 -0.42081065885233859 0 0.4263824910891641 -0.41132925569015538 0 0.42522713523566019 -0.40016133338117421 0 0.40926120659459259 -0.42081065885233859 0 0.44487269458277751 -0.41925761671514439 0 0.4263824910891641 -0.41132925569015538 0 0.42199008682236627 -0.42720458302622999 0 0.44348254438143803 -0.43778752534815218 0 0.42199008682236627 -0.42720458302622999 0 0.42878593540508858 -0.44256705259615431 0 0.44487269458277751 -0.41925761671514439 0 0.42199008682236627 -0.42720458302622999 0 0.44348254438143803 -0.43778752534815218 0 0.44487269458277751 -0.41925761671514439 0 0.42199008682236627 -0.42720458302622999 0 0.42878593540508858 -0.44256705259615431 0 0.4368572979864816 -0.45931701093847338 0 0.41317131604981278 -0.44851038865106713 0 0.44348254438143803 -0.43778752534815218 0 0.42878593540508858 -0.44256705259615431 0 0.4368572979864816 -0.45931701093847338 0 0.4368572979864816 -0.45931701093847338 0 0.41317131604981278 -0.44851038865106713 0 0.40959193108751712 -0.47534677405819148 0 0.42199008682236627 -0.42720458302622999 0 0.42878593540508858 -0.44256705259615431 0 0.41317131604981278 -0.44851038865106713 0 0.40404980838542059 -0.42836660258713938 0 0.39802769665241022 -0.44574827238806181 0 0.38171712568167698 -0.44540394948412337 0 0.41317131604981278 -0.44851038865106713 0 0.39802769665241022 -0.44574827238806181 0 0.39317253649272987 -0.46071214882991718 0 0.39802769665241022 -0.44574827238806181 0 0.38171712568167698 -0.44540394948412337 0 0.39317253649272987 -0.46071214882991718 0 0.40404980838542059 -0.42836660258713938 0 0.41317131604981278 -0.44851038865106713 0 0.39802769665241022 -0.44574827238806181 0 0.38171712568167698 -0.44540394948412337 0 0.39317253649272987 -0.46071214882991718 0 0.37117969067076773 -0.46953954050823088 0 0.41317131604981278 -0.44851038865106713 0 0.39317253649272987 -0.46071214882991718 0 0.40959193108751712 -0.47534677405819148 0 0.38477078884880622 -0.47870262808645397 0 0.39027718543194018 -0.5 0 0.35844833955041949 -0.48159166304106382 0 0.39317253649272987 -0.46071214882991718 0 0.38477078884880622 -0.47870262808645397 0 0.40959193108751712 -0.47534677405819148 0 0.39317253649272987 -0.46071214882991718 0 0.38477078884880622 -0.47870262808645397 0 0.37117969067076773 -0.46953954050823088 0 0.38477078884880622 -0.47870262808645397 0 0.39027718543194018 -0.5 0 0.40959193108751712 -0.47534677405819148 0 0.43770988461538562 -0.5 0 0.39027718543194018 -0.5 0 0.40959193108751712 -0.47534677405819148 0 0.43770988461538562 -0.5 0 0.4368572979864816 -0.45931701093847338 0 0.40959193108751712 -0.47534677405819148 0 0.39027718543194018 -0.5 0 0.32665386827482751 -0.50000000000000078 0 0.35844833955041949 -0.48159166304106382 0 0.32665386827482751 -0.50000000000000078 0 0.33105869910291258 -0.48405068074911362 0 0.35844833955041949 -0.48159166304106382 0 0.33105869910291258 -0.48405068074911362 0 0.31015221123691639 -0.49999999999999428 0 0.33105869910291258 -0.48405068074911362 0 0.30585849561489792 -0.4800216338585348 0 0.31015221123691639 -0.49999999999999428 0 0.32665386827482751 -0.50000000000000078 0 0.33105869910291258 -0.48405068074911362 0 0.31015221123691639 -0.49999999999999428 0 0.32196509635951359 -0.47034354594552091 0 0.31208229321258879 -0.46024271795939048 0 0.30585849561489792 -0.4800216338585348 0 0.32196509635951359 -0.47034354594552091 0 0.33105869910291258 -0.48405068074911362 0 0.30585849561489792 -0.4800216338585348 0 0.33105869910291258 -0.48405068074911362 0 0.34522157104042228 -0.47324598856510969 0 0.33563585019840431 -0.46747741223309702 0 0.33105869910291258 -0.48405068074911362 0 0.33563585019840431 -0.46747741223309702 0 0.32196509635951359 -0.47034354594552091 0 0.33105869910291258 -0.48405068074911362 0 0.33563585019840431 -0.46747741223309702 0 0.33105869910291258 -0.48405068074911362 0 0.34522157104042228 -0.47324598856510969 0 0.32665386827482751 -0.50000000000000078 0 0.33105869910291258 -0.48405068074911362 0 0.38477078884880622 -0.47870262808645397 0 0.37117969067076773 -0.46953954050823088 0 0.35844833955041949 -0.48159166304106382 0 0.37117969067076773 -0.46953954050823088 0 0.35844833955041949 -0.48159166304106382 0 0.35938444297793332 -0.46244129638110731 0 0.35844833955041949 -0.48159166304106382 0 0.34522157104042228 -0.47324598856510969 0 0.35938444297793332 -0.46244129638110731 0 0.33105869910291258 -0.48405068074911362 0 0.35844833955041949 -0.48159166304106382 0 0.34522157104042228 -0.47324598856510969 0 0.34522157104042228 -0.47324598856510969 0 0.35938444297793332 -0.46244129638110731 0 0.3402130012938937 -0.45090414371707987 0 0.35938444297793332 -0.46244129638110731 0 0.3402130012938937 -0.45090414371707987 0 0.35938444297793332 -0.46244129638110731 0 0.35207423721771541 -0.4495750743428456 0 0.3402130012938937 -0.45090414371707987 0 0.34522157104042228 -0.47324598856510969 0 0.35938444297793332 -0.46244129638110731 0 0.38171712568167698 -0.44540394948412337 0 0.37117969067076773 -0.46953954050823088 0 0.35938444297793332 -0.46244129638110731 0 0.38171712568167698 -0.44540394948412337 0 0.35938444297793332 -0.46244129638110731 0 0.37117969067076773 -0.46953954050823088 0 0.35938444297793332 -0.46244129638110731 0 0.38171712568167698 -0.44540394948412337 0 0.36263043260139011 -0.44501607490659362 0 0.36171104107529439 -0.4292326932117525 0 0.38171712568167698 -0.44540394948412337 0 0.35938444297793332 -0.46244129638110731 0 0.36263043260139011 -0.44501607490659362 0 0.36263043260139011 -0.44501607490659362 0 0.35106269352278308 -0.44071900232638223 0 0.36171104107529439 -0.4292326932117525 0 0.35938444297793332 -0.46244129638110731 0 0.36263043260139011 -0.44501607490659362 0 0.35207423721771541 -0.4495750743428456 0 0.36263043260139011 -0.44501607490659362 0 0.35207423721771541 -0.4495750743428456 0 0.35106269352278308 -0.44071900232638223 0 0.35207423721771541 -0.4495750743428456 0 0.3417251397414367 -0.4454288871652014 0 0.3402130012938937 -0.45090414371707987 0 0.35207423721771541 -0.4495750743428456 0 0.35106269352278308 -0.44071900232638223 0 0.3417251397414367 -0.4454288871652014 0 0.35106269352278308 -0.44071900232638223 0 0.34145995573722449 -0.43890858618665218 0 0.3417251397414367 -0.4454288871652014 0 0.35106269352278308 -0.44071900232638223 0 0.34145995573722449 -0.43890858618665218 0 0.34473124190575799 -0.4334876309952046 0 0.34145995573722449 -0.43890858618665218 0 0.3417251397414367 -0.4454288871652014 0 0.33525291050742628 -0.43734251519395301 0 0.3402130012938937 -0.45090414371707987 0 0.32038705945723372 -0.43897312040400072 0 0.3417251397414367 -0.4454288871652014 0 0.3402130012938937 -0.45090414371707987 0 0.33525291050742628 -0.43734251519395301 0 0.3402130012938937 -0.45090414371707987 0 0.32038705945723372 -0.43897312040400072 0 0.33525291050742628 -0.43734251519395301 0 0.3402130012938937 -0.45090414371707987 0 0.32476788698190701 -0.45525465191506759 0 0.32038705945723372 -0.43897312040400072 0 0.3417251397414367 -0.4454288871652014 0 0.3402130012938937 -0.45090414371707987 0 0.3402130012938937 -0.45090414371707987 0 0.33563585019840431 -0.46747741223309702 0 0.32476788698190701 -0.45525465191506759 0 0.34522157104042228 -0.47324598856510969 0 0.3402130012938937 -0.45090414371707987 0 0.33563585019840431 -0.46747741223309702 0 0.3402130012938937 -0.45090414371707987 0 0.33563585019840431 -0.46747741223309702 0 0.32196509635951359 -0.47034354594552091 0 0.33563585019840431 -0.46747741223309702 0 0.32476788698190701 -0.45525465191506759 0 0.32196509635951359 -0.47034354594552091 0 0.32476788698190701 -0.45525465191506759 0 0.31208229321258879 -0.46024271795939048 0 0.32476788698190701 -0.45525465191506759 0 0.31508075923114309 -0.4497694516999613 0 0.31208229321258879 -0.46024271795939048 0 0.32476788698190701 -0.45525465191506759 0 0.31508075923114309 -0.4497694516999613 0 0.32038705945723372 -0.43897312040400072 0 0.31508075923114309 -0.4497694516999613 0 0.32038705945723372 -0.43897312040400072 0 0.3031319891642768 -0.44578435203895472 0 0.32565899472054732 -0.42970231978050688 0 0.31388102130844719 -0.42880233086856978 0 0.32359375449069699 -0.4185784275072838 0 0.32038705945723372 -0.43897312040400072 0 0.32565899472054732 -0.42970231978050688 0 0.33525291050742628 -0.43734251519395301 0 0.32038705945723372 -0.43897312040400072 0 0.32565899472054732 -0.42970231978050688 0 0.31388102130844719 -0.42880233086856978 0 0.31388102130844719 -0.42880233086856978 0 0.32359375449069699 -0.4185784275072838 0 0.30869441702943118 -0.41172170882512787 0 0.32359375449069699 -0.4185784275072838 0 0.3212483663829141 -0.40471521724506149 0 0.30869441702943118 -0.41172170882512787 0 0.32359375449069699 -0.4185784275072838 0 0.33586217316328842 -0.41197901812322107 0 0.3212483663829141 -0.40471521724506149 0 0.32359375449069699 -0.4185784275072838 0 0.33586217316328842 -0.41197901812322107 0 0.33518022783893248 -0.42481520492872682 0 0.33586217316328842 -0.41197901812322107 0 0.33518022783893248 -0.42481520492872682 0 0.34899325621336402 -0.41985972123815468 0 0.33518022783893248 -0.42481520492872682 0 0.34473124190575799 -0.4334876309952046 0 0.34899325621336402 -0.41985972123815468 0 0.32565899472054732 -0.42970231978050688 0 0.32359375449069699 -0.4185784275072838 0 0.33518022783893248 -0.42481520492872682 0 0.32565899472054732 -0.42970231978050688 0 0.33518022783893248 -0.42481520492872682 0 0.33525291050742628 -0.43734251519395301 0 0.33518022783893248 -0.42481520492872682 0 0.33525291050742628 -0.43734251519395301 0 0.34473124190575799 -0.4334876309952046 0 0.34145995573722449 -0.43890858618665218 0 0.33525291050742628 -0.43734251519395301 0 0.34473124190575799 -0.4334876309952046 0 0.35106269352278308 -0.44071900232638223 0 0.34473124190575799 -0.4334876309952046 0 0.36171104107529439 -0.4292326932117525 0 0.34473124190575799 -0.4334876309952046 0 0.36171104107529439 -0.4292326932117525 0 0.34899325621336402 -0.41985972123815468 0 0.3641978084832444 -0.41459616377118308 0 0.35009705149073661 -0.40553101015078657 0 0.37122687795537868 -0.40135981751420008 0 0.38199492303472721 -0.41918232752938228 0 0.3641978084832444 -0.41459616377118308 0 0.37122687795537868 -0.40135981751420008 0 0.38199492303472721 -0.41918232752938228 0 0.36171104107529439 -0.4292326932117525 0 0.3641978084832444 -0.41459616377118308 0 0.3641978084832444 -0.41459616377118308 0 0.34899325621336402 -0.41985972123815468 0 0.35009705149073661 -0.40553101015078657 0 0.36171104107529439 -0.4292326932117525 0 0.3641978084832444 -0.41459616377118308 0 0.34899325621336402 -0.41985972123815468 0 0.33586217316328842 -0.41197901812322107 0 0.34899325621336402 -0.41985972123815468 0 0.35009705149073661 -0.40553101015078657 0 0.35009705149073661 -0.40553101015078657 0 0.35613568386518618 -0.38786454970515277 0 0.33805867192983818 -0.39615388225160408 0 0.35009705149073661 -0.40553101015078657 0 0.37122687795537868 -0.40135981751420008 0 0.35613568386518618 -0.38786454970515277 0 0.37889185518456842 -0.38067152265555332 0 0.35613568386518618 -0.38786454970515277 0 0.36020954552512979 -0.3624266146823677 0 0.37889185518456842 -0.38067152265555332 0 0.37122687795537868 -0.40135981751420008 0 0.35613568386518618 -0.38786454970515277 0 0.35613568386518618 -0.38786454970515277 0 0.34032839047221808 -0.3788238055586961 0 0.36020954552512979 -0.3624266146823677 0 0.35613568386518618 -0.38786454970515277 0 0.34032839047221808 -0.3788238055586961 0 0.33805867192983818 -0.39615388225160408 0 0.34032839047221808 -0.3788238055586961 0 0.33805867192983818 -0.39615388225160408 0 0.32468036620468599 -0.38800969272670682 0 0.34032839047221808 -0.3788238055586961 0 0.32468036620468599 -0.38800969272670682 0 0.32536413044347118 -0.36886089497062208 0 0.33586217316328842 -0.41197901812322107 0 0.35009705149073661 -0.40553101015078657 0 0.33805867192983818 -0.39615388225160408 0 0.33586217316328842 -0.41197901812322107 0 0.33805867192983818 -0.39615388225160408 0 0.3212483663829141 -0.40471521724506149 0 0.3212483663829141 -0.40471521724506149 0 0.32468036620468599 -0.38800969272670682 0 0.30685905916525041 -0.39535293655966119 0 0.33805867192983818 -0.39615388225160408 0 0.3212483663829141 -0.40471521724506149 0 0.32468036620468599 -0.38800969272670682 0 0.31311441571580412 -0.37821418320298539 0 0.32468036620468599 -0.38800969272670682 0 0.32536413044347118 -0.36886089497062208 0 0.31311441571580412 -0.37821418320298539 0 0.32468036620468599 -0.38800969272670682 0 0.30685905916525041 -0.39535293655966119 0 0.31311441571580412 -0.37821418320298539 0 0.29911385951643971 -0.37896802654413192 0 0.30685905916525041 -0.39535293655966119 0 0.29911385951643971 -0.37896802654413192 0 0.30685905916525041 -0.39535293655966119 0 0.28963144363853083 -0.39025652036214581 0 0.30685905916525041 -0.39535293655966119 0 0.29571028216411749 -0.40335906670968807 0 0.28963144363853083 -0.39025652036214581 0 0.3212483663829141 -0.40471521724506149 0 0.30685905916525041 -0.39535293655966119 0 0.30869441702943118 -0.41172170882512787 0 0.30685905916525041 -0.39535293655966119 0 0.29571028216411749 -0.40335906670968807 0 0.30869441702943118 -0.41172170882512787 0 0.29571028216411749 -0.40335906670968807 0 0.28346572154762739 -0.40000299625556429 0 0.28963144363853083 -0.39025652036214581 0 0.28346572154762739 -0.40000299625556429 0 0.28963144363853083 -0.39025652036214581 0 0.27485565325150102 -0.38727268869341203 0 0.29911385951643971 -0.37896802654413192 0 0.28963144363853083 -0.39025652036214581 0 0.28874220841692999 -0.36826537232012202 0 0.28963144363853083 -0.39025652036214581 0 0.27485565325150102 -0.38727268869341203 0 0.28874220841692999 -0.36826537232012202 0 0.27485565325150102 -0.38727268869341203 0 0.28874220841692999 -0.36826537232012202 0 0.26742701881644709 -0.37396651419287402 0 0.27485565325150102 -0.38727268869341203 0 0.26041112993943638 -0.38663381236981897 0 0.26742701881644709 -0.37396651419287402 0 0.25095097305193281 -0.3782583267528235 0 0.26041112993943638 -0.38663381236981897 0 0.24325020737554129 -0.39032437464400488 0 0.25095097305193281 -0.3782583267528235 0 0.26041112993943638 -0.38663381236981897 0 0.26742701881644709 -0.37396651419287402 0 0.26679381201984298 -0.40315036005219379 0 0.24791000242522679 -0.40881059925897628 0 0.24325020737554129 -0.39032437464400488 0 0.26679381201984298 -0.40315036005219379 0 0.24325020737554129 -0.39032437464400488 0 0.26041112993943638 -0.38663381236981897 0 0.26679381201984298 -0.40315036005219379 0 0.24325020737554129 -0.39032437464400488 0 0.27485565325150102 -0.38727268869341203 0 0.26041112993943638 -0.38663381236981897 0 0.26679381201984298 -0.40315036005219379 0 0.28346572154762739 -0.40000299625556429 0 0.27485565325150102 -0.38727268869341203 0 0.26679381201984298 -0.40315036005219379 0 0.26679381201984298 -0.40315036005219379 0 0.26011131891922312 -0.41727972229757587 0 0.2731716637569121 -0.42986110600518518 0 0.26679381201984298 -0.40315036005219379 0 0.2731716637569121 -0.42986110600518518 0 0.29033741666414509 -0.41597634546038181 0 0.28346572154762739 -0.40000299625556429 0 0.26679381201984298 -0.40315036005219379 0 0.29033741666414509 -0.41597634546038181 0 0.26679381201984298 -0.40315036005219379 0 0.29033741666414509 -0.41597634546038181 0 0.26011131891922312 -0.41727972229757587 0 0.25256979747491048 -0.42729682387394818 0 0.24791000242522679 -0.40881059925897628 0 0.26679381201984298 -0.40315036005219379 0 0.26011131891922312 -0.41727972229757587 0 0.24791000242522679 -0.40881059925897628 0 0.25256979747491048 -0.42729682387394818 0 0.24791000242522679 -0.40881059925897628 0 0.25256979747491048 -0.42729682387394818 0 0.2731716637569121 -0.42986110600518518 0 0.25821902875748998 -0.44970831564089853 0 0.26011131891922312 -0.41727972229757587 0 0.25256979747491048 -0.42729682387394818 0 0.2731716637569121 -0.42986110600518518 0 0.25256979747491048 -0.42729682387394818 0 0.2731716637569121 -0.42986110600518518 0 0.2878309022844926 -0.43019070715635338 0 0.29427894397539489 -0.43703671082596213 0 0.28398595064427551 -0.44493612391736292 0 0.2731716637569121 -0.42986110600518518 0 0.2878309022844926 -0.43019070715635338 0 0.28398595064427551 -0.44493612391736292 0 0.2731716637569121 -0.42986110600518518 0 0.2878309022844926 -0.43019070715635338 0 0.29033741666414509 -0.41597634546038181 0 0.2878309022844926 -0.43019070715635338 0 0.29427894397539489 -0.43703671082596213 0 0.30056111762057441 -0.42704209709092039 0 0.2878309022844926 -0.43019070715635338 0 0.29033741666414509 -0.41597634546038181 0 0.30056111762057441 -0.42704209709092039 0 0.29571028216411749 -0.40335906670968807 0 0.28346572154762739 -0.40000299625556429 0 0.29033741666414509 -0.41597634546038181 0 0.31388102130844719 -0.42880233086856978 0 0.29033741666414509 -0.41597634546038181 0 0.30869441702943118 -0.41172170882512787 0 0.29571028216411749 -0.40335906670968807 0 0.29033741666414509 -0.41597634546038181 0 0.30869441702943118 -0.41172170882512787 0 0.31388102130844719 -0.42880233086856978 0 0.29033741666414509 -0.41597634546038181 0 0.30056111762057441 -0.42704209709092039 0 0.32038705945723372 -0.43897312040400072 0 0.31388102130844719 -0.42880233086856978 0 0.30056111762057441 -0.42704209709092039 0 0.32038705945723372 -0.43897312040400072 0 0.30056111762057441 -0.42704209709092039 0 0.31388102130844719 -0.42880233086856978 0 0.29033741666414509 -0.41597634546038181 0 0.29427894397539489 -0.43703671082596213 0 0.30056111762057441 -0.42704209709092039 0 0.3031319891642768 -0.44578435203895472 0 0.32038705945723372 -0.43897312040400072 0 0.30056111762057441 -0.42704209709092039 0 0.3031319891642768 -0.44578435203895472 0 0.31508075923114309 -0.4497694516999613 0 0.3031319891642768 -0.44578435203895472 0 0.31208229321258879 -0.46024271795939048 0 0.31208229321258879 -0.46024271795939048 0 0.29488591387845148 -0.46216460512453678 0 0.30585849561489792 -0.4800216338585348 0 0.3031319891642768 -0.44578435203895472 0 0.31208229321258879 -0.46024271795939048 0 0.29488591387845148 -0.46216460512453678 0 0.29488591387845148 -0.46216460512453678 0 0.28398595064427551 -0.44493612391736292 0 0.27625128931633403 -0.46052355712026111 0 0.29488591387845148 -0.46216460512453678 0 0.27625128931633403 -0.46052355712026111 0 0.28623999824454438 -0.47964705279033831 0 0.3031319891642768 -0.44578435203895472 0 0.29488591387845148 -0.46216460512453678 0 0.28398595064427551 -0.44493612391736292 0 0.29427894397539489 -0.43703671082596213 0 0.3031319891642768 -0.44578435203895472 0 0.28398595064427551 -0.44493612391736292 0 0.2731716637569121 -0.42986110600518518 0 0.28398595064427551 -0.44493612391736292 0 0.25821902875748998 -0.44970831564089853 0 0.28398595064427551 -0.44493612391736292 0 0.25821902875748998 -0.44970831564089853 0 0.27625128931633403 -0.46052355712026111 0 0.25256979747491048 -0.42729682387394818 0 0.25821902875748998 -0.44970831564089853 0 0.25821902875748998 -0.44970831564089853 0 0.26680070495459751 -0.47609577303280581 0 0.24313141516762721 -0.46701765191400801 0 0.25821902875748998 -0.44970831564089853 0 0.27625128931633403 -0.46052355712026111 0 0.26680070495459751 -0.47609577303280581 0 0.27625128931633403 -0.46052355712026111 0 0.26680070495459751 -0.47609577303280581 0 0.28623999824454438 -0.47964705279033831 0 0.26680070495459751 -0.47609577303280581 0 0.2483796351560518 -0.48396027990916951 0 0.24313141516762721 -0.46701765191400801 0 0.26680070495459751 -0.47609577303280581 0 0.25822337270027412 -0.5 0 0.2483796351560518 -0.48396027990916951 0 0.26680070495459751 -0.47609577303280581 0 0.25822337270027412 -0.5 0 0.28418779196859523 -0.5 0 0.26680070495459751 -0.47609577303280581 0 0.28418779196859523 -0.5 0 0.28623999824454438 -0.47964705279033831 0 0.28418779196859523 -0.5 0 0.28623999824454438 -0.47964705279033831 0 0.30585849561489792 -0.4800216338585348 0 0.29488591387845148 -0.46216460512453678 0 0.28623999824454438 -0.47964705279033831 0 0.30585849561489792 -0.4800216338585348 0 0.28418779196859523 -0.5 0 0.30585849561489792 -0.4800216338585348 0 0.31015221123691639 -0.49999999999999428 0 0.32798791912120379 -0.28676520506116848 0 0.34495295068663001 -0.28082792290622921 0 0.3498578586939185 -0.29444566106412667 0 0.33431483948873408 -0.30114382912748372 0 0.32798791912120379 -0.28676520506116848 0 0.3498578586939185 -0.29444566106412667 0 0.33431483948873408 -0.30114382912748372 0 0.32133374079254617 -0.30999062674115829 0 0.34595292694511071 -0.31169511680886208 0 0.33431483948873408 -0.30114382912748372 0 0.3498578586939185 -0.29444566106412667 0 0.34595292694511071 -0.31169511680886208 0 0.32133374079254617 -0.30999062674115829 0 0.31130093888447319 -0.29379131450549012 0 0.30819362936398198 -0.31162852703683841 0 0.33431483948873408 -0.30114382912748372 0 0.32133374079254617 -0.30999062674115829 0 0.32798791912120379 -0.28676520506116848 0 0.32133374079254617 -0.30999062674115829 0 0.32798791912120379 -0.28676520506116848 0 0.32798791912120379 -0.28676520506116848 0 0.31316571566291979 -0.27407817336238821 0 0.31130093888447319 -0.29379131450549012 0 0.32133374079254617 -0.30999062674115829 0 0.32798791912120379 -0.28676520506116848 0 0.31130093888447319 -0.29379131450549012 0 0.32798791912120379 -0.28676520506116848 0 0.31316571566291979 -0.27407817336238821 0 0.33464209744985962 -0.26353978338117812 0 0.31316571566291979 -0.27407817336238821 0 0.33464209744985962 -0.26353978338117812 0 0.31316571566291979 -0.27407817336238821 0 0.32384650965551431 -0.26108745232357372 0 0.33464209744985962 -0.26353978338117812 0 0.31316571566291979 -0.27407817336238821 0 0.31816164567006189 -0.25563535461071818 0 0.32384650965551431 -0.26108745232357372 0 0.31816164567006189 -0.25563535461071818 0 0.32384650965551431 -0.26108745232357372 0 0.32941657983921618 -0.25109649794001032 0 0.34063154700202858 -0.2426344988201968 0 0.33464209744985962 -0.26353978338117812 0 0.34063154700202858 -0.2426344988201968 0 0.32941657983921618 -0.25109649794001032 0 0.33464209744985962 -0.26353978338117812 0 0.34063154700202858 -0.2426344988201968 0 0.33464209744985962 -0.26353978338117812 0 0.35145024036267292 -0.25166419076683122 0 0.32384650965551431 -0.26108745232357372 0 0.32941657983921618 -0.25109649794001032 0 0.33464209744985962 -0.26353978338117812 0 0.32798791912120379 -0.28676520506116848 0 0.33464209744985962 -0.26353978338117812 0 0.32798791912120379 -0.28676520506116848 0 0.33881061466915802 -0.27082449437059392 0 0.34495295068663001 -0.28082792290622921 0 0.32798791912120379 -0.28676520506116848 0 0.33464209744985962 -0.26353978338117812 0 0.33881061466915802 -0.27082449437059392 0 0.33464209744985962 -0.26353978338117812 0 0.33881061466915802 -0.27082449437059392 0 0.34651245010795179 -0.26309301116573358 0 0.34914212744331857 -0.27144992795988893 0 0.35753852392965391 -0.27926475022614722 0 0.35789609782319948 -0.26323946113074059 0 0.34495295068663001 -0.28082792290622921 0 0.34914212744331857 -0.27144992795988893 0 0.35753852392965391 -0.27926475022614722 0 0.33881061466915802 -0.27082449437059392 0 0.34495295068663001 -0.28082792290622921 0 0.34914212744331857 -0.27144992795988893 0 0.33881061466915802 -0.27082449437059392 0 0.34914212744331857 -0.27144992795988893 0 0.34651245010795179 -0.26309301116573358 0 0.34914212744331857 -0.27144992795988893 0 0.34651245010795179 -0.26309301116573358 0 0.35789609782319948 -0.26323946113074059 0 0.33464209744985962 -0.26353978338117812 0 0.35145024036267292 -0.25166419076683122 0 0.34651245010795179 -0.26309301116573358 0 0.35145024036267292 -0.25166419076683122 0 0.34651245010795179 -0.26309301116573358 0 0.35789609782319948 -0.26323946113074059 0 0.35789609782319948 -0.26323946113074059 0 0.37035261659035312 -0.25391201290931142 0 0.37406158200927619 -0.27077034988824372 0 0.35145024036267292 -0.25166419076683122 0 0.35789609782319948 -0.26323946113074059 0 0.37035261659035312 -0.25391201290931142 0 0.35753852392965391 -0.27926475022614722 0 0.35789609782319948 -0.26323946113074059 0 0.37406158200927619 -0.27077034988824372 0 0.35753852392965391 -0.27926475022614722 0 0.37406158200927619 -0.27077034988824372 0 0.36906092768396792 -0.29745343488172599 0 0.35753852392965391 -0.27926475022614722 0 0.3498578586939185 -0.29444566106412667 0 0.36906092768396792 -0.29745343488172599 0 0.34495295068663001 -0.28082792290622921 0 0.35753852392965391 -0.27926475022614722 0 0.3498578586939185 -0.29444566106412667 0 0.3498578586939185 -0.29444566106412667 0 0.34595292694511071 -0.31169511680886208 0 0.36906092768396792 -0.29745343488172599 0 0.34595292694511071 -0.31169511680886208 0 0.36906092768396792 -0.29745343488172599 0 0.37983810678998442 -0.32441133461784899 0 0.36906092768396792 -0.29745343488172599 0 0.35872502961214048 -0.33113497846481937 0 0.34595292694511071 -0.31169511680886208 0 0.36906092768396792 -0.29745343488172599 0 0.35872502961214048 -0.33113497846481937 0 0.37676007664897421 -0.3502612446685372 0 0.37983810678998442 -0.32441133461784899 0 0.35872502961214048 -0.33113497846481937 0 0.35872502961214048 -0.33113497846481937 0 0.34152723586569139 -0.34418170670918219 0 0.34226252965729892 -0.32823715017971522 0 0.34595292694511071 -0.31169511680886208 0 0.35872502961214048 -0.33113497846481937 0 0.34226252965729892 -0.32823715017971522 0 0.35872502961214048 -0.33113497846481937 0 0.36020954552512979 -0.3624266146823677 0 0.34152723586569139 -0.34418170670918219 0 0.37676007664897421 -0.3502612446685372 0 0.35872502961214048 -0.33113497846481937 0 0.36020954552512979 -0.3624266146823677 0 0.37676007664897421 -0.3502612446685372 0 0.37889185518456842 -0.38067152265555332 0 0.36020954552512979 -0.3624266146823677 0 0.37889185518456842 -0.38067152265555332 0 0.36020954552512979 -0.3624266146823677 0 0.36020954552512979 -0.3624266146823677 0 0.34139451952719552 -0.36155659842159982 0 0.34152723586569139 -0.34418170670918219 0 0.36020954552512979 -0.3624266146823677 0 0.34152723586569139 -0.34418170670918219 0 0.34032839047221808 -0.3788238055586961 0 0.36020954552512979 -0.3624266146823677 0 0.34139451952719552 -0.36155659842159982 0 0.34032839047221808 -0.3788238055586961 0 0.34139451952719552 -0.36155659842159982 0 0.32536413044347118 -0.36886089497062208 0 0.34139451952719552 -0.36155659842159982 0 0.32326518052870212 -0.34582496526440459 0 0.32536413044347118 -0.36886089497062208 0 0.34139451952719552 -0.36155659842159982 0 0.34152723586569139 -0.34418170670918219 0 0.32326518052870212 -0.34582496526440459 0 0.32326518052870212 -0.34582496526440459 0 0.32536413044347118 -0.36886089497062208 0 0.30645168189020489 -0.35994766812881202 0 0.31311441571580412 -0.37821418320298539 0 0.32536413044347118 -0.36886089497062208 0 0.30645168189020489 -0.35994766812881202 0 0.34595292694511071 -0.31169511680886208 0 0.32284492620625282 -0.32593679873599701 0 0.32133374079254617 -0.30999062674115829 0 0.34595292694511071 -0.31169511680886208 0 0.32284492620625282 -0.32593679873599701 0 0.34595292694511071 -0.31169511680886208 0 0.34226252965729892 -0.32823715017971522 0 0.32284492620625282 -0.32593679873599701 0 0.34152723586569139 -0.34418170670918219 0 0.32326518052870212 -0.34582496526440459 0 0.32284492620625282 -0.32593679873599701 0 0.34152723586569139 -0.34418170670918219 0 0.32284492620625282 -0.32593679873599701 0 0.34152723586569139 -0.34418170670918219 0 0.34226252965729892 -0.32823715017971522 0 0.32284492620625282 -0.32593679873599701 0 0.32326518052870212 -0.34582496526440459 0 0.32284492620625282 -0.32593679873599701 0 0.30637975600975897 -0.33608444064862492 0 0.32284492620625282 -0.32593679873599701 0 0.30893689651240569 -0.32404912756782772 0 0.30637975600975897 -0.33608444064862492 0 0.32284492620625282 -0.32593679873599701 0 0.30637975600975897 -0.33608444064862492 0 0.32133374079254617 -0.30999062674115829 0 0.32284492620625282 -0.32593679873599701 0 0.30819362936398198 -0.31162852703683841 0 0.32284492620625282 -0.32593679873599701 0 0.30893689651240569 -0.32404912756782772 0 0.30819362936398198 -0.31162852703683841 0 0.32284492620625282 -0.32593679873599701 0 0.30819362936398198 -0.31162852703683841 0 0.30117664052802501 -0.3187929424955081 0 0.30893689651240569 -0.32404912756782772 0 0.30819362936398198 -0.31162852703683841 0 0.30117664052802501 -0.3187929424955081 0 0.29360535218789069 -0.31242118345233572 0 0.30819362936398198 -0.31162852703683841 0 0.30117664052802501 -0.3187929424955081 0 0.30893689651240569 -0.32404912756782772 0 0.29397068404782162 -0.32707293192503062 0 0.30637975600975897 -0.33608444064862492 0 0.28991458581326451 -0.34623208256125171 0 0.30893689651240569 -0.32404912756782772 0 0.30637975600975897 -0.33608444064862492 0 0.29397068404782162 -0.32707293192503062 0 0.29397068404782162 -0.32707293192503062 0 0.28991458581326451 -0.34623208256125171 0 0.27486435790032682 -0.33439046357482122 0 0.30637975600975897 -0.33608444064862492 0 0.29397068404782162 -0.32707293192503062 0 0.28991458581326451 -0.34623208256125171 0 0.29397068404782162 -0.32707293192503062 0 0.28076029684753462 -0.31947745785477027 0 0.27486435790032682 -0.33439046357482122 0 0.30117664052802501 -0.3187929424955081 0 0.29397068404782162 -0.32707293192503062 0 0.29360535218789069 -0.31242118345233572 0 0.29397068404782162 -0.32707293192503062 0 0.28076029684753462 -0.31947745785477027 0 0.29360535218789069 -0.31242118345233572 0 0.29911385951643971 -0.37896802654413192 0 0.30645168189020489 -0.35994766812881202 0 0.28874220841692999 -0.36826537232012202 0 0.31311441571580412 -0.37821418320298539 0 0.29911385951643971 -0.37896802654413192 0 0.30645168189020489 -0.35994766812881202 0 0.32326518052870212 -0.34582496526440459 0 0.30637975600975897 -0.33608444064862492 0 0.30645168189020489 -0.35994766812881202 0 0.30637975600975897 -0.33608444064862492 0 0.30645168189020489 -0.35994766812881202 0 0.28991458581326451 -0.34623208256125171 0 0.28991458581326451 -0.34623208256125171 0 0.28874220841692999 -0.36826537232012202 0 0.27587346917885353 -0.36284900937229381 0 0.30645168189020489 -0.35994766812881202 0 0.28991458581326451 -0.34623208256125171 0 0.28874220841692999 -0.36826537232012202 0 0.27587346917885353 -0.36284900937229381 0 0.26742701881644709 -0.37396651419287402 0 0.25689320818467742 -0.36477717609867422 0 0.28874220841692999 -0.36826537232012202 0 0.27587346917885353 -0.36284900937229381 0 0.26742701881644709 -0.37396651419287402 0 0.27587346917885353 -0.36284900937229381 0 0.26924908340299869 -0.35055840522713988 0 0.25689320818467742 -0.36477717609867422 0 0.28991458581326451 -0.34623208256125171 0 0.27587346917885353 -0.36284900937229381 0 0.26924908340299869 -0.35055840522713988 0 0.26924908340299869 -0.35055840522713988 0 0.25689320818467742 -0.36477717609867422 0 0.24813972161468051 -0.35014019168363653 0 0.26924908340299869 -0.35055840522713988 0 0.26082505776345438 -0.34066694915248408 0 0.24813972161468051 -0.35014019168363653 0 0.25095097305193281 -0.3782583267528235 0 0.26742701881644709 -0.37396651419287402 0 0.25689320818467742 -0.36477717609867422 0 0.26836209979523079 -0.32190770532849539 0 0.27246791311420537 -0.3132157931792498 0 0.26400656366298653 -0.31392110599107209 0 0.26836209979523079 -0.32190770532849539 0 0.27246791311420537 -0.3132157931792498 0 0.28076029684753462 -0.31947745785477027 0 0.26836209979523079 -0.32190770532849539 0 0.28076029684753462 -0.31947745785477027 0 0.27486435790032682 -0.33439046357482122 0 0.28991458581326451 -0.34623208256125171 0 0.26924908340299869 -0.35055840522713988 0 0.27486435790032682 -0.33439046357482122 0 0.26924908340299869 -0.35055840522713988 0 0.27486435790032682 -0.33439046357482122 0 0.26082505776345438 -0.34066694915248408 0 0.26836209979523079 -0.32190770532849539 0 0.27486435790032682 -0.33439046357482122 0 0.260810687354117 -0.33120450304178489 0 0.27486435790032682 -0.33439046357482122 0 0.260810687354117 -0.33120450304178489 0 0.26082505776345438 -0.34066694915248408 0 0.26082505776345438 -0.34066694915248408 0 0.25106143854514867 -0.33704118223503798 0 0.24813972161468051 -0.35014019168363653 0 0.260810687354117 -0.33120450304178489 0 0.26082505776345438 -0.34066694915248408 0 0.25106143854514867 -0.33704118223503798 0 0.260810687354117 -0.33120450304178489 0 0.25106143854514867 -0.33704118223503798 0 0.25272984591696968 -0.32711700331584581 0 0.25272984591696968 -0.32711700331584581 0 0.25762980888858827 -0.32028977909470357 0 0.24831735390731469 -0.31836008984202191 0 0.260810687354117 -0.33120450304178489 0 0.25272984591696968 -0.32711700331584581 0 0.25762980888858827 -0.32028977909470357 0 0.26836209979523079 -0.32190770532849539 0 0.260810687354117 -0.33120450304178489 0 0.25762980888858827 -0.32028977909470357 0 0.26836209979523079 -0.32190770532849539 0 0.26400656366298653 -0.31392110599107209 0 0.25762980888858827 -0.32028977909470357 0 0.26400656366298653 -0.31392110599107209 0 0.25733709200101201 -0.31343731275496017 0 0.25762980888858827 -0.32028977909470357 0 0.2542782069409405 -0.31540095339139979 0 0.25382857296684702 -0.30951663187391371 0 0.24831735390731469 -0.31836008984202191 0 0.2542782069409405 -0.31540095339139979 0 0.25762980888858827 -0.32028977909470357 0 0.24831735390731469 -0.31836008984202191 0 0.2542782069409405 -0.31540095339139979 0 0.25733709200101201 -0.31343731275496017 0 0.25382857296684702 -0.30951663187391371 0 0.2542782069409405 -0.31540095339139979 0 0.25733709200101201 -0.31343731275496017 0 0.25762980888858827 -0.32028977909470357 0 0.25454259897173048 -0.30284434411380989 0 0.25914025393082962 -0.30848175388395888 0 0.27021295208904128 -0.29515495332481018 0 0.25454259897173048 -0.30284434411380989 0 0.27021295208904128 -0.29515495332481018 0 0.25733709200101201 -0.31343731275496017 0 0.25382857296684702 -0.30951663187391371 0 0.25914025393082962 -0.30848175388395888 0 0.25382857296684702 -0.30951663187391371 0 0.25454259897173048 -0.30284434411380989 0 0.25914025393082962 -0.30848175388395888 0 0.25914025393082962 -0.30848175388395888 0 0.27021295208904128 -0.29515495332481018 0 0.26400656366298653 -0.31392110599107209 0 0.25914025393082962 -0.30848175388395888 0 0.26910221424805297 -0.30619429170506479 0 0.26400656366298653 -0.31392110599107209 0 0.25733709200101201 -0.31343731275496017 0 0.25914025393082962 -0.30848175388395888 0 0.25454259897173048 -0.30284434411380989 0 0.25612509470130612 -0.28692767132216312 0 0.27021295208904128 -0.29515495332481018 0 0.25454259897173048 -0.30284434411380989 0 0.25612509470130612 -0.28692767132216312 0 0.24884363230355919 -0.29495411939534111 0 0.25612509470130612 -0.28692767132216312 0 0.27021295208904128 -0.29515495332481018 0 0.26954621296169801 -0.27919813771854901 0 0.27021295208904128 -0.29515495332481018 0 0.29168933387598073 -0.28461656334359958 0 0.27021295208904128 -0.29515495332481018 0 0.28152074714722719 -0.30387011462044561 0 0.29168933387598073 -0.28461656334359958 0 0.27021295208904128 -0.29515495332481018 0 0.28619221454809529 -0.27592274444208092 0 0.26954621296169801 -0.27919813771854901 0 0.27021295208904128 -0.29515495332481018 0 0.28619221454809529 -0.27592274444208092 0 0.27246791311420537 -0.3132157931792498 0 0.26400656366298653 -0.31392110599107209 0 0.26910221424805297 -0.30619429170506479 0 0.25914025393082962 -0.30848175388395888 0 0.27021295208904128 -0.29515495332481018 0 0.26910221424805297 -0.30619429170506479 0 0.27021295208904128 -0.29515495332481018 0 0.26910221424805297 -0.30619429170506479 0 0.28152074714722719 -0.30387011462044561 0 0.27246791311420537 -0.3132157931792498 0 0.26910221424805297 -0.30619429170506479 0 0.28152074714722719 -0.30387011462044561 0 0.27246791311420537 -0.3132157931792498 0 0.28076029684753462 -0.31947745785477027 0 0.28152074714722719 -0.30387011462044561 0 0.28076029684753462 -0.31947745785477027 0 0.29360535218789069 -0.31242118345233572 0 0.28152074714722719 -0.30387011462044561 0 0.29360535218789069 -0.31242118345233572 0 0.29354233252171119 -0.29732025533768008 0 0.28152074714722719 -0.30387011462044561 0 0.27021295208904128 -0.29515495332481018 0 0.29168933387598073 -0.28461656334359958 0 0.28619221454809529 -0.27592274444208092 0 0.29354233252171119 -0.29732025533768008 0 0.28152074714722719 -0.30387011462044561 0 0.29168933387598073 -0.28461656334359958 0 0.29354233252171119 -0.29732025533768008 0 0.29168933387598073 -0.28461656334359958 0 0.30125950415902458 -0.28970761754949642 0 0.31316571566291979 -0.27407817336238821 0 0.29168933387598073 -0.28461656334359958 0 0.30125950415902458 -0.28970761754949642 0 0.29354233252171119 -0.29732025533768008 0 0.31130093888447319 -0.29379131450549012 0 0.30125950415902458 -0.28970761754949642 0 0.31316571566291979 -0.27407817336238821 0 0.31130093888447319 -0.29379131450549012 0 0.30125950415902458 -0.28970761754949642 0 0.29354233252171119 -0.29732025533768008 0 0.31130093888447319 -0.29379131450549012 0 0.30819362936398198 -0.31162852703683841 0 0.29360535218789069 -0.31242118345233572 0 0.29354233252171119 -0.29732025533768008 0 0.30819362936398198 -0.31162852703683841 0 0.29354233252171119 -0.29732025533768008 0 0.30819362936398198 -0.31162852703683841 0 0.31316571566291979 -0.27407817336238821 0 0.31816164567006189 -0.25563535461071818 0 0.30217147700714991 -0.25669053555935212 0 0.31316571566291979 -0.27407817336238821 0 0.30217147700714991 -0.25669053555935212 0 0.29911478420516441 -0.27328200405423431 0 0.31316571566291979 -0.27407817336238821 0 0.29168933387598073 -0.28461656334359958 0 0.29911478420516441 -0.27328200405423431 0 0.31316571566291979 -0.27407817336238821 0 0.29168933387598073 -0.28461656334359958 0 0.28619221454809529 -0.27592274444208092 0 0.28634219892656182 -0.2585757561104613 0 0.27441626305535732 -0.26592058469221608 0 0.30217147700714991 -0.25669053555935212 0 0.29911478420516441 -0.27328200405423431 0 0.28619221454809529 -0.27592274444208092 0 0.30217147700714991 -0.25669053555935212 0 0.28619221454809529 -0.27592274444208092 0 0.29168933387598073 -0.28461656334359958 0 0.29911478420516441 -0.27328200405423431 0 0.28619221454809529 -0.27592274444208092 0 0.30217147700714991 -0.25669053555935212 0 0.28619221454809529 -0.27592274444208092 0 0.28634219892656182 -0.2585757561104613 0 0.29090316876158312 -0.2413033834464432 0 0.30217147700714991 -0.25669053555935212 0 0.28634219892656182 -0.2585757561104613 0 0.29090316876158312 -0.2413033834464432 0 0.28634219892656182 -0.2585757561104613 0 0.27667494479208232 -0.25127162593105867 0 0.27667494479208232 -0.25127162593105867 0 0.27441626305535732 -0.26592058469221608 0 0.25873669704215813 -0.25345417408551763 0 0.28634219892656182 -0.2585757561104613 0 0.27667494479208232 -0.25127162593105867 0 0.27441626305535732 -0.26592058469221608 0 0.28619221454809529 -0.27592274444208092 0 0.27441626305535732 -0.26592058469221608 0 0.26954621296169801 -0.27919813771854901 0 0.27441626305535732 -0.26592058469221608 0 0.26954621296169801 -0.27919813771854901 0 0.26078454041469001 -0.27206473481147442 0 0.26078454041469001 -0.27206473481147442 0 0.25873669704215813 -0.25345417408551763 0 0.241596158036048 -0.27158563955874288 0 0.25612509470130612 -0.28692767132216312 0 0.26078454041469001 -0.27206473481147442 0 0.241596158036048 -0.27158563955874288 0 0.25612509470130612 -0.28692767132216312 0 0.26954621296169801 -0.27919813771854901 0 0.26078454041469001 -0.27206473481147442 0 0.27441626305535732 -0.26592058469221608 0 0.26078454041469001 -0.27206473481147442 0 0.25873669704215813 -0.25345417408551763 0 0.241596158036048 -0.27158563955874288 0 0.23424367612067551 -0.24808652719056951 0 0.25873669704215813 -0.25345417408551763 0 0.241596158036048 -0.27158563955874288 0 0.23424367612067551 -0.24808652719056951 0 0.241596158036048 -0.27158563955874288 0 0.22158386288664861 -0.27074739131592868 0 0.23899564602963541 -0.29097306636995263 0 0.22158386288664861 -0.27074739131592868 0 0.2126018709972653 -0.25188616733036989 0 0.23424367612067551 -0.24808652719056951 0 0.241596158036048 -0.27158563955874288 0 0.22158386288664861 -0.27074739131592868 0 0.23424367612067551 -0.24808652719056951 0 0.22158386288664861 -0.27074739131592868 0 0.2126018709972653 -0.25188616733036989 0 0.19938364577685799 -0.27020655786505771 0 0.22158386288664861 -0.27074739131592868 0 0.19938364577685799 -0.27020655786505771 0 0.21598384953991409 -0.29242706863221191 0 0.19938364577685799 -0.27020655786505771 0 0.19522200748554541 -0.29144766553772122 0 0.17334556093471029 -0.27618099518237083 0 0.2126018709972653 -0.25188616733036989 0 0.19938364577685799 -0.27020655786505771 0 0.19652592925423759 -0.2477969250345709 0 0.19938364577685799 -0.27020655786505771 0 0.18396422664205639 -0.25907689648290771 0 0.19652592925423759 -0.2477969250345709 0 0.19522200748554541 -0.29144766553772122 0 0.20735098154776649 -0.31579370853980948 0 0.18004599962847781 -0.30262999746915598 0 0.19938364577685799 -0.27020655786505771 0 0.19522200748554541 -0.29144766553772122 0 0.21598384953991409 -0.29242706863221191 0 0.21598384953991409 -0.29242706863221191 0 0.22266898068947649 -0.31051116999521938 0 0.20735098154776649 -0.31579370853980948 0 0.19522200748554541 -0.29144766553772122 0 0.21598384953991409 -0.29242706863221191 0 0.20735098154776649 -0.31579370853980948 0 0.21598384953991409 -0.29242706863221191 0 0.22266898068947649 -0.31051116999521938 0 0.23156312488685521 -0.30070690117200061 0 0.22266898068947649 -0.31051116999521938 0 0.23156312488685521 -0.30070690117200061 0 0.23887224585441941 -0.31053373490280889 0 0.22158386288664861 -0.27074739131592868 0 0.21598384953991409 -0.29242706863221191 0 0.23899564602963541 -0.29097306636995263 0 0.21598384953991409 -0.29242706863221191 0 0.23156312488685521 -0.30070690117200061 0 0.23899564602963541 -0.29097306636995263 0 0.25612509470130612 -0.28692767132216312 0 0.241596158036048 -0.27158563955874288 0 0.23899564602963541 -0.29097306636995263 0 0.25612509470130612 -0.28692767132216312 0 0.23899564602963541 -0.29097306636995263 0 0.24884363230355919 -0.29495411939534111 0 0.23899564602963541 -0.29097306636995263 0 0.24884363230355919 -0.29495411939534111 0 0.24291319848727611 -0.29989898458907782 0 0.25382857296684702 -0.30951663187391371 0 0.25454259897173048 -0.30284434411380989 0 0.23887224585441941 -0.31053373490280889 0 0.25454259897173048 -0.30284434411380989 0 0.23887224585441941 -0.31053373490280889 0 0.24291319848727611 -0.29989898458907782 0 0.25454259897173048 -0.30284434411380989 0 0.23887224585441941 -0.31053373490280889 0 0.23156312488685521 -0.30070690117200061 0 0.23899564602963541 -0.29097306636995263 0 0.24291319848727611 -0.29989898458907782 0 0.23156312488685521 -0.30070690117200061 0 0.23887224585441941 -0.31053373490280889 0 0.24291319848727611 -0.29989898458907782 0 0.25454259897173048 -0.30284434411380989 0 0.24884363230355919 -0.29495411939534111 0 0.24291319848727611 -0.29989898458907782 0 0.25382857296684702 -0.30951663187391371 0 0.24831735390731469 -0.31836008984202191 0 0.23011168010221131 -0.32490396460336213 0 0.25382857296684702 -0.30951663187391371 0 0.23011168010221131 -0.32490396460336213 0 0.25382857296684702 -0.30951663187391371 0 0.23887224585441941 -0.31053373490280889 0 0.23011168010221131 -0.32490396460336213 0 0.24831735390731469 -0.31836008984202191 0 0.24396345679774031 -0.32941827428336601 0 0.23011168010221131 -0.32490396460336213 0 0.25272984591696968 -0.32711700331584581 0 0.24831735390731469 -0.31836008984202191 0 0.24396345679774031 -0.32941827428336601 0 0.25106143854514867 -0.33704118223503798 0 0.25272984591696968 -0.32711700331584581 0 0.24396345679774031 -0.32941827428336601 0 0.25106143854514867 -0.33704118223503798 0 0.24396345679774031 -0.32941827428336601 0 0.2368603410547358 -0.33862489852251559 0 0.25106143854514867 -0.33704118223503798 0 0.2368603410547358 -0.33862489852251559 0 0.24813972161468051 -0.35014019168363653 0 0.24396345679774031 -0.32941827428336601 0 0.2368603410547358 -0.33862489852251559 0 0.23011168010221131 -0.32490396460336213 0 0.2368603410547358 -0.33862489852251559 0 0.22424009619328431 -0.34048666412437878 0 0.23011168010221131 -0.32490396460336213 0 0.22424009619328431 -0.34048666412437878 0 0.23011168010221131 -0.32490396460336213 0 0.20639478723757559 -0.34029129733281038 0 0.2368603410547358 -0.33862489852251559 0 0.22424009619328431 -0.34048666412437878 0 0.23351988817319849 -0.35172249099204222 0 0.22266898068947649 -0.31051116999521938 0 0.23011168010221131 -0.32490396460336213 0 0.20735098154776649 -0.31579370853980948 0 0.22266898068947649 -0.31051116999521938 0 0.23887224585441941 -0.31053373490280889 0 0.23011168010221131 -0.32490396460336213 0 0.25689320818467742 -0.36477717609867422 0 0.2383850477743705 -0.37102343281802341 0 0.24813972161468051 -0.35014019168363653 0 0.2383850477743705 -0.37102343281802341 0 0.23351988817319849 -0.35172249099204222 0 0.25095097305193281 -0.3782583267528235 0 0.25689320818467742 -0.36477717609867422 0 0.2383850477743705 -0.37102343281802341 0 0.2383850477743705 -0.37102343281802341 0 0.24813972161468051 -0.35014019168363653 0 0.23351988817319849 -0.35172249099204222 0 0.2368603410547358 -0.33862489852251559 0 0.24813972161468051 -0.35014019168363653 0 0.23351988817319849 -0.35172249099204222 0 0.24813972161468051 -0.35014019168363653 0 0.23351988817319849 -0.35172249099204222 0 0.22424009619328431 -0.34048666412437878 0 0.23351988817319849 -0.35172249099204222 0 0.21773963530958629 -0.34672328904422772 0 0.23351988817319849 -0.35172249099204222 0 0.20680376963428679 -0.354392703727679 0 0.23351988817319849 -0.35172249099204222 0 0.20680376963428679 -0.354392703727679 0 0.21773963530958629 -0.34672328904422772 0 0.23351988817319849 -0.35172249099204222 0 0.22423980425901621 -0.36346094338081192 0 0.20680376963428679 -0.354392703727679 0 0.2383850477743705 -0.37102343281802341 0 0.23351988817319849 -0.35172249099204222 0 0.22423980425901621 -0.36346094338081192 0 0.2383850477743705 -0.37102343281802341 0 0.22423980425901621 -0.36346094338081192 0 0.21825051145420871 -0.37670514598550281 0 0.1932508155328766 -0.3630859173269998 0 0.21825051145420871 -0.37670514598550281 0 0.19934138420011999 -0.38355005060343123 0 0.1932508155328766 -0.3630859173269998 0 0.21825051145420871 -0.37670514598550281 0 0.20680376963428679 -0.354392703727679 0 0.1932508155328766 -0.3630859173269998 0 0.21825051145420871 -0.37670514598550281 0 0.22423980425901621 -0.36346094338081192 0 0.20680376963428679 -0.354392703727679 0 0.21825051145420871 -0.37670514598550281 0 0.20680376963428679 -0.354392703727679 0 0.21773963530958629 -0.34672328904422772 0 0.20639478723757559 -0.34029129733281038 0 0.20639478723757559 -0.34029129733281038 0 0.18267789437293991 -0.3556786300622588 0 0.20680376963428679 -0.354392703727679 0 0.1800956176203207 -0.35714035396124277 0 0.20680376963428679 -0.354392703727679 0 0.1932508155328766 -0.3630859173269998 0 0.1800956176203207 -0.35714035396124277 0 0.20680376963428679 -0.354392703727679 0 0.18267789437293991 -0.3556786300622588 0 0.1800956176203207 -0.35714035396124277 0 0.20639478723757559 -0.34029129733281038 0 0.1903640143451788 -0.34324329278748272 0 0.18267789437293991 -0.3556786300622588 0 0.20680376963428679 -0.354392703727679 0 0.20639478723757559 -0.34029129733281038 0 0.18267789437293991 -0.3556786300622588 0 0.1932508155328766 -0.3630859173269998 0 0.1867478542189572 -0.37420942464801599 0 0.19934138420011999 -0.38355005060343123 0 0.1932508155328766 -0.3630859173269998 0 0.1867478542189572 -0.37420942464801599 0 0.18345771985663001 -0.36505587054788768 0 0.23011168010221131 -0.32490396460336213 0 0.20735098154776649 -0.31579370853980948 0 0.20639478723757559 -0.34029129733281038 0 0.20735098154776649 -0.31579370853980948 0 0.20639478723757559 -0.34029129733281038 0 0.20050310564535451 -0.32779387658182141 0 0.22424009619328431 -0.34048666412437878 0 0.21773963530958629 -0.34672328904422772 0 0.20639478723757559 -0.34029129733281038 0 0.23011168010221131 -0.32490396460336213 0 0.20639478723757559 -0.34029129733281038 0 0.20639478723757559 -0.34029129733281038 0 0.1903640143451788 -0.34324329278748272 0 0.20050310564535451 -0.32779387658182141 0 0.1903640143451788 -0.34324329278748272 0 0.20050310564535451 -0.32779387658182141 0 0.1867464383222453 -0.32907899975594118 0 0.20735098154776649 -0.31579370853980948 0 0.20050310564535451 -0.32779387658182141 0 0.1867464383222453 -0.32907899975594118 0 0.20735098154776649 -0.31579370853980948 0 0.1867464383222453 -0.32907899975594118 0 0.18004599962847781 -0.30262999746915598 0 0.1867464383222453 -0.32907899975594118 0 0.16754317672375371 -0.32222618279750531 0 0.18004599962847781 -0.30262999746915598 0 0.1867464383222453 -0.32907899975594118 0 0.18004599962847781 -0.30262999746915598 0 0.17980447607977701 -0.33819493801097122 0 0.16878293343926901 -0.3408925608447429 0 0.16754317672375371 -0.32222618279750531 0 0.1867464383222453 -0.32907899975594118 0 0.17980447607977701 -0.33819493801097122 0 0.16754317672375371 -0.32222618279750531 0 0.1903640143451788 -0.34324329278748272 0 0.17980447607977701 -0.33819493801097122 0 0.18268275804009759 -0.34641969658528249 0 0.1903640143451788 -0.34324329278748272 0 0.1867464383222453 -0.32907899975594118 0 0.17980447607977701 -0.33819493801097122 0 0.17980447607977701 -0.33819493801097122 0 0.16878293343926901 -0.3408925608447429 0 0.17687143554618739 -0.34882516711603612 0 0.16878293343926901 -0.3408925608447429 0 0.16754317672375371 -0.32222618279750531 0 0.15156620830352249 -0.33088571809672962 0 0.1724963016138959 -0.37390273199182528 0 0.1781971472952934 -0.36833402108537538 0 0.16638027471138939 -0.36923325496765569 0 0.1724963016138959 -0.37390273199182528 0 0.1781971472952934 -0.36833402108537538 0 0.17817922832581129 -0.37890699749236778 0 0.1781971472952934 -0.36833402108537538 0 0.1867478542189572 -0.37420942464801599 0 0.18345771985663001 -0.36505587054788768 0 0.1781971472952934 -0.36833402108537538 0 0.1867478542189572 -0.37420942464801599 0 0.17817922832581129 -0.37890699749236778 0 0.1781971472952934 -0.36833402108537538 0 0.18345771985663001 -0.36505587054788768 0 0.178290504685514 -0.36348782489497072 0 0.18345771985663001 -0.36505587054788768 0 0.178290504685514 -0.36348782489497072 0 0.1800956176203207 -0.35714035396124277 0 0.1932508155328766 -0.3630859173269998 0 0.18345771985663001 -0.36505587054788768 0 0.1800956176203207 -0.35714035396124277 0 0.178290504685514 -0.36348782489497072 0 0.1800956176203207 -0.35714035396124277 0 0.17141153396981201 -0.36342105398537711 0 0.1781971472952934 -0.36833402108537538 0 0.17141153396981201 -0.36342105398537711 0 0.16638027471138939 -0.36923325496765569 0 0.1781971472952934 -0.36833402108537538 0 0.178290504685514 -0.36348782489497072 0 0.17141153396981201 -0.36342105398537711 0 0.1800956176203207 -0.35714035396124277 0 0.17687143554618739 -0.34882516711603612 0 0.16447806477219409 -0.35181630673379488 0 0.18267789437293991 -0.3556786300622588 0 0.1800956176203207 -0.35714035396124277 0 0.17687143554618739 -0.34882516711603612 0 0.1903640143451788 -0.34324329278748272 0 0.18267789437293991 -0.3556786300622588 0 0.18268275804009759 -0.34641969658528249 0 0.18267789437293991 -0.3556786300622588 0 0.18268275804009759 -0.34641969658528249 0 0.17687143554618739 -0.34882516711603612 0 0.17980447607977701 -0.33819493801097122 0 0.18268275804009759 -0.34641969658528249 0 0.17687143554618739 -0.34882516711603612 0 0.1800956176203207 -0.35714035396124277 0 0.15338746560635461 -0.35988800419480649 0 0.16878293343926901 -0.3408925608447429 0 0.16447806477219409 -0.35181630673379488 0 0.14291842974024549 -0.3494167233142294 0 0.1800956176203207 -0.35714035396124277 0 0.16447806477219409 -0.35181630673379488 0 0.15338746560635461 -0.35988800419480649 0 0.16878293343926901 -0.3408925608447429 0 0.17687143554618739 -0.34882516711603612 0 0.16447806477219409 -0.35181630673379488 0 0.17141153396981201 -0.36342105398537711 0 0.16638027471138939 -0.36923325496765569 0 0.15338746560635461 -0.35988800419480649 0 0.1800956176203207 -0.35714035396124277 0 0.17141153396981201 -0.36342105398537711 0 0.15338746560635461 -0.35988800419480649 0 0.15646657441655301 -0.37151023022388979 0 0.16638027471138939 -0.36923325496765569 0 0.15338746560635461 -0.35988800419480649 0 0.15646657441655301 -0.37151023022388979 0 0.16638027471138939 -0.36923325496765569 0 0.16722855612308951 -0.37913665442190247 0 0.1724963016138959 -0.37390273199182528 0 0.16638027471138939 -0.36923325496765569 0 0.16722855612308951 -0.37913665442190247 0 0.14253803524012221 -0.37394228471809909 0 0.15338746560635461 -0.35988800419480649 0 0.12667931359238849 -0.36263565442837042 0 0.15646657441655301 -0.37151023022388979 0 0.14253803524012221 -0.37394228471809909 0 0.15338746560635461 -0.35988800419480649 0 0.16878293343926901 -0.3408925608447429 0 0.14291842974024549 -0.3494167233142294 0 0.16447806477219409 -0.35181630673379488 0 0.15338746560635461 -0.35988800419480649 0 0.14291842974024549 -0.3494167233142294 0 0.15338746560635461 -0.35988800419480649 0 0.14291842974024549 -0.3494167233142294 0 0.12667931359238849 -0.36263565442837042 0 0.14291842974024549 -0.3494167233142294 0 0.1170539260412236 -0.35794088578372091 0 0.14291842974024549 -0.3494167233142294 0 0.12663316568410821 -0.3435348641441891 0 0.1170539260412236 -0.35794088578372091 0 0.14291842974024549 -0.3494167233142294 0 0.12667931359238849 -0.36263565442837042 0 0.1170539260412236 -0.35794088578372091 0 0.14253803524012221 -0.37394228471809909 0 0.12667931359238849 -0.36263565442837042 0 0.13108521712580529 -0.37483949089508639 0 0.15338746560635461 -0.35988800419480649 0 0.12667931359238849 -0.36263565442837042 0 0.12667931359238849 -0.36263565442837042 0 0.13108521712580529 -0.37483949089508639 0 0.1222055686479433 -0.37755501273599912 0 0.16754317672375371 -0.32222618279750531 0 0.14486222734332019 -0.31404726835861568 0 0.15156620830352249 -0.33088571809672962 0 0.14486222734332019 -0.31404726835861568 0 0.15156620830352249 -0.33088571809672962 0 0.1351642680725354 -0.33038254085462088 0 0.14291842974024549 -0.3494167233142294 0 0.15156620830352249 -0.33088571809672962 0 0.1351642680725354 -0.33038254085462088 0 0.16878293343926901 -0.3408925608447429 0 0.14291842974024549 -0.3494167233142294 0 0.15156620830352249 -0.33088571809672962 0 0.14291842974024549 -0.3494167233142294 0 0.1351642680725354 -0.33038254085462088 0 0.12663316568410821 -0.3435348641441891 0 0.14486222734332019 -0.31404726835861568 0 0.1351642680725354 -0.33038254085462088 0 0.1249737341992932 -0.31817627288056322 0 0.1386095407239967 -0.29842786250856979 0 0.12215005184672061 -0.30010490744920582 0 0.1249737341992932 -0.31817627288056322 0 0.14486222734332019 -0.31404726835861568 0 0.1386095407239967 -0.29842786250856979 0 0.1249737341992932 -0.31817627288056322 0 0.14486222734332019 -0.31404726835861568 0 0.1386095407239967 -0.29842786250856979 0 0.15916799181089841 -0.29888663293887979 0 0.1386095407239967 -0.29842786250856979 0 0.13248422089980291 -0.2822520824342355 0 0.1511439722479356 -0.28037628970511702 0 0.1386095407239967 -0.29842786250856979 0 0.1511439722479356 -0.28037628970511702 0 0.15916799181089841 -0.29888663293887979 0 0.1386095407239967 -0.29842786250856979 0 0.13248422089980291 -0.2822520824342355 0 0.12215005184672061 -0.30010490744920582 0 0.13248422089980291 -0.2822520824342355 0 0.14517120569504441 -0.2591030031170708 0 0.1236972891491481 -0.26847401333855919 0 0.14517120569504441 -0.2591030031170708 0 0.1236972891491481 -0.26847401333855919 0 0.14517120569504441 -0.2591030031170708 0 0.1236972891491481 -0.26847401333855919 0 0.12455685345978509 -0.24750814310934299 0 0.14517120569504441 -0.2591030031170708 0 0.16664512224094219 -0.2497319928955857 0 0.14517120569504441 -0.2591030031170708 0 0.16664512224094219 -0.2497319928955857 0 0.15300471189664341 -0.2477641611726708 0 0.13248422089980291 -0.2822520824342355 0 0.14517120569504441 -0.2591030031170708 0 0.1511439722479356 -0.28037628970511702 0 0.14517120569504441 -0.2591030031170708 0 0.1511439722479356 -0.28037628970511702 0 0.15907646527965769 -0.26634807022503521 0 0.1511439722479356 -0.28037628970511702 0 0.15907646527965769 -0.26634807022503521 0 0.17334556093471029 -0.27618099518237083 0 0.17334556093471029 -0.27618099518237083 0 0.16664512224094219 -0.2497319928955857 0 0.14517120569504441 -0.2591030031170708 0 0.15907646527965769 -0.26634807022503521 0 0.16664512224094219 -0.2497319928955857 0 0.15907646527965769 -0.26634807022503521 0 0.17334556093471029 -0.27618099518237083 0 0.16664512224094219 -0.2497319928955857 0 0.18396422664205639 -0.25907689648290771 0 0.17334556093471029 -0.27618099518237083 0 0.16664512224094219 -0.2497319928955857 0 0.18396422664205639 -0.25907689648290771 0 0.18044998751121011 -0.2437076827387715 0 0.16664512224094219 -0.2497319928955857 0 0.18396422664205639 -0.25907689648290771 0 0.19652592925423759 -0.2477969250345709 0 0.18044998751121011 -0.2437076827387715 0 0.19938364577685799 -0.27020655786505771 0 0.18396422664205639 -0.25907689648290771 0 0.17334556093471029 -0.27618099518237083 0 0.19522200748554541 -0.29144766553772122 0 0.17334556093471029 -0.27618099518237083 0 0.18004599962847781 -0.30262999746915598 0 0.17334556093471029 -0.27618099518237083 0 0.18004599962847781 -0.30262999746915598 0 0.16754317672375371 -0.32222618279750531 0 0.14486222734332019 -0.31404726835861568 0 0.15916799181089841 -0.29888663293887979 0 0.16754317672375371 -0.32222618279750531 0 0.18004599962847781 -0.30262999746915598 0 0.15916799181089841 -0.29888663293887979 0 0.1511439722479356 -0.28037628970511702 0 0.17334556093471029 -0.27618099518237083 0 0.15916799181089841 -0.29888663293887979 0 0.17334556093471029 -0.27618099518237083 0 0.18004599962847781 -0.30262999746915598 0 0.15916799181089841 -0.29888663293887979 0 0.19094514613449731 -0.47982932200640183 0 0.20629453416363169 -0.5 0 0.1803301148953107 -0.5 0 0.19094514613449731 -0.47982932200640183 0 0.20905077910626871 -0.47189352320467443 0 0.20629453416363169 -0.5 0 0.19094514613449731 -0.47982932200640183 0 0.20905077910626871 -0.47189352320467443 0 0.18696760174084101 -0.45546859908357501 0 0.20905077910626871 -0.47189352320467443 0 0.20629453416363169 -0.5 0 0.22714446715191031 -0.4810581571423016 0 0.20629453416363169 -0.5 0 0.23225895343195291 -0.5 0 0.22714446715191031 -0.4810581571423016 0 0.25822337270027412 -0.5 0 0.23225895343195291 -0.5 0 0.2483796351560518 -0.48396027990916951 0 0.23225895343195291 -0.5 0 0.2483796351560518 -0.48396027990916951 0 0.22714446715191031 -0.4810581571423016 0 0.2483796351560518 -0.48396027990916951 0 0.22714446715191031 -0.4810581571423016 0 0.24313141516762721 -0.46701765191400801 0 0.20905077910626871 -0.47189352320467443 0 0.22714446715191031 -0.4810581571423016 0 0.22515481927096179 -0.46037598909906169 0 0.22714446715191031 -0.4810581571423016 0 0.22515481927096179 -0.46037598909906169 0 0.24313141516762721 -0.46701765191400801 0 0.25821902875748998 -0.44970831564089853 0 0.24313141516762721 -0.46701765191400801 0 0.2387139804521109 -0.44749123808341118 0 0.22515481927096179 -0.46037598909906169 0 0.24313141516762721 -0.46701765191400801 0 0.2387139804521109 -0.44749123808341118 0 0.25256979747491048 -0.42729682387394818 0 0.25821902875748998 -0.44970831564089853 0 0.2387139804521109 -0.44749123808341118 0 0.2387139804521109 -0.44749123808341118 0 0.22291720873209331 -0.44372153461334862 0 0.2347145988015242 -0.43507567746091391 0 0.22515481927096179 -0.46037598909906169 0 0.22291720873209331 -0.44372153461334862 0 0.20920325753256261 -0.45406529495982539 0 0.22515481927096179 -0.46037598909906169 0 0.2387139804521109 -0.44749123808341118 0 0.22291720873209331 -0.44372153461334862 0 0.22291720873209331 -0.44372153461334862 0 0.20920325753256261 -0.45406529495982539 0 0.20185250271524771 -0.43915271042339038 0 0.22291720873209331 -0.44372153461334862 0 0.20185250271524771 -0.43915271042339038 0 0.22471840676622409 -0.4318019679152843 0 0.20905077910626871 -0.47189352320467443 0 0.22515481927096179 -0.46037598909906169 0 0.20920325753256261 -0.45406529495982539 0 0.20905077910626871 -0.47189352320467443 0 0.20920325753256261 -0.45406529495982539 0 0.18696760174084101 -0.45546859908357501 0 0.20185250271524771 -0.43915271042339038 0 0.18197802043640429 -0.43571474024779933 0 0.18696760174084101 -0.45546859908357501 0 0.20920325753256261 -0.45406529495982539 0 0.20185250271524771 -0.43915271042339038 0 0.18696760174084101 -0.45546859908357501 0 0.20185250271524771 -0.43915271042339038 0 0.18696760174084101 -0.45546859908357501 0 0.20185250271524771 -0.43915271042339038 0 0.1947766934485228 -0.42010340644588551 0 0.18197802043640429 -0.43571474024779933 0 0.1947766934485228 -0.42010340644588551 0 0.19912145667079581 -0.40919015125454572 0 0.1853042536790723 -0.41162896283340539 0 0.1947766934485228 -0.42010340644588551 0 0.21673740368965419 -0.42283682176320569 0 0.19912145667079581 -0.40919015125454572 0 0.2214540415286784 -0.41766674115842078 0 0.19912145667079581 -0.40919015125454572 0 0.2214540415286784 -0.41766674115842078 0 0.2129365090549096 -0.40557498606112352 0 0.1947766934485228 -0.42010340644588551 0 0.19912145667079581 -0.40919015125454572 0 0.21673740368965419 -0.42283682176320569 0 0.19912145667079581 -0.40919015125454572 0 0.21673740368965419 -0.42283682176320569 0 0.2214540415286784 -0.41766674115842078 0 0.20185250271524771 -0.43915271042339038 0 0.21673740368965419 -0.42283682176320569 0 0.20185250271524771 -0.43915271042339038 0 0.21673740368965419 -0.42283682176320569 0 0.22471840676622409 -0.4318019679152843 0 0.20185250271524771 -0.43915271042339038 0 0.1947766934485228 -0.42010340644588551 0 0.21673740368965419 -0.42283682176320569 0 0.21673740368965419 -0.42283682176320569 0 0.23465360058228241 -0.42506682281857688 0 0.21673740368965419 -0.42283682176320569 0 0.22471840676622409 -0.4318019679152843 0 0.23465360058228241 -0.42506682281857688 0 0.21673740368965419 -0.42283682176320569 0 0.23331762746673201 -0.42216970189611452 0 0.23465360058228241 -0.42506682281857688 0 0.22291720873209331 -0.44372153461334862 0 0.22471840676622409 -0.4318019679152843 0 0.2347145988015242 -0.43507567746091391 0 0.22471840676622409 -0.4318019679152843 0 0.2347145988015242 -0.43507567746091391 0 0.23465360058228241 -0.42506682281857688 0 0.25256979747491048 -0.42729682387394818 0 0.23465360058228241 -0.42506682281857688 0 0.25256979747491048 -0.42729682387394818 0 0.2347145988015242 -0.43507567746091391 0 0.23465360058228241 -0.42506682281857688 0 0.25256979747491048 -0.42729682387394818 0 0.2387139804521109 -0.44749123808341118 0 0.2347145988015242 -0.43507567746091391 0 0.25256979747491048 -0.42729682387394818 0 0.23465360058228241 -0.42506682281857688 0 0.2415928706410248 -0.41898144202452292 0 0.23331762746673201 -0.42216970189611452 0 0.23465360058228241 -0.42506682281857688 0 0.2415928706410248 -0.41898144202452292 0 0.25256979747491048 -0.42729682387394818 0 0.24791000242522679 -0.40881059925897628 0 0.2415928706410248 -0.41898144202452292 0 0.24791000242522679 -0.40881059925897628 0 0.2415928706410248 -0.41898144202452292 0 0.24058611735790081 -0.41375843858879041 0 0.23331762746673201 -0.42216970189611452 0 0.2415928706410248 -0.41898144202452292 0 0.23534558786087101 -0.41634127019676942 0 0.2415928706410248 -0.41898144202452292 0 0.23534558786087101 -0.41634127019676942 0 0.24058611735790081 -0.41375843858879041 0 0.24791000242522679 -0.40881059925897628 0 0.23749494401724411 -0.41060774078280032 0 0.24058611735790081 -0.41375843858879041 0 0.23534558786087101 -0.41634127019676942 0 0.23749494401724411 -0.41060774078280032 0 0.23282654741058861 -0.41242229882332659 0 0.23749494401724411 -0.41060774078280032 0 0.23282654741058861 -0.41242229882332659 0 0.2385796687121706 -0.39889470990056253 0 0.23534558786087101 -0.41634127019676942 0 0.23749494401724411 -0.41060774078280032 0 0.24058611735790081 -0.41375843858879041 0 0.21673740368965419 -0.42283682176320569 0 0.23331762746673201 -0.42216970189611452 0 0.2214540415286784 -0.41766674115842078 0 0.2214540415286784 -0.41766674115842078 0 0.2385796687121706 -0.39889470990056253 0 0.23282654741058861 -0.41242229882332659 0 0.2214540415286784 -0.41766674115842078 0 0.2385796687121706 -0.39889470990056253 0 0.2214540415286784 -0.41766674115842078 0 0.22306443753055591 -0.40511759305690931 0 0.2385796687121706 -0.39889470990056253 0 0.23282654741058861 -0.41242229882332659 0 0.23073595106671749 -0.41715000301865779 0 0.2214540415286784 -0.41766674115842078 0 0.23331762746673201 -0.42216970189611452 0 0.23073595106671749 -0.41715000301865779 0 0.2214540415286784 -0.41766674115842078 0 0.23331762746673201 -0.42216970189611452 0 0.2214540415286784 -0.41766674115842078 0 0.23331762746673201 -0.42216970189611452 0 0.23534558786087101 -0.41634127019676942 0 0.23073595106671749 -0.41715000301865779 0 0.23534558786087101 -0.41634127019676942 0 0.23282654741058861 -0.41242229882332659 0 0.23073595106671749 -0.41715000301865779 0 0.21673740368965419 -0.42283682176320569 0 0.2214540415286784 -0.41766674115842078 0 0.2214540415286784 -0.41766674115842078 0 0.22306443753055591 -0.40511759305690931 0 0.2129365090549096 -0.40557498606112352 0 0.22306443753055591 -0.40511759305690931 0 0.22799116744035569 -0.39482741240966768 0 0.2162423833427721 -0.39597589339292788 0 0.22306443753055591 -0.40511759305690931 0 0.22799116744035569 -0.39482741240966768 0 0.2385796687121706 -0.39889470990056253 0 0.24791000242522679 -0.40881059925897628 0 0.23749494401724411 -0.41060774078280032 0 0.2385796687121706 -0.39889470990056253 0 0.24791000242522679 -0.40881059925897628 0 0.24325020737554129 -0.39032437464400488 0 0.24791000242522679 -0.40881059925897628 0 0.2385796687121706 -0.39889470990056253 0 0.24325020737554129 -0.39032437464400488 0 0.22799116744035569 -0.39482741240966768 0 0.2385796687121706 -0.39889470990056253 0 0.24325020737554129 -0.39032437464400488 0 0.25095097305193281 -0.3782583267528235 0 0.2383850477743705 -0.37102343281802341 0 0.24325020737554129 -0.39032437464400488 0 0.2383850477743705 -0.37102343281802341 0 0.24325020737554129 -0.39032437464400488 0 0.22799116744035569 -0.39482741240966768 0 0.21825051145420871 -0.37670514598550281 0 0.2162423833427721 -0.39597589339292788 0 0.22799116744035569 -0.39482741240966768 0 0.24325020737554129 -0.39032437464400488 0 0.21825051145420871 -0.37670514598550281 0 0.2383850477743705 -0.37102343281802341 0 0.24325020737554129 -0.39032437464400488 0 0.21825051145420871 -0.37670514598550281 0 0.24325020737554129 -0.39032437464400488 0 0.21825051145420871 -0.37670514598550281 0 0.21825051145420871 -0.37670514598550281 0 0.20976408547610739 -0.38820764237200772 0 0.19934138420011999 -0.38355005060343123 0 0.21825051145420871 -0.37670514598550281 0 0.20976408547610739 -0.38820764237200772 0 0.2162423833427721 -0.39597589339292788 0 0.20976408547610739 -0.38820764237200772 0 0.20522206290732861 -0.39659947950616897 0 0.19934138420011999 -0.38355005060343123 0 0.22306443753055591 -0.40511759305690931 0 0.2162423833427721 -0.39597589339292788 0 0.2129365090549096 -0.40557498606112352 0 0.2162423833427721 -0.39597589339292788 0 0.2129365090549096 -0.40557498606112352 0 0.20522206290732861 -0.39659947950616897 0 0.19912145667079581 -0.40919015125454572 0 0.2129365090549096 -0.40557498606112352 0 0.20522206290732861 -0.39659947950616897 0 0.20976408547610739 -0.38820764237200772 0 0.2162423833427721 -0.39597589339292788 0 0.20522206290732861 -0.39659947950616897 0 0.20522206290732861 -0.39659947950616897 0 0.19336197512199821 -0.39560423741144268 0 0.19934138420011999 -0.38355005060343123 0 0.19912145667079581 -0.40919015125454572 0 0.19336197512199821 -0.39560423741144268 0 0.17678887181291311 -0.4007135613506706 0 0.19912145667079581 -0.40919015125454572 0 0.17678887181291311 -0.4007135613506706 0 0.19912145667079581 -0.40919015125454572 0 0.20522206290732861 -0.39659947950616897 0 0.19336197512199821 -0.39560423741144268 0 0.19336197512199821 -0.39560423741144268 0 0.19934138420011999 -0.38355005060343123 0 0.1853520193620245 -0.38735480266751698 0 0.1867478542189572 -0.37420942464801599 0 0.19934138420011999 -0.38355005060343123 0 0.1853520193620245 -0.38735480266751698 0 0.1732381400586972 -0.38824214233402549 0 0.17817922832581129 -0.37890699749236778 0 0.1853520193620245 -0.38735480266751698 0 0.1724963016138959 -0.37390273199182528 0 0.17817922832581129 -0.37890699749236778 0 0.16722855612308951 -0.37913665442190247 0 0.1732381400586972 -0.38824214233402549 0 0.17817922832581129 -0.37890699749236778 0 0.16722855612308951 -0.37913665442190247 0 0.1867478542189572 -0.37420942464801599 0 0.17817922832581129 -0.37890699749236778 0 0.1853520193620245 -0.38735480266751698 0 0.19336197512199821 -0.39560423741144268 0 0.1853520193620245 -0.38735480266751698 0 0.17678887181291311 -0.4007135613506706 0 0.1732381400586972 -0.38824214233402549 0 0.1853520193620245 -0.38735480266751698 0 0.17678887181291311 -0.4007135613506706 0 0.1732381400586972 -0.38824214233402549 0 0.17678887181291311 -0.4007135613506706 0 0.1544562869550305 -0.39223697144679548 0 0.17678887181291311 -0.4007135613506706 0 0.1544562869550305 -0.39223697144679548 0 0.17678887181291311 -0.4007135613506706 0 0.1544562869550305 -0.39223697144679548 0 0.1589519810215875 -0.40947292418374759 0 0.15646657441655301 -0.37151023022388979 0 0.16722855612308951 -0.37913665442190247 0 0.1544562869550305 -0.39223697144679548 0 0.1732381400586972 -0.38824214233402549 0 0.16722855612308951 -0.37913665442190247 0 0.1544562869550305 -0.39223697144679548 0 0.14253803524012221 -0.37394228471809909 0 0.13291795102276741 -0.38522501169787698 0 0.1544562869550305 -0.39223697144679548 0 0.15646657441655301 -0.37151023022388979 0 0.14253803524012221 -0.37394228471809909 0 0.1544562869550305 -0.39223697144679548 0 0.13291795102276741 -0.38522501169787698 0 0.12735721125466271 -0.39716913968827738 0 0.1222055686479433 -0.37755501273599912 0 0.14253803524012221 -0.37394228471809909 0 0.13108521712580529 -0.37483949089508639 0 0.13291795102276741 -0.38522501169787698 0 0.13108521712580529 -0.37483949089508639 0 0.13291795102276741 -0.38522501169787698 0 0.1222055686479433 -0.37755501273599912 0 0.12735721125466271 -0.39716913968827738 0 0.14218725804854171 -0.4035051804486765 0 0.1325088538613782 -0.41678326664055659 0 0.13291795102276741 -0.38522501169787698 0 0.12735721125466271 -0.39716913968827738 0 0.14218725804854171 -0.4035051804486765 0 0.12735721125466271 -0.39716913968827738 0 0.1325088538613782 -0.41678326664055659 0 0.1166179539616114 -0.40235108766559607 0 0.13291795102276741 -0.38522501169787698 0 0.14218725804854171 -0.4035051804486765 0 0.1544562869550305 -0.39223697144679548 0 0.14218725804854171 -0.4035051804486765 0 0.1544562869550305 -0.39223697144679548 0 0.1589519810215875 -0.40947292418374759 0 0.14218725804854171 -0.4035051804486765 0 0.14707797010439441 -0.42040633404111472 0 0.1589519810215875 -0.40947292418374759 0 0.14707797010439441 -0.42040633404111472 0 0.16025106698402439 -0.42078963873709208 0 0.1589519810215875 -0.40947292418374759 0 0.12735721125466271 -0.39716913968827738 0 0.1325088538613782 -0.41678326664055659 0 0.14218725804854171 -0.4035051804486765 0 0.14707797010439441 -0.42040633404111472 0 0.1325088538613782 -0.41678326664055659 0 0.14707797010439441 -0.42040633404111472 0 0.1325088538613782 -0.41678326664055659 0 0.1325088538613782 -0.41678326664055659 0 0.13979446778325161 -0.44452217776036929 0 0.11105290689643151 -0.43569878719295768 0 0.1325088538613782 -0.41678326664055659 0 0.13979446778325161 -0.44452217776036929 0 0.14707797010439441 -0.42040633404111472 0 0.1325088538613782 -0.41678326664055659 0 0.13979446778325161 -0.44452217776036929 0 0.14707797010439441 -0.42040633404111472 0 0.16215833360272419 -0.4359093055949409 0 0.13979446778325161 -0.44452217776036929 0 0.16215833360272419 -0.4359093055949409 0 0.16025106698402439 -0.42078963873709208 0 0.1728159832073915 -0.41736999112856549 0 0.14707797010439441 -0.42040633404111472 0 0.16215833360272419 -0.4359093055949409 0 0.16025106698402439 -0.42078963873709208 0 0.17678887181291311 -0.4007135613506706 0 0.1589519810215875 -0.40947292418374759 0 0.1728159832073915 -0.41736999112856549 0 0.16025106698402439 -0.42078963873709208 0 0.1589519810215875 -0.40947292418374759 0 0.1728159832073915 -0.41736999112856549 0 0.1947766934485228 -0.42010340644588551 0 0.1728159832073915 -0.41736999112856549 0 0.1853042536790723 -0.41162896283340539 0 0.19912145667079581 -0.40919015125454572 0 0.17678887181291311 -0.4007135613506706 0 0.1853042536790723 -0.41162896283340539 0 0.17678887181291311 -0.4007135613506706 0 0.1728159832073915 -0.41736999112856549 0 0.1853042536790723 -0.41162896283340539 0 0.1947766934485228 -0.42010340644588551 0 0.1728159832073915 -0.41736999112856549 0 0.16215833360272419 -0.4359093055949409 0 0.1728159832073915 -0.41736999112856549 0 0.18197802043640429 -0.43571474024779933 0 0.1947766934485228 -0.42010340644588551 0 0.1728159832073915 -0.41736999112856549 0 0.18197802043640429 -0.43571474024779933 0 0.16215833360272419 -0.4359093055949409 0 0.18197802043640429 -0.43571474024779933 0 0.1724742272467909 -0.45102525756813822 0 0.18197802043640429 -0.43571474024779933 0 0.1724742272467909 -0.45102525756813822 0 0.18696760174084101 -0.45546859908357501 0 0.1724742272467909 -0.45102525756813822 0 0.18696760174084101 -0.45546859908357501 0 0.17208270076643431 -0.47178448774375947 0 0.18696760174084101 -0.45546859908357501 0 0.17208270076643431 -0.47178448774375947 0 0.15918447968755081 -0.45624915517061609 0 0.14708008170512099 -0.47226108888018281 0 0.17208270076643431 -0.47178448774375947 0 0.1724742272467909 -0.45102525756813822 0 0.15918447968755081 -0.45624915517061609 0 0.17208270076643431 -0.47178448774375947 0 0.16215833360272419 -0.4359093055949409 0 0.1724742272467909 -0.45102525756813822 0 0.15918447968755081 -0.45624915517061609 0 0.16215833360272419 -0.4359093055949409 0 0.15918447968755081 -0.45624915517061609 0 0.13979446778325161 -0.44452217776036929 0 0.13979446778325161 -0.44452217776036929 0 0.14708008170512099 -0.47226108888018281 0 0.12337383805107981 -0.45607782990542878 0 0.14708008170512099 -0.47226108888018281 0 0.12267339043930919 -0.47547332840519352 0 0.12337383805107981 -0.45607782990542878 0 0.13979446778325161 -0.44452217776036929 0 0.14708008170512099 -0.47226108888018281 0 0.15918447968755081 -0.45624915517061609 0 0.13979446778325161 -0.44452217776036929 0 0.14708008170512099 -0.47226108888018281 0 0.14708008170512099 -0.47226108888018281 0 0.1247822863094781 -0.5 0 0.12267339043930919 -0.47547332840519352 0 0.14708008170512099 -0.47226108888018281 0 0.15436569562698951 -0.4999999999999965 0 0.14708008170512099 -0.47226108888018281 0 0.15436569562698951 -0.4999999999999965 0 0.1247822863094781 -0.5 0 0.15436569562698951 -0.4999999999999965 0 0.17208270076643431 -0.47178448774375947 0 0.1803301148953107 -0.5 0 0.14708008170512099 -0.47226108888018281 0 0.15436569562698951 -0.4999999999999965 0 0.17208270076643431 -0.47178448774375947 0 0.19094514613449731 -0.47982932200640183 0 0.18696760174084101 -0.45546859908357501 0 0.17208270076643431 -0.47178448774375947 0 0.19094514613449731 -0.47982932200640183 0 0.17208270076643431 -0.47178448774375947 0 0.1803301148953107 -0.5 0 0.06561546767445503 -0.5 0 0.074850442010051602 -0.48191039605642599 0 0.054246642610215237 -0.48635682734508151 0 0.074850442010051602 -0.48191039605642599 0 0.06943976618015632 -0.46647199570954362 0 0.057071240270829847 -0.47156194299658422 0 0.074850442010051602 -0.48191039605642599 0 0.083388418759948985 -0.46868960187889058 0 0.06943976618015632 -0.46647199570954362 0 0.074850442010051602 -0.48191039605642599 0 0.1001446161303915 -0.48083591422789929 0 0.083388418759948985 -0.46868960187889058 0 0.074850442010051602 -0.48191039605642599 0 0.095198876991966497 -0.5 0 0.1001446161303915 -0.48083591422789929 0 0.06561546767445503 -0.5 0 0.074850442010051602 -0.48191039605642599 0 0.095198876991966497 -0.5 0 0.095198876991966497 -0.5 0 0.1247822863094781 -0.5 0 0.1001446161303915 -0.48083591422789929 0 0.1247822863094781 -0.5 0 0.12267339043930919 -0.47547332840519352 0 0.1001446161303915 -0.48083591422789929 0 0.12267339043930919 -0.47547332840519352 0 0.1001446161303915 -0.48083591422789929 0 0.099974282271594675 -0.4589421590268859 0 0.1001446161303915 -0.48083591422789929 0 0.099974282271594675 -0.4589421590268859 0 0.083388418759948985 -0.46868960187889058 0 0.12267339043930919 -0.47547332840519352 0 0.099974282271594675 -0.4589421590268859 0 0.12337383805107981 -0.45607782990542878 0 0.099974282271594675 -0.4589421590268859 0 0.12337383805107981 -0.45607782990542878 0 0.11105290689643151 -0.43569878719295768 0 0.13979446778325161 -0.44452217776036929 0 0.12337383805107981 -0.45607782990542878 0 0.11105290689643151 -0.43569878719295768 0 0.099974282271594675 -0.4589421590268859 0 0.087473648461758521 -0.44112002172822901 0 0.11105290689643151 -0.43569878719295768 0 0.087473648461758521 -0.44112002172822901 0 0.079154632796508625 -0.45559816539987591 0 0.071738987357631998 -0.44363200684118648 0 0.099974282271594675 -0.4589421590268859 0 0.087473648461758521 -0.44112002172822901 0 0.079154632796508625 -0.45559816539987591 0 0.099974282271594675 -0.4589421590268859 0 0.083388418759948985 -0.46868960187889058 0 0.079154632796508625 -0.45559816539987591 0 0.06943976618015632 -0.46647199570954362 0 0.063326060864440425 -0.45475878851733958 0 0.057071240270829847 -0.47156194299658422 0 0.079154632796508625 -0.45559816539987591 0 0.06943976618015632 -0.46647199570954362 0 0.063326060864440425 -0.45475878851733958 0 0.083388418759948985 -0.46868960187889058 0 0.079154632796508625 -0.45559816539987591 0 0.06943976618015632 -0.46647199570954362 0 0.063326060864440425 -0.45475878851733958 0 0.071738987357631998 -0.44363200684118648 0 0.059341518402767593 -0.45281345322038102 0 0.079154632796508625 -0.45559816539987591 0 0.063326060864440425 -0.45475878851733958 0 0.071738987357631998 -0.44363200684118648 0 0.071738987357631998 -0.44363200684118648 0 0.061950359128300922 -0.43126903406648343 0 0.059341518402767593 -0.45281345322038102 0 0.071738987357631998 -0.44363200684118648 0 0.078717284808106316 -0.42236919864367772 0 0.061950359128300922 -0.43126903406648343 0 0.064559199853831004 -0.40972461491258538 0 0.061950359128300922 -0.43126903406648343 0 0.064559199853831004 -0.40972461491258538 0 0.078717284808106316 -0.42236919864367772 0 0.061950359128300922 -0.43126903406648343 0 0.064559199853831004 -0.40972461491258538 0 0.078717284808106316 -0.42236919864367772 0 0.078638920657171429 -0.40338681927846187 0 0.064559199853831004 -0.40972461491258538 0 0.078638920657171429 -0.40338681927846187 0 0.078717284808106316 -0.42236919864367772 0 0.095704431856392505 -0.4273182626310944 0 0.1055738872592737 -0.41008504295951331 0 0.1055738872592737 -0.41008504295951331 0 0.078638920657171429 -0.40338681927846187 0 0.078717284808106316 -0.42236919864367772 0 0.1055738872592737 -0.41008504295951331 0 0.078638920657171429 -0.40338681927846187 0 0.087473648461758521 -0.44112002172822901 0 0.078717284808106316 -0.42236919864367772 0 0.095704431856392505 -0.4273182626310944 0 0.087473648461758521 -0.44112002172822901 0 0.071738987357631998 -0.44363200684118648 0 0.078717284808106316 -0.42236919864367772 0 0.087473648461758521 -0.44112002172822901 0 0.095704431856392505 -0.4273182626310944 0 0.11105290689643151 -0.43569878719295768 0 0.095704431856392505 -0.4273182626310944 0 0.11105290689643151 -0.43569878719295768 0 0.1055738872592737 -0.41008504295951331 0 0.1325088538613782 -0.41678326664055659 0 0.11105290689643151 -0.43569878719295768 0 0.1055738872592737 -0.41008504295951331 0 0.1325088538613782 -0.41678326664055659 0 0.1055738872592737 -0.41008504295951331 0 0.1325088538613782 -0.41678326664055659 0 0.1055738872592737 -0.41008504295951331 0 0.1166179539616114 -0.40235108766559607 0 0.094975269007497198 -0.39603323331618739 0 0.1113116173578229 -0.38867964735391303 0 0.099927155279416452 -0.38804732067937531 0 0.094975269007497198 -0.39603323331618739 0 0.10633820007491571 -0.39903834168572111 0 0.1113116173578229 -0.38867964735391303 0 0.094975269007497198 -0.39603323331618739 0 0.1113116173578229 -0.38867964735391303 0 0.094136642915319535 -0.39307248679921081 0 0.094975269007497198 -0.39603323331618739 0 0.099927155279416452 -0.38804732067937531 0 0.1055738872592737 -0.41008504295951331 0 0.094975269007497198 -0.39603323331618739 0 0.10633820007491571 -0.39903834168572111 0 0.12735721125466271 -0.39716913968827738 0 0.1166179539616114 -0.40235108766559607 0 0.1113116173578229 -0.38867964735391303 0 0.1055738872592737 -0.41008504295951331 0 0.10633820007491571 -0.39903834168572111 0 0.1166179539616114 -0.40235108766559607 0 0.10633820007491571 -0.39903834168572111 0 0.1166179539616114 -0.40235108766559607 0 0.1113116173578229 -0.38867964735391303 0 0.12735721125466271 -0.39716913968827738 0 0.1222055686479433 -0.37755501273599912 0 0.1113116173578229 -0.38867964735391303 0 0.1222055686479433 -0.37755501273599912 0 0.1113116173578229 -0.38867964735391303 0 0.1099966078647026 -0.37149062842974462 0 0.12735721125466271 -0.39716913968827738 0 0.1222055686479433 -0.37755501273599912 0 0.1113116173578229 -0.38867964735391303 0 0.1018840437664358 -0.37927138377132719 0 0.1099966078647026 -0.37149062842974462 0 0.1018840437664358 -0.37927138377132719 0 0.093067935322189405 -0.38273674271576857 0 0.094487403294892081 -0.36537813292750482 0 0.1113116173578229 -0.38867964735391303 0 0.1018840437664358 -0.37927138377132719 0 0.099927155279416452 -0.38804732067937531 0 0.094136642915319535 -0.39307248679921081 0 0.099927155279416452 -0.38804732067937531 0 0.093067935322189405 -0.38273674271576857 0 0.1018840437664358 -0.37927138377132719 0 0.099927155279416452 -0.38804732067937531 0 0.093067935322189405 -0.38273674271576857 0 0.093067935322189405 -0.38273674271576857 0 0.081651000818641614 -0.38237918022641748 0 0.094487403294892081 -0.36537813292750482 0 0.081651000818641614 -0.38237918022641748 0 0.084642524021546192 -0.39401666662253981 0 0.075962722233663973 -0.39032832435613668 0 0.094136642915319535 -0.39307248679921081 0 0.093067935322189405 -0.38273674271576857 0 0.081651000818641614 -0.38237918022641748 0 0.094136642915319535 -0.39307248679921081 0 0.081651000818641614 -0.38237918022641748 0 0.084642524021546192 -0.39401666662253981 0 0.094136642915319535 -0.39307248679921081 0 0.081651000818641614 -0.38237918022641748 0 0.094975269007497198 -0.39603323331618739 0 0.078638920657171429 -0.40338681927846187 0 0.084642524021546192 -0.39401666662253981 0 0.1055738872592737 -0.41008504295951331 0 0.094975269007497198 -0.39603323331618739 0 0.078638920657171429 -0.40338681927846187 0 0.094136642915319535 -0.39307248679921081 0 0.094975269007497198 -0.39603323331618739 0 0.084642524021546192 -0.39401666662253981 0 0.094975269007497198 -0.39603323331618739 0 0.078638920657171429 -0.40338681927846187 0 0.078638920657171429 -0.40338681927846187 0 0.084642524021546192 -0.39401666662253981 0 0.075962722233663973 -0.39032832435613668 0 0.078638920657171429 -0.40338681927846187 0 0.065715806948997035 -0.40017308199964019 0 0.075962722233663973 -0.39032832435613668 0 0.078638920657171429 -0.40338681927846187 0 0.065715806948997035 -0.40017308199964019 0 0.064559199853831004 -0.40972461491258538 0 0.065715806948997035 -0.40017308199964019 0 0.064559199853831004 -0.40972461491258538 0 0.078638920657171429 -0.40338681927846187 0 0.065715806948997035 -0.40017308199964019 0 0.065715806948997035 -0.40017308199964019 0 0.069165358721963249 -0.37168587365362471 0 0.081651000818641614 -0.38237918022641748 0 0.075962722233663973 -0.39032832435613668 0 0.069165358721963249 -0.37168587365362471 0 0.065715806948997035 -0.40017308199964019 0 0.058495483490272893 -0.38889927732170249 0 0.069165358721963249 -0.37168587365362471 0 0.065715806948997035 -0.40017308199964019 0 0.075962722233663973 -0.39032832435613668 0 0.069165358721963249 -0.37168587365362471 0 0.081651000818641614 -0.38237918022641748 0 0.069165358721963249 -0.37168587365362471 0 0.081651000818641614 -0.38237918022641748 0 0.069165358721963249 -0.37168587365362471 0 0.071920880548562244 -0.37281538007129361 0 0.055621013511824739 -0.37877478858943531 0 0.058495483490272893 -0.38889927732170249 0 0.069165358721963249 -0.37168587365362471 0 0.048074391320975157 -0.38681285859516101 0 0.058495483490272893 -0.38889927732170249 0 0.047757229073159053 -0.39518213306281191 0 0.048074391320975157 -0.38681285859516101 0 0.055621013511824739 -0.37877478858943531 0 0.058495483490272893 -0.38889927732170249 0 0.048074391320975157 -0.38681285859516101 0 0.047186717282832913 -0.37662312524636737 0 0.055621013511824739 -0.37877478858943531 0 0.047186717282832913 -0.37662312524636737 0 0.055621013511824739 -0.37877478858943531 0 0.055183116743079061 -0.36985280813032101 0 0.065715806948997035 -0.40017308199964019 0 0.045315858326080802 -0.39509999536928198 0 0.065715806948997035 -0.40017308199964019 0 0.051964286532535188 -0.40575247297842237 0 0.045315858326080802 -0.39509999536928198 0 0.065715806948997035 -0.40017308199964019 0 0.058495483490272893 -0.38889927732170249 0 0.047757229073159053 -0.39518213306281191 0 0.065715806948997035 -0.40017308199964019 0 0.047757229073159053 -0.39518213306281191 0 0.045315858326080802 -0.39509999536928198 0 0.064559199853831004 -0.40972461491258538 0 0.065715806948997035 -0.40017308199964019 0 0.051964286532535188 -0.40575247297842237 0 0.048074391320975157 -0.38681285859516101 0 0.047757229073159053 -0.39518213306281191 0 0.045315858326080802 -0.39509999536928198 0 0.045315858326080802 -0.39509999536928198 0 0.026656569215906759 -0.39447222059470088 0 0.045315858326080802 -0.39509999536928198 0 0.034844545661113391 -0.39249597526781632 0 0.045315858326080802 -0.39509999536928198 0 0.034844545661113391 -0.39249597526781632 0 0.026656569215906759 -0.39447222059470088 0 0.045315858326080802 -0.39509999536928198 0 0.026656569215906759 -0.39447222059470088 0 0.034229012691840553 -0.40748713095407052 0 0.045315858326080802 -0.39509999536928198 0 0.034844545661113391 -0.39249597526781632 0 0.039822480834689693 -0.38752824721114459 0 0.051964286532535188 -0.40575247297842237 0 0.045315858326080802 -0.39509999536928198 0 0.034229012691840553 -0.40748713095407052 0 0.047757229073159053 -0.39518213306281191 0 0.045315858326080802 -0.39509999536928198 0 0.034844545661113391 -0.39249597526781632 0 0.039822480834689693 -0.38752824721114459 0 0.031218786033736859 -0.38541390567459599 0 0.039822480834689693 -0.38752824721114459 0 0.036880580762965402 -0.38105390952134832 0 0.031218786033736859 -0.38541390567459599 0 0.048074391320975157 -0.38681285859516101 0 0.045315858326080802 -0.39509999536928198 0 0.039822480834689693 -0.38752824721114459 0 0.048074391320975157 -0.38681285859516101 0 0.039822480834689693 -0.38752824721114459 0 0.042412566557940623 -0.38164697916413298 0 0.039822480834689693 -0.38752824721114459 0 0.042412566557940623 -0.38164697916413298 0 0.036880580762965402 -0.38105390952134832 0 0.048074391320975157 -0.38681285859516101 0 0.047186717282832913 -0.37662312524636737 0 0.042412566557940623 -0.38164697916413298 0 0.047186717282832913 -0.37662312524636737 0 0.042412566557940623 -0.38164697916413298 0 0.040098662588239943 -0.37621675524664389 0 0.042412566557940623 -0.38164697916413298 0 0.040098662588239943 -0.37621675524664389 0 0.036880580762965402 -0.38105390952134832 0 0.040098662588239943 -0.37621675524664389 0 0.036880580762965402 -0.38105390952134832 0 0.033582080159700947 -0.3765821587689413 0 0.036880580762965402 -0.38105390952134832 0 0.033582080159700947 -0.3765821587689413 0 0.031218786033736859 -0.38541390567459599 0 0.022088273051513261 -0.3805762650231761 0 0.0079972801057326959 -0.39384444582011952 0 0.026656569215906759 -0.39447222059470088 0 0.033582080159700947 -0.3765821587689413 0 0.031218786033736859 -0.38541390567459599 0 0.022088273051513261 -0.3805762650231761 0 0.031218786033736859 -0.38541390567459599 0 0.022088273051513261 -0.3805762650231761 0 0.026656569215906759 -0.39447222059470088 0 -0.00090162243785839714 -0.37373143921095381 0 0.0079972801057326959 -0.39384444582011952 0 0.01190287893495917 -0.3700774718648242 0 0.022088273051513261 -0.3805762650231761 0 0.0079972801057326959 -0.39384444582011952 0 0.01190287893495917 -0.3700774718648242 0 0.0079972801057326959 -0.39384444582011952 0 0.01190287893495917 -0.3700774718648242 0 -0.00090162243785839714 -0.37373143921095381 0 -0.0048278438730617636 -0.38549788728395212 0 0.0079972801057326959 -0.39384444582011952 0 0.0079972801057326959 -0.39384444582011952 0 0.019403067865148109 -0.40352929731614517 0 0.013802256263742169 -0.41085256291370198 0 0.0079972801057326959 -0.39384444582011952 0 0.026656569215906759 -0.39447222059470088 0 0.0079972801057326959 -0.39384444582011952 0 0.019403067865148109 -0.40352929731614517 0 0.026656569215906759 -0.39447222059470088 0 0.034844545661113391 -0.39249597526781632 0 0.031218786033736859 -0.38541390567459599 0 0.026656569215906759 -0.39447222059470088 0 0.019403067865148109 -0.40352929731614517 0 0.026656569215906759 -0.39447222059470088 0 0.034229012691840553 -0.40748713095407052 0 0.016611444700921189 -0.42181428491180623 0 0.021665169365941279 -0.4128545465333911 0 0.035443909830016891 -0.42283046840048388 0 0.019403067865148109 -0.40352929731614517 0 0.021665169365941279 -0.4128545465333911 0 0.034229012691840553 -0.40748713095407052 0 0.021665169365941279 -0.4128545465333911 0 0.035443909830016891 -0.42283046840048388 0 0.034229012691840553 -0.40748713095407052 0 0.016611444700921189 -0.42181428491180623 0 0.021665169365941279 -0.4128545465333911 0 0.013802256263742169 -0.41085256291370198 0 0.019403067865148109 -0.40352929731614517 0 0.021665169365941279 -0.4128545465333911 0 0.013802256263742169 -0.41085256291370198 0 0.0079972801057326959 -0.39384444582011952 0 0.0033343192809675952 -0.42222023998704789 0 0.0079972801057326959 -0.39384444582011952 0 0.013802256263742169 -0.41085256291370198 0 0.0033343192809675952 -0.42222023998704789 0 -0.0044778900550653984 -0.40582720601515382 0 0.0079972801057326959 -0.39384444582011952 0 0.0033343192809675952 -0.42222023998704789 0 0.016611444700921189 -0.42181428491180623 0 0.013802256263742169 -0.41085256291370198 0 0.0033343192809675952 -0.42222023998704789 0 0.016611444700921189 -0.42181428491180623 0 0.0063040851001286702 -0.42691949122697609 0 0.0033343192809675952 -0.42222023998704789 0 0.0063040851001286702 -0.42691949122697609 0 0.032822801751447951 -0.43986647222367892 0 0.016611444700921189 -0.42181428491180623 0 0.035443909830016891 -0.42283046840048388 0 0.032822801751447951 -0.43986647222367892 0 0.016611444700921189 -0.42181428491180623 0 0.0063040851001286702 -0.42691949122697609 0 0.032822801751447951 -0.43986647222367892 0 0.035443909830016891 -0.42283046840048388 0 0.050001554841923632 -0.41627754165653402 0 0.047912028790891438 -0.43261139391351228 0 0.035443909830016891 -0.42283046840048388 0 0.047912028790891438 -0.43261139391351228 0 0.032822801751447951 -0.43986647222367892 0 0.035443909830016891 -0.42283046840048388 0 0.034229012691840553 -0.40748713095407052 0 0.050001554841923632 -0.41627754165653402 0 0.051964286532535188 -0.40575247297842237 0 0.034229012691840553 -0.40748713095407052 0 0.050001554841923632 -0.41627754165653402 0 0.035443909830016891 -0.42283046840048388 0 0.050001554841923632 -0.41627754165653402 0 0.064559199853831004 -0.40972461491258538 0 0.050001554841923632 -0.41627754165653402 0 0.061950359128300922 -0.43126903406648343 0 0.064559199853831004 -0.40972461491258538 0 0.051964286532535188 -0.40575247297842237 0 0.050001554841923632 -0.41627754165653402 0 0.064559199853831004 -0.40972461491258538 0 0.050001554841923632 -0.41627754165653402 0 0.050001554841923632 -0.41627754165653402 0 0.047912028790891438 -0.43261139391351228 0 0.061950359128300922 -0.43126903406648343 0 0.061950359128300922 -0.43126903406648343 0 0.059341518402767593 -0.45281345322038102 0 0.047912028790891438 -0.43261139391351228 0 0.061950359128300922 -0.43126903406648343 0 0.059341518402767593 -0.45281345322038102 0 0.059341518402767593 -0.45281345322038102 0 0.048733638740774438 -0.45621450964666249 0 0.032822801751447951 -0.43986647222367892 0 0.048733638740774438 -0.45621450964666249 0 0.042382848548858827 -0.47810725482333061 0 0.057071240270829847 -0.47156194299658422 0 0.063326060864440425 -0.45475878851733958 0 0.059341518402767593 -0.45281345322038102 0 0.057071240270829847 -0.47156194299658422 0 0.063326060864440425 -0.45475878851733958 0 0.059341518402767593 -0.45281345322038102 0 0.059341518402767593 -0.45281345322038102 0 0.057071240270829847 -0.47156194299658422 0 0.059341518402767593 -0.45281345322038102 0 0.048733638740774438 -0.45621450964666249 0 0.057071240270829847 -0.47156194299658422 0 0.048733638740774438 -0.45621450964666249 0 0.042526286783756223 -0.45577209825368492 0 0.042382848548858827 -0.47810725482333061 0 0.042526286783756223 -0.45577209825368492 0 0.029404012799010022 -0.46347068956206627 0 0.033512842828553609 -0.47788604912684252 0 0.048733638740774438 -0.45621450964666249 0 0.042382848548858827 -0.47810725482333061 0 0.042526286783756223 -0.45577209825368492 0 0.033512842828553609 -0.47788604912684252 0 0.042526286783756223 -0.45577209825368492 0 0.02901477223308108 -0.45226460968446652 0 0.029404012799010022 -0.46347068956206627 0 0.042526286783756223 -0.45577209825368492 0 0.032822801751447951 -0.43986647222367892 0 0.02901477223308108 -0.45226460968446652 0 0.059341518402767593 -0.45281345322038102 0 0.032822801751447951 -0.43986647222367892 0 0.047912028790891438 -0.43261139391351228 0 0.059341518402767593 -0.45281345322038102 0 0.032822801751447951 -0.43986647222367892 0 0.048733638740774438 -0.45621450964666249 0 0.042526286783756223 -0.45577209825368492 0 0.032822801751447951 -0.43986647222367892 0 0.0063040851001286702 -0.42691949122697609 0 0.032822801751447951 -0.43986647222367892 0 0.018167314486642751 -0.44619138667702651 0 0.032822801751447951 -0.43986647222367892 0 0.02901477223308108 -0.45226460968446652 0 0.018167314486642751 -0.44619138667702651 0 0.02901477223308108 -0.45226460968446652 0 0.018167314486642751 -0.44619138667702651 0 0.01913277612607139 -0.45913099150503428 0 0.0063040851001286702 -0.42691949122697609 0 0.018167314486642751 -0.44619138667702651 0 0.0024974619360900729 -0.45589828086453621 0 0.018167314486642751 -0.44619138667702651 0 0.0024974619360900729 -0.45589828086453621 0 0.01913277612607139 -0.45913099150503428 0 0.0024974619360900729 -0.45589828086453621 0 0.01913277612607139 -0.45913099150503428 0 0.009853026158247763 -0.48113639848508782 0 0.02901477223308108 -0.45226460968446652 0 0.01913277612607139 -0.45913099150503428 0 0.029404012799010022 -0.46347068956206627 0 0.01913277612607139 -0.45913099150503428 0 0.029404012799010022 -0.46347068956206627 0 0.022904759348451851 -0.47359293860319718 0 0.01913277612607139 -0.45913099150503428 0 0.022904759348451851 -0.47359293860319718 0 0.009853026158247763 -0.48113639848508782 0 0.029404012799010022 -0.46347068956206627 0 0.022904759348451851 -0.47359293860319718 0 0.033512842828553609 -0.47788604912684252 0 0.022904759348451851 -0.47359293860319718 0 0.022621138830376471 -0.48634056433695461 0 0.033512842828553609 -0.47788604912684252 0 0.022904759348451851 -0.47359293860319718 0 0.009853026158247763 -0.48113639848508782 0 0.022621138830376471 -0.48634056433695461 0 -0.0097576717567305835 -0.47872887805149228 0 0.0024974619360900729 -0.45589828086453621 0 0.009853026158247763 -0.48113639848508782 0 -0.0051981344151861286 -0.5 0 0.009853026158247763 -0.48113639848508782 0 0.024499398873350949 -0.50000000000000022 0 0.024499398873350949 -0.50000000000000022 0 0.033512842828553609 -0.47788604912684252 0 0.009853026158247763 -0.48113639848508782 0 0.024499398873350949 -0.50000000000000022 0 0.022621138830376471 -0.48634056433695461 0 0.024499398873350949 -0.50000000000000022 0 0.022621138830376471 -0.48634056433695461 0 0.033512842828553609 -0.47788604912684252 0 0.024499398873350949 -0.50000000000000022 0 0.036032058356943591 -0.49999999999999872 0 0.033512842828553609 -0.47788604912684252 0 0.036032058356943591 -0.49999999999999872 0 0.042382848548858827 -0.47810725482333061 0 0.036032058356943591 -0.49999999999999872 0 0.033512842828553609 -0.47788604912684252 0 0.042382848548858827 -0.47810725482333061 0 0.036032058356943591 -0.49999999999999872 0 0.042382848548858827 -0.47810725482333061 0 0.054246642610215237 -0.48635682734508151 0 0.042526286783756223 -0.45577209825368492 0 0.033512842828553609 -0.47788604912684252 0 0.042382848548858827 -0.47810725482333061 0 0.074850442010051602 -0.48191039605642599 0 0.057071240270829847 -0.47156194299658422 0 0.054246642610215237 -0.48635682734508151 0 0.042382848548858827 -0.47810725482333061 0 0.057071240270829847 -0.47156194299658422 0 0.054246642610215237 -0.48635682734508151 0 0.06561546767445503 -0.5 0 0.036032058356943591 -0.49999999999999872 0 0.054246642610215237 -0.48635682734508151 0 0.075206137336992746 -0.28963508464626592 0 0.096655012735514328 -0.28027500214015633 0 0.089816569880664651 -0.2901607357320542 0 0.075206137336992746 -0.28963508464626592 0 0.096655012735514328 -0.28027500214015633 0 0.089816569880664651 -0.2901607357320542 0 0.087324864885313824 -0.29741670783668062 0 0.075206137336992746 -0.28963508464626592 0 0.089816569880664651 -0.2901607357320542 0 0.087324864885313824 -0.29741670783668062 0 0.1000802645648384 -0.29331614830511399 0 0.087324864885313824 -0.29741670783668062 0 0.088548338764058709 -0.30829396253197178 0 0.098634486205871549 -0.30375324104352192 0 0.087324864885313824 -0.29741670783668062 0 0.07466950903208032 -0.30826380877280679 0 0.075206137336992746 -0.28963508464626592 0 0.088548338764058709 -0.30829396253197178 0 0.07466950903208032 -0.30826380877280679 0 0.085742265672155538 -0.31901016912005908 0 0.087324864885313824 -0.29741670783668062 0 0.088548338764058709 -0.30829396253197178 0 0.07466950903208032 -0.30826380877280679 0 0.07466950903208032 -0.30826380877280679 0 0.075206137336992746 -0.28963508464626592 0 0.053757261938472488 -0.29899516715237839 0 0.07466950903208032 -0.30826380877280679 0 0.06105138906651391 -0.31818314135585812 0 0.053757261938472488 -0.29899516715237839 0 0.075206137336992746 -0.28963508464626592 0 0.065432044943075918 -0.2759321791535716 0 0.053757261938472488 -0.29899516715237839 0 0.075206137336992746 -0.28963508464626592 0 0.053757261938472488 -0.29899516715237839 0 0.075206137336992746 -0.28963508464626592 0 0.065432044943075918 -0.2759321791535716 0 0.081456497263107636 -0.27283175528428549 0 0.065432044943075918 -0.2759321791535716 0 0.077073208163389681 -0.25718797274676392 0 0.081456497263107636 -0.27283175528428549 0 0.065432044943075918 -0.2759321791535716 0 0.077073208163389681 -0.25718797274676392 0 0.060875015774252819 -0.25970482249120169 0 0.077073208163389681 -0.25718797274676392 0 0.060875015774252819 -0.25970482249120169 0 0.065842835319546822 -0.24282006028179329 0 0.077073208163389681 -0.25718797274676392 0 0.092294302607291656 -0.26367223510319321 0 0.081456497263107636 -0.27283175528428549 0 0.077073208163389681 -0.25718797274676392 0 0.092294302607291656 -0.26367223510319321 0 0.091141293577423968 -0.24935180022294071 0 0.075206137336992746 -0.28963508464626592 0 0.081456497263107636 -0.27283175528428549 0 0.096655012735514328 -0.28027500214015633 0 0.092294302607291656 -0.26367223510319321 0 0.081456497263107636 -0.27283175528428549 0 0.096655012735514328 -0.28027500214015633 0 0.092294302607291656 -0.26367223510319321 0 0.096655012735514328 -0.28027500214015633 0 0.102223372603251 -0.27784502356004598 0 0.092294302607291656 -0.26367223510319321 0 0.096655012735514328 -0.28027500214015633 0 0.096655012735514328 -0.28027500214015633 0 0.102223372603251 -0.27784502356004598 0 0.092294302607291656 -0.26367223510319321 0 0.102223372603251 -0.27784502356004598 0 0.1058608770246985 -0.25158583192978767 0 0.102223372603251 -0.27784502356004598 0 0.1058608770246985 -0.25158583192978767 0 0.092294302607291656 -0.26367223510319321 0 0.1058608770246985 -0.25158583192978767 0 0.091141293577423968 -0.24935180022294071 0 0.1058608770246985 -0.25158583192978767 0 0.1236972891491481 -0.26847401333855919 0 0.12455685345978509 -0.24750814310934299 0 0.102223372603251 -0.27784502356004598 0 0.1236972891491481 -0.26847401333855919 0 0.102223372603251 -0.27784502356004598 0 0.1236972891491481 -0.26847401333855919 0 0.1146757924727759 -0.28759521687494571 0 0.13248422089980291 -0.2822520824342355 0 0.1236972891491481 -0.26847401333855919 0 0.1146757924727759 -0.28759521687494571 0 0.102223372603251 -0.27784502356004598 0 0.1058608770246985 -0.25158583192978767 0 0.1236972891491481 -0.26847401333855919 0 0.13248422089980291 -0.2822520824342355 0 0.1146757924727759 -0.28759521687494571 0 0.12215005184672061 -0.30010490744920582 0 0.1146757924727759 -0.28759521687494571 0 0.1117751923681342 -0.30146295280826563 0 0.12215005184672061 -0.30010490744920582 0 0.102223372603251 -0.27784502356004598 0 0.1146757924727759 -0.28759521687494571 0 0.1000802645648384 -0.29331614830511399 0 0.1146757924727759 -0.28759521687494571 0 0.1000802645648384 -0.29331614830511399 0 0.1117751923681342 -0.30146295280826563 0 0.102223372603251 -0.27784502356004598 0 0.1000802645648384 -0.29331614830511399 0 0.096655012735514328 -0.28027500214015633 0 0.102223372603251 -0.27784502356004598 0 0.1000802645648384 -0.29331614830511399 0 0.089816569880664651 -0.2901607357320542 0 0.096655012735514328 -0.28027500214015633 0 0.1000802645648384 -0.29331614830511399 0 0.096655012735514328 -0.28027500214015633 0 0.1000802645648384 -0.29331614830511399 0 0.1000802645648384 -0.29331614830511399 0 0.1057381517236328 -0.31485772746464979 0 0.1000802645648384 -0.29331614830511399 0 0.098634486205871549 -0.30375324104352192 0 0.1057381517236328 -0.31485772746464979 0 0.1000802645648384 -0.29331614830511399 0 0.1117751923681342 -0.30146295280826563 0 0.1057381517236328 -0.31485772746464979 0 0.088548338764058709 -0.30829396253197178 0 0.098634486205871549 -0.30375324104352192 0 0.094898655931096712 -0.31436701604631462 0 0.098634486205871549 -0.30375324104352192 0 0.094898655931096712 -0.31436701604631462 0 0.1057381517236328 -0.31485772746464979 0 0.1000802645648384 -0.29331614830511399 0 0.098634486205871549 -0.30375324104352192 0 0.087324864885313824 -0.29741670783668062 0 0.1000802645648384 -0.29331614830511399 0 0.098634486205871549 -0.30375324104352192 0 0.1161799735910907 -0.30944769337831152 0 0.1117751923681342 -0.30146295280826563 0 0.1057381517236328 -0.31485772746464979 0 0.1161799735910907 -0.30944769337831152 0 0.12215005184672061 -0.30010490744920582 0 0.1249737341992932 -0.31817627288056322 0 0.1161799735910907 -0.30944769337831152 0 0.1117751923681342 -0.30146295280826563 0 0.12215005184672061 -0.30010490744920582 0 0.1161799735910907 -0.30944769337831152 0 0.1249737341992932 -0.31817627288056322 0 0.1057381517236328 -0.31485772746464979 0 0.1249737341992932 -0.31817627288056322 0 0.1113960388824284 -0.33639930662418532 0 0.1057381517236328 -0.31485772746464979 0 0.1351642680725354 -0.33038254085462088 0 0.1249737341992932 -0.31817627288056322 0 0.1113960388824284 -0.33639930662418532 0 0.1351642680725354 -0.33038254085462088 0 0.12663316568410821 -0.3435348641441891 0 0.1113960388824284 -0.33639930662418532 0 0.1113960388824284 -0.33639930662418532 0 0.1025079363241623 -0.351759551486233 0 0.090149113682268897 -0.34190794179784328 0 0.1113960388824284 -0.33639930662418532 0 0.095830037289764983 -0.32591998007137069 0 0.090149113682268897 -0.34190794179784328 0 0.1113960388824284 -0.33639930662418532 0 0.095830037289764983 -0.32591998007137069 0 0.1057381517236328 -0.31485772746464979 0 0.1113960388824284 -0.33639930662418532 0 0.1057381517236328 -0.31485772746464979 0 0.095830037289764983 -0.32591998007137069 0 0.094898655931096712 -0.31436701604631462 0 0.1057381517236328 -0.31485772746464979 0 0.1222055686479433 -0.37755501273599912 0 0.1170539260412236 -0.35794088578372091 0 0.12667931359238849 -0.36263565442837042 0 0.1222055686479433 -0.37755501273599912 0 0.1170539260412236 -0.35794088578372091 0 0.1222055686479433 -0.37755501273599912 0 0.1099966078647026 -0.37149062842974462 0 0.1170539260412236 -0.35794088578372091 0 0.1113960388824284 -0.33639930662418532 0 0.1170539260412236 -0.35794088578372091 0 0.1025079363241623 -0.351759551486233 0 0.12663316568410821 -0.3435348641441891 0 0.1113960388824284 -0.33639930662418532 0 0.1170539260412236 -0.35794088578372091 0 0.1113960388824284 -0.33639930662418532 0 0.1170539260412236 -0.35794088578372091 0 0.1170539260412236 -0.35794088578372091 0 0.1025079363241623 -0.351759551486233 0 0.094487403294892081 -0.36537813292750482 0 0.1025079363241623 -0.351759551486233 0 0.094487403294892081 -0.36537813292750482 0 0.090149113682268897 -0.34190794179784328 0 0.1099966078647026 -0.37149062842974462 0 0.1170539260412236 -0.35794088578372091 0 0.094487403294892081 -0.36537813292750482 0 0.1170539260412236 -0.35794088578372091 0 0.094487403294892081 -0.36537813292750482 0 0.1018840437664358 -0.37927138377132719 0 0.1099966078647026 -0.37149062842974462 0 0.094487403294892081 -0.36537813292750482 0 0.094487403294892081 -0.36537813292750482 0 0.071920880548562244 -0.37281538007129361 0 0.081651000818641614 -0.38237918022641748 0 0.094487403294892081 -0.36537813292750482 0 0.071920880548562244 -0.37281538007129361 0 0.094487403294892081 -0.36537813292750482 0 0.080531568432628153 -0.3543474269112652 0 0.07643418176297323 -0.36445583872796827 0 0.094487403294892081 -0.36537813292750482 0 0.07643418176297323 -0.36445583872796827 0 0.071920880548562244 -0.37281538007129361 0 0.094487403294892081 -0.36537813292750482 0 0.080531568432628153 -0.3543474269112652 0 0.090149113682268897 -0.34190794179784328 0 0.080531568432628153 -0.3543474269112652 0 0.090149113682268897 -0.34190794179784328 0 0.075673813276423488 -0.34143605847864422 0 0.067499867834028754 -0.35511302838214759 0 0.075673813276423488 -0.34143605847864422 0 0.058318169309362157 -0.33755963436471398 0 0.080531568432628153 -0.3543474269112652 0 0.067499867834028754 -0.35511302838214759 0 0.075673813276423488 -0.34143605847864422 0 0.080531568432628153 -0.3543474269112652 0 0.067499867834028754 -0.35511302838214759 0 0.07643418176297323 -0.36445583872796827 0 0.067499867834028754 -0.35511302838214759 0 0.069353412227401476 -0.37013288365891411 0 0.052216876449884722 -0.35717037533358881 0 0.069353412227401476 -0.37013288365891411 0 0.069165358721963249 -0.37168587365362471 0 0.052216876449884722 -0.35717037533358881 0 0.067499867834028754 -0.35511302838214759 0 0.07643418176297323 -0.36445583872796827 0 0.069353412227401476 -0.37013288365891411 0 0.069353412227401476 -0.37013288365891411 0 0.069165358721963249 -0.37168587365362471 0 0.069353412227401476 -0.37013288365891411 0 0.069165358721963249 -0.37168587365362471 0 0.071920880548562244 -0.37281538007129361 0 0.07643418176297323 -0.36445583872796827 0 0.069353412227401476 -0.37013288365891411 0 0.071920880548562244 -0.37281538007129361 0 0.085742265672155538 -0.31901016912005908 0 0.084094116487147541 -0.33098752618002658 0 0.073075352515124786 -0.32666348143221602 0 0.095830037289764983 -0.32591998007137069 0 0.094898655931096712 -0.31436701604631462 0 0.085742265672155538 -0.31901016912005908 0 0.088548338764058709 -0.30829396253197178 0 0.094898655931096712 -0.31436701604631462 0 0.085742265672155538 -0.31901016912005908 0 0.095830037289764983 -0.32591998007137069 0 0.085742265672155538 -0.31901016912005908 0 0.084094116487147541 -0.33098752618002658 0 0.095830037289764983 -0.32591998007137069 0 0.090149113682268897 -0.34190794179784328 0 0.084094116487147541 -0.33098752618002658 0 0.090149113682268897 -0.34190794179784328 0 0.084094116487147541 -0.33098752618002658 0 0.075673813276423488 -0.34143605847864422 0 0.084094116487147541 -0.33098752618002658 0 0.075673813276423488 -0.34143605847864422 0 0.073075352515124786 -0.32666348143221602 0 0.075673813276423488 -0.34143605847864422 0 0.073075352515124786 -0.32666348143221602 0 0.058318169309362157 -0.33755963436471398 0 0.07466950903208032 -0.30826380877280679 0 0.073075352515124786 -0.32666348143221602 0 0.06105138906651391 -0.31818314135585812 0 0.073075352515124786 -0.32666348143221602 0 0.06105138906651391 -0.31818314135585812 0 0.058318169309362157 -0.33755963436471398 0 0.07466950903208032 -0.30826380877280679 0 0.085742265672155538 -0.31901016912005908 0 0.073075352515124786 -0.32666348143221602 0 0.06105138906651391 -0.31818314135585812 0 0.058318169309362157 -0.33755963436471398 0 0.045436652537529737 -0.31943361505717532 0 0.058318169309362157 -0.33755963436471398 0 0.035268394177805709 -0.34265487701355329 0 0.045436652537529737 -0.31943361505717532 0 0.035268394177805709 -0.34265487701355329 0 0.045436652537529737 -0.31943361505717532 0 0.031410834291101752 -0.31882614569749779 0 0.069165358721963249 -0.37168587365362471 0 0.055183116743079061 -0.36985280813032101 0 0.052216876449884722 -0.35717037533358881 0 0.069165358721963249 -0.37168587365362471 0 0.052216876449884722 -0.35717037533358881 0 0.047186717282832913 -0.37662312524636737 0 0.055183116743079061 -0.36985280813032101 0 0.048909592181752719 -0.36673745028370069 0 0.055621013511824739 -0.37877478858943531 0 0.069165358721963249 -0.37168587365362471 0 0.055183116743079061 -0.36985280813032101 0 0.048909592181752719 -0.36673745028370069 0 0.048201602432146072 -0.35937719967294179 0 0.052216876449884722 -0.35717037533358881 0 0.055183116743079061 -0.36985280813032101 0 0.048909592181752719 -0.36673745028370069 0 0.052216876449884722 -0.35717037533358881 0 0.067499867834028754 -0.35511302838214759 0 0.058318169309362157 -0.33755963436471398 0 0.052216876449884722 -0.35717037533358881 0 0.058318169309362157 -0.33755963436471398 0 0.035268394177805709 -0.34265487701355329 0 0.052216876449884722 -0.35717037533358881 0 0.035268394177805709 -0.34265487701355329 0 0.048201602432146072 -0.35937719967294179 0 0.036822159804582262 -0.35746879336296272 0 0.035268394177805709 -0.34265487701355329 0 0.048201602432146072 -0.35937719967294179 0 0.052216876449884722 -0.35717037533358881 0 0.035268394177805709 -0.34265487701355329 0 0.052216876449884722 -0.35717037533358881 0 0.035268394177805709 -0.34265487701355329 0 0.048201602432146072 -0.35937719967294179 0 0.035268394177805709 -0.34265487701355329 0 0.036822159804582262 -0.35746879336296272 0 0.0259087317703347 -0.35449394385608102 0 0.048201602432146072 -0.35937719967294179 0 0.036822159804582262 -0.35746879336296272 0 0.041649145463708973 -0.36236158456612871 0 0.048909592181752719 -0.36673745028370069 0 0.041649145463708973 -0.36236158456612871 0 0.040887060028884682 -0.36916046466284191 0 0.048909592181752719 -0.36673745028370069 0 0.048201602432146072 -0.35937719967294179 0 0.041649145463708973 -0.36236158456612871 0 0.041649145463708973 -0.36236158456612871 0 0.040887060028884682 -0.36916046466284191 0 0.030319118492865602 -0.3670716524850417 0 0.036822159804582262 -0.35746879336296272 0 0.041649145463708973 -0.36236158456612871 0 0.030319118492865602 -0.3670716524850417 0 0.033582080159700947 -0.3765821587689413 0 0.040887060028884682 -0.36916046466284191 0 0.030319118492865602 -0.3670716524850417 0 0.040098662588239943 -0.37621675524664389 0 0.033582080159700947 -0.3765821587689413 0 0.040887060028884682 -0.36916046466284191 0 0.047186717282832913 -0.37662312524636737 0 0.048909592181752719 -0.36673745028370069 0 0.040887060028884682 -0.36916046466284191 0 0.047186717282832913 -0.37662312524636737 0 0.040098662588239943 -0.37621675524664389 0 0.040887060028884682 -0.36916046466284191 0 0.022088273051513261 -0.3805762650231761 0 0.030319118492865602 -0.3670716524850417 0 0.01190287893495917 -0.3700774718648242 0 0.030319118492865602 -0.3670716524850417 0 0.0259087317703347 -0.35449394385608102 0 0.01190287893495917 -0.3700774718648242 0 0.033582080159700947 -0.3765821587689413 0 0.022088273051513261 -0.3805762650231761 0 0.030319118492865602 -0.3670716524850417 0 0.036822159804582262 -0.35746879336296272 0 0.030319118492865602 -0.3670716524850417 0 0.0259087317703347 -0.35449394385608102 0 0.0259087317703347 -0.35449394385608102 0 0.015808477764186171 -0.34631049790952878 0 0.01190287893495917 -0.3700774718648242 0 0.035268394177805709 -0.34265487701355329 0 0.0259087317703347 -0.35449394385608102 0 0.025331361447609248 -0.34338037050057529 0 0.0259087317703347 -0.35449394385608102 0 0.015808477764186171 -0.34631049790952878 0 0.025331361447609248 -0.34338037050057529 0 0.015808477764186171 -0.34631049790952878 0 0.01190287893495917 -0.3700774718648242 0 -0.00033193637978440549 -0.35550806257424278 0 0.015808477764186171 -0.34631049790952878 0 0.01190287893495917 -0.3700774718648242 0 -0.0050679514727439978 -0.33279937335753129 0 -0.00033193637978440549 -0.35550806257424278 0 0.015808477764186171 -0.34631049790952878 0 -0.00033193637978440549 -0.35550806257424278 0 -0.00090162243785839714 -0.37373143921095381 0 0.01190287893495917 -0.3700774718648242 0 0.035268394177805709 -0.34265487701355329 0 0.031410834291101752 -0.31882614569749779 0 0.019714076593415411 -0.32254352395423402 0 0.019714076593415411 -0.32254352395423402 0 0.021657644924517178 -0.31071621144071859 0 0.031410834291101752 -0.31882614569749779 0 0.019714076593415411 -0.32254352395423402 0 0.021657644924517178 -0.31071621144071859 0 0.015808477764186171 -0.34631049790952878 0 0.019714076593415411 -0.32254352395423402 0 0.02452058277625856 -0.33344993253305383 0 0.035268394177805709 -0.34265487701355329 0 0.019714076593415411 -0.32254352395423402 0 0.015808477764186171 -0.34631049790952878 0 0.019714076593415411 -0.32254352395423402 0 0.035268394177805709 -0.34265487701355329 0 0.019714076593415411 -0.32254352395423402 0 0.02452058277625856 -0.33344993253305383 0 0.035268394177805709 -0.34265487701355329 0 0.02452058277625856 -0.33344993253305383 0 0.025331361447609248 -0.34338037050057529 0 0.035268394177805709 -0.34265487701355329 0 0.02452058277625856 -0.33344993253305383 0 0.015808477764186171 -0.34631049790952878 0 0.02452058277625856 -0.33344993253305383 0 0.025331361447609248 -0.34338037050057529 0 -0.0050679514727439978 -0.33279937335753129 0 0.015808477764186171 -0.34631049790952878 0 0.019714076593415411 -0.32254352395423402 0 -0.0086654064182359533 -0.31520438646457583 0 -0.0050679514727439978 -0.33279937335753129 0 0.019714076593415411 -0.32254352395423402 0 0.019714076593415411 -0.32254352395423402 0 0.0055000267736837923 -0.30416510440760391 0 -0.0086654064182359533 -0.31520438646457583 0 0.019714076593415411 -0.32254352395423402 0 0.0055000267736837923 -0.30416510440760391 0 0.019714076593415411 -0.32254352395423402 0 0.0055000267736837923 -0.30416510440760391 0 0.021657644924517178 -0.31071621144071859 0 0.0055000267736837923 -0.30416510440760391 0 0.021657644924517178 -0.31071621144071859 0 0.017849556430793018 -0.29776566115552228 0 -0.0087140230460490305 -0.28578668486097458 0 0.0055000267736837923 -0.30416510440760391 0 0.0094597798947050598 -0.28384100493433162 0 0.0055000267736837923 -0.30416510440760391 0 0.0094597798947050598 -0.28384100493433162 0 0.017849556430793018 -0.29776566115552228 0 0.022711832798593189 -0.28633049108590669 0 0.034977403222239467 -0.29878250102180859 0 0.034240979619954162 -0.2772798669228505 0 0.022711832798593189 -0.28633049108590669 0 0.017849556430793018 -0.29776566115552228 0 0.034977403222239467 -0.29878250102180859 0 0.0094597798947050598 -0.28384100493433162 0 0.022711832798593189 -0.28633049108590669 0 0.017849556430793018 -0.29776566115552228 0 0.031410834291101752 -0.31882614569749779 0 0.021657644924517178 -0.31071621144071859 0 0.034977403222239467 -0.29878250102180859 0 0.021657644924517178 -0.31071621144071859 0 0.017849556430793018 -0.29776566115552228 0 0.034977403222239467 -0.29878250102180859 0 0.045436652537529737 -0.31943361505717532 0 0.034977403222239467 -0.29878250102180859 0 0.053757261938472488 -0.29899516715237839 0 0.045436652537529737 -0.31943361505717532 0 0.031410834291101752 -0.31882614569749779 0 0.034977403222239467 -0.29878250102180859 0 0.034977403222239467 -0.29878250102180859 0 0.053757261938472488 -0.29899516715237839 0 0.04937102180381675 -0.27915359978631932 0 0.034977403222239467 -0.29878250102180859 0 0.04937102180381675 -0.27915359978631932 0 0.034240979619954162 -0.2772798669228505 0 0.065432044943075918 -0.2759321791535716 0 0.053757261938472488 -0.29899516715237839 0 0.04937102180381675 -0.27915359978631932 0 0.06105138906651391 -0.31818314135585812 0 0.045436652537529737 -0.31943361505717532 0 0.053757261938472488 -0.29899516715237839 0 0.060875015774252819 -0.25970482249120169 0 0.044185041832245212 -0.26238318947862721 0 0.046569026657934297 -0.2446866231517642 0 0.060875015774252819 -0.25970482249120169 0 0.04937102180381675 -0.27915359978631932 0 0.044185041832245212 -0.26238318947862721 0 0.065432044943075918 -0.2759321791535716 0 0.060875015774252819 -0.25970482249120169 0 0.04937102180381675 -0.27915359978631932 0 0.04937102180381675 -0.27915359978631932 0 0.034240979619954162 -0.2772798669228505 0 0.044185041832245212 -0.26238318947862721 0 0.034240979619954162 -0.2772798669228505 0 0.044185041832245212 -0.26238318947862721 0 0.03044165162111025 -0.26408495408013338 0 0.044185041832245212 -0.26238318947862721 0 0.03066144086615883 -0.24912661012377149 0 0.046569026657934297 -0.2446866231517642 0 0.044185041832245212 -0.26238318947862721 0 0.03044165162111025 -0.26408495408013338 0 0.03066144086615883 -0.24912661012377149 0 0.03044165162111025 -0.26408495408013338 0 0.018081258617526338 -0.25683924304724731 0 0.03066144086615883 -0.24912661012377149 0 0.03044165162111025 -0.26408495408013338 0 0.018081258617526338 -0.25683924304724731 0 0.02151046903716386 -0.2728988653350507 0 0.018081258617526338 -0.25683924304724731 0 0.02151046903716386 -0.2728988653350507 0 0.0095334712735431395 -0.26785167333012799 0 0.022711832798593189 -0.28633049108590669 0 0.034240979619954162 -0.2772798669228505 0 0.02151046903716386 -0.2728988653350507 0 0.034240979619954162 -0.2772798669228505 0 0.03044165162111025 -0.26408495408013338 0 0.02151046903716386 -0.2728988653350507 0 0.0094597798947050598 -0.28384100493433162 0 0.022711832798593189 -0.28633049108590669 0 0.02151046903716386 -0.2728988653350507 0 -0.0020017659465921839 -0.27159086301835061 0 0.0094597798947050598 -0.28384100493433162 0 0.0095334712735431395 -0.26785167333012799 0 0.0094597798947050598 -0.28384100493433162 0 0.02151046903716386 -0.2728988653350507 0 0.0095334712735431395 -0.26785167333012799 0 -0.0020017659465921839 -0.27159086301835061 0 0.0095334712735431395 -0.26785167333012799 0 0.00041543080589997669 -0.26043096263867072 0 0.018081258617526338 -0.25683924304724731 0 0.008512811179915751 -0.25879832032989641 0 0.006021084022693547 -0.25007140230353958 0 0.018081258617526338 -0.25683924304724731 0 0.0095334712735431395 -0.26785167333012799 0 0.008512811179915751 -0.25879832032989641 0 0.0095334712735431395 -0.26785167333012799 0 0.008512811179915751 -0.25879832032989641 0 0.00041543080589997669 -0.26043096263867072 0 -0.0047016210016195704 -0.25173395998470488 0 0.00041543080589997669 -0.26043096263867072 0 0.006021084022693547 -0.25007140230353958 0 0.008512811179915751 -0.25879832032989641 0 0.00041543080589997669 -0.26043096263867072 0 0.006021084022693547 -0.25007140230353958 0 0.018081258617526338 -0.25683924304724731 0 0.006021084022693547 -0.25007140230353958 0 0.013826136285223421 -0.2358623750560285 0 -0.0036306428017121571 -0.23473128915904459 0 0.006021084022693547 -0.25007140230353958 0 0.013826136285223421 -0.2358623750560285 0 -0.0036306428017121571 -0.23473128915904459 0 0.013826136285223421 -0.2358623750560285 0 0.0086956535371183613 -0.21385876415391669 0 -0.0036306428017121571 -0.23473128915904459 0 0.0086956535371183613 -0.21385876415391669 0 0.013826136285223421 -0.2358623750560285 0 0.0086956535371183613 -0.21385876415391669 0 0.027220482656504081 -0.21628838956572 0 0.013826136285223421 -0.2358623750560285 0 0.029605592723351701 -0.23480889785565101 0 0.027220482656504081 -0.21628838956572 0 0.013826136285223421 -0.2358623750560285 0 0.029605592723351701 -0.23480889785565101 0 0.03066144086615883 -0.24912661012377149 0 0.018081258617526338 -0.25683924304724731 0 0.013826136285223421 -0.2358623750560285 0 0.03066144086615883 -0.24912661012377149 0 -0.0013498215272506791 -0.1942584164008001 0 0.0086956535371183613 -0.21385876415391669 0 0.021021949875948829 -0.19298623914878901 0 0.0086956535371183613 -0.21385876415391669 0 0.021021949875948829 -0.19298623914878901 0 0.027220482656504081 -0.21628838956572 0 0.021021949875948829 -0.19298623914878901 0 0.043478184528949922 -0.20513718559648861 0 0.0086956535371183613 -0.21385876415391669 0 0.027220482656504081 -0.21628838956572 0 0.021021949875948829 -0.19298623914878901 0 0.021021949875948829 -0.19298623914878901 0 0.043478184528949922 -0.20513718559648861 0 0.04440596196415518 -0.1849127521659143 0 0.027220482656504081 -0.21628838956572 0 0.043478184528949922 -0.20513718559648861 0 0.041986455159093272 -0.22485357127758071 0 0.043478184528949922 -0.20513718559648861 0 0.062148701673107078 -0.21521096159360709 0 0.041986455159093272 -0.22485357127758071 0 0.043478184528949922 -0.20513718559648861 0 0.062148701673107078 -0.21521096159360709 0 0.066741770721061786 -0.19824777947255109 0 0.043478184528949922 -0.20513718559648861 0 0.066741770721061786 -0.19824777947255109 0 0.04440596196415518 -0.1849127521659143 0 0.029605592723351701 -0.23480889785565101 0 0.03066144086615883 -0.24912661012377149 0 0.046569026657934297 -0.2446866231517642 0 0.029605592723351701 -0.23480889785565101 0 0.046569026657934297 -0.2446866231517642 0 0.041986455159093272 -0.22485357127758071 0 0.029605592723351701 -0.23480889785565101 0 0.027220482656504081 -0.21628838956572 0 0.041986455159093272 -0.22485357127758071 0 0.046569026657934297 -0.2446866231517642 0 0.041986455159093272 -0.22485357127758071 0 0.056855461963460752 -0.23091327258075209 0 0.062148701673107078 -0.21521096159360709 0 0.041986455159093272 -0.22485357127758071 0 0.056855461963460752 -0.23091327258075209 0 0.046569026657934297 -0.2446866231517642 0 0.056855461963460752 -0.23091327258075209 0 0.065842835319546822 -0.24282006028179329 0 0.060875015774252819 -0.25970482249120169 0 0.046569026657934297 -0.2446866231517642 0 0.065842835319546822 -0.24282006028179329 0 0.065842835319546822 -0.24282006028179329 0 0.082780526189716694 -0.23561536761565169 0 0.069597984020485323 -0.22805851653353371 0 0.077073208163389681 -0.25718797274676392 0 0.065842835319546822 -0.24282006028179329 0 0.082780526189716694 -0.23561536761565169 0 0.077073208163389681 -0.25718797274676392 0 0.082780526189716694 -0.23561536761565169 0 0.091141293577423968 -0.24935180022294071 0 0.082780526189716694 -0.23561536761565169 0 0.091141293577423968 -0.24935180022294071 0 0.096852072651260307 -0.23653453621593171 0 0.082780526189716694 -0.23561536761565169 0 0.080362394956595223 -0.21573292059586441 0 0.093966549230296487 -0.22390564484844919 0 0.082780526189716694 -0.23561536761565169 0 0.096852072651260307 -0.23653453621593171 0 0.093966549230296487 -0.22390564484844919 0 0.082780526189716694 -0.23561536761565169 0 0.069597984020485323 -0.22805851653353371 0 0.080362394956595223 -0.21573292059586441 0 0.062148701673107078 -0.21521096159360709 0 0.056855461963460752 -0.23091327258075209 0 0.069597984020485323 -0.22805851653353371 0 0.062148701673107078 -0.21521096159360709 0 0.069597984020485323 -0.22805851653353371 0 0.080362394956595223 -0.21573292059586441 0 0.056855461963460752 -0.23091327258075209 0 0.065842835319546822 -0.24282006028179329 0 0.069597984020485323 -0.22805851653353371 0 0.066741770721061786 -0.19824777947255109 0 0.08446322279316483 -0.19633683640011351 0 0.080362394956595223 -0.21573292059586441 0 0.062148701673107078 -0.21521096159360709 0 0.066741770721061786 -0.19824777947255109 0 0.080362394956595223 -0.21573292059586441 0 0.066741770721061786 -0.19824777947255109 0 0.08446322279316483 -0.19633683640011351 0 0.070295890536253097 -0.1789710606831533 0 0.08446322279316483 -0.19633683640011351 0 0.10051797406909389 -0.18999833579565581 0 0.088039541729129742 -0.1795160150050793 0 0.08446322279316483 -0.19633683640011351 0 0.080362394956595223 -0.21573292059586441 0 0.1003393709077634 -0.2063187595152686 0 0.080362394956595223 -0.21573292059586441 0 0.1003393709077634 -0.2063187595152686 0 0.093966549230296487 -0.22390564484844919 0 0.1003393709077634 -0.2063187595152686 0 0.10949838144614681 -0.22532664029952951 0 0.093966549230296487 -0.22390564484844919 0 0.1003393709077634 -0.2063187595152686 0 0.11313588586759379 -0.19906744866927101 0 0.10949838144614681 -0.22532664029952951 0 0.1003393709077634 -0.2063187595152686 0 0.10051797406909389 -0.18999833579565581 0 0.11313588586759379 -0.19906744866927101 0 0.08446322279316483 -0.19633683640011351 0 0.1003393709077634 -0.2063187595152686 0 0.10051797406909389 -0.18999833579565581 0 0.1003393709077634 -0.2063187595152686 0 0.11313588586759379 -0.19906744866927101 0 0.10051797406909389 -0.18999833579565581 0 0.11313588586759379 -0.19906744866927101 0 0.115449329492848 -0.18236666911197191 0 0.11313588586759379 -0.19906744866927101 0 0.115449329492848 -0.18236666911197191 0 0.11313588586759379 -0.19906744866927101 0 0.115449329492848 -0.18236666911197191 0 0.1309199740522923 -0.1889898648939399 0 0.11313588586759379 -0.19906744866927101 0 0.1309199740522923 -0.1889898648939399 0 0.11313588586759379 -0.19906744866927101 0 0.10949838144614681 -0.22532664029952951 0 0.11313588586759379 -0.19906744866927101 0 0.10949838144614681 -0.22532664029952951 0 0.13250854125178879 -0.21132663779031841 0 0.10949838144614681 -0.22532664029952951 0 0.12455685345978509 -0.24750814310934299 0 0.13855651398388771 -0.2330512268617681 0 0.1058608770246985 -0.25158583192978767 0 0.10949838144614681 -0.22532664029952951 0 0.12455685345978509 -0.24750814310934299 0 0.1058608770246985 -0.25158583192978767 0 0.10949838144614681 -0.22532664029952951 0 0.096852072651260307 -0.23653453621593171 0 0.1058608770246985 -0.25158583192978767 0 0.10949838144614681 -0.22532664029952951 0 0.1058608770246985 -0.25158583192978767 0 0.091141293577423968 -0.24935180022294071 0 0.096852072651260307 -0.23653453621593171 0 0.10949838144614681 -0.22532664029952951 0 0.096852072651260307 -0.23653453621593171 0 0.093966549230296487 -0.22390564484844919 0 0.10946719647731309 -0.1450170018833668 0 0.1036741221831024 -0.15931108486439191 0 0.082460269109476292 -0.15563087102223269 0 0.10946719647731309 -0.1450170018833668 0 0.082460269109476292 -0.15563087102223269 0 0.10946719647731309 -0.1450170018833668 0 0.09426662443787466 -0.1242503911425191 0 0.11127359408670399 -0.1161061112651888 0 0.10946719647731309 -0.1450170018833668 0 0.086359886306590666 -0.13922002252660989 0 0.09426662443787466 -0.1242503911425191 0 0.10946719647731309 -0.1450170018833668 0 0.11127359408670399 -0.1161061112651888 0 0.1364741238451499 -0.1344031327445008 0 0.10946719647731309 -0.1450170018833668 0 0.1364741238451499 -0.1344031327445008 0 0.10946719647731309 -0.1450170018833668 0 0.1177627731181007 -0.1656658895546726 0 0.13246582341578569 -0.15323501609768361 0 0.10946719647731309 -0.1450170018833668 0 0.1177627731181007 -0.1656658895546726 0 0.1036741221831024 -0.15931108486439191 0 0.1177627731181007 -0.1656658895546726 0 0.115449329492848 -0.18236666911197191 0 0.13183928440332091 -0.17272618421006289 0 0.1177627731181007 -0.1656658895546726 0 0.115449329492848 -0.18236666911197191 0 0.1177627731181007 -0.1656658895546726 0 0.115449329492848 -0.18236666911197191 0 0.101666242127192 -0.17223393067560849 0 0.10051797406909389 -0.18999833579565581 0 0.101666242127192 -0.17223393067560849 0 0.088039541729129742 -0.1795160150050793 0 0.10051797406909389 -0.18999833579565581 0 0.115449329492848 -0.18236666911197191 0 0.101666242127192 -0.17223393067560849 0 0.1177627731181007 -0.1656658895546726 0 0.101666242127192 -0.17223393067560849 0 0.1036741221831024 -0.15931108486439191 0 0.101666242127192 -0.17223393067560849 0 0.1036741221831024 -0.15931108486439191 0 0.082460269109476292 -0.15563087102223269 0 0.088039541729129742 -0.1795160150050793 0 0.070295890536253097 -0.1789710606831533 0 0.082460269109476292 -0.15563087102223269 0 0.101666242127192 -0.17223393067560849 0 0.088039541729129742 -0.1795160150050793 0 0.082460269109476292 -0.15563087102223269 0 0.08446322279316483 -0.19633683640011351 0 0.088039541729129742 -0.1795160150050793 0 0.070295890536253097 -0.1789710606831533 0 0.070295890536253097 -0.1789710606831533 0 0.082460269109476292 -0.15563087102223269 0 0.055453341741639607 -0.16624474016109869 0 0.082460269109476292 -0.15563087102223269 0 0.055453341741639607 -0.16624474016109869 0 0.064532264935327502 -0.1449052840967969 0 0.082460269109476292 -0.15563087102223269 0 0.086359886306590666 -0.13922002252660989 0 0.064532264935327502 -0.1449052840967969 0 0.082460269109476292 -0.15563087102223269 0 0.055453341741639607 -0.16624474016109869 0 0.10946719647731309 -0.1450170018833668 0 0.082460269109476292 -0.15563087102223269 0 0.086359886306590666 -0.13922002252660989 0 0.086359886306590666 -0.13922002252660989 0 0.074535729772545439 -0.12720068520103031 0 0.09426662443787466 -0.1242503911425191 0 0.064532264935327502 -0.1449052840967969 0 0.086359886306590666 -0.13922002252660989 0 0.074535729772545439 -0.12720068520103031 0 0.064532264935327502 -0.1449052840967969 0 0.074535729772545439 -0.12720068520103031 0 0.054028643450023117 -0.12474407202355831 0 0.064532264935327502 -0.1449052840967969 0 0.04022796679031547 -0.14812168775101139 0 0.054028643450023117 -0.12474407202355831 0 0.064532264935327502 -0.1449052840967969 0 0.04022796679031547 -0.14812168775101139 0 0.055453341741639607 -0.16624474016109869 0 0.04022796679031547 -0.14812168775101139 0 0.024170201124318572 -0.1271232964902074 0 0.054028643450023117 -0.12474407202355831 0 0.070295890536253097 -0.1789710606831533 0 0.055453341741639607 -0.16624474016109869 0 0.04440596196415518 -0.1849127521659143 0 0.066741770721061786 -0.19824777947255109 0 0.070295890536253097 -0.1789710606831533 0 0.04440596196415518 -0.1849127521659143 0 0.04022796679031547 -0.14812168775101139 0 0.055453341741639607 -0.16624474016109869 0 0.027738586743627149 -0.17078329960268551 0 0.055453341741639607 -0.16624474016109869 0 0.04440596196415518 -0.1849127521659143 0 0.027738586743627149 -0.17078329960268551 0 0.021021949875948829 -0.19298623914878901 0 0.04440596196415518 -0.1849127521659143 0 0.027738586743627149 -0.17078329960268551 0 0.021021949875948829 -0.19298623914878901 0 0.027738586743627149 -0.17078329960268551 0 0.0037535769401090542 -0.170241407768391 0 0.027738586743627149 -0.17078329960268551 0 0.0037535769401090542 -0.170241407768391 0 0.019593562569643341 -0.151666164723229 0 0.04022796679031547 -0.14812168775101139 0 0.027738586743627149 -0.17078329960268551 0 0.019593562569643341 -0.151666164723229 0 -0.0013498215272506791 -0.1942584164008001 0 0.021021949875948829 -0.19298623914878901 0 0.0037535769401090542 -0.170241407768391 0 0.04022796679031547 -0.14812168775101139 0 0.024170201124318572 -0.1271232964902074 0 0.019593562569643341 -0.151666164723229 0 0.0037535769401090542 -0.170241407768391 0 0.019593562569643341 -0.151666164723229 0 0.001008430979222394 -0.13931442999454111 0 0.024170201124318572 -0.1271232964902074 0 0.019593562569643341 -0.151666164723229 0 0.001008430979222394 -0.13931442999454111 0 0.024170201124318572 -0.1271232964902074 0 0.001008430979222394 -0.13931442999454111 0 0.0026411872198271171 -0.11769170123595619 0 0.024170201124318572 -0.1271232964902074 0 0.0026411872198271171 -0.11769170123595619 0 0.01506329779553239 -0.1079632280198416 0 0.0026411872198271171 -0.11769170123595619 0 0.01506329779553239 -0.1079632280198416 0 0.0023685835584790599 -0.1031277151359595 0 0.024170201124318572 -0.1271232964902074 0 0.01506329779553239 -0.1079632280198416 0 0.034441616601328988 -0.1025659164967178 0 0.01506329779553239 -0.1079632280198416 0 0.0098982984276638208 -0.091747044874596576 0 0.034441616601328988 -0.1025659164967178 0 0.01506329779553239 -0.1079632280198416 0 0.0023685835584790599 -0.1031277151359595 0 0.0098982984276638208 -0.091747044874596576 0 -0.001607693879268633 -0.091655800713480368 0 0.0023685835584790599 -0.1031277151359595 0 0.0098982984276638208 -0.091747044874596576 0 -0.001607693879268633 -0.091655800713480368 0 0.014854589752635251 -0.080387760969876904 0 0.0098982984276638208 -0.091747044874596576 0 -0.0019974711665696979 -0.076260417561116817 0 -0.001607693879268633 -0.091655800713480368 0 0.014854589752635251 -0.080387760969876904 0 -0.001607693879268633 -0.091655800713480368 0 0.014854589752635251 -0.080387760969876904 0 -0.00238724845386864 -0.060865034408753231 0 0.014854589752635251 -0.080387760969876904 0 0.01969130168965887 -0.065651060539158437 0 -0.00238724845386864 -0.060865034408753231 0 0.014854589752635251 -0.080387760969876904 0 -0.00238724845386864 -0.060865034408753231 0 -0.0019974711665696979 -0.076260417561116817 0 0.014854589752635251 -0.080387760969876904 0 0.014854589752635251 -0.080387760969876904 0 0.03517948541329418 -0.066475855598189346 0 0.014854589752635251 -0.080387760969876904 0 0.01969130168965887 -0.065651060539158437 0 0.03517948541329418 -0.066475855598189346 0 0.014854589752635251 -0.080387760969876904 0 0.033028452552580502 -0.084386760166692762 0 0.03517948541329418 -0.066475855598189346 0 0.014854589752635251 -0.080387760969876904 0 0.034441616601328988 -0.1025659164967178 0 0.014854589752635251 -0.080387760969876904 0 0.0098982984276638208 -0.091747044874596576 0 0.034441616601328988 -0.1025659164967178 0 0.014854589752635251 -0.080387760969876904 0 0.033028452552580502 -0.084386760166692762 0 0.034441616601328988 -0.1025659164967178 0 0.033028452552580502 -0.084386760166692762 0 0.03517948541329418 -0.066475855598189346 0 0.047638118443063607 -0.088117507601987069 0 0.033028452552580502 -0.084386760166692762 0 0.047638118443063607 -0.088117507601987069 0 0.034441616601328988 -0.1025659164967178 0 0.03517948541329418 -0.066475855598189346 0 0.055348697913356212 -0.071916995353721203 0 0.047638118443063607 -0.088117507601987069 0 0.03517948541329418 -0.066475855598189346 0 0.055348697913356212 -0.071916995353721203 0 0.05550438107395312 -0.052563950226501857 0 0.055348697913356212 -0.071916995353721203 0 0.047638118443063607 -0.088117507601987069 0 0.065309341514273617 -0.089815853019103609 0 0.047638118443063607 -0.088117507601987069 0 0.054761575873337742 -0.10263456072590189 0 0.065309341514273617 -0.089815853019103609 0 0.054761575873337742 -0.10263456072590189 0 0.054028643450023117 -0.12474407202355831 0 0.072390159357999348 -0.1079294544881427 0 0.054761575873337742 -0.10263456072590189 0 0.054028643450023117 -0.12474407202355831 0 0.034441616601328988 -0.1025659164967178 0 0.054028643450023117 -0.12474407202355831 0 0.034441616601328988 -0.1025659164967178 0 0.024170201124318572 -0.1271232964902074 0 0.054028643450023117 -0.12474407202355831 0 0.034441616601328988 -0.1025659164967178 0 0.047638118443063607 -0.088117507601987069 0 0.054761575873337742 -0.10263456072590189 0 0.034441616601328988 -0.1025659164967178 0 0.02417883926754617 -0.01206416801953681 0 0.00127666635847664 -0.0116397779358997 0 0.021945041092590888 -0.020804930954206852 0 0.02417883926754617 -0.01206416801953681 0 0.021945041092590888 -0.020804930954206852 0 0.047081012176615693 -0.01248855810317444 0 0.023088914508530369 -0.001997061503871328 0 0.03454245869924806 -0.0016119273116462691 0 0.03222280616298507 -0.0070404287345572124 0 0.02417883926754617 -0.01206416801953681 0 0.023088914508530369 -0.001997061503871328 0 0.03222280616298507 -0.0070404287345572124 0 0.02417883926754617 -0.01206416801953681 0 0.01749551775476222 -0.0056530413507388756 0 0.011334173116100649 -0.0069267763445707703 0 0.01749551775476222 -0.0056530413507388756 0 0.023088914508530369 -0.001997061503871328 0 0.01293397543574059 -0.00072318758521063074 0 0.02417883926754617 -0.01206416801953681 0 0.01749551775476222 -0.0056530413507388756 0 0.023088914508530369 -0.001997061503871328 0 0.02417883926754617 -0.01206416801953681 0 0.00127666635847664 -0.0116397779358997 0 0.02417883926754617 -0.01206416801953681 0 0.011334173116100649 -0.0069267763445707703 0 0.00127666635847664 -0.0116397779358997 0 0.01293397543574059 -0.00072318758521063074 0 0.011334173116100649 -0.0069267763445707703 0 0.0038935293817154572 -0.002751762931935907 0 0.01749551775476222 -0.0056530413507388756 0 0.01293397543574059 -0.00072318758521063074 0 0.011334173116100649 -0.0069267763445707703 0 0.011334173116100649 -0.0069267763445707703 0 0.0038935293817154572 -0.002751762931935907 0 0.00127666635847664 -0.0116397779358997 0 -0.0037250542218582199 -0.0080245199591880492 0 0.0038935293817154572 -0.002751762931935907 0 0.00127666635847664 -0.0116397779358997 0 -0.0031909299914345979 -0.02912130380523718 0 0.01544751258402109 -0.03089655197103874 0 0.021945041092590888 -0.020804930954206852 0 -0.0031909299914345979 -0.02912130380523718 0 0.021945041092590888 -0.020804930954206852 0 -0.0031909299914345979 -0.02912130380523718 0 0.00127666635847664 -0.0116397779358997 0 0.021945041092590888 -0.020804930954206852 0 0.01544751258402109 -0.03089655197103874 0 0.021945041092590888 -0.020804930954206852 0 0.027173746854054871 -0.028237651139860761 0 0.021945041092590888 -0.020804930954206852 0 0.027173746854054871 -0.028237651139860761 0 0.036892760050977649 -0.02383941270424602 0 0.027173746854054871 -0.028237651139860761 0 0.02369330395020653 -0.034846884282608639 0 0.034674304926561449 -0.036353326268088217 0 0.02369330395020653 -0.034846884282608639 0 0.02166503840648263 -0.04630522170006774 0 0.034674304926561449 -0.036353326268088217 0 0.02166503840648263 -0.04630522170006774 0 0.035957908834372623 -0.051262175012729269 0 0.034674304926561449 -0.036353326268088217 0 0.02369330395020653 -0.034846884282608639 0 0.02166503840648263 -0.04630522170006774 0 0.01494826360722021 -0.037940268259290408 0 0.01544751258402109 -0.03089655197103874 0 0.02369330395020653 -0.034846884282608639 0 0.01494826360722021 -0.037940268259290408 0 0.01544751258402109 -0.03089655197103874 0 0.027173746854054871 -0.028237651139860761 0 0.02369330395020653 -0.034846884282608639 0 0.01544751258402109 -0.03089655197103874 0 0.01494826360722021 -0.037940268259290408 0 0.0065077441585358583 -0.037204698625470788 0 -0.0031909299914345979 -0.02912130380523718 0 -0.002789089222654491 -0.04499316910699528 0 0.0065077441585358583 -0.037204698625470788 0 -0.0031909299914345979 -0.02912130380523718 0 0.01544751258402109 -0.03089655197103874 0 0.0065077441585358583 -0.037204698625470788 0 -0.002789089222654491 -0.04499316910699528 0 0.0065077441585358583 -0.037204698625470788 0 0.0069020907297079196 -0.04592155545501226 0 0.02166503840648263 -0.04630522170006774 0 0.01494826360722021 -0.037940268259290408 0 0.0069020907297079196 -0.04592155545501226 0 0.01494826360722021 -0.037940268259290408 0 0.0065077441585358583 -0.037204698625470788 0 0.0069020907297079196 -0.04592155545501226 0 -0.002789089222654491 -0.04499316910699528 0 -0.00238724845386864 -0.060865034408753231 0 0.0069020907297079196 -0.04592155545501226 0 0.02166503840648263 -0.04630522170006774 0 0.0069020907297079196 -0.04592155545501226 0 0.01151547488122898 -0.054421245339536232 0 -0.00238724845386864 -0.060865034408753231 0 0.01969130168965887 -0.065651060539158437 0 0.01151547488122898 -0.054421245339536232 0 -0.00238724845386864 -0.060865034408753231 0 0.0069020907297079196 -0.04592155545501226 0 0.01151547488122898 -0.054421245339536232 0 0.01969130168965887 -0.065651060539158437 0 0.02166503840648263 -0.04630522170006774 0 0.035957908834372623 -0.051262175012729269 0 0.01969130168965887 -0.065651060539158437 0 0.02166503840648263 -0.04630522170006774 0 0.01151547488122898 -0.054421245339536232 0 0.01969130168965887 -0.065651060539158437 0 0.03517948541329418 -0.066475855598189346 0 0.035957908834372623 -0.051262175012729269 0 0.035957908834372623 -0.051262175012729269 0 0.05550438107395312 -0.052563950226501857 0 0.049032941496285488 -0.040223635744370052 0 0.03517948541329418 -0.066475855598189346 0 0.035957908834372623 -0.051262175012729269 0 0.05550438107395312 -0.052563950226501857 0 0.03517948541329418 -0.066475855598189346 0 0.05550438107395312 -0.052563950226501857 0 0.055348697913356212 -0.071916995353721203 0 0.05550438107395312 -0.052563950226501857 0 0.073112163122196538 -0.062611810322824188 0 0.05550438107395312 -0.052563950226501857 0 0.049032941496285488 -0.040223635744370052 0 0.067241917020043424 -0.037623422604112937 0 0.049032941496285488 -0.040223635744370052 0 0.056724665622936217 -0.030929601423546931 0 0.067241917020043424 -0.037623422604112937 0 0.049032941496285488 -0.040223635744370052 0 0.045502600421934117 -0.03114958667821097 0 0.056724665622936217 -0.030929601423546931 0 0.049032941496285488 -0.040223635744370052 0 0.034674304926561449 -0.036353326268088217 0 0.045502600421934117 -0.03114958667821097 0 0.035957908834372623 -0.051262175012729269 0 0.049032941496285488 -0.040223635744370052 0 0.034674304926561449 -0.036353326268088217 0 0.021945041092590888 -0.020804930954206852 0 0.036892760050977649 -0.02383941270424602 0 0.047081012176615693 -0.01248855810317444 0 0.021945041092590888 -0.020804930954206852 0 0.047081012176615693 -0.01248855810317444 0 0.027173746854054871 -0.028237651139860761 0 0.034674304926561449 -0.036353326268088217 0 0.036892760050977649 -0.02383941270424602 0 0.034674304926561449 -0.036353326268088217 0 0.036892760050977649 -0.02383941270424602 0 0.045502600421934117 -0.03114958667821097 0 0.036892760050977649 -0.02383941270424602 0 0.051439785160386123 -0.02162358926797869 0 0.047081012176615693 -0.01248855810317444 0 0.036892760050977649 -0.02383941270424602 0 0.045502600421934117 -0.03114958667821097 0 0.051439785160386123 -0.02162358926797869 0 0.045502600421934117 -0.03114958667821097 0 0.056724665622936217 -0.030929601423546931 0 0.051439785160386123 -0.02162358926797869 0 0.056724665622936217 -0.030929601423546931 0 0.062345689886978577 -0.024141071622000659 0 0.051439785160386123 -0.02162358926797869 0 0.056724665622936217 -0.030929601423546931 0 0.062345689886978577 -0.024141071622000659 0 0.064232401941209258 -0.02962887981911827 0 0.062345689886978577 -0.024141071622000659 0 0.05824482289325264 -0.018143150220083362 0 0.051439785160386123 -0.02162358926797869 0 0.062345689886978577 -0.024141071622000659 0 0.05824482289325264 -0.018143150220083362 0 0.066695814287707253 -0.019666722484468359 0 0.05824482289325264 -0.018143150220083362 0 0.051439785160386123 -0.02162358926797869 0 0.047081012176615693 -0.01248855810317444 0 0.047081012176615693 -0.01248855810317444 0 0.063661812954575542 -0.012795809622794649 0 0.047081012176615693 -0.01248855810317444 0 0.061509570157298153 -0.0077147911590227242 0 0.063661812954575542 -0.012795809622794649 0 0.05824482289325264 -0.018143150220083362 0 0.047081012176615693 -0.01248855810317444 0 0.063661812954575542 -0.012795809622794649 0 0.047081012176615693 -0.01248855810317444 0 0.061509570157298153 -0.0077147911590227242 0 0.058640696810283922 -0.0015185839573016739 0 0.061509570157298153 -0.0077147911590227242 0 0.051670053607867403 -0.0021669780324737528 0 0.058640696810283922 -0.0015185839573016739 0 0.061509570157298153 -0.0077147911590227242 0 0.065091043390533121 -0.00099434779435014276 0 0.057033892967162117 0.0036722664596361252 0 0.058640696810283922 -0.0015185839573016739 0 0.051670053607867403 -0.0021669780324737528 0 0.047081012176615693 -0.01248855810317444 0 0.061509570157298153 -0.0077147911590227242 0 0.051670053607867403 -0.0021669780324737528 0 0.043717788004670848 0.00076588068218828918 0 0.047081012176615693 -0.01248855810317444 0 0.051670053607867403 -0.0021669780324737528 0 0.02417883926754617 -0.01206416801953681 0 0.047081012176615693 -0.01248855810317444 0 0.03222280616298507 -0.0070404287345572124 0 0.02417883926754617 -0.01206416801953681 0 0.047081012176615693 -0.01248855810317444 0 0.043717788004670848 0.00076588068218828918 0 0.047081012176615693 -0.01248855810317444 0 0.03454245869924806 -0.0016119273116462691 0 0.047081012176615693 -0.01248855810317444 0 0.03454245869924806 -0.0016119273116462691 0 0.03222280616298507 -0.0070404287345572124 0 0.089936763412407111 0.00080211610463787331 0 0.088717806338042382 -0.0082037249302653603 0 0.082095370149668723 -0.0045382669881775294 0 0.080242613732535412 -0.013103061142415389 0 0.082095370149668723 -0.0045382669881775294 0 0.076861280088857398 -0.0058043467969232298 0 0.088717806338042382 -0.0082037249302653603 0 0.080242613732535412 -0.013103061142415389 0 0.082095370149668723 -0.0045382669881775294 0 0.074722991134491018 0.001375933915502859 0 0.089936763412407111 0.00080211610463787331 0 0.082095370149668723 -0.0045382669881775294 0 0.074722991134491018 0.001375933915502859 0 0.076861280088857398 -0.0058043467969232298 0 0.070384145338734466 -0.0069519929726028608 0 0.080242613732535412 -0.013103061142415389 0 0.063661812954575542 -0.012795809622794649 0 0.080242613732535412 -0.013103061142415389 0 0.070384145338734466 -0.0069519929726028608 0 0.063661812954575542 -0.012795809622794649 0 0.074722991134491018 0.001375933915502859 0 0.082095370149668723 -0.0045382669881775294 0 0.076861280088857398 -0.0058043467969232298 0 0.080242613732535412 -0.013103061142415389 0 0.063661812954575542 -0.012795809622794649 0 0.073486339418543836 -0.019601034164091851 0 0.074722991134491018 0.001375933915502859 0 0.070384145338734466 -0.0069519929726028608 0 0.065091043390533121 -0.00099434779435014276 0 0.070384145338734466 -0.0069519929726028608 0 0.065421489677396902 -0.0075898627607991192 0 0.065091043390533121 -0.00099434779435014276 0 0.061509570157298153 -0.0077147911590227242 0 0.065421489677396902 -0.0075898627607991192 0 0.065091043390533121 -0.00099434779435014276 0 0.061509570157298153 -0.0077147911590227242 0 0.065421489677396902 -0.0075898627607991192 0 0.063661812954575542 -0.012795809622794649 0 0.070384145338734466 -0.0069519929726028608 0 0.065421489677396902 -0.0075898627607991192 0 0.063661812954575542 -0.012795809622794649 0 0.080242613732535412 -0.013103061142415389 0 0.076861280088857398 -0.0058043467969232298 0 0.070384145338734466 -0.0069519929726028608 0 0.073486339418543836 -0.019601034164091851 0 0.0706173352348788 -0.025821423626812549 0 0.08091498473011946 -0.035407767626544788 0 0.062345689886978577 -0.024141071622000659 0 0.066695814287707253 -0.019666722484468359 0 0.0706173352348788 -0.025821423626812549 0 0.063661812954575542 -0.012795809622794649 0 0.073486339418543836 -0.019601034164091851 0 0.066695814287707253 -0.019666722484468359 0 0.05824482289325264 -0.018143150220083362 0 0.063661812954575542 -0.012795809622794649 0 0.066695814287707253 -0.019666722484468359 0 0.073486339418543836 -0.019601034164091851 0 0.066695814287707253 -0.019666722484468359 0 0.0706173352348788 -0.025821423626812549 0 0.062345689886978577 -0.024141071622000659 0 0.064232401941209258 -0.02962887981911827 0 0.0706173352348788 -0.025821423626812549 0 0.064232401941209258 -0.02962887981911827 0 0.0706173352348788 -0.025821423626812549 0 0.067241917020043424 -0.037623422604112937 0 0.088717806338042382 -0.0082037249302653603 0 0.08091498473011946 -0.035407767626544788 0 0.088717806338042382 -0.0082037249302653603 0 0.091347541859955889 -0.026575434672045029 0 0.095471650833905894 -0.019225815067283211 0 0.088717806338042382 -0.0082037249302653603 0 0.091347541859955889 -0.026575434672045029 0 0.08091498473011946 -0.035407767626544788 0 0.080242613732535412 -0.013103061142415389 0 0.073486339418543836 -0.019601034164091851 0 0.08091498473011946 -0.035407767626544788 0 0.088717806338042382 -0.0082037249302653603 0 0.080242613732535412 -0.013103061142415389 0 0.08091498473011946 -0.035407767626544788 0 0.091347541859955889 -0.026575434672045029 0 0.08091498473011946 -0.035407767626544788 0 0.095017091051416827 -0.037872680362642297 0 0.08091498473011946 -0.035407767626544788 0 0.0842379464776353 -0.047334798818706711 0 0.095017091051416827 -0.037872680362642297 0 0.0706173352348788 -0.025821423626812549 0 0.08091498473011946 -0.035407767626544788 0 0.067241917020043424 -0.037623422604112937 0 0.056724665622936217 -0.030929601423546931 0 0.064232401941209258 -0.02962887981911827 0 0.067241917020043424 -0.037623422604112937 0 0.05550438107395312 -0.052563950226501857 0 0.067241917020043424 -0.037623422604112937 0 0.069193361486578134 -0.047051737694995953 0 0.08091498473011946 -0.035407767626544788 0 0.067241917020043424 -0.037623422604112937 0 0.069193361486578134 -0.047051737694995953 0 0.08091498473011946 -0.035407767626544788 0 0.069193361486578134 -0.047051737694995953 0 0.073112163122196538 -0.062611810322824188 0 0.08091498473011946 -0.035407767626544788 0 0.073112163122196538 -0.062611810322824188 0 0.05550438107395312 -0.052563950226501857 0 0.069193361486578134 -0.047051737694995953 0 0.073112163122196538 -0.062611810322824188 0 0.092736675826186027 -0.06052388779603006 0 0.0842379464776353 -0.047334798818706711 0 0.073112163122196538 -0.062611810322824188 0 0.08091498473011946 -0.035407767626544788 0 0.0842379464776353 -0.047334798818706711 0 0.073112163122196538 -0.062611810322824188 0 0.092736675826186027 -0.06052388779603006 0 0.0842379464776353 -0.047334798818706711 0 0.1054135212994531 -0.050447537852145022 0 0.0842379464776353 -0.047334798818706711 0 0.1054135212994531 -0.050447537852145022 0 0.092736675826186027 -0.06052388779603006 0 0.1054135212994531 -0.050447537852145022 0 0.10636780763860459 -0.073056224510438111 0 0.1054135212994531 -0.050447537852145022 0 0.1114953734206106 -0.037832072496491148 0 0.1265890961212707 -0.053560276885584381 0 0.1054135212994531 -0.050447537852145022 0 0.1265890961212707 -0.053560276885584381 0 0.1054135212994531 -0.050447537852145022 0 0.10636780763860459 -0.073056224510438111 0 0.1265890961212707 -0.053560276885584381 0 0.1114953734206106 -0.037832072496491148 0 0.1261562931440558 -0.03462621978405736 0 0.1265890961212707 -0.053560276885584381 0 0.1114953734206106 -0.037832072496491148 0 0.1147831505953506 -0.023648251376802661 0 0.1261562931440558 -0.03462621978405736 0 0.1054135212994531 -0.050447537852145022 0 0.1114953734206106 -0.037832072496491148 0 0.095017091051416827 -0.037872680362642297 0 0.0842379464776353 -0.047334798818706711 0 0.1054135212994531 -0.050447537852145022 0 0.095017091051416827 -0.037872680362642297 0 0.1114953734206106 -0.037832072496491148 0 0.095017091051416827 -0.037872680362642297 0 0.1010130883121166 -0.02683746871771521 0 0.091347541859955889 -0.026575434672045029 0 0.095017091051416827 -0.037872680362642297 0 0.1010130883121166 -0.02683746871771521 0 0.091347541859955889 -0.026575434672045029 0 0.1010130883121166 -0.02683746871771521 0 0.095471650833905894 -0.019225815067283211 0 0.1010130883121166 -0.02683746871771521 0 0.095471650833905894 -0.019225815067283211 0 0.1030066228084196 -0.01262177362122008 0 0.1010130883121166 -0.02683746871771521 0 0.1147831505953506 -0.023648251376802661 0 0.1030066228084196 -0.01262177362122008 0 0.1114953734206106 -0.037832072496491148 0 0.1010130883121166 -0.02683746871771521 0 0.1147831505953506 -0.023648251376802661 0 0.1147831505953506 -0.023648251376802661 0 0.1205174524808556 -0.0095369210326655615 0 0.13232835497383169 -0.020324312106252251 0 0.1147831505953506 -0.023648251376802661 0 0.13232835497383169 -0.020324312106252251 0 0.1261562931440558 -0.03462621978405736 0 0.1092389874442887 0.0016429025726647081 0 0.1205174524808556 -0.0095369210326655615 0 0.1030066228084196 -0.01262177362122008 0 0.1147831505953506 -0.023648251376802661 0 0.1205174524808556 -0.0095369210326655615 0 0.1030066228084196 -0.01262177362122008 0 0.12388624545308891 0.0047964019648707914 0 0.1092389874442887 0.0016429025726647081 0 0.1205174524808556 -0.0095369210326655615 0 0.1092389874442887 0.0016429025726647081 0 0.1030066228084196 -0.01262177362122008 0 0.099371011134178996 -4.5569553201685927e-05 0 0.088717806338042382 -0.0082037249302653603 0 0.095471650833905894 -0.019225815067283211 0 0.1030066228084196 -0.01262177362122008 0 0.088717806338042382 -0.0082037249302653603 0 0.1030066228084196 -0.01262177362122008 0 0.099371011134178996 -4.5569553201685927e-05 0 0.072390159357999348 -0.1079294544881427 0 0.096260562424678009 -0.091438549674109998 0 0.072390159357999348 -0.1079294544881427 0 0.080868169955723185 -0.087841832284209553 0 0.096260562424678009 -0.091438549674109998 0 0.08874365863796739 -0.1082691907371182 0 0.072390159357999348 -0.1079294544881427 0 0.096260562424678009 -0.091438549674109998 0 0.074535729772545439 -0.12720068520103031 0 0.08874365863796739 -0.1082691907371182 0 0.09426662443787466 -0.1242503911425191 0 0.074535729772545439 -0.12720068520103031 0 0.08874365863796739 -0.1082691907371182 0 0.072390159357999348 -0.1079294544881427 0 0.074535729772545439 -0.12720068520103031 0 0.054028643450023117 -0.12474407202355831 0 0.072390159357999348 -0.1079294544881427 0 0.054761575873337742 -0.10263456072590189 0 0.072390159357999348 -0.1079294544881427 0 0.065309341514273617 -0.089815853019103609 0 0.072390159357999348 -0.1079294544881427 0 0.065309341514273617 -0.089815853019103609 0 0.080868169955723185 -0.087841832284209553 0 0.065309341514273617 -0.089815853019103609 0 0.073112163122196538 -0.062611810322824188 0 0.080868169955723185 -0.087841832284209553 0 0.065309341514273617 -0.089815853019103609 0 0.073112163122196538 -0.062611810322824188 0 0.055348697913356212 -0.071916995353721203 0 0.065309341514273617 -0.089815853019103609 0 0.073112163122196538 -0.062611810322824188 0 0.092736675826186027 -0.06052388779603006 0 0.073112163122196538 -0.062611810322824188 0 0.088339698608965844 -0.074789424122507872 0 0.073112163122196538 -0.062611810322824188 0 0.088339698608965844 -0.074789424122507872 0 0.080868169955723185 -0.087841832284209553 0 0.088339698608965844 -0.074789424122507872 0 0.090028723892707274 -0.084177795792679616 0 0.1002255516112625 -0.079681927791962551 0 0.088339698608965844 -0.074789424122507872 0 0.080868169955723185 -0.087841832284209553 0 0.090028723892707274 -0.084177795792679616 0 0.080868169955723185 -0.087841832284209553 0 0.090028723892707274 -0.084177795792679616 0 0.096260562424678009 -0.091438549674109998 0 0.096260562424678009 -0.091438549674109998 0 0.1002255516112625 -0.079681927791962551 0 0.12013096549135679 -0.074947644860077212 0 0.096260562424678009 -0.091438549674109998 0 0.12013096549135679 -0.074947644860077212 0 0.090028723892707274 -0.084177795792679616 0 0.096260562424678009 -0.091438549674109998 0 0.1002255516112625 -0.079681927791962551 0 0.1002255516112625 -0.079681927791962551 0 0.10636780763860459 -0.073056224510438111 0 0.12013096549135679 -0.074947644860077212 0 0.092736675826186027 -0.06052388779603006 0 0.088339698608965844 -0.074789424122507872 0 0.10636780763860459 -0.073056224510438111 0 0.088339698608965844 -0.074789424122507872 0 0.1002255516112625 -0.079681927791962551 0 0.10636780763860459 -0.073056224510438111 0 0.10636780763860459 -0.073056224510438111 0 0.12013096549135679 -0.074947644860077212 0 0.1265890961212707 -0.053560276885584381 0 0.10636780763860459 -0.073056224510438111 0 0.1265890961212707 -0.053560276885584381 0 0.096260562424678009 -0.091438549674109998 0 0.12013096549135679 -0.074947644860077212 0 0.1189690770939848 -0.091833793526641477 0 0.12013096549135679 -0.074947644860077212 0 0.1189690770939848 -0.091833793526641477 0 0.12876334754295141 -0.084811461082284767 0 0.1021714017902232 -0.098928523027803791 0 0.11127359408670399 -0.1161061112651888 0 0.12982348018450529 -0.1102905143040971 0 0.1189690770939848 -0.091833793526641477 0 0.1021714017902232 -0.098928523027803791 0 0.12982348018450529 -0.1102905143040971 0 0.1021714017902232 -0.098928523027803791 0 0.12982348018450529 -0.1102905143040971 0 0.08874365863796739 -0.1082691907371182 0 0.096260562424678009 -0.091438549674109998 0 0.1021714017902232 -0.098928523027803791 0 0.096260562424678009 -0.091438549674109998 0 0.1189690770939848 -0.091833793526641477 0 0.1021714017902232 -0.098928523027803791 0 0.1021714017902232 -0.098928523027803791 0 0.099113819738192319 -0.11188855404315751 0 0.11127359408670399 -0.1161061112651888 0 0.08874365863796739 -0.1082691907371182 0 0.1021714017902232 -0.098928523027803791 0 0.099113819738192319 -0.11188855404315751 0 0.08874365863796739 -0.1082691907371182 0 0.09426662443787466 -0.1242503911425191 0 0.099113819738192319 -0.11188855404315751 0 0.09426662443787466 -0.1242503911425191 0 0.099113819738192319 -0.11188855404315751 0 0.11127359408670399 -0.1161061112651888 0 0.11127359408670399 -0.1161061112651888 0 0.12982348018450529 -0.1102905143040971 0 0.1364741238451499 -0.1344031327445008 0 0.12982348018450529 -0.1102905143040971 0 0.1574755585787877 -0.12165250558039049 0 0.1364741238451499 -0.1344031327445008 0 0.12982348018450529 -0.1102905143040971 0 0.1574755585787877 -0.12165250558039049 0 0.12982348018450529 -0.1102905143040971 0 0.1496895298112205 -0.1037559406134699 0 0.1574755585787877 -0.12165250558039049 0 0.1496895298112205 -0.1037559406134699 0 0.13660011664900079 -0.093045274276011114 0 0.15446031348313369 -0.087433739349379994 0 0.12982348018450529 -0.1102905143040971 0 0.1496895298112205 -0.1037559406134699 0 0.13660011664900079 -0.093045274276011114 0 0.1189690770939848 -0.091833793526641477 0 0.12982348018450529 -0.1102905143040971 0 0.13660011664900079 -0.093045274276011114 0 0.1189690770939848 -0.091833793526641477 0 0.12876334754295141 -0.084811461082284767 0 0.13660011664900079 -0.093045274276011114 0 0.12013096549135679 -0.074947644860077212 0 0.12876334754295141 -0.084811461082284767 0 0.13935323093746299 -0.079419131666409293 0 0.12876334754295141 -0.084811461082284767 0 0.13935323093746299 -0.079419131666409293 0 0.13660011664900079 -0.093045274276011114 0 0.12013096549135679 -0.074947644860077212 0 0.14142378472278791 -0.069758315254964329 0 0.1440013685580355 -0.058456740046044411 0 0.12013096549135679 -0.074947644860077212 0 0.1440013685580355 -0.058456740046044411 0 0.12013096549135679 -0.074947644860077212 0 0.13935323093746299 -0.079419131666409293 0 0.14142378472278791 -0.069758315254964329 0 0.14142378472278791 -0.069758315254964329 0 0.1489764045485138 -0.063093656029735753 0 0.1440013685580355 -0.058456740046044411 0 0.14142378472278791 -0.069758315254964329 0 0.15381494978742191 -0.072420677726111909 0 0.1489764045485138 -0.063093656029735753 0 0.13935323093746299 -0.079419131666409293 0 0.14142378472278791 -0.069758315254964329 0 0.15381494978742191 -0.072420677726111909 0 0.15381494978742191 -0.072420677726111909 0 0.1489764045485138 -0.063093656029735753 0 0.16156491440912529 -0.058701605785844282 0 0.13935323093746299 -0.079419131666409293 0 0.13660011664900079 -0.093045274276011114 0 0.15446031348313369 -0.087433739349379994 0 0.13935323093746299 -0.079419131666409293 0 0.15381494978742191 -0.072420677726111909 0 0.15446031348313369 -0.087433739349379994 0 0.15446031348313369 -0.087433739349379994 0 0.17179355976967339 -0.073820378489685715 0 0.1732155852435722 -0.101515621806577 0 0.15381494978742191 -0.072420677726111909 0 0.17179355976967339 -0.073820378489685715 0 0.16156491440912529 -0.058701605785844282 0 0.15381494978742191 -0.072420677726111909 0 0.15446031348313369 -0.087433739349379994 0 0.17179355976967339 -0.073820378489685715 0 0.17179355976967339 -0.073820378489685715 0 0.16156491440912529 -0.058701605785844282 0 0.1740011045069893 -0.058682148251160297 0 0.17179355976967339 -0.073820378489685715 0 0.1740011045069893 -0.058682148251160297 0 0.18831789187163159 -0.058358476750480878 0 0.17179355976967339 -0.073820378489685715 0 0.18831789187163159 -0.058358476750480878 0 0.19627268992870031 -0.082342125092084606 0 0.17179355976967339 -0.073820378489685715 0 0.1732155852435722 -0.101515621806577 0 0.19627268992870031 -0.082342125092084606 0 0.1732155852435722 -0.101515621806577 0 0.19684089484231759 -0.10254882373071859 0 0.18512763697307 -0.13301449685668379 0 0.1732155852435722 -0.101515621806577 0 0.1574755585787877 -0.12165250558039049 0 0.18512763697307 -0.13301449685668379 0 0.1496895298112205 -0.1037559406134699 0 0.1732155852435722 -0.101515621806577 0 0.1574755585787877 -0.12165250558039049 0 0.1496895298112205 -0.1037559406134699 0 0.15446031348313369 -0.087433739349379994 0 0.1732155852435722 -0.101515621806577 0 0.14740521285793709 -0.01587498367829393 0 0.16233683417075731 -0.019094815927591151 0 0.15816087145600649 -0.0013381695370729321 0 0.13973703854307529 -0.00229007441396494 0 0.14740521285793709 -0.01587498367829393 0 0.15816087145600649 -0.0013381695370729321 0 0.12388624545308891 0.0047964019648707914 0 0.1205174524808556 -0.0095369210326655615 0 0.13973703854307529 -0.00229007441396494 0 0.1205174524808556 -0.0095369210326655615 0 0.13973703854307529 -0.00229007441396494 0 0.13232835497383169 -0.020324312106252251 0 0.13973703854307529 -0.00229007441396494 0 0.13232835497383169 -0.020324312106252251 0 0.14740521285793709 -0.01587498367829393 0 0.13232835497383169 -0.020324312106252251 0 0.14446296514601459 -0.03632754640658839 0 0.1261562931440558 -0.03462621978405736 0 0.14446296514601459 -0.03632754640658839 0 0.16233683417075731 -0.019094815927591151 0 0.14740521285793709 -0.01587498367829393 0 0.14446296514601459 -0.03632754640658839 0 0.16233683417075731 -0.019094815927591151 0 0.13232835497383169 -0.020324312106252251 0 0.14740521285793709 -0.01587498367829393 0 0.14446296514601459 -0.03632754640658839 0 0.15475651165299389 -0.046230068196439468 0 0.14446296514601459 -0.03632754640658839 0 0.1668105333207148 -0.033613664678132822 0 0.15475651165299389 -0.046230068196439468 0 0.14446296514601459 -0.03632754640658839 0 0.14247139454636931 -0.048062208206081508 0 0.14446296514601459 -0.03632754640658839 0 0.1261562931440558 -0.03462621978405736 0 0.1265890961212707 -0.053560276885584381 0 0.14446296514601459 -0.03632754640658839 0 0.1265890961212707 -0.053560276885584381 0 0.14446296514601459 -0.03632754640658839 0 0.1265890961212707 -0.053560276885584381 0 0.14247139454636931 -0.048062208206081508 0 0.12013096549135679 -0.074947644860077212 0 0.1265890961212707 -0.053560276885584381 0 0.1440013685580355 -0.058456740046044411 0 0.1265890961212707 -0.053560276885584381 0 0.14407700526519809 -0.056130941335713801 0 0.14247139454636931 -0.048062208206081508 0 0.1265890961212707 -0.053560276885584381 0 0.14407700526519809 -0.056130941335713801 0 0.1440013685580355 -0.058456740046044411 0 0.1265890961212707 -0.053560276885584381 0 0.14407700526519809 -0.056130941335713801 0 0.1489764045485138 -0.063093656029735753 0 0.14407700526519809 -0.056130941335713801 0 0.16156491440912529 -0.058701605785844282 0 0.14407700526519809 -0.056130941335713801 0 0.16156491440912529 -0.058701605785844282 0 0.15475651165299389 -0.046230068196439468 0 0.14407700526519809 -0.056130941335713801 0 0.16156491440912529 -0.058701605785844282 0 0.1489764045485138 -0.063093656029735753 0 0.14407700526519809 -0.056130941335713801 0 0.1440013685580355 -0.058456740046044411 0 0.15475651165299389 -0.046230068196439468 0 0.14407700526519809 -0.056130941335713801 0 0.14247139454636931 -0.048062208206081508 0 0.15475651165299389 -0.046230068196439468 0 0.16156491440912529 -0.058701605785844282 0 0.17432805197752679 -0.043848131978630363 0 0.16156491440912529 -0.058701605785844282 0 0.1740011045069893 -0.058682148251160297 0 0.17432805197752679 -0.043848131978630363 0 0.1740011045069893 -0.058682148251160297 0 0.17432805197752679 -0.043848131978630363 0 0.18831789187163159 -0.058358476750480878 0 0.17432805197752679 -0.043848131978630363 0 0.1852470477791946 -0.034936729288675472 0 0.18831789187163159 -0.058358476750480878 0 0.17432805197752679 -0.043848131978630363 0 0.1852470477791946 -0.034936729288675472 0 0.1668105333207148 -0.033613664678132822 0 0.15475651165299389 -0.046230068196439468 0 0.17432805197752679 -0.043848131978630363 0 0.1668105333207148 -0.033613664678132822 0 0.14446296514601459 -0.03632754640658839 0 0.1668105333207148 -0.033613664678132822 0 0.16233683417075731 -0.019094815927591151 0 0.1668105333207148 -0.033613664678132822 0 0.16233683417075731 -0.019094815927591151 0 0.17973178919780169 -0.02124469627087211 0 0.1852470477791946 -0.034936729288675472 0 0.1668105333207148 -0.033613664678132822 0 0.17973178919780169 -0.02124469627087211 0 0.1852470477791946 -0.034936729288675472 0 0.17973178919780169 -0.02124469627087211 0 0.19411447222260531 -0.026619253123092469 0 0.16233683417075731 -0.019094815927591151 0 0.17973178919780169 -0.02124469627087211 0 0.1802107031955 -0.001862085448593918 0 0.17973178919780169 -0.02124469627087211 0 0.1802107031955 -0.001862085448593918 0 0.19225444003904521 -0.01324462452005656 0 0.16233683417075731 -0.019094815927591151 0 0.1802107031955 -0.001862085448593918 0 0.16233683417075731 -0.019094815927591151 0 0.1802107031955 -0.001862085448593918 0 0.15816087145600649 -0.0013381695370729321 0 0.20669275810896379 0.0060930123869249331 0 0.21600120397491199 -0.0088839866877242785 0 0.227739345953832 -0.014447879142613451 0 0.20669275810896379 0.0060930123869249331 0 0.21283908828782991 0.0034863817600573189 0 0.227739345953832 -0.014447879142613451 0 0.20669275810896379 0.0060930123869249331 0 0.227739345953832 -0.014447879142613451 0 0.21600120397491199 -0.0088839866877242785 0 0.20939875102842589 -0.01367157293701512 0 0.20776773787272981 -0.0053624198215724214 0 0.21600120397491199 -0.0088839866877242785 0 0.21615265671577191 -0.016579679546028681 0 0.22077758462814129 -0.014921733825109539 0 0.21600120397491199 -0.0088839866877242785 0 0.20939875102842589 -0.01367157293701512 0 0.21615265671577191 -0.016579679546028681 0 0.20939875102842589 -0.01367157293701512 0 0.20209620897233829 -0.0092848825845377216 0 0.20274839392607119 -0.01890165666374273 0 0.20939875102842589 -0.01367157293701512 0 0.20776773787272981 -0.0053624198215724214 0 0.20209620897233829 -0.0092848825845377216 0 0.20669275810896379 0.0060930123869249331 0 0.20776773787272981 -0.0053624198215724214 0 0.20183979466908811 -0.00081419802967632252 0 0.20776773787272981 -0.0053624198215724214 0 0.20183979466908811 -0.00081419802967632252 0 0.20209620897233829 -0.0092848825845377216 0 0.20669275810896379 0.0060930123869249331 0 0.21600120397491199 -0.0088839866877242785 0 0.20776773787272981 -0.0053624198215724214 0 0.20183979466908811 -0.00081419802967632252 0 0.19462507271995511 -0.001555173029500406 0 0.20209620897233829 -0.0092848825845377216 0 0.1802107031955 -0.001862085448593918 0 0.19462507271995511 -0.001555173029500406 0 0.19225444003904521 -0.01324462452005656 0 0.19462507271995511 -0.001555173029500406 0 0.19225444003904521 -0.01324462452005656 0 0.20209620897233829 -0.0092848825845377216 0 0.19225444003904521 -0.01324462452005656 0 0.20209620897233829 -0.0092848825845377216 0 0.20274839392607119 -0.01890165666374273 0 0.19225444003904521 -0.01324462452005656 0 0.20274839392607119 -0.01890165666374273 0 0.19411447222260531 -0.026619253123092469 0 0.17973178919780169 -0.02124469627087211 0 0.19225444003904521 -0.01324462452005656 0 0.19411447222260531 -0.026619253123092469 0 0.20274839392607119 -0.01890165666374273 0 0.19411447222260531 -0.026619253123092469 0 0.20562787605577601 -0.02979818245624111 0 0.20274839392607119 -0.01890165666374273 0 0.20562787605577601 -0.02979818245624111 0 0.21060516041175539 -0.0222203580349455 0 0.20939875102842589 -0.01367157293701512 0 0.20274839392607119 -0.01890165666374273 0 0.21060516041175539 -0.0222203580349455 0 0.21060516041175539 -0.0222203580349455 0 0.21615265671577191 -0.016579679546028681 0 0.21691461642064361 -0.02750951696189766 0 0.20939875102842589 -0.01367157293701512 0 0.21060516041175539 -0.0222203580349455 0 0.21615265671577191 -0.016579679546028681 0 0.20562787605577601 -0.02979818245624111 0 0.21060516041175539 -0.0222203580349455 0 0.21691461642064361 -0.02750951696189766 0 0.21257930847370851 -0.040569786168631237 0 0.19888835992149531 -0.041488268810039107 0 0.208868303548678 -0.058084105652605189 0 0.21691461642064361 -0.02750951696189766 0 0.21257930847370851 -0.040569786168631237 0 0.22430305239334941 -0.034352688872287297 0 0.20562787605577601 -0.02979818245624111 0 0.21691461642064361 -0.02750951696189766 0 0.21257930847370851 -0.040569786168631237 0 0.20562787605577601 -0.02979818245624111 0 0.21257930847370851 -0.040569786168631237 0 0.19888835992149531 -0.041488268810039107 0 0.1852470477791946 -0.034936729288675472 0 0.19888835992149531 -0.041488268810039107 0 0.18831789187163159 -0.058358476750480878 0 0.19411447222260531 -0.026619253123092469 0 0.20562787605577601 -0.02979818245624111 0 0.19888835992149531 -0.041488268810039107 0 0.1852470477791946 -0.034936729288675472 0 0.19411447222260531 -0.026619253123092469 0 0.19888835992149531 -0.041488268810039107 0 0.19888835992149531 -0.041488268810039107 0 0.18831789187163159 -0.058358476750480878 0 0.208868303548678 -0.058084105652605189 0 0.21257930847370851 -0.040569786168631237 0 0.208868303548678 -0.058084105652605189 0 0.22530140380606331 -0.045906704899407638 0 0.208868303548678 -0.058084105652605189 0 0.2298233467623497 -0.05912218156069661 0 0.22530140380606331 -0.045906704899407638 0 0.2298233467623497 -0.05912218156069661 0 0.24089541762549591 -0.049572340482715027 0 0.22530140380606331 -0.045906704899407638 0 0.25836292394737542 -0.051733355798602942 0 0.24089541762549591 -0.049572340482715027 0 0.24710016916265751 -0.041626061942450707 0 0.2506101759114408 -0.067251129481808614 0 0.2298233467623497 -0.05912218156069661 0 0.24089541762549591 -0.049572340482715027 0 0.2506101759114408 -0.067251129481808614 0 0.25836292394737542 -0.051733355798602942 0 0.24089541762549591 -0.049572340482715027 0 0.24089541762549591 -0.049572340482715027 0 0.24710016916265751 -0.041626061942450707 0 0.23730680904396759 -0.034060931149289958 0 0.25466025382966551 -0.034786478912542051 0 0.23730680904396759 -0.034060931149289958 0 0.23678734515103159 -0.02607661747852217 0 0.24089541762549591 -0.049572340482715027 0 0.23730680904396759 -0.034060931149289958 0 0.22530140380606331 -0.045906704899407638 0 0.25466025382966551 -0.034786478912542051 0 0.24710016916265751 -0.041626061942450707 0 0.23730680904396759 -0.034060931149289958 0 0.23730680904396759 -0.034060931149289958 0 0.22530140380606331 -0.045906704899407638 0 0.22430305239334941 -0.034352688872287297 0 0.23730680904396759 -0.034060931149289958 0 0.22430305239334941 -0.034352688872287297 0 0.22845634583124591 -0.025932778278118528 0 0.21257930847370851 -0.040569786168631237 0 0.22530140380606331 -0.045906704899407638 0 0.22430305239334941 -0.034352688872287297 0 0.21691461642064361 -0.02750951696189766 0 0.2232171318680494 -0.01977538992407174 0 0.22845634583124591 -0.025932778278118528 0 0.21691461642064361 -0.02750951696189766 0 0.22430305239334941 -0.034352688872287297 0 0.22845634583124591 -0.025932778278118528 0 0.21615265671577191 -0.016579679546028681 0 0.21691461642064361 -0.02750951696189766 0 0.2232171318680494 -0.01977538992407174 0 0.21615265671577191 -0.016579679546028681 0 0.2232171318680494 -0.01977538992407174 0 0.22077758462814129 -0.014921733825109539 0 0.2232171318680494 -0.01977538992407174 0 0.227739345953832 -0.014447879142613451 0 0.22077758462814129 -0.014921733825109539 0 0.22998996797258131 -0.020376542679913651 0 0.23374967105874769 -0.015650048576242338 0 0.23678734515103159 -0.02607661747852217 0 0.2232171318680494 -0.01977538992407174 0 0.22998996797258131 -0.020376542679913651 0 0.22845634583124591 -0.025932778278118528 0 0.2232171318680494 -0.01977538992407174 0 0.22998996797258131 -0.020376542679913651 0 0.227739345953832 -0.014447879142613451 0 0.22998996797258131 -0.020376542679913651 0 0.23374967105874769 -0.015650048576242338 0 0.227739345953832 -0.014447879142613451 0 0.23730680904396759 -0.034060931149289958 0 0.22845634583124591 -0.025932778278118528 0 0.23678734515103159 -0.02607661747852217 0 0.22998996797258131 -0.020376542679913651 0 0.22845634583124591 -0.025932778278118528 0 0.23678734515103159 -0.02607661747852217 0 0.25466025382966551 -0.034786478912542051 0 0.23374967105874769 -0.015650048576242338 0 0.248593371939453 -0.020530026291062028 0 0.25466025382966551 -0.034786478912542051 0 0.23374967105874769 -0.015650048576242338 0 0.25466025382966551 -0.034786478912542051 0 0.23374967105874769 -0.015650048576242338 0 0.23678734515103159 -0.02607661747852217 0 0.23374967105874769 -0.015650048576242338 0 0.248593371939453 -0.020530026291062028 0 0.24405475716901101 -0.01171507574018202 0 0.23374967105874769 -0.015650048576242338 0 0.24405475716901101 -0.01171507574018202 0 0.2379280779130678 -0.0050687464844128942 0 0.25269608468155402 -0.01205180352529236 0 0.248593371939453 -0.020530026291062028 0 0.24405475716901101 -0.01171507574018202 0 0.25269608468155402 -0.01205180352529236 0 0.24405475716901101 -0.01171507574018202 0 0.2473769106111714 -0.0063856007180439411 0 0.24405475716901101 -0.01171507574018202 0 0.2473769106111714 -0.0063856007180439411 0 0.2379280779130678 -0.0050687464844128942 0 0.24346617470820839 0.0065118492329050426 0 0.2473769106111714 -0.0063856007180439411 0 0.2379280779130678 -0.0050687464844128942 0 0.21283908828782991 0.0034863817600573189 0 0.23374967105874769 -0.015650048576242338 0 0.227739345953832 -0.014447879142613451 0 0.23476030887565161 0.0016356813836254311 0 0.2379280779130678 -0.0050687464844128942 0 0.2268180793024018 -0.002231449012490254 0 0.21283908828782991 0.0034863817600573189 0 0.23374967105874769 -0.015650048576242338 0 0.2268180793024018 -0.002231449012490254 0 0.23374967105874769 -0.015650048576242338 0 0.2379280779130678 -0.0050687464844128942 0 0.2268180793024018 -0.002231449012490254 0 0.21283908828782991 0.0034863817600573189 0 0.23374967105874769 -0.015650048576242338 0 0.21600120397491199 -0.0088839866877242785 0 0.227739345953832 -0.014447879142613451 0 0.22077758462814129 -0.014921733825109539 0 0.21721797673312071 -0.097910520531567416 0 0.2086000899157586 -0.11899129489296149 0 0.19684089484231759 -0.10254882373071859 0 0.21721797673312071 -0.097910520531567416 0 0.19684089484231759 -0.10254882373071859 0 0.19627268992870031 -0.082342125092084606 0 0.2086000899157586 -0.11899129489296149 0 0.19684089484231759 -0.10254882373071859 0 0.18512763697307 -0.13301449685668379 0 0.1732155852435722 -0.101515621806577 0 0.19684089484231759 -0.10254882373071859 0 0.19627268992870031 -0.082342125092084606 0 0.18831789187163159 -0.058358476750480878 0 0.208868303548678 -0.058084105652605189 0 0.19627268992870031 -0.082342125092084606 0 0.208868303548678 -0.058084105652605189 0 0.19627268992870031 -0.082342125092084606 0 0.2234414329200706 -0.074796627286946582 0 0.21721797673312071 -0.097910520531567416 0 0.19627268992870031 -0.082342125092084606 0 0.2234414329200706 -0.074796627286946582 0 0.19627268992870031 -0.082342125092084606 0 0.2234414329200706 -0.074796627286946582 0 0.21721797673312071 -0.097910520531567416 0 0.2234414329200706 -0.074796627286946582 0 0.24245197763722129 -0.093420504680645 0 0.208868303548678 -0.058084105652605189 0 0.2298233467623497 -0.05912218156069661 0 0.2234414329200706 -0.074796627286946582 0 0.2506101759114408 -0.067251129481808614 0 0.2234414329200706 -0.074796627286946582 0 0.2506101759114408 -0.067251129481808614 0 0.2298233467623497 -0.05912218156069661 0 0.2234414329200706 -0.074796627286946582 0 0.2506101759114408 -0.067251129481808614 0 0.2234414329200706 -0.074796627286946582 0 0.24245197763722129 -0.093420504680645 0 0.24245197763722129 -0.093420504680645 0 0.24864889483125269 -0.11136115844460839 0 0.23570077515465571 -0.11536374750604821 0 0.21721797673312071 -0.097910520531567416 0 0.24245197763722129 -0.093420504680645 0 0.23570077515465571 -0.11536374750604821 0 0.2086000899157586 -0.11899129489296149 0 0.23570077515465571 -0.11536374750604821 0 0.21875863260476769 -0.13238656725010889 0 0.21721797673312071 -0.097910520531567416 0 0.2086000899157586 -0.11899129489296149 0 0.23570077515465571 -0.11536374750604821 0 0.25227109337356712 -0.12586755018488999 0 0.23570077515465571 -0.11536374750604821 0 0.23728526374526779 -0.1301900706281332 0 0.25227109337356712 -0.12586755018488999 0 0.23570077515465571 -0.11536374750604821 0 0.25227109337356712 -0.12586755018488999 0 0.24864889483125269 -0.11136115844460839 0 0.23570077515465571 -0.11536374750604821 0 0.25227109337356712 -0.12586755018488999 0 0.24894816783196361 -0.13233896399647471 0 0.23728526374526779 -0.1301900706281332 0 0.25456149935772998 -0.1437041848715522 0 0.24894816783196361 -0.13233896399647471 0 0.23074764976138501 -0.1449935242031444 0 0.24894816783196361 -0.13233896399647471 0 0.23728526374526779 -0.1301900706281332 0 0.23074764976138501 -0.1449935242031444 0 0.25456149935772998 -0.1437041848715522 0 0.23074764976138501 -0.1449935242031444 0 0.25456149935772998 -0.1437041848715522 0 0.245688150904773 -0.15499013695222619 0 0.23074764976138501 -0.1449935242031444 0 0.245688150904773 -0.15499013695222619 0 0.23074764976138501 -0.1449935242031444 0 0.23636212720366051 -0.16221735743118049 0 0.23074764976138501 -0.1449935242031444 0 0.21875863260476769 -0.13238656725010889 0 0.20693380016504009 -0.1462828635347366 0 0.23074764976138501 -0.1449935242031444 0 0.21960262158219709 -0.1604295242548858 0 0.23636212720366051 -0.16221735743118049 0 0.23074764976138501 -0.1449935242031444 0 0.21428441571385909 -0.15244614749595189 0 0.21960262158219709 -0.1604295242548858 0 0.23074764976138501 -0.1449935242031444 0 0.20693380016504009 -0.1462828635347366 0 0.23728526374526779 -0.1301900706281332 0 0.23074764976138501 -0.1449935242031444 0 0.21875863260476769 -0.13238656725010889 0 0.23570077515465571 -0.11536374750604821 0 0.23728526374526779 -0.1301900706281332 0 0.21875863260476769 -0.13238656725010889 0 0.2086000899157586 -0.11899129489296149 0 0.21875863260476769 -0.13238656725010889 0 0.20324065340015759 -0.135529427755958 0 0.21875863260476769 -0.13238656725010889 0 0.20324065340015759 -0.135529427755958 0 0.20693380016504009 -0.1462828635347366 0 0.23074764976138501 -0.1449935242031444 0 0.21428441571385909 -0.15244614749595189 0 0.20693380016504009 -0.1462828635347366 0 0.21428441571385909 -0.15244614749595189 0 0.20483374845918551 -0.15409007771787631 0 0.21960262158219709 -0.1604295242548858 0 0.21428441571385909 -0.15244614749595189 0 0.20483374845918551 -0.15409007771787631 0 0.20693380016504009 -0.1462828635347366 0 0.20324065340015759 -0.135529427755958 0 0.20693380016504009 -0.1462828635347366 0 0.19678310734215179 -0.14697191624529879 0 0.19678310734215179 -0.14697191624529879 0 0.18512763697307 -0.13301449685668379 0 0.18674954174434669 -0.15436423274527211 0 0.20483374845918551 -0.15409007771787631 0 0.20693380016504009 -0.1462828635347366 0 0.19678310734215179 -0.14697191624529879 0 0.20483374845918551 -0.15409007771787631 0 0.19678310734215179 -0.14697191624529879 0 0.19714246059464741 -0.16080902233652131 0 0.19678310734215179 -0.14697191624529879 0 0.19714246059464741 -0.16080902233652131 0 0.18674954174434669 -0.15436423274527211 0 0.20324065340015759 -0.135529427755958 0 0.19678310734215179 -0.14697191624529879 0 0.18512763697307 -0.13301449685668379 0 0.2086000899157586 -0.11899129489296149 0 0.20324065340015759 -0.135529427755958 0 0.18512763697307 -0.13301449685668379 0 0.19232230111974941 -0.17272013683882589 0 0.20244201953138111 -0.1934075759538372 0 0.18442677425716669 -0.19314372307551869 0 0.19232230111974941 -0.17272013683882589 0 0.212186230374558 -0.17758919008604959 0 0.20244201953138111 -0.1934075759538372 0 0.19232230111974941 -0.17272013683882589 0 0.19714246059464741 -0.16080902233652131 0 0.212186230374558 -0.17758919008604959 0 0.19232230111974941 -0.17272013683882589 0 0.19714246059464741 -0.16080902233652131 0 0.18674954174434669 -0.15436423274527211 0 0.20483374845918551 -0.15409007771787631 0 0.212186230374558 -0.17758919008604959 0 0.20483374845918551 -0.15409007771787631 0 0.19714246059464741 -0.16080902233652131 0 0.212186230374558 -0.17758919008604959 0 0.20483374845918551 -0.15409007771787631 0 0.212186230374558 -0.17758919008604959 0 0.21960262158219709 -0.1604295242548858 0 0.212186230374558 -0.17758919008604959 0 0.21960262158219709 -0.1604295242548858 0 0.2371694927178879 -0.18418268895373011 0 0.21960262158219709 -0.1604295242548858 0 0.2371694927178879 -0.18418268895373011 0 0.21960262158219709 -0.1604295242548858 0 0.23636212720366051 -0.16221735743118049 0 0.2371694927178879 -0.18418268895373011 0 0.23636212720366051 -0.16221735743118049 0 0.24860272105205911 -0.16649091279191619 0 0.2371694927178879 -0.18418268895373011 0 0.245688150904773 -0.15499013695222619 0 0.23636212720366051 -0.16221735743118049 0 0.24860272105205911 -0.16649091279191619 0 0.25317721396154569 -0.18028292718302399 0 0.24860272105205911 -0.16649091279191619 0 0.2371694927178879 -0.18418268895373011 0 0.2547363638535789 -0.20793585365257461 0 0.2371694927178879 -0.18418268895373011 0 0.21953871228993049 -0.20108830245422279 0 0.2547363638535789 -0.20793585365257461 0 0.21953871228993049 -0.20108830245422279 0 0.22689119420530299 -0.22458741482239611 0 0.2547363638535789 -0.20793585365257461 0 0.25317721396154569 -0.18028292718302399 0 0.2371694927178879 -0.18418268895373011 0 0.2547363638535789 -0.20793585365257461 0 0.2371694927178879 -0.18418268895373011 0 0.21953871228993049 -0.20108830245422279 0 0.22689119420530299 -0.22458741482239611 0 0.21079357818005889 -0.223558655965437 0 0.21953871228993049 -0.20108830245422279 0 0.22689119420530299 -0.22458741482239611 0 0.212186230374558 -0.17758919008604959 0 0.2371694927178879 -0.18418268895373011 0 0.21953871228993049 -0.20108830245422279 0 0.24978513541844341 -0.23179118158198689 0 0.22689119420530299 -0.22458741482239611 0 0.23424367612067551 -0.24808652719056951 0 0.25873669704215813 -0.25345417408551763 0 0.24978513541844341 -0.23179118158198689 0 0.23424367612067551 -0.24808652719056951 0 0.2547363638535789 -0.20793585365257461 0 0.24978513541844341 -0.23179118158198689 0 0.22689119420530299 -0.22458741482239611 0 0.2126018709972653 -0.25188616733036989 0 0.23424367612067551 -0.24808652719056951 0 0.21697331457315219 -0.23678517131028709 0 0.22689119420530299 -0.22458741482239611 0 0.23424367612067551 -0.24808652719056951 0 0.21697331457315219 -0.23678517131028709 0 0.22689119420530299 -0.22458741482239611 0 0.23424367612067551 -0.24808652719056951 0 0.2126018709972653 -0.25188616733036989 0 0.19652592925423759 -0.2477969250345709 0 0.2126018709972653 -0.25188616733036989 0 0.19652592925423759 -0.2477969250345709 0 0.20141049294951111 -0.23456072017653551 0 0.2126018709972653 -0.25188616733036989 0 0.21697331457315219 -0.23678517131028709 0 0.20141049294951111 -0.23456072017653551 0 0.22689119420530299 -0.22458741482239611 0 0.21697331457315219 -0.23678517131028709 0 0.21079357818005889 -0.223558655965437 0 0.21697331457315219 -0.23678517131028709 0 0.21079357818005889 -0.223558655965437 0 0.20141049294951111 -0.23456072017653551 0 0.19599341963842959 -0.2218584993209286 0 0.18709990092983581 -0.23076136187710861 0 0.18262833742357559 -0.22011017268899161 0 0.19599341963842959 -0.2218584993209286 0 0.20141049294951111 -0.23456072017653551 0 0.18709990092983581 -0.23076136187710861 0 0.21079357818005889 -0.223558655965437 0 0.19599341963842959 -0.2218584993209286 0 0.20141049294951111 -0.23456072017653551 0 0.19652592925423759 -0.2477969250345709 0 0.18044998751121011 -0.2437076827387715 0 0.20141049294951111 -0.23456072017653551 0 0.18044998751121011 -0.2437076827387715 0 0.18709990092983581 -0.23076136187710861 0 0.19652592925423759 -0.2477969250345709 0 0.20141049294951111 -0.23456072017653551 0 0.18044998751121011 -0.2437076827387715 0 0.20141049294951111 -0.23456072017653551 0 0.18044998751121011 -0.2437076827387715 0 0.21953871228993049 -0.20108830245422279 0 0.20386632857751691 -0.21005891965359111 0 0.20244201953138111 -0.1934075759538372 0 0.212186230374558 -0.17758919008604959 0 0.21953871228993049 -0.20108830245422279 0 0.212186230374558 -0.17758919008604959 0 0.21953871228993049 -0.20108830245422279 0 0.20244201953138111 -0.1934075759538372 0 0.21953871228993049 -0.20108830245422279 0 0.21079357818005889 -0.223558655965437 0 0.20386632857751691 -0.21005891965359111 0 0.21079357818005889 -0.223558655965437 0 0.19599341963842959 -0.2218584993209286 0 0.20386632857751691 -0.21005891965359111 0 0.20386632857751691 -0.21005891965359111 0 0.1895967827803248 -0.2076035189579023 0 0.20244201953138111 -0.1934075759538372 0 0.19599341963842959 -0.2218584993209286 0 0.20386632857751691 -0.21005891965359111 0 0.1895967827803248 -0.2076035189579023 0 0.19599341963842959 -0.2218584993209286 0 0.1895967827803248 -0.2076035189579023 0 0.18262833742357559 -0.22011017268899161 0 0.1895967827803248 -0.2076035189579023 0 0.20244201953138111 -0.1934075759538372 0 0.18442677425716669 -0.19314372307551869 0 0.18442677425716669 -0.19314372307551869 0 0.17254778531094811 -0.20449577026328761 0 0.1658677885186334 -0.18766561458792391 0 0.1895967827803248 -0.2076035189579023 0 0.18442677425716669 -0.19314372307551869 0 0.17254778531094811 -0.20449577026328761 0 0.1895967827803248 -0.2076035189579023 0 0.17254778531094811 -0.20449577026328761 0 0.18262833742357559 -0.22011017268899161 0 0.15894333184499601 -0.21933030114005689 0 0.1538236970409925 -0.19912129112933219 0 0.17254778531094811 -0.20449577026328761 0 0.18262833742357559 -0.22011017268899161 0 0.15894333184499601 -0.21933030114005689 0 0.17254778531094811 -0.20449577026328761 0 0.15894333184499601 -0.21933030114005689 0 0.1538236970409925 -0.19912129112933219 0 0.17254778531094811 -0.20449577026328761 0 0.1658677885186334 -0.18766561458792391 0 0.1538236970409925 -0.19912129112933219 0 0.18044998751121011 -0.2437076827387715 0 0.17478181004738849 -0.23169571504114619 0 0.16406296664900091 -0.23953931115078109 0 0.18044998751121011 -0.2437076827387715 0 0.16406296664900091 -0.23953931115078109 0 0.18044998751121011 -0.2437076827387715 0 0.16664512224094219 -0.2497319928955857 0 0.18044998751121011 -0.2437076827387715 0 0.17478181004738849 -0.23169571504114619 0 0.18709990092983581 -0.23076136187710861 0 0.17478181004738849 -0.23169571504114619 0 0.18262833742357559 -0.22011017268899161 0 0.15894333184499601 -0.21933030114005689 0 0.17478181004738849 -0.23169571504114619 0 0.18709990092983581 -0.23076136187710861 0 0.18262833742357559 -0.22011017268899161 0 0.15894333184499601 -0.21933030114005689 0 0.16406296664900091 -0.23953931115078109 0 0.17478181004738849 -0.23169571504114619 0 0.15894333184499601 -0.21933030114005689 0 0.16406296664900091 -0.23953931115078109 0 0.18044998751121011 -0.2437076827387715 0 0.16406296664900091 -0.23953931115078109 0 0.16664512224094219 -0.2497319928955857 0 0.16406296664900091 -0.23953931115078109 0 0.16664512224094219 -0.2497319928955857 0 0.15300471189664341 -0.2477641611726708 0 0.16406296664900091 -0.23953931115078109 0 0.16664512224094219 -0.2497319928955857 0 0.16406296664900091 -0.23953931115078109 0 0.15300471189664341 -0.2477641611726708 0 0.13855651398388771 -0.2330512268617681 0 0.14517120569504441 -0.2591030031170708 0 0.15300471189664341 -0.2477641611726708 0 0.13855651398388771 -0.2330512268617681 0 0.16406296664900091 -0.23953931115078109 0 0.13855651398388771 -0.2330512268617681 0 0.15894333184499601 -0.21933030114005689 0 0.13855651398388771 -0.2330512268617681 0 0.13250854125178879 -0.21132663779031841 0 0.15894333184499601 -0.21933030114005689 0 0.16406296664900091 -0.23953931115078109 0 0.13855651398388771 -0.2330512268617681 0 0.10949838144614681 -0.22532664029952951 0 0.13855651398388771 -0.2330512268617681 0 0.13250854125178879 -0.21132663779031841 0 0.14517120569504441 -0.2591030031170708 0 0.12455685345978509 -0.24750814310934299 0 0.13855651398388771 -0.2330512268617681 0 0.1538236970409925 -0.19912129112933219 0 0.1309199740522923 -0.1889898648939399 0 0.14870406223699001 -0.1789122811186073 0 0.1658677885186334 -0.18766561458792391 0 0.1538236970409925 -0.19912129112933219 0 0.14870406223699001 -0.1789122811186073 0 0.1538236970409925 -0.19912129112933219 0 0.14870406223699001 -0.1789122811186073 0 0.15894333184499601 -0.21933030114005689 0 0.1538236970409925 -0.19912129112933219 0 0.13250854125178879 -0.21132663779031841 0 0.1538236970409925 -0.19912129112933219 0 0.13250854125178879 -0.21132663779031841 0 0.1309199740522923 -0.1889898648939399 0 0.11313588586759379 -0.19906744866927101 0 0.13250854125178879 -0.21132663779031841 0 0.1309199740522923 -0.1889898648939399 0 0.1309199740522923 -0.1889898648939399 0 0.14870406223699001 -0.1789122811186073 0 0.115449329492848 -0.18236666911197191 0 0.1309199740522923 -0.1889898648939399 0 0.13183928440332091 -0.17272618421006289 0 0.1309199740522923 -0.1889898648939399 0 0.13183928440332091 -0.17272618421006289 0 0.14870406223699001 -0.1789122811186073 0 0.14870406223699001 -0.1789122811186073 0 0.14573374410390991 -0.16718738448350151 0 0.16191769527222599 -0.17142460491581371 0 0.13183928440332091 -0.17272618421006289 0 0.14870406223699001 -0.1789122811186073 0 0.14573374410390991 -0.16718738448350151 0 0.14870406223699001 -0.1789122811186073 0 0.14573374410390991 -0.16718738448350151 0 0.14870406223699001 -0.1789122811186073 0 0.16191769527222599 -0.17142460491581371 0 0.15583914191545351 -0.1616157818514605 0 0.14573374410390991 -0.16718738448350151 0 0.16191769527222599 -0.17142460491581371 0 0.15583914191545351 -0.1616157818514605 0 0.14573374410390991 -0.16718738448350151 0 0.14795939342803641 -0.15435512080920311 0 0.14573374410390991 -0.16718738448350151 0 0.13246582341578569 -0.15323501609768361 0 0.14795939342803641 -0.15435512080920311 0 0.13183928440332091 -0.17272618421006289 0 0.14573374410390991 -0.16718738448350151 0 0.13246582341578569 -0.15323501609768361 0 0.1177627731181007 -0.1656658895546726 0 0.13183928440332091 -0.17272618421006289 0 0.13246582341578569 -0.15323501609768361 0 0.13246582341578569 -0.15323501609768361 0 0.1364741238451499 -0.1344031327445008 0 0.14984591274237211 -0.14159386211326189 0 0.10946719647731309 -0.1450170018833668 0 0.13246582341578569 -0.15323501609768361 0 0.1364741238451499 -0.1344031327445008 0 0.1574755585787877 -0.12165250558039049 0 0.1364741238451499 -0.1344031327445008 0 0.14984591274237211 -0.14159386211326189 0 0.13246582341578569 -0.15323501609768361 0 0.14795939342803641 -0.15435512080920311 0 0.14984591274237211 -0.14159386211326189 0 0.14795939342803641 -0.15435512080920311 0 0.14984591274237211 -0.14159386211326189 0 0.16083452812680421 -0.15057656161880989 0 0.15583914191545351 -0.1616157818514605 0 0.14795939342803641 -0.15435512080920311 0 0.16083452812680421 -0.15057656161880989 0 0.16083452812680421 -0.15057656161880989 0 0.17448253320492679 -0.14753131739205719 0 0.17513132830746 -0.16393692871301649 0 0.14984591274237211 -0.14159386211326189 0 0.16083452812680421 -0.15057656161880989 0 0.16542345047399809 -0.1386019861827594 0 0.16083452812680421 -0.15057656161880989 0 0.16542345047399809 -0.1386019861827594 0 0.17448253320492679 -0.14753131739205719 0 0.1574755585787877 -0.12165250558039049 0 0.14984591274237211 -0.14159386211326189 0 0.16542345047399809 -0.1386019861827594 0 0.1574755585787877 -0.12165250558039049 0 0.18512763697307 -0.13301449685668379 0 0.1574755585787877 -0.12165250558039049 0 0.16542345047399809 -0.1386019861827594 0 0.18512763697307 -0.13301449685668379 0 0.16542345047399809 -0.1386019861827594 0 0.18512763697307 -0.13301449685668379 0 0.17448253320492679 -0.14753131739205719 0 0.18512763697307 -0.13301449685668379 0 0.17448253320492679 -0.14753131739205719 0 0.18674954174434669 -0.15436423274527211 0 0.17448253320492679 -0.14753131739205719 0 0.18674954174434669 -0.15436423274527211 0 0.17513132830746 -0.16393692871301649 0 0.19232230111974941 -0.17272013683882589 0 0.17513132830746 -0.16393692871301649 0 0.17509263506109629 -0.17752144001773609 0 0.19232230111974941 -0.17272013683882589 0 0.18674954174434669 -0.15436423274527211 0 0.17513132830746 -0.16393692871301649 0 0.18442677425716669 -0.19314372307551869 0 0.1658677885186334 -0.18766561458792391 0 0.17509263506109629 -0.17752144001773609 0 0.19232230111974941 -0.17272013683882589 0 0.18442677425716669 -0.19314372307551869 0 0.17509263506109629 -0.17752144001773609 0 0.1658677885186334 -0.18766561458792391 0 0.14870406223699001 -0.1789122811186073 0 0.16191769527222599 -0.17142460491581371 0 0.1658677885186334 -0.18766561458792391 0 0.17509263506109629 -0.17752144001773609 0 0.16191769527222599 -0.17142460491581371 0 0.15583914191545351 -0.1616157818514605 0 0.17513132830746 -0.16393692871301649 0 0.16191769527222599 -0.17142460491581371 0 0.15583914191545351 -0.1616157818514605 0 0.16083452812680421 -0.15057656161880989 0 0.17513132830746 -0.16393692871301649 0 0.17513132830746 -0.16393692871301649 0 0.17509263506109629 -0.17752144001773609 0 0.16191769527222599 -0.17142460491581371 0 0.17513132830746 -0.16393692871301649 0 0.16191769527222599 -0.17142460491581371 0 
</DataArray>
</Points>
<Cells>
<DataArray type="UInt32" Name="connectivity" format="ascii">
0 1 2 3 4 5 6 7 8 9 10 11 12 13 14 15 16 17 18 19 20 21 22 23 24 25 26 27 28 29 30 31 32 33 34 35 36 37 38 39 40 41 42 43 44 45 46 47 48 49 50 51 52 53 54 55 56 57 58 59 60 61 62 63 64 65 66 67 68 69 70 71 72 73 74 75 76 77 78 79 80 81 82 83 84 85 86 87 88 89 90 91 92 93 94 95 96 97 98 99 100 101 102 103 104 105 106 107 108 109 110 111 112 113 114 115 116 117 118 119 120 121 122 123 124 125 126 127 128 129 130 131 132 133 134 135 136 137 138 139 140 141 142 143 144 145 146 147 148 149 150 151 152 153 154 155 156 157 158 159 160 161 162 163 164 165 166 167 168 169 170 171 172 173 174 175 176 177 178 179 180 181 182 183 184 185 186 187 188 189 190 191 192 193 194 195 196 197 198 199 200 201 202 203 204 205 206 207 208 209 210 211 212 213 214 215 216 217 218 219 220 221 222 223 224 225 226 227 228 229 230 231 232 233 234 235 236 237 238 239 240 241 242 243 244 245 246 247 248 249 250 251 252 253 254 255 256 257 258 259 260 261 262 263 264 265 266 267 268 269 270 271 272 273 274 275 276 277 278 279 280 281 282 283 284 285 286 287 288 289 290 291 292 293 294 295 296 297 298 299 300 301 302 303 304 305 306 307 308 309 310 311 312 313 314 315 316 317 318 319 320 321 322 323 324 325 326 327 328 329 330 331 332 333 334 335 336 337 338 339 340 341 342 343 344 345 346 347 348 349 350 351 352 353 354 355 356 357 358 359 360 361 362 363 364 365 366 367 368 369 370 371 372 373 374 375 376 377 378 379 380 381 382 383 384 385 386 387 388 389 390 391 392 393 394 395 396 397 398 399 400 401 402 403 404 405 406 407 408 409 410 411 412 413 414 415 416 417 418 419 420 421 422 423 424 425 426 427 428 429 430 431 432 433 434 435 436 437 438 439 440 441 442 443 444 445 446 447 448 449 450 451 452 453 454 455 456 457 458 459 460 461 462 463 464 465 466 467 468 469 470 471 472 473 474 475 476 477 478 479 480 481 482 483 484 485 486 487 488 489 490 491 492 493 494 495 496 497 498 499 500 501 502 503 504 505 506 507 508 509 510 511 512 513 514 515 516 517 518 519 520 521 522 523 524 525 526 527 528 529 530 531 532 533 534 535 536 537 538 539 540 541 542 543 544 545 546 547 548 549 550 551 552 553 554 555 556 557 558 559 560 561 562 563 564 565 566 567 568 569 570 571 572 573 574 575 576 577 578 579 580 581 582 583 584 585 586 587 588 589 590 591 592 593 594 595 596 597 598 599 600 601 602 603 604 605 606 607 608 609 610 611 612 613 614 615 616 617 618 619 620 621 622 623 624 625 626 627 628 629 630 631 632 633 634 635 636 637 638 639 640 641 642 643 644 645 646 647 648 649 650 651 652 653 654 655 656 657 658 659 660 661 662 663 664 665 666 667 668 669 670 671 672 673 674 675 676 677 678 679 680 681 682 683 684 685 686 687 688 689 690 691 692 693 694 695 696 697 698 699 700 701 702 703 704 705 706 707 708 709 710 711 712 713 714 715 716 717 718 719 720 721 722 723 724 725 726 727 728 729 730 731 732 733 734 735 736 737 738 739 740 741 742 743 744 745 746 747 748 749 750 751 752 753 754 755 756 757 758 759 760 761 762 763 764 765 766 767 768 769 770 771 772 773 774 775 776 777 778 779 780 781 782 783 784 785 786 787 788 789 790 791 792 793 794 795 796 797 798 799 800 801 802 803 804 805 806 807 808 809 810 811 812 813 814 815 816 817 818 819 820 821 822 823 824 825 826 827 828 829 830 831 832 833 834 835 836 837 838 839 840 841 842 843 844 845 846 847 848 849 850 851 852 853 854 855 856 857 858 859 860 861 862 863 864 865 866 867 868 869 870 871 872 873 874 875 876 877 878 879 880 881 882 883 884 885 886 887 888 889 890 891 892 893 894 895 896 897 898 899 900 901 902 903 904 905 906 907 908 909 910 911 912 913 914 915 916 917 918 919 920 921 922 923 924 925 926 927 928 929 930 931 932 933 934 935 936 937 938 939 940 941 942 943 944 945 946 947 948 949 950 951 952 953 954 955 956 957 958 959 960 961 962 963 964 965 966 967 968 969 970 971 972 973 974 975 976 977 978 979 980 981 982 983 984 985 986 987 988 989 990 991 992 993 994 995 996 997 998 999 1000 1001 1002 1003 1004 1005 1006 1007 1008 1009 1010 1011 1012 1013 1014 1015 1016 1017 1018 1019 1020 1021 1022 1023 1024 1025 1026 1027 1028 1029 1030 1031 1032 1033 1034 1035 1036 1037 1038 1039 1040 1041 1042 1043 1044 1045 1046 1047 1048 1049 1050 1051 1052 1053 1054 1055 1056 1057 1058 1059 1060 1061 1062 1063 1064 1065 1066 1067 1068 1069 1070 1071 1072 1073 1074 1075 1076 1077 1078 1079 1080 1081 1082 1083 1084 1085 1086 1087 1088 1089 1090 1091 1092 1093 1094 1095 1096 1097 1098 1099 1100 1101 1102 1103 1104 1105 1106 1107 1108 1109 1110 1111 1112 1113 1114 1115 1116 1117 1118 1119 1120 1121 1122 1123 1124 1125 1126 1127 1128 1129 1130 1131 1132 1133 1134 1135 1136 1137 1138 1139 1140 1141 1142 1143 1144 1145 1146 1147 1148 1149 1150 1151 1152 1153 1154 1155 1156 1157 1158 1159 1160 1161 1162 1163 1164 1165 1166 1167 1168 1169 1170 1171 1172 1173 1174 1175 1176 1177 1178 1179 1180 1181 1182 1183 1184 1185 1186 1187 1188 1189 1190 1191 1192 1193 1194 1195 1196 1197 1198 1199 1200 1201 1202 1203 1204 1205 1206 1207 1208 1209 1210 1211 1212 1213 1214 1215 1216 1217 1218 1219 1220 1221 1222 1223 1224 1225 1226 1227 1228 1229 1230 1231 1232 1233 1234 1235 1236 1237 1238 1239 1240 1241 1242 1243 1244 1245 1246 1247 1248 1249 1250 1251 1252 1253 1254 1255 1256 1257 1258 1259 1260 1261 1262 1263 1264 1265 1266 1267 1268 1269 1270 1271 1272 1273 1274 1275 1276 1277 1278 1279 1280 1281 1282 1283 1284 1285 1286 1287 1288 1289 1290 1291 1292 1293 1294 1295 1296 1297 1298 1299 1300 1301 1302 1303 1304 1305 1306 1307 1308 1309 1310 1311 1312 1313 1314 1315 1316 1317 1318 1319 1320 1321 1322 1323 1324 1325 1326 1327 1328 1329 1330 1331 1332 1333 1334 1335 1336 1337 1338 1339 1340 1341 1342 1343 1344 1345 1346 1347 1348 1349 1350 1351 1352 1353 1354 1355 1356 1357 1358 1359 1360 1361 1362 1363 1364 1365 1366 1367 1368 1369 1370 1371 1372 1373 1374 1375 1376 1377 1378 1379 1380 1381 1382 1383 1384 1385 1386 1387 1388 1389 1390 1391 1392 1393 1394 1395 1396 1397 1398 1399 1400 1401 1402 1403 1404 1405 1406 1407 1408 1409 1410 1411 1412 1413 1414 1415 1416 1417 1418 1419 1420 1421 1422 1423 1424 1425 1426 1427 1428 1429 1430 1431 1432 1433 1434 1435 1436 1437 1438 1439 1440 1441 1442 1443 1444 1445 1446 1447 1448 1449 1450 1451 1452 1453 1454 1455 1456 1457 1458 1459 1460 1461 1462 1463 1464 1465 1466 1467 1468 1469 1470 1471 1472 1473 1474 1475 1476 1477 1478 1479 1480 1481 1482 1483 1484 1485 1486 1487 1488 1489 1490 1491 1492 1493 1494 1495 1496 1497 1498 1499 1500 1501 1502 1503 1504 1505 1506 1507 1508 1509 1510 1511 1512 1513 1514 1515 1516 1517 1518 1519 1520 1521 1522 1523 1524 1525 1526 1527 1528 1529 1530 1531 1532 1533 1534 1535 1536 1537 1538 1539 1540 1541 1542 1543 1544 1545 1546 1547 1548 1549 1550 1551 1552 1553 1554 1555 1556 1557 1558 1559 1560 1561 1562 1563 1564 1565 1566 1567 1568 1569 1570 1571 1572 1573 1574 1575 1576 1577 1578 1579 1580 1581 1582 1583 1584 1585 1586 1587 1588 1589 1590 1591 1592 1593 1594 1595 1596 1597 1598 1599 1600 1601 1602 1603 1604 1605 1606 1607 1608 1609 1610 1611 1612 1613 1614 1615 1616 1617 1618 1619 1620 1621 1622 1623 1624 1625 1626 1627 1628 1629 1630 1631 1632 1633 1634 1635 1636 1637 1638 1639 1640 1641 1642 1643 1644 1645 1646 1647 1648 1649 1650 1651 1652 1653 1654 1655 1656 1657 1658 1659 1660 1661 1662 1663 1664 1665 1666 1667 1668 1669 1670 1671 1672 1673 1674 1675 1676 1677 1678 1679 1680 1681 1682 1683 1684 1685 1686 1687 1688 1689 1690 1691 1692 1693 1694 1695 1696 1697 1698 1699 1700 1701 1702 1703 1704 1705 1706 1707 1708 1709 1710 1711 1712 1713 1714 1715 1716 1717 1718 1719 1720 1721 1722 1723 1724 1725 1726 1727 1728 1729 1730 1731 1732 1733 1734 1735 1736 1737 1738 1739 1740 1741 1742 1743 1744 1745 1746 1747 1748 1749 1750 1751 1752 1753 1754 1755 1756 1757 1758 1759 1760 1761 1762 1763 1764 1765 1766 1767 1768 1769 1770 1771 1772 1773 1774 1775 1776 1777 1778 1779 1780 1781 1782 1783 1784 1785 1786 1787 1788 1789 1790 1791 1792 1793 1794 1795 1796 1797 1798 1799 1800 1801 1802 1803 1804 1805 1806 1807 1808 1809 1810 1811 1812 1813 1814 1815 1816 1817 1818 1819 1820 1821 1822 1823 1824 1825 1826 1827 1828 1829 1830 1831 1832 1833 1834 1835 1836 1837 1838 1839 1840 1841 1842 1843 1844 1845 1846 1847 1848 1849 1850 1851 1852 1853 1854 1855 1856 1857 1858 1859 1860 1861 1862 1863 1864 1865 1866 1867 1868 1869 1870 1871 1872 1873 1874 1875 1876 1877 1878 1879 1880 1881 1882 1883 1884 1885 1886 1887 1888 1889 1890 1891 1892 1893 1894 1895 1896 1897 1898 1899 1900 1901 1902 1903 1904 1905 1906 1907 1908 1909 1910 1911 1912 1913 1914 1915 1916 1917 1918 1919 1920 1921 1922 1923 1924 1925 1926 1927 1928 1929 1930 1931 1932 1933 1934 1935 1936 1937 1938 1939 1940 1941 1942 1943 1944 1945 1946 1947 1948 1949 1950 1951 1952 1953 1954 1955 1956 1957 1958 1959 1960 1961 1962 1963 1964 1965 1966 1967 1968 1969 1970 1971 1972 1973 1974 1975 1976 1977 1978 1979 1980 1981 1982 1983 1984 1985 1986 1987 1988 1989 1990 1991 1992 1993 1994 1995 1996 1997 1998 1999 2000 2001 2002 2003 2004 2005 2006 2007 2008 2009 2010 2011 2012 2013 2014 2015 2016 2017 2018 2019 2020 2021 2022 2023 2024 2025 2026 2027 2028 2029 2030 2031 2032 2033 2034 2035 2036 2037 2038 2039 2040 2041 2042 2043 2044 2045 2046 2047 2048 2049 2050 2051 2052 2053 2054 2055 2056 2057 2058 2059 2060 2061 2062 2063 2064 2065 2066 2067 2068 2069 2070 2071 2072 2073 2074 2075 2076 2077 2078 2079 2080 2081 2082 2083 2084 2085 2086 2087 2088 2089 2090 2091 2092 2093 2094 2095 2096 2097 2098 2099 2100 2101 2102 2103 2104 2105 2106 2107 2108 2109 2110 2111 2112 2113 2114 2115 2116 2117 2118 2119 2120 2121 2122 2123 2124 2125 2126 2127 2128 2129 2130 2131 2132 2133 2134 2135 2136 2137 2138 2139 2140 2141 2142 2143 2144 2145 2146 2147 2148 2149 2150 2151 2152 2153 2154 2155 2156 2157 2158 2159 2160 2161 2162 2163 2164 2165 2166 2167 2168 2169 2170 2171 2172 2173 2174 2175 2176 2177 2178 2179 2180 2181 2182 2183 2184 2185 2186 2187 2188 2189 2190 2191 2192 2193 2194 2195 2196 2197 2198 2199 2200 2201 2202 2203 2204 2205 2206 2207 2208 2209 2210 2211 2212 2213 2214 2215 2216 2217 2218 2219 2220 2221 2222 2223 2224 2225 2226 2227 2228 2229 2230 2231 2232 2233 2234 2235 2236 2237 2238 2239 2240 2241 2242 2243 2244 2245 2246 2247 2248 2249 2250 2251 2252 2253 2254 2255 2256 2257 2258 2259 2260 2261 2262 2263 2264 2265 2266 2267 2268 2269 2270 2271 2272 2273 2274 2275 2276 2277 2278 2279 2280 2281 2282 2283 2284 2285 2286 2287 2288 2289 2290 2291 2292 2293 2294 2295 2296 2297 2298 2299 2300 2301 2302 2303 2304 2305 2306 2307 2308 2309 2310 2311 2312 2313 2314 2315 2316 2317 2318 2319 2320 2321 2322 2323 2324 2325 2326 2327 2328 2329 2330 2331 2332 2333 2334 2335 2336 2337 2338 2339 2340 2341 2342 2343 2344 2345 2346 2347 2348 2349 2350 2351 2352 2353 2354 2355 2356 2357 2358 2359 2360 2361 2362 2363 2364 2365 2366 2367 2368 2369 2370 2371 2372 2373 2374 2375 2376 2377 2378 2379 2380 2381 2382 2383 2384 2385 2386 2387 2388 2389 2390 2391 2392 2393 2394 2395 2396 2397 2398 2399 2400 2401 2402 2403 2404 2405 2406 2407 2408 2409 2410 2411 2412 2413 2414 2415 2416 2417 2418 2419 2420 2421 2422 2423 2424 2425 2426 2427 2428 2429 2430 2431 2432 2433 2434 2435 2436 2437 2438 2439 2440 2441 2442 2443 2444 2445 2446 2447 2448 2449 2450 2451 2452 2453 2454 2455 2456 2457 2458 2459 2460 2461 2462 2463 2464 2465 2466 2467 2468 2469 2470 2471 2472 2473 2474 2475 2476 2477 2478 2479 2480 2481 2482 2483 2484 2485 2486 2487 2488 2489 2490 2491 2492 2493 2494 2495 2496 2497 2498 2499 2500 2501 2502 2503 2504 2505 2506 2507 2508 2509 2510 2511 2512 2513 2514 2515 2516 2517 2518 2519 2520 2521 2522 2523 2524 2525 2526 2527 2528 2529 2530 2531 2532 2533 2534 2535 2536 2537 2538 2539 2540 2541 2542 2543 2544 2545 2546 2547 2548 2549 2550 2551 2552 2553 2554 2555 2556 2557 2558 2559 2560 2561 2562 2563 2564 2565 2566 2567 2568 2569 2570 2571 2572 2573 2574 2575 2576 2577 2578 2579 2580 2581 2582 2583 2584 2585 2586 2587 2588 2589 2590 2591 2592 2593 2594 2595 2596 2597 2598 2599 2600 2601 2602 2603 2604 2605 2606 2607 2608 2609 2610 2611 2612 2613 2614 2615 2616 2617 2618 2619 2620 2621 2622 2623 2624 2625 2626 2627 2628 2629 2630 2631 2632 2633 2634 2635 2636 2637 2638 2639 2640 2641 2642 2643 2644 2645 2646 2647 2648 2649 2650 2651 2652 2653 2654 2655 2656 2657 2658 2659 2660 2661 2662 2663 2664 2665 2666 2667 2668 2669 2670 2671 2672 2673 2674 2675 2676 2677 2678 2679 2680 2681 2682 2683 2684 2685 2686 2687 2688 2689 2690 2691 2692 2693 2694 2695 2696 2697 2698 2699 2700 2701 2702 2703 2704 2705 2706 2707 2708 2709 2710 2711 2712 2713 2714 2715 2716 2717 2718 2719 2720 2721 2722 2723 2724 2725 2726 2727 2728 2729 2730 2731 2732 2733 2734 2735 2736 2737 2738 2739 2740 2741 2742 2743 2744 2745 2746 2747 2748 2749 2750 2751 2752 2753 2754 2755 2756 2757 2758 2759 2760 2761 2762 2763 2764 2765 2766 2767 2768 2769 2770 2771 2772 2773 2774 2775 2776 2777 2778 2779 2780 2781 2782 2783 2784 2785 2786 2787 2788 2789 2790 2791 2792 2793 2794 2795 2796 2797 2798 2799 2800 2801 2802 2803 2804 2805 2806 2807 2808 2809 2810 2811 2812 2813 2814 2815 2816 2817 2818 2819 2820 2821 2822 2823 2824 2825 2826 2827 2828 2829 2830 2831 2832 2833 2834 2835 2836 2837 2838 2839 2840 2841 2842 2843 2844 2845 2846 2847 2848 2849 2850 2851 2852 2853 2854 2855 2856 2857 2858 2859 2860 2861 2862 2863 2864 2865 2866 2867 2868 2869 2870 2871 2872 2873 2874 2875 2876 2877 2878 2879 2880 2881 2882 2883 2884 2885 2886 2887 2888 2889 2890 2891 2892 2893 2894 2895 2896 2897 2898 2899 2900 2901 2902 2903 2904 2905 2906 2907 2908 2909 2910 2911 2912 2913 2914 2915 2916 2917 2918 2919 2920 2921 2922 2923 2924 2925 2926 2927 2928 2929 2930 2931 2932 2933 2934 2935 2936 2937 2938 2939 2940 2941 2942 2943 2944 2945 2946 2947 2948 2949 2950 2951 2952 2953 2954 2955 2956 2957 2958 2959 2960 2961 2962 2963 2964 2965 2966 2967 2968 2969 2970 2971 2972 2973 2974 2975 2976 2977 2978 2979 2980 2981 2982 2983 2984 2985 2986 2987 2988 2989 2990 2991 2992 2993 2994 2995 2996 2997 2998 2999 3000 3001 3002 3003 3004 3005 3006 3007 3008 3009 3010 3011 3012 3013 3014 3015 3016 3017 3018 3019 3020 3021 3022 3023 3024 3025 3026 3027 3028 3029 3030 3031 3032 3033 3034 3035 3036 3037 3038 3039 3040 3041 3042 3043 3044 3045 3046 3047 3048 3049 3050 3051 3052 3053 3054 3055 3056 3057 3058 3059 3060 3061 3062 3063 3064 3065 3066 3067 3068 3069 3070 3071 3072 3073 3074 3075 3076 3077 3078 3079 3080 3081 3082 3083 3084 3085 3086 3087 3088 3089 3090 3091 3092 3093 3094 3095 3096 3097 3098 3099 3100 3101 3102 3103 3104 3105 3106 3107 3108 3109 3110 3111 3112 3113 3114 3115 3116 3117 3118 3119 3120 3121 3122 3123 3124 3125 3126 3127 3128 3129 3130 3131 3132 3133 3134 3135 3136 3137 3138 3139 3140 3141 3142 3143 3144 3145 3146 3147 3148 3149 3150 3151 3152 3153 3154 3155 3156 3157 3158 3159 3160 3161 3162 3163 3164 3165 3166 3167 3168 3169 3170 3171 3172 3173 3174 3175 3176 3177 3178 3179 3180 3181 3182 3183 3184 3185 3186 3187 3188 3189 3190 3191 3192 3193 3194 3195 3196 3197 3198 3199 3200 3201 3202 3203 3204 3205 3206 3207 3208 3209 3210 3211 3212 3213 3214 3215 3216 3217 3218 3219 3220 3221 3222 3223 3224 3225 3226 3227 3228 3229 3230 3231 3232 3233 3234 3235 3236 3237 3238 3239 3240 3241 3242 3243 3244 3245 3246 3247 3248 3249 3250 3251 3252 3253 3254 3255 3256 3257 3258 3259 3260 3261 3262 3263 3264 3265 3266 3267 3268 3269 3270 3271 3272 3273 3274 3275 3276 3277 3278 3279 3280 3281 3282 3283 3284 3285 3286 3287 3288 3289 3290 3291 3292 3293 3294 3295 3296 3297 3298 3299 3300 3301 3302 3303 3304 3305 3306 3307 3308 3309 3310 3311 3312 3313 3314 3315 3316 3317 3318 3319 3320 3321 3322 3323 3324 3325 3326 3327 3328 3329 3330 3331 3332 3333 3334 3335 3336 3337 3338 3339 3340 3341 3342 3343 3344 3345 3346 3347 3348 3349 3350 3351 3352 3353 3354 3355 3356 3357 3358 3359 3360 3361 3362 3363 3364 3365 3366 3367 3368 3369 3370 3371 3372 3373 3374 3375 3376 3377 3378 3379 3380 3381 3382 3383 3384 3385 3386 3387 3388 3389 3390 3391 3392 3393 3394 3395 3396 3397 3398 3399 3400 3401 3402 3403 3404 3405 3406 3407 3408 3409 3410 3411 3412 3413 3414 3415 3416 3417 3418 3419 3420 3421 3422 3423 3424 3425 3426 3427 3428 3429 3430 3431 3432 3433 3434 3435 3436 3437 3438 3439 3440 3441 3442 3443 3444 3445 3446 3447 3448 3449 3450 3451 3452 3453 3454 3455 3456 3457 3458 3459 3460 3461 3462 3463 3464 3465 3466 3467 3468 3469 3470 3471 3472 3473 3474 3475 3476 3477 3478 3479 3480 3481 3482 3483 3484 3485 3486 3487 3488 3489 3490 3491 3492 3493 3494 3495 3496 3497 3498 3499 3500 3501 3502 3503 3504 3505 3506 3507 3508 3509 3510 3511 3512 3513 3514 3515 3516 3517 3518 3519 3520 3521 3522 3523 3524 3525 3526 3527 3528 3529 3530 3531 3532 3533 3534 3535 3536 3537 3538 3539 3540 3541 3542 3543 3544 3545 3546 3547 3548 3549 3550 3551 3552 3553 3554 3555 3556 3557 3558 3559 3560 3561 3562 3563 3564 3565 3566 3567 3568 3569 3570 3571 3572 3573 3574 3575 3576 3577 3578 3579 3580 3581 3582 3583 3584 3585 3586 3587 3588 3589 3590 3591 3592 3593 3594 3595 3596 3597 3598 3599 3600 3601 3602 3603 3604 3605 3606 3607 3608 3609 3610 3611 3612 3613 3614 3615 3616 3617 3618 3619 3620 3621 3622 3623 3624 3625 3626 3627 3628 3629 3630 3631 3632 3633 3634 3635 3636 3637 3638 3639 3640 3641 3642 3643 3644 3645 3646 3647 3648 3649 3650 3651 3652 3653 3654 3655 3656 3657 3658 3659 3660 3661 3662 3663 3664 3665 3666 3667 3668 3669 3670 3671 3672 3673 3674 3675 3676 3677 3678 3679 3680 3681 3682 3683 3684 3685 3686 3687 3688 3689 3690 3691 3692 3693 3694 3695 3696 3697 3698 3699 3700 3701 3702 3703 3704 3705 3706 3707 3708 3709 3710 3711 3712 3713 3714 3715 3716 3717 3718 3719 3720 3721 3722 3723 3724 3725 3726 3727 3728 3729 3730 3731 3732 3733 3734 3735 3736 3737 3738 3739 3740 3741 3742 3743 3744 3745 3746 3747 3748 3749 3750 3751 3752 3753 3754 3755 3756 3757 3758 3759 3760 3761 3762 3763 3764 3765 3766 3767 3768 3769 3770 3771 3772 3773 3774 3775 3776 3777 3778 3779 3780 3781 3782 3783 3784 3785 3786 3787 3788 3789 3790 3791 3792 3793 3794 3795 3796 3797 3798 3799 3800 3801 3802 3803 3804 3805 3806 3807 3808 3809 3810 3811 3812 3813 3814 3815 3816 3817 3818 3819 3820 3821 3822 3823 3824 3825 3826 3827 3828 3829 3830 3831 3832 3833 3834 3835 3836 3837 3838 3839 3840 3841 3842 3843 3844 3845 3846 3847 3848 3849 3850 3851 3852 3853 3854 3855 3856 3857 3858 3859 3860 3861 3862 3863 3864 3865 3866 3867 3868 3869 3870 3871 3872 3873 3874 3875 3876 3877 3878 3879 3880 3881 3882 3883 3884 3885 3886 3887 3888 3889 3890 3891 3892 3893 3894 3895 3896 3897 3898 3899 3900 3901 3902 3903 3904 3905 3906 3907 3908 3909 3910 3911 3912 3913 3914 3915 3916 3917 3918 3919 3920 3921 3922 3923 3924 3925 3926 3927 3928 3929 3930 3931 3932 3933 3934 3935 3936 3937 3938 3939 3940 3941 3942 3943 3944 3945 3946 3947 3948 3949 3950 3951 3952 3953 3954 3955 3956 3957 3958 3959 3960 3961 3962 3963 3964 3965 3966 3967 3968 3969 3970 3971 3972 3973 3974 3975 3976 3977 3978 3979 3980 3981 3982 3983 3984 3985 3986 3987 3988 3989 3990 3991 3992 3993 3994 3995 3996 3997 3998 3999 4000 4001 4002 4003 4004 4005 4006 4007 4008 4009 4010 4011 4012 4013 4014 4015 4016 4017 4018 4019 4020 4021 4022 4023 4024 4025 4026 4027 4028 4029 4030 4031 4032 4033 4034 4035 4036 4037 4038 4039 4040 4041 4042 4043 4044 4045 4046 4047 4048 4049 4050 4051 4052 4053 4054 4055 4056 4057 4058 4059 4060 4061 4062 4063 4064 4065 4066 4067 4068 4069 4070 4071 4072 4073 4074 4075 4076 4077 4078 4079 4080 4081 4082 4083 4084 4085 4086 4087 4088 4089 4090 4091 4092 4093 4094 4095 4096 4097 4098 4099 4100 4101 4102 4103 4104 4105 4106 4107 4108 4109 4110 4111 4112 4113 4114 4115 4116 4117 4118 4119 4120 4121 4122 4123 4124 4125 4126 4127 4128 4129 4130 4131 4132 4133 4134 4135 4136 4137 4138 4139 4140 4141 4142 4143 4144 4145 4146 4147 4148 4149 4150 4151 4152 4153 4154 4155 4156 4157 4158 4159 4160 4161 4162 4163 4164 4165 4166 4167 4168 4169 4170 4171 4172 4173 4174 4175 4176 4177 4178 4179 4180 4181 4182 4183 4184 4185 4186 4187 4188 4189 4190 4191 4192 4193 4194 4195 4196 4197 4198 4199 4200 4201 4202 4203 4204 4205 4206 4207 4208 4209 4210 4211 4212 4213 4214 4215 4216 4217 4218 4219 4220 4221 4222 4223 4224 4225 4226 4227 4228 4229 4230 4231 4232 4233 4234 4235 4236 4237 4238 4239 4240 4241 4242 4243 4244 4245 4246 4247 4248 4249 4250 4251 4252 4253 4254 4255 4256 4257 4258 4259 4260 4261 4262 4263 4264 4265 4266 4267 4268 4269 4270 4271 4272 4273 4274 4275 4276 4277 4278 4279 4280 4281 4282 4283 4284 4285 4286 4287 4288 4289 4290 4291 4292 4293 4294 4295 4296 4297 4298 4299 4300 4301 4302 4303 4304 4305 4306 4307 4308 4309 4310 4311 4312 4313 4314 4315 4316 4317 4318 4319 4320 4321 4322 4323 4324 4325 4326 4327 4328 4329 4330 4331 4332 4333 4334 4335 4336 4337 4338 4339 4340 4341 4342 4343 4344 4345 4346 4347 4348 4349 4350 4351 4352 4353 4354 4355 4356 4357 4358 4359 4360 4361 4362 4363 4364 4365 4366 4367 4368 4369 4370 4371 4372 4373 4374 4375 4376 4377 4378 4379 4380 4381 4382 4383 4384 4385 4386 4387 4388 4389 4390 4391 4392 4393 4394 4395 4396 4397 4398 4399 4400 4401 4402 4403 4404 4405 4406 4407 4408 4409 4410 4411 4412 4413 4414 4415 4416 4417 4418 4419 4420 4421 4422 4423 4424 4425 4426 4427 4428 4429 4430 4431 4432 4433 4434 4435 4436 4437 4438 4439 4440 4441 4442 4443 4444 4445 4446 4447 4448 4449 4450 4451 4452 4453 4454 4455 4456 4457 4458 4459 4460 4461 4462 4463 4464 4465 4466 4467 4468 4469 4470 4471 4472 4473 4474 4475 4476 4477 4478 4479 4480 4481 4482 4483 4484 4485 4486 4487 4488 4489 4490 4491 4492 4493 4494 4495 4496 4497 4498 4499 4500 4501 4502 4503 4504 4505 4506 4507 4508 4509 4510 4511 4512 4513 4514 4515 4516 4517 4518 4519 4520 4521 4522 4523 4524 4525 4526 4527 4528 4529 4530 4531 4532 4533 4534 4535 4536 4537 4538 4539 4540 4541 4542 4543 4544 4545 4546 4547 4548 4549 4550 4551 4552 4553 4554 4555 4556 4557 4558 4559 4560 4561 4562 4563 4564 4565 4566 4567 4568 4569 4570 4571 4572 4573 4574 4575 4576 4577 4578 4579 4580 4581 4582 4583 4584 4585 4586 4587 4588 4589 4590 4591 4592 4593 4594 4595 4596 4597 4598 4599 4600 4601 4602 4603 4604 4605 4606 4607 4608 4609 4610 4611 4612 4613 4614 4615 4616 4617 4618 4619 4620 4621 4622 4623 4624 4625 4626 4627 4628 4629 4630 4631 4632 4633 4634 4635 4636 4637 4638 4639 4640 4641 4642 4643 4644 4645 4646 4647 4648 4649 4650 4651 4652 4653 4654 4655 4656 4657 4658 4659 4660 4661 4662 4663 4664 4665 4666 4667 4668 4669 4670 4671 4672 4673 4674 4675 4676 4677 4678 4679 4680 4681 4682 4683 4684 4685 4686 4687 4688 4689 4690 4691 4692 4693 4694 4695 4696 4697 4698 4699 4700 4701 4702 4703 4704 4705 4706 4707 4708 4709 4710 4711 4712 4713 4714 4715 4716 4717 4718 4719 4720 4721 4722 4723 4724 4725 4726 4727 4728 4729 4730 4731 4732 4733 4734 4735 4736 4737 4738 4739 4740 4741 4742 4743 4744 4745 4746 4747 4748 4749 4750 4751 4752 4753 4754 4755 4756 4757 4758 4759 4760 4761 4762 4763 4764 4765 4766 4767 4768 4769 4770 4771 4772 4773 4774 4775 4776 4777 4778 4779 4780 4781 4782 4783 4784 4785 4786 4787 4788 4789 4790 4791 4792 4793 4794 4795 4796 4797 4798 4799 4800 4801 4802 4803 4804 4805 4806 4807 4808 4809 4810 4811 4812 4813 4814 4815 4816 4817 4818 4819 4820 4821 4822 4823 4824 4825 4826 4827 4828 4829 4830 4831 4832 4833 4834 4835 4836 4837 4838 4839 4840 4841 4842 4843 4844 4845 4846 4847 4848 4849 4850 4851 4852 4853 4854 4855 4856 4857 4858 4859 4860 4861 4862 4863 4864 4865 4866 4867 4868 4869 4870 4871 4872 4873 4874 4875 4876 4877 4878 4879 4880 4881 4882 4883 4884 4885 4886 4887 4888 4889 4890 4891 4892 4893 4894 4895 4896 4897 4898 4899 4900 4901 4902 4903 4904 4905 4906 4907 4908 4909 4910 4911 4912 4913 4914 4915 4916 4917 4918 4919 4920 4921 4922 4923 4924 4925 4926 4927 4928 4929 4930 4931 4932 4933 4934 4935 4936 4937 4938 4939 4940 4941 4942 4943 4944 4945 4946 4947 4948 4949 4950 4951 4952 4953 4954 4955 4956 4957 4958 4959 4960 4961 4962 4963 4964 4965 4966 4967 4968 4969 4970 4971 4972 4973 4974 4975 4976 4977 4978 4979 4980 4981 4982 4983 4984 4985 4986 4987 4988 4989 4990 4991 4992 4993 4994 4995 4996 4997 4998 4999 5000 5001 5002 5003 5004 5005 5006 5007 5008 5009 5010 5011 5012 5013 5014 5015 5016 5017 5018 5019 5020 5021 5022 5023 5024 5025 5026 5027 5028 5029 5030 5031 5032 5033 5034 5035 5036 5037 5038 5039 5040 5041 5042 5043 5044 5045 5046 5047 5048 5049 5050 5051 5052 5053 5054 5055 5056 5057 5058 5059 5060 5061 5062 5063 5064 5065 5066 5067 5068 5069 5070 5071 5072 5073 5074 5075 5076 5077 5078 5079 5080 5081 5082 5083 5084 5085 5086 5087 5088 5089 5090 5091 5092 5093 5094 5095 5096 5097 5098 5099 5100 5101 5102 5103 5104 5105 5106 5107 5108 5109 5110 5111 5112 5113 5114 5115 5116 5117 5118 5119 5120 5121 5122 5123 5124 5125 5126 5127 5128 5129 5130 5131 5132 5133 5134 5135 5136 5137 5138 5139 5140 5141 5142 5143 5144 5145 5146 5147 5148 5149 5150 5151 5152 5153 5154 5155 5156 5157 5158 5159 5160 5161 5162 5163 5164 5165 5166 5167 5168 5169 5170 5171 5172 5173 5174 5175 5176 5177 5178 5179 5180 5181 5182 5183 5184 5185 5186 5187 5188 5189 5190 5191 5192 5193 5194 5195 5196 5197 5198 5199 5200 5201 5202 5203 5204 5205 5206 5207 5208 5209 5210 5211 5212 5213 5214 5215 5216 5217 5218 5219 5220 5221 5222 5223 5224 5225 5226 5227 5228 5229 5230 5231 5232 5233 5234 5235 5236 5237 5238 5239 5240 5241 5242 5243 5244 5245 5246 5247 5248 5249 5250 5251 5252 5253 5254 5255 5256 5257 5258 5259 5260 5261 5262 5263 5264 5265 5266 5267 5268 5269 5270 5271 5272 5273 5274 5275 5276 5277 5278 5279 5280 5281 5282 5283 5284 5285 5286 5287 5288 5289 5290 5291 5292 5293 5294 5295 5296 5297 5298 5299 5300 5301 5302 5303 5304 5305 5306 5307 5308 5309 5310 5311 5312 5313 5314 5315 5316 5317 5318 5319 5320 5321 5322 5323 5324 5325 5326 5327 5328 5329 5330 5331 5332 5333 5334 5335 5336 5337 5338 5339 5340 5341 5342 5343 5344 5345 5346 5347 5348 5349 5350 5351 5352 5353 5354 5355 5356 5357 5358 5359 5360 5361 5362 5363 5364 5365 5366 5367 5368 5369 5370 5371 5372 5373 5374 5375 5376 5377 5378 5379 5380 5381 5382 5383 5384 5385 5386 5387 5388 5389 5390 5391 5392 5393 5394 5395 5396 5397 5398 5399 5400 5401 5402 5403 5404 5405 5406 5407 5408 5409 5410 5411 5412 5413 5414 5415 5416 5417 5418 5419 5420 5421 5422 5423 5424 5425 5426 5427 5428 5429 5430 5431 5432 5433 5434 5435 5436 5437 5438 5439 5440 5441 5442 5443 5444 5445 5446 5447 5448 5449 5450 5451 5452 5453 5454 5455 5456 5457 5458 5459 5460 5461 5462 5463 5464 5465 5466 5467 5468 5469 5470 5471 5472 5473 5474 5475 5476 5477 5478 5479 5480 5481 5482 5483 5484 5485 5486 5487 5488 5489 5490 5491 5492 5493 5494 5495 5496 5497 5498 5499 5500 5501 5502 5503 5504 5505 5506 5507 5508 5509 5510 5511 5512 5513 5514 5515 5516 5517 5518 5519 5520 5521 5522 5523 5524 5525 5526 5527 5528 5529 5530 5531 5532 5533 5534 5535 5536 5537 5538 5539 5540 5541 5542 5543 5544 5545 5546 5547 5548 5549 5550 5551 5552 5553 5554 5555 5556 5557 5558 5559 5560 5561 5562 5563 5564 5565 5566 5567 5568 5569 5570 5571 5572 5573 5574 5575 5576 5577 5578 5579 5580 5581 5582 5583 5584 5585 5586 5587 5588 5589 5590 5591 5592 5593 5594 5595 5596 5597 5598 5599 5600 5601 5602 5603 5604 5605 5606 5607 5608 5609 5610 5611 5612 5613 5614 5615 5616 5617 5618 5619 5620 5621 5622 5623 5624 5625 5626 5627 5628 5629 5630 5631 5632 5633 5634 5635 5636 5637 5638 5639 5640 5641 5642 5643 5644 5645 5646 5647 5648 5649 5650 5651 5652 5653 5654 5655 5656 5657 5658 5659 5660 5661 5662 5663 5664 5665 5666 5667 5668 5669 5670 5671 5672 5673 5674 5675 5676 5677 5678 5679 5680 5681 5682 5683 5684 5685 5686 5687 5688 5689 5690 5691 5692 5693 5694 5695 5696 5697 5698 5699 5700 5701 5702 5703 5704 5705 5706 5707 5708 5709 5710 5711 5712 5713 5714 5715 5716 5717 5718 5719 5720 5721 5722 5723 5724 5725 5726 5727 5728 5729 5730 5731 5732 5733 5734 5735 5736 5737 5738 5739 5740 5741 5742 5743 5744 5745 5746 5747 5748 5749 5750 5751 5752 5753 5754 5755 5756 5757 5758 5759 5760 5761 5762 5763 5764 5765 5766 5767 5768 5769 5770 5771 5772 5773 5774 5775 5776 5777 5778 5779 5780 5781 5782 5783 5784 5785 5786 5787 5788 5789 5790 5791 5792 5793 5794 5795 5796 5797 5798 5799 5800 5801 5802 5803 5804 5805 5806 5807 5808 5809 5810 5811 5812 5813 5814 5815 5816 5817 5818 5819 5820 5821 5822 5823 5824 5825 5826 5827 5828 5829 5830 5831 5832 5833 5834 5835 5836 5837 5838 5839 5840 5841 5842 5843 5844 5845 5846 5847 5848 5849 5850 5851 5852 5853 5854 5855 5856 5857 5858 5859 5860 5861 5862 5863 5864 5865 5866 5867 5868 5869 5870 5871 5872 5873 5874 5875 5876 5877 5878 5879 5880 5881 5882 5883 5884 5885 5886 5887 5888 5889 5890 5891 5892 5893 5894 5895 5896 5897 5898 5899 5900 5901 5902 5903 5904 5905 5906 5907 5908 5909 5910 5911 5912 5913 5914 5915 5916 5917 5918 5919 5920 5921 5922 5923 5924 5925 5926 5927 5928 5929 5930 5931 5932 5933 5934 5935 5936 5937 5938 5939 5940 5941 5942 5943 5944 5945 5946 5947 5948 5949 5950 5951 5952 5953 5954 5955 5956 5957 5958 5959 5960 5961 5962 5963 5964 5965 5966 5967 5968 5969 5970 5971 5972 5973 5974 5975 5976 5977 5978 5979 5980 5981 5982 5983 5984 5985 5986 5987 5988 5989 5990 5991 5992 5993 5994 5995 5996 5997 5998 5999 6000 6001 6002 6003 6004 6005 6006 6007 6008 6009 6010 6011 6012 6013 6014 6015 6016 6017 6018 6019 6020 6021 6022 6023 6024 6025 6026 6027 6028 6029 6030 6031 6032 6033 6034 6035 6036 6037 6038 6039 6040 6041 6042 6043 6044 6045 6046 6047 6048 6049 6050 6051 6052 6053 6054 6055 6056 6057 6058 6059 6060 6061 6062 6063 6064 6065 6066 6067 6068 6069 6070 6071 6072 6073 6074 6075 6076 6077 6078 6079 6080 6081 6082 6083 6084 6085 6086 6087 6088 6089 6090 6091 6092 6093 6094 6095 6096 6097 6098 6099 6100 6101 6102 6103 6104 6105 6106 6107 6108 6109 6110 6111 6112 6113 6114 6115 6116 6117 6118 6119 6120 6121 6122 6123 6124 6125 6126 6127 6128 6129 6130 6131 6132 6133 6134 6135 6136 6137 6138 6139 6140 6141 6142 6143 6144 6145 6146 6147 6148 6149 6150 6151 6152 6153 6154 6155 6156 6157 6158 6159 6160 6161 6162 6163 6164 6165 6166 6167 6168 6169 6170 6171 6172 6173 6174 6175 6176 6177 6178 6179 6180 6181 6182 6183 6184 6185 6186 6187 6188 6189 6190 6191 6192 6193 6194 6195 6196 6197 6198 6199 6200 6201 6202 6203 6204 6205 6206 6207 6208 6209 6210 6211 6212 6213 6214 6215 6216 6217 6218 6219 6220 6221 6222 6223 6224 6225 6226 6227 6228 6229 6230 6231 6232 6233 6234 6235 6236 6237 6238 6239 6240 6241 6242 6243 6244 6245 6246 6247 6248 6249 6250 6251 6252 6253 6254 6255 6256 6257 6258 6259 6260 6261 6262 6263 6264 6265 6266 6267 6268 6269 6270 6271 6272 6273 6274 6275 6276 6277 6278 6279 6280 6281 6282 6283 6284 6285 6286 6287 6288 6289 6290 6291 6292 6293 6294 6295 6296 6297 6298 6299 6300 6301 6302 6303 6304 6305 6306 6307 6308 6309 6310 6311 6312 6313 6314 6315 6316 6317 6318 6319 6320 6321 6322 6323 6324 6325 6326 6327 6328 6329 6330 6331 6332 6333 6334 6335 6336 6337 6338 6339 6340 6341 6342 6343 6344 6345 6346 6347 6348 6349 6350 6351 6352 6353 6354 6355 6356 6357 6358 6359 6360 6361 6362 6363 6364 6365 6366 6367 6368 6369 6370 6371 6372 6373 6374 6375 6376 6377 6378 6379 6380 6381 6382 6383 6384 6385 6386 6387 6388 6389 6390 6391 6392 6393 6394 6395 6396 6397 6398 6399 6400 6401 6402 6403 6404 6405 6406 6407 6408 6409 6410 6411 6412 6413 6414 6415 6416 6417 6418 6419 6420 6421 6422 6423 6424 6425 6426 6427 6428 6429 6430 6431 6432 6433 6434 6435 6436 6437 6438 6439 6440 6441 6442 6443 6444 6445 6446 6447 6448 6449 6450 6451 6452 6453 6454 6455 6456 6457 6458 6459 6460 6461 6462 6463 6464 6465 6466 6467 6468 6469 6470 6471 6472 6473 6474 6475 6476 6477 6478 6479 6480 6481 6482 6483 6484 6485 6486 6487 6488 6489 6490 6491 6492 6493 6494 6495 6496 6497 6498 6499 6500 6501 6502 6503 6504 6505 6506 6507 6508 6509 6510 6511 6512 6513 6514 6515 6516 6517 6518 6519 6520 6521 6522 6523 6524 6525 6526 6527 6528 6529 6530 6531 6532 6533 6534 6535 6536 6537 6538 6539 6540 6541 6542 6543 6544 6545 6546 6547 6548 6549 6550 6551 6552 6553 6554 6555 6556 6557 6558 6559 6560 6561 6562 6563 6564 6565 6566 6567 6568 6569 6570 6571 6572 6573 6574 6575 6576 6577 6578 6579 6580 6581 6582 6583 6584 6585 6586 6587 6588 6589 6590 6591 6592 6593 6594 6595 6596 6597 6598 6599 6600 6601 6602 6603 6604 6605 6606 6607 6608 6609 6610 6611 6612 6613 6614 6615 6616 6617 6618 6619 6620 6621 6622 6623 6624 6625 6626 6627 6628 6629 6630 6631 6632 6633 6634 6635 6636 6637 6638 6639 6640 6641 6642 6643 6644 6645 6646 6647 6648 6649 6650 6651 6652 6653 6654 6655 6656 6657 6658 6659 6660 6661 6662 6663 6664 6665 6666 6667 6668 6669 6670 6671 6672 6673 6674 6675 6676 6677 6678 6679 6680 6681 6682 6683 6684 6685 6686 6687 6688 6689 6690 6691 6692 6693 6694 6695 6696 6697 6698 6699 6700 6701 6702 6703 6704 6705 6706 6707 6708 6709 6710 6711 6712 6713 6714 6715 6716 6717 6718 6719 6720 6721 6722 6723 6724 6725 6726 6727 6728 6729 6730 6731 6732 6733 6734 6735 6736 6737 6738 6739 6740 6741 6742 6743 6744 6745 6746 6747 6748 6749 6750 6751 6752 6753 6754 6755 6756 6757 6758 6759 6760 6761 6762 6763 6764 6765 6766 6767 6768 6769 6770 6771 6772 6773 6774 6775 6776 6777 6778 6779 6780 6781 6782 6783 6784 6785 6786 6787 6788 6789 6790 6791 6792 6793 6794 6795 6796 6797 6798 6799 6800 6801 6802 6803 6804 6805 6806 6807 6808 6809 6810 6811 6812 6813 6814 6815 6816 6817 6818 6819 6820 6821 6822 6823 6824 6825 6826 6827 6828 6829 6830 6831 6832 6833 6834 6835 6836 6837 6838 6839 6840 6841 6842 6843 6844 6845 6846 6847 6848 6849 6850 6851 6852 6853 6854 6855 6856 6857 6858 6859 6860 6861 6862 6863 6864 6865 6866 6867 6868 6869 6870 6871 6872 6873 6874 6875 6876 6877 6878 6879 6880 6881 6882 6883 6884 6885 6886 6887 6888 6889 6890 6891 6892 6893 6894 6895 6896 6897 6898 6899 6900 6901 6902 6903 6904 6905 6906 6907 6908 6909 6910 6911 6912 6913 6914 6915 6916 6917 6918 6919 6920 6921 6922 6923 6924 6925 6926 6927 6928 6929 6930 6931 6932 6933 6934 6935 6936 6937 6938 6939 6940 6941 6942 6943 6944 6945 6946 6947 6948 6949 6950 6951 6952 6953 6954 6955 6956 6957 6958 6959 6960 6961 6962 6963 6964 6965 6966 6967 6968 6969 6970 6971 6972 6973 6974 6975 6976 6977 6978 6979 6980 6981 6982 6983 6984 6985 6986 6987 6988 6989 6990 6991 6992 6993 6994 6995 6996 6997 6998 6999 7000 7001 7002 7003 7004 7005 7006 7007 7008 7009 7010 7011 7012 7013 7014 7015 7016 7017 7018 7019 7020 7021 7022 7023 7024 7025 7026 7027 7028 7029 7030 7031 7032 7033 7034 7035 7036 7037 7038 7039 7040 7041 7042 7043 7044 7045 7046 7047 7048 7049 7050 7051 7052 7053 7054 7055 7056 7057 7058 7059 7060 7061 7062 7063 7064 7065 7066 7067 7068 7069 7070 7071 7072 7073 7074 7075 7076 7077 7078 7079 7080 7081 7082 7083 7084 7085 7086 7087 7088 7089 7090 7091 7092 7093 7094 7095 7096 7097 7098 7099 7100 7101 7102 7103 7104 7105 7106 7107 7108 7109 7110 7111 7112 7113 7114 7115 7116 7117 7118 7119 7120 7121 7122 7123 7124 7125 7126 7127 7128 7129 7130 7131 7132 7133 7134 7135 7136 7137 7138 7139 7140 7141 7142 7143 7144 7145 7146 7147 7148 7149 7150 7151 7152 7153 7154 7155 7156 7157 7158 7159 7160 7161 7162 7163 7164 7165 7166 7167 7168 7169 7170 7171 7172 7173 7174 7175 7176 7177 7178 7179 7180 7181 7182 7183 7184 7185 7186 7187 7188 7189 7190 7191 7192 7193 7194 7195 7196 7197 7198 7199 7200 7201 7202 7203 7204 7205 7206 7207 7208 7209 7210 7211 7212 7213 7214 7215 7216 7217 7218 7219 7220 7221 7222 7223 7224 7225 7226 7227 7228 7229 7230 7231 7232 7233 7234 7235 7236 7237 7238 7239 7240 7241 7242 7243 7244 7245 7246 7247 7248 7249 7250 7251 7252 7253 7254 7255 7256 7257 7258 7259 7260 7261 7262 7263 7264 7265 7266 7267 7268 7269 7270 7271 7272 7273 7274 7275 7276 7277 7278 7279 7280 7281 7282 7283 7284 7285 7286 7287 7288 7289 7290 7291 7292 7293 7294 7295 7296 7297 7298 7299 7300 7301 7302 7303 7304 7305 7306 7307 7308 7309 7310 7311 7312 7313 7314 7315 7316 7317 7318 7319 7320 7321 7322 7323 7324 7325 7326 7327 7328 7329 7330 7331 7332 7333 7334 7335 7336 7337 7338 7339 7340 7341 7342 7343 7344 7345 7346 7347 7348 7349 7350 7351 7352 7353 7354 7355 7356 7357 7358 7359 7360 7361 7362 7363 7364 7365 7366 7367 7368 7369 7370 7371 7372 7373 7374 7375 7376 7377 7378 7379 7380 7381 7382 7383 7384 7385 7386 7387 7388 7389 7390 7391 7392 7393 7394 7395 7396 7397 7398 7399 7400 7401 7402 7403 7404 7405 7406 7407 7408 7409 7410 7411 7412 7413 7414 7415 7416 7417 7418 7419 7420 7421 7422 7423 7424 7425 7426 7427 7428 7429 7430 7431 7432 7433 7434 7435 7436 7437 7438 7439 7440 7441 7442 7443 7444 7445 7446 7447 7448 7449 7450 7451 7452 7453 7454 7455 7456 7457 7458 7459 7460 7461 7462 7463 7464 7465 7466 7467 7468 7469 7470 7471 7472 7473 7474 7475 7476 7477 7478 7479 7480 7481 7482 7483 7484 7485 7486 7487 7488 7489 7490 7491 7492 7493 7494 7495 7496 7497 7498 7499 7500 7501 7502 7503 7504 7505 7506 7507 7508 7509 7510 7511 7512 7513 7514 7515 7516 7517 7518 7519 7520 7521 7522 7523 7524 7525 7526 7527 7528 7529 7530 7531 7532 7533 7534 7535 7536 7537 7538 7539 7540 7541 7542 7543 7544 7545 7546 7547 7548 7549 7550 7551 7552 7553 7554 7555 7556 7557 7558 7559 7560 7561 7562 7563 7564 7565 7566 7567 7568 7569 7570 7571 7572 7573 7574 7575 7576 7577 7578 7579 7580 7581 7582 7583 7584 7585 7586 7587 7588 7589 7590 7591 7592 7593 7594 7595 7596 7597 7598 7599 7600 7601 7602 7603 7604 7605 7606 7607 7608 7609 7610 7611 7612 7613 7614 7615 7616 7617 7618 7619 7620 7621 7622 7623 7624 7625 7626 7627 7628 7629 7630 7631 7632 7633 7634 7635 7636 7637 7638 7639 7640 7641 7642 7643 7644 7645 7646 7647 7648 7649 7650 7651 7652 7653 7654 7655 7656 7657 7658 7659 7660 7661 7662 7663 7664 7665 7666 7667 7668 7669 7670 7671 7672 7673 7674 7675 7676 7677 7678 7679 7680 7681 7682 7683 7684 7685 7686 7687 7688 7689 7690 7691 7692 7693 7694 7695 7696 7697 7698 7699 7700 7701 7702 7703 7704 7705 7706 7707 7708 7709 7710 7711 7712 7713 7714 7715 7716 7717 7718 7719 7720 7721 7722 7723 7724 7725 7726 7727 7728 7729 7730 7731 7732 7733 7734 7735 7736 7737 7738 7739 7740 7741 7742 7743 7744 7745 7746 7747 7748 7749 7750 7751 7752 7753 7754 7755 7756 7757 7758 7759 7760 7761 7762 7763 7764 7765 7766 7767 7768 7769 7770 7771 7772 7773 7774 7775 7776 7777 7778 7779 7780 7781 7782 7783 7784 7785 7786 7787 7788 7789 7790 7791 7792 7793 7794 7795 7796 7797 7798 7799 7800 7801 7802 7803 7804 7805 7806 7807 7808 7809 7810 7811 7812 7813 7814 7815 7816 7817 7818 7819 7820 7821 7822 7823 7824 7825 7826 7827 7828 7829 7830 7831 7832 7833 7834 7835 7836 7837 7838 7839 7840 7841 7842 7843 7844 7845 7846 7847 7848 7849 7850 7851 7852 7853 7854 7855 7856 7857 7858 7859 7860 7861 7862 7863 7864 7865 7866 7867 7868 7869 7870 7871 7872 7873 7874 7875 7876 7877 7878 7879 7880 7881 7882 7883 7884 7885 7886 7887 7888 7889 7890 7891 7892 7893 7894 7895 7896 7897 7898 7899 7900 7901 7902 7903 7904 7905 7906 7907 7908 7909 7910 7911 7912 7913 7914 7915 7916 7917 7918 7919 7920 7921 7922 7923 7924 7925 7926 7927 7928 7929 7930 7931 7932 7933 7934 7935 7936 7937 7938 7939 7940 7941 7942 7943 7944 7945 7946 7947 7948 7949 7950 7951 7952 7953 7954 7955 7956 7957 7958 7959 7960 7961 7962 7963 7964 7965 7966 7967 7968 7969 7970 7971 7972 7973 7974 7975 7976 7977 7978 7979 7980 7981 7982 7983 7984 7985 7986 7987 7988 7989 7990 7991 7992 7993 7994 7995 7996 7997 7998 7999 8000 8001 8002 8003 8004 8005 8006 8007 8008 8009 8010 8011 8012 8013 8014 8015 8016 8017 8018 8019 8020 8021 8022 8023 8024 8025 8026 8027 8028 8029 8030 8031 8032 8033 8034 8035 8036 8037 8038 8039 8040 8041 8042 8043 8044 8045 8046 8047 8048 8049 8050 8051 8052 8053 8054 8055 8056 8057 8058 8059 8060 8061 8062 8063 8064 8065 8066 8067 8068 8069 8070 8071 8072 8073 8074 8075 8076 8077 8078 8079 8080 8081 8082 8083 8084 8085 8086 8087 8088 8089 8090 8091 8092 8093 8094 8095 8096 8097 8098 8099 8100 8101 8102 8103 8104 8105 8106 8107 8108 8109 8110 8111 8112 8113 8114 8115 8116 8117 8118 8119 8120 8121 8122 8123 8124 8125 8126 8127 8128 8129 8130 8131 8132 8133 8134 8135 8136 8137 8138 8139 8140 8141 8142 8143 8144 8145 8146 8147 8148 8149 8150 8151 8152 8153 8154 8155 8156 8157 8158 8159 8160 8161 8162 8163 8164 8165 8166 8167 8168 8169 8170 8171 8172 8173 8174 8175 8176 8177 8178 8179 8180 8181 8182 8183 8184 8185 8186 8187 8188 8189 8190 8191 8192 8193 8194 8195 8196 8197 8198 8199 8200 8201 8202 8203 8204 8205 8206 8207 8208 8209 8210 8211 8212 8213 8214 8215 8216 8217 8218 8219 8220 8221 8222 8223 8224 8225 8226 8227 8228 8229 8230 8231 8232 8233 8234 8235 8236 8237 8238 8239 8240 8241 8242 8243 8244 8245 8246 8247 8248 8249 8250 8251 8252 8253 8254 8255 8256 8257 8258 8259 8260 8261 8262 8263 8264 8265 8266 8267 8268 8269 8270 8271 8272 8273 8274 8275 8276 8277 8278 8279 8280 8281 8282 8283 8284 8285 8286 8287 8288 8289 8290 8291 8292 8293 8294 8295 8296 8297 8298 8299 8300 8301 8302 8303 8304 8305 8306 8307 8308 8309 8310 8311 8312 8313 8314 8315 8316 8317 8318 8319 8320 8321 8322 8323 8324 8325 8326 8327 8328 8329 8330 8331 8332 8333 8334 8335 8336 8337 8338 8339 8340 8341 8342 8343 8344 8345 8346 8347 8348 8349 8350 8351 8352 8353 8354 8355 8356 8357 8358 8359 8360 8361 8362 8363 8364 8365 8366 8367 8368 8369 8370 8371 8372 8373 8374 8375 8376 8377 8378 8379 8380 8381 8382 8383 8384 8385 8386 8387 8388 8389 8390 8391 8392 8393 8394 8395 8396 8397 8398 8399 8400 8401 8402 8403 8404 8405 8406 8407 8408 8409 8410 8411 8412 8413 8414 8415 8416 8417 8418 8419 8420 8421 8422 8423 8424 8425 8426 8427 8428 8429 8430 8431 8432 8433 8434 8435 8436 8437 8438 8439 8440 8441 8442 8443 8444 8445 8446 8447 8448 8449 8450 8451 8452 8453 8454 8455 8456 8457 8458 8459 8460 8461 8462 8463 8464 8465 8466 8467 8468 8469 8470 8471 8472 8473 8474 8475 8476 8477 8478 8479 8480 8481 8482 8483 8484 8485 8486 8487 8488 8489 8490 8491 8492 8493 8494 8495 8496 8497 8498 8499 8500 8501 8502 8503 8504 8505 8506 8507 8508 8509 8510 8511 8512 8513 8514 8515 8516 8517 8518 8519 8520 8521 8522 8523 8524 8525 8526 8527 8528 8529 8530 8531 8532 8533 8534 8535 8536 8537 8538 8539 8540 8541 8542 8543 8544 8545 8546 8547 8548 8549 8550 8551 8552 8553 8554 8555 8556 8557 8558 8559 8560 8561 8562 8563 8564 8565 8566 8567 8568 8569 8570 8571 8572 8573 8574 8575 8576 8577 8578 8579 8580 8581 8582 8583 8584 8585 8586 8587 8588 8589 8590 8591 8592 8593 8594 8595 8596 8597 8598 8599 8600 8601 8602 8603 8604 8605 8606 8607 8608 8609 8610 8611 8612 8613 8614 8615 8616 8617 8618 8619 8620 8621 8622 8623 8624 8625 8626 8627 8628 8629 8630 8631 8632 8633 8634 8635 8636 8637 8638 8639 8640 8641 8642 8643 8644 8645 8646 8647 8648 8649 8650 8651 8652 8653 8654 8655 8656 8657 8658 8659 8660 8661 8662 8663 8664 8665 8666 8667 8668 8669 8670 8671 8672 8673 8674 8675 8676 8677 8678 8679 8680 8681 8682 8683 8684 8685 8686 8687 8688 8689 8690 8691 8692 8693 8694 8695 8696 8697 8698 8699 8700 8701 8702 8703 8704 8705 8706 8707 8708 8709 8710 8711 8712 8713 8714 8715 8716 8717 8718 8719 8720 8721 8722 8723 8724 8725 8726 8727 8728 8729 8730 8731 8732 8733 8734 8735 8736 8737 8738 8739 8740 8741 8742 8743 8744 8745 8746 8747 8748 8749 8750 8751 8752 8753 8754 8755 8756 8757 8758 8759 8760 8761 8762 8763 8764 8765 8766 8767 8768 8769 8770 8771 8772 8773 8774 8775 8776 8777 8778 8779 8780 8781 8782 8783 8784 8785 8786 8787 8788 8789 8790 8791 8792 8793 8794 8795 8796 8797 8798 8799 8800 8801 8802 8803 8804 8805 8806 8807 8808 8809 8810 8811 8812 8813 8814 8815 8816 8817 8818 8819 8820 8821 8822 8823 8824 8825 8826 8827 8828 8829 8830 8831 8832 8833 8834 8835 8836 8837 8838 8839 8840 8841 8842 8843 8844 8845 8846 8847 8848 8849 8850 8851 8852 8853 8854 8855 8856 8857 8858 8859 8860 8861 8862 8863 8864 8865 8866 8867 8868 8869 8870 8871 8872 8873 8874 8875 8876 8877 8878 8879 8880 8881 8882 8883 8884 8885 8886 8887 8888 8889 8890 8891 8892 8893 8894 8895 8896 8897 8898 8899 8900 8901 8902 8903 8904 8905 8906 8907 8908 8909 8910 8911 8912 8913 8914 8915 8916 8917 8918 8919 8920 8921 8922 8923 8924 8925 8926 8927 8928 8929 8930 8931 8932 8933 8934 8935 8936 8937 8938 8939 8940 8941 8942 8943 8944 8945 8946 8947 8948 8949 8950 8951 8952 8953 8954 8955 8956 8957 8958 8959 8960 8961 8962 8963 8964 8965 8966 8967 8968 8969 8970 8971 8972 8973 8974 8975 8976 8977 8978 8979 8980 8981 8982 8983 8984 8985 8986 8987 8988 8989 8990 8991 8992 8993 8994 8995 8996 8997 8998 8999 9000 9001 9002 9003 9004 9005 9006 9007 9008 9009 9010 9011 9012 9013 9014 9015 9016 9017 9018 9019 9020 9021 9022 9023 9024 9025 9026 9027 9028 9029 9030 9031 9032 9033 9034 9035 9036 9037 9038 9039 9040 9041 9042 9043 9044 9045 9046 9047 9048 9049 9050 9051 9052 9053 9054 9055 9056 9057 9058 9059 9060 9061 9062 9063 9064 9065 9066 9067 9068 9069 9070 9071 9072 9073 9074 9075 9076 9077 9078 9079 9080 9081 9082 9083 9084 9085 9086 9087 9088 9089 9090 9091 9092 9093 9094 9095 9096 9097 9098 9099 9100 9101 9102 9103 9104 9105 9106 9107 9108 9109 9110 9111 9112 9113 9114 9115 9116 9117 9118 9119 9120 9121 9122 9123 9124 9125 9126 9127 9128 9129 9130 9131 9132 9133 9134 9135 9136 9137 9138 9139 9140 9141 9142 9143 9144 9145 9146 9147 9148 9149 9150 9151 9152 9153 9154 9155 9156 9157 9158 9159 9160 9161 9162 9163 9164 9165 9166 9167 9168 9169 9170 9171 9172 9173 9174 9175 9176 9177 9178 9179 9180 9181 9182 9183 9184 9185 9186 9187 9188 9189 9190 9191 9192 9193 9194 9195 9196 9197 9198 9199 9200 9201 9202 9203 9204 9205 9206 9207 9208 9209 9210 9211 9212 9213 9214 9215 9216 9217 9218 9219 9220 9221 9222 9223 9224 9225 9226 9227 9228 9229 9230 9231 9232 9233 9234 9235 9236 9237 9238 9239 9240 9241 9242 9243 9244 9245 9246 9247 9248 9249 9250 9251 9252 9253 9254 9255 9256 9257 9258 9259 9260 9261 9262 9263 9264 9265 9266 9267 9268 9269 9270 9271 9272 9273 9274 9275 9276 9277 9278 9279 9280 9281 9282 9283 9284 9285 9286 9287 9288 9289 9290 9291 9292 9293 9294 9295 9296 9297 9298 9299 9300 9301 9302 9303 9304 9305 9306 9307 9308 9309 9310 9311 9312 9313 9314 9315 9316 9317 9318 9319 9320 9321 9322 9323 9324 9325 9326 9327 9328 9329 9330 9331 9332 9333 9334 9335 9336 9337 9338 9339 9340 9341 9342 9343 9344 9345 9346 9347 9348 9349 9350 9351 9352 9353 9354 9355 9356 9357 9358 9359 9360 9361 9362 9363 9364 9365 9366 9367 9368 9369 9370 9371 9372 9373 9374 9375 9376 9377 9378 9379 9380 9381 9382 9383 9384 9385 9386 9387 9388 9389 9390 9391 9392 9393 9394 9395 9396 9397 9398 9399 9400 9401 9402 9403 9404 9405 9406 9407 9408 9409 9410 9411 9412 9413 9414 9415 9416 9417 9418 9419 9420 9421 9422 9423 9424 9425 9426 9427 9428 9429 9430 9431 9432 9433 9434 9435 9436 9437 9438 9439 9440 9441 9442 9443 9444 9445 9446 9447 9448 9449 9450 9451 9452 9453 9454 9455 9456 9457 9458 9459 9460 9461 9462 9463 9464 9465 9466 9467 9468 9469 9470 9471 9472 9473 9474 9475 9476 9477 9478 9479 9480 9481 9482 9483 9484 9485 9486 9487 9488 9489 9490 9491 9492 9493 9494 9495 9496 9497 9498 9499 9500 9501 9502 9503 9504 9505 9506 9507 9508 9509 9510 9511 9512 9513 9514 9515 9516 9517 9518 9519 9520 9521 9522 9523 9524 9525 9526 9527 9528 9529 9530 9531 9532 9533 9534 9535 9536 9537 9538 9539 9540 9541 9542 9543 9544 9545 9546 9547 9548 9549 9550 9551 9552 9553 9554 9555 9556 9557 9558 9559 9560 9561 9562 9563 9564 9565 9566 9567 9568 9569 9570 9571 9572 9573 9574 9575 9576 9577 9578 9579 9580 9581 9582 9583 9584 9585 9586 9587 9588 9589 9590 9591 9592 9593 9594 9595 9596 9597 9598 9599 9600 9601 9602 9603 9604 9605 9606 9607 9608 9609 9610 9611 9612 9613 9614 9615 9616 9617 9618 9619 9620 9621 9622 9623 9624 9625 9626 9627 9628 9629 9630 9631 9632 9633 9634 9635 9636 9637 9638 9639 9640 9641 9642 9643 9644 9645 9646 9647 9648 9649 9650 9651 9652 9653 9654 9655 9656 9657 9658 9659 9660 9661 9662 9663 9664 9665 9666 9667 9668 9669 9670 9671 9672 9673 9674 9675 9676 9677 9678 9679 9680 9681 9682 9683 9684 9685 9686 9687 9688 9689 9690 9691 9692 9693 9694 9695 9696 9697 9698 9699 9700 9701 9702 9703 9704 9705 9706 9707 9708 9709 9710 9711 9712 9713 9714 9715 9716 9717 9718 9719 9720 9721 9722 9723 9724 9725 9726 9727 9728 9729 9730 9731 9732 9733 9734 9735 9736 9737 9738 9739 9740 9741 9742 9743 9744 9745 9746 9747 9748 9749 9750 9751 9752 9753 9754 9755 9756 9757 9758 9759 9760 9761 9762 9763 9764 9765 9766 9767 9768 9769 9770 9771 9772 9773 9774 9775 9776 9777 9778 9779 9780 9781 9782 9783 9784 9785 9786 9787 9788 9789 9790 9791 9792 9793 9794 9795 9796 9797 9798 9799 9800 9801 9802 9803 9804 9805 9806 9807 9808 9809 9810 9811 9812 9813 9814 9815 9816 9817 9818 9819 9820 9821 9822 9823 9824 9825 9826 9827 9828 9829 9830 9831 9832 9833 9834 9835 9836 9837 9838 9839 9840 9841 9842 9843 9844 9845 9846 9847 9848 9849 9850 9851 9852 9853 9854 9855 9856 9857 9858 9859 9860 9861 9862 9863 9864 9865 9866 9867 9868 9869 9870 9871 9872 9873 9874 9875 9876 9877 9878 9879 9880 9881 9882 9883 9884 9885 9886 9887 9888 9889 9890 9891 9892 9893 9894 9895 9896 9897 9898 9899 9900 9901 9902 9903 9904 9905 9906 9907 9908 9909 9910 9911 9912 9913 9914 9915 9916 9917 9918 9919 9920 9921 9922 9923 9924 9925 9926 9927 9928 9929 9930 9931 9932 9933 9934 9935 9936 9937 9938 9939 9940 9941 9942 9943 9944 9945 9946 9947 9948 9949 9950 9951 9952 9953 9954 9955 9956 9957 9958 9959 9960 9961 9962 9963 9964 9965 9966 9967 9968 9969 9970 9971 9972 9973 9974 9975 9976 9977 9978 9979 9980 9981 9982 9983 9984 9985 9986 9987 9988 9989 9990 9991 9992 9993 9994 9995 9996 9997 9998 9999 10000 10001 10002 10003 10004 10005 10006 10007 10008 10009 10010 10011 10012 10013 10014 10015 10016 10017 10018 10019 10020 10021 10022 10023 10024 10025 10026 10027 10028 10029 10030 10031 10032 10033 10034 10035 10036 10037 10038 10039 10040 10041 10042 10043 10044 10045 10046 10047 10048 10049 10050 10051 10052 10053 10054 10055 10056 10057 10058 10059 10060 10061 10062 10063 10064 10065 10066 10067 10068 10069 10070 10071 10072 10073 10074 10075 10076 10077 10078 10079 10080 10081 10082 10083 10084 10085 10086 10087 10088 10089 10090 10091 10092 10093 10094 10095 10096 10097 10098 10099 10100 10101 10102 10103 10104 10105 10106 10107 10108 10109 10110 10111 10112 10113 10114 10115 10116 10117 10118 10119 10120 10121 10122 10123 10124 10125 10126 10127 10128 10129 10130 10131 10132 10133 10134 10135 10136 10137 10138 10139 10140 10141 10142 10143 10144 10145 10146 10147 10148 10149 10150 10151 10152 10153 10154 10155 10156 10157 10158 10159 10160 10161 10162 10163 10164 10165 10166 10167 10168 10169 10170 10171 10172 10173 10174 10175 10176 10177 10178 10179 10180 10181 10182 10183 10184 10185 10186 10187 10188 10189 10190 10191 10192 10193 10194 10195 10196 10197 10198 10199 10200 10201 10202 10203 10204 10205 10206 10207 10208 10209 10210 10211 10212 10213 10214 10215 10216 10217 10218 10219 10220 10221 10222 10223 10224 10225 10226 10227 10228 10229 10230 10231 10232 10233 10234 10235 10236 10237 10238 10239 10240 10241 10242 10243 10244 10245 10246 10247 10248 10249 10250 10251 10252 10253 10254 10255 10256 10257 10258 10259 10260 10261 10262 10263 10264 10265 10266 10267 10268 10269 10270 10271 10272 10273 10274 10275 10276 10277 10278 10279 10280 10281 10282 10283 10284 10285 10286 10287 10288 10289 10290 10291 10292 10293 10294 10295 10296 10297 10298 10299 10300 10301 10302 10303 10304 10305 10306 10307 10308 10309 10310 10311 10312 10313 10314 10315 10316 10317 10318 10319 10320 10321 10322 10323 10324 10325 10326 10327 10328 10329 10330 10331 10332 10333 10334 10335 10336 10337 10338 10339 10340 10341 10342 10343 10344 10345 10346 10347 10348 10349 10350 10351 10352 10353 10354 10355 10356 10357 10358 10359 10360 10361 10362 10363 10364 10365 10366 10367 10368 10369 10370 10371 10372 10373 10374 10375 10376 10377 10378 10379 10380 10381 10382 10383 10384 10385 10386 10387 10388 10389 10390 10391 10392 10393 10394 10395 10396 10397 10398 10399 10400 10401 10402 10403 10404 10405 10406 10407 10408 10409 10410 10411 10412 10413 10414 10415 10416 10417 10418 10419 10420 10421 10422 10423 10424 10425 10426 10427 10428 10429 10430 10431 10432 10433 10434 10435 10436 10437 10438 10439 10440 10441 10442 10443 10444 10445 10446 10447 10448 10449 10450 10451 10452 10453 10454 10455 10456 10457 10458 10459 10460 10461 10462 10463 10464 10465 10466 10467 10468 10469 10470 10471 10472 10473 10474 10475 10476 10477 10478 10479 10480 10481 10482 10483 10484 10485 10486 10487 10488 10489 10490 10491 10492 10493 10494 10495 10496 10497 10498 10499 10500 10501 10502 10503 10504 10505 10506 10507 10508 10509 10510 10511 10512 10513 10514 10515 10516 10517 10518 10519 10520 10521 10522 10523 10524 10525 10526 10527 10528 10529 10530 10531 10532 10533 10534 10535 10536 10537 10538 10539 10540 10541 10542 10543 10544 10545 10546 10547 10548 10549 10550 10551 10552 10553 10554 10555 10556 10557 10558 10559 10560 10561 10562 10563 10564 10565 10566 10567 10568 10569 10570 10571 10572 10573 10574 10575 10576 10577 10578 10579 10580 10581 10582 10583 10584 10585 10586 10587 10588 10589 10590 10591 10592 10593 10594 10595 10596 10597 10598 10599 10600 10601 10602 10603 10604 10605 10606 10607 10608 10609 10610 10611 10612 10613 10614 10615 10616 10617 10618 10619 10620 10621 10622 10623 10624 10625 10626 10627 10628 10629 10630 10631 10632 10633 10634 10635 10636 10637 10638 10639 10640 10641 10642 10643 10644 10645 10646 10647 10648 10649 10650 10651 10652 10653 10654 10655 10656 10657 10658 10659 10660 10661 10662 10663 10664 10665 10666 10667 10668 10669 10670 10671 10672 10673 10674 10675 10676 10677 10678 10679 10680 10681 10682 10683 10684 10685 10686 10687 10688 10689 10690 10691 10692 10693 10694 10695 10696 10697 10698 10699 10700 10701 10702 10703 10704 10705 10706 10707 10708 10709 10710 10711 10712 10713 10714 10715 10716 10717 10718 10719 10720 10721 10722 10723 10724 10725 10726 10727 10728 10729 10730 10731 10732 10733 10734 10735 10736 10737 10738 10739 10740 10741 10742 10743 10744 10745 10746 10747 10748 10749 10750 10751 10752 10753 10754 10755 10756 10757 10758 10759 10760 10761 10762 10763 10764 10765 10766 10767 10768 10769 10770 10771 10772 10773 10774 10775 10776 10777 10778 10779 10780 10781 10782 10783 10784 10785 10786 10787 10788 10789 10790 10791 10792 10793 10794 10795 10796 10797 10798 10799 10800 10801 10802 10803 10804 10805 10806 10807 10808 10809 10810 10811 10812 10813 10814 10815 10816 10817 10818 10819 10820 10821 10822 10823 10824 10825 10826 10827 10828 10829 10830 10831 10832 10833 10834 10835 10836 10837 10838 10839 10840 10841 10842 10843 10844 10845 10846 10847 10848 10849 10850 10851 10852 10853 10854 10855 10856 10857 10858 10859 10860 10861 10862 10863 10864 10865 10866 10867 10868 10869 10870 10871 10872 10873 10874 10875 10876 10877 10878 10879 10880 10881 10882 10883 10884 10885 10886 10887 10888 10889 10890 10891 10892 10893 10894 10895 10896 10897 10898 10899 10900 10901 10902 10903 10904 10905 10906 10907 10908 10909 10910 10911 10912 10913 10914 10915 10916 10917 10918 10919 10920 10921 10922 10923 10924 10925 10926 10927 10928 10929 10930 10931 10932 10933 10934 10935 10936 10937 10938 10939 10940 10941 10942 10943 10944 10945 10946 10947 10948 10949 10950 10951 10952 10953 10954 10955 10956 10957 10958 10959 10960 10961 10962 10963 10964 10965 10966 10967 10968 10969 10970 10971 10972 10973 10974 10975 10976 10977 10978 10979 10980 10981 10982 10983 10984 10985 10986 10987 10988 10989 10990 10991 10992 10993 10994 10995 10996 10997 10998 10999 11000 11001 11002 11003 11004 11005 11006 11007 11008 11009 11010 11011 11012 11013 11014 11015 11016 11017 11018 11019 11020 11021 11022 11023 11024 11025 11026 11027 11028 11029 11030 11031 11032 11033 11034 11035 11036 11037 11038 11039 11040 11041 11042 11043 11044 11045 11046 11047 11048 11049 11050 11051 11052 11053 11054 11055 11056 11057 11058 11059 11060 11061 11062 11063 11064 11065 11066 11067 11068 11069 11070 11071 11072 11073 11074 11075 11076 11077 11078 11079 11080 11081 11082 11083 11084 11085 11086 11087 11088 11089 11090 11091 11092 11093 11094 11095 11096 11097 11098 11099 11100 11101 11102 11103 11104 11105 11106 11107 11108 11109 11110 11111 11112 11113 11114 11115 11116 11117 11118 11119 11120 11121 11122 11123 11124 11125 11126 11127 11128 11129 11130 11131 11132 11133 11134 11135 11136 11137 11138 11139 11140 11141 11142 11143 11144 11145 11146 11147 11148 11149 11150 11151 11152 11153 11154 11155 11156 11157 11158 11159 11160 11161 11162 11163 11164 11165 11166 11167 11168 11169 11170 11171 11172 11173 11174 11175 11176 11177 11178 11179 11180 11181 11182 11183 11184 11185 11186 11187 11188 11189 11190 11191 11192 11193 11194 11195 11196 11197 11198 11199 11200 11201 11202 11203 11204 11205 11206 11207 11208 11209 11210 11211 11212 11213 11214 11215 11216 11217 11218 11219 11220 11221 11222 11223 11224 11225 11226 11227 11228 11229 11230 11231 11232 11233 11234 11235 11236 11237 11238 11239 11240 11241 11242 11243 11244 11245 11246 11247 11248 11249 11250 11251 11252 11253 11254 11255 11256 11257 11258 11259 11260 11261 11262 11263 11264 11265 11266 11267 11268 11269 11270 11271 11272 11273 11274 11275 11276 11277 11278 11279 11280 11281 11282 11283 11284 11285 11286 11287 11288 11289 11290 11291 11292 11293 11294 11295 11296 11297 11298 11299 11300 11301 11302 11303 11304 11305 11306 11307 11308 11309 11310 11311 11312 11313 11314 11315 11316 11317 11318 11319 11320 11321 11322 11323 11324 11325 11326 11327 11328 11329 11330 11331 11332 11333 11334 11335 11336 11337 11338 11339 11340 11341 11342 11343 11344 11345 11346 11347 11348 11349 11350 11351 11352 11353 11354 11355 11356 11357 11358 11359 11360 11361 11362 11363 11364 11365 11366 11367 11368 11369 11370 11371 11372 11373 11374 11375 11376 11377 11378 11379 11380 11381 11382 11383 11384 11385 11386 11387 11388 11389 11390 11391 11392 11393 11394 11395 11396 11397 11398 11399 11400 11401 11402 11403 11404 11405 11406 11407 11408 11409 11410 11411 11412 11413 11414 11415 11416 11417 11418 11419 11420 11421 11422 11423 11424 11425 11426 11427 11428 11429 11430 11431 11432 11433 11434 11435 11436 11437 11438 11439 11440 11441 11442 11443 11444 11445 11446 11447 11448 11449 11450 11451 11452 11453 11454 11455 11456 11457 11458 11459 11460 11461 11462 11463 11464 11465 11466 11467 11468 11469 11470 11471 11472 11473 11474 11475 11476 11477 11478 11479 11480 11481 11482 11483 11484 11485 11486 11487 11488 11489 11490 11491 11492 11493 11494 11495 11496 11497 11498 11499 11500 11501 11502 11503 11504 11505 11506 11507 11508 11509 11510 11511 11512 11513 11514 11515 11516 11517 11518 11519 11520 11521 11522 11523 11524 11525 11526 11527 11528 11529 11530 11531 11532 11533 11534 11535 11536 11537 11538 11539 11540 11541 11542 11543 11544 11545 11546 11547 11548 11549 11550 11551 11552 11553 11554 11555 11556 11557 11558 11559 11560 11561 11562 11563 11564 11565 11566 11567 11568 11569 11570 11571 11572 11573 11574 11575 11576 11577 11578 11579 11580 11581 11582 11583 11584 11585 11586 11587 11588 11589 11590 11591 11592 11593 11594 11595 11596 11597 11598 11599 11600 11601 11602 11603 11604 11605 11606 11607 11608 11609 11610 11611 11612 11613 11614 11615 11616 11617 11618 11619 11620 11621 11622 11623 11624 11625 11626 11627 11628 11629 11630 11631 11632 11633 11634 11635 11636 11637 11638 11639 11640 11641 11642 11643 11644 11645 11646 11647 11648 11649 11650 11651 11652 11653 11654 11655 11656 11657 11658 11659 11660 11661 11662 11663 11664 11665 11666 11667 11668 11669 11670 11671 11672 11673 11674 11675 11676 11677 11678 11679 11680 11681 11682 11683 11684 11685 11686 11687 11688 11689 11690 11691 11692 11693 11694 11695 11696 11697 11698 11699 11700 11701 11702 11703 11704 11705 11706 11707 11708 11709 11710 11711 11712 11713 11714 11715 11716 11717 11718 11719 11720 11721 11722 11723 11724 11725 11726 11727 11728 11729 11730 11731 11732 11733 11734 11735 11736 11737 11738 11739 11740 11741 11742 11743 11744 11745 11746 11747 11748 11749 11750 11751 11752 11753 11754 11755 11756 11757 11758 11759 11760 11761 11762 11763 11764 11765 11766 11767 11768 11769 11770 11771 11772 11773 11774 11775 11776 11777 11778 11779 11780 11781 11782 11783 11784 11785 11786 11787 11788 11789 11790 11791 11792 11793 11794 11795 11796 11797 11798 11799 11800 11801 11802 11803 11804 11805 11806 11807 11808 11809 11810 11811 11812 11813 11814 11815 11816 11817 11818 11819 11820 11821 11822 11823 11824 11825 11826 11827 11828 11829 11830 11831 11832 11833 11834 11835 11836 11837 11838 11839 11840 11841 11842 11843 11844 11845 11846 11847 11848 11849 11850 11851 11852 11853 11854 11855 11856 11857 11858 11859 11860 11861 11862 11863 11864 11865 11866 11867 11868 11869 11870 11871 11872 11873 11874 11875 11876 11877 11878 11879 11880 11881 11882 11883 11884 11885 11886 11887 11888 11889 11890 11891 11892 11893 11894 11895 11896 11897 11898 11899 11900 11901 11902 11903 11904 11905 11906 11907 11908 11909 11910 11911 11912 11913 11914 11915 11916 11917 11918 11919 11920 11921 11922 11923 11924 11925 11926 11927 11928 11929 11930 11931 11932 11933 11934 11935 11936 11937 11938 11939 11940 11941 11942 11943 11944 11945 11946 11947 11948 11949 11950 11951 11952 11953 11954 11955 11956 11957 11958 11959 11960 11961 11962 11963 11964 11965 11966 11967 11968 11969 11970 11971 11972 11973 11974 11975 11976 11977 11978 11979 11980 11981 11982 11983 11984 11985 11986 11987 11988 11989 11990 11991 11992 11993 11994 11995 11996 11997 11998 11999 12000 12001 12002 12003 12004 12005 12006 12007 12008 12009 12010 12011 12012 12013 12014 12015 12016 12017 12018 12019 12020 12021 12022 12023 12024 12025 12026 12027 12028 12029 12030 12031 12032 12033 12034 12035 12036 12037 12038 12039 12040 12041 12042 12043 12044 12045 12046 12047 12048 12049 12050 12051 12052 12053 12054 12055 12056 12057 12058 12059 12060 12061 12062 12063 12064 12065 12066 12067 12068 12069 12070 12071 12072 12073 12074 12075 12076 12077 12078 12079 12080 12081 12082 12083 12084 12085 12086 12087 12088 12089 12090 12091 12092 12093 12094 12095 12096 12097 12098 12099 12100 12101 12102 12103 12104 12105 12106 12107 12108 12109 12110 12111 12112 12113 12114 12115 12116 12117 12118 12119 12120 12121 12122 12123 12124 12125 12126 12127 12128 12129 12130 12131 12132 12133 12134 12135 12136 12137 12138 12139 12140 12141 12142 12143 12144 12145 12146 12147 12148 12149 12150 12151 12152 12153 12154 12155 12156 12157 12158 12159 12160 12161 12162 12163 12164 12165 12166 12167 12168 12169 12170 12171 12172 12173 12174 12175 12176 12177 12178 12179 12180 12181 12182 12183 12184 12185 12186 12187 12188 12189 12190 12191 12192 12193 12194 12195 12196 12197 12198 12199 12200 12201 12202 12203 12204 12205 12206 12207 12208 12209 12210 12211 12212 12213 12214 12215 12216 12217 12218 12219 12220 12221 12222 12223 12224 12225 12226 12227 12228 12229 12230 12231 12232 12233 12234 12235 12236 12237 12238 12239 12240 12241 12242 12243 12244 12245 12246 12247 12248 12249 12250 12251 12252 12253 12254 12255 12256 12257 12258 12259 12260 12261 12262 12263 12264 12265 12266 12267 12268 12269 12270 12271 12272 12273 12274 12275 12276 12277 12278 12279 12280 12281 12282 12283 12284 12285 12286 12287 12288 12289 12290 12291 12292 12293 12294 12295 12296 12297 12298 12299 12300 12301 12302 12303 12304 12305 12306 12307 12308 12309 12310 12311 12312 12313 12314 12315 12316 12317 12318 12319 12320 12321 12322 12323 12324 12325 12326 12327 12328 12329 12330 12331 12332 12333 12334 12335 12336 12337 12338 12339 12340 12341 12342 12343 12344 12345 12346 12347 12348 12349 12350 12351 12352 12353 12354 12355 12356 12357 12358 12359 12360 12361 12362 12363 12364 12365 12366 12367 12368 12369 12370 12371 12372 12373 12374 12375 12376 12377 12378 12379 12380 12381 12382 12383 12384 12385 12386 12387 12388 12389 12390 12391 12392 12393 12394 12395 12396 12397 12398 12399 12400 12401 12402 12403 12404 12405 12406 12407 12408 12409 12410 12411 12412 12413 12414 12415 12416 12417 12418 12419 12420 12421 12422 12423 12424 12425 12426 12427 12428 12429 12430 12431 12432 12433 12434 12435 12436 12437 12438 12439 12440 12441 12442 12443 12444 12445 12446 12447 12448 12449 12450 12451 12452 12453 12454 12455 12456 12457 12458 12459 12460 12461 12462 12463 12464 12465 12466 12467 12468 12469 12470 12471 12472 12473 12474 12475 12476 12477 12478 12479 12480 12481 12482 12483 12484 12485 12486 12487 12488 12489 12490 12491 12492 12493 12494 12495 12496 12497 12498 12499 12500 12501 12502 12503 12504 12505 12506 12507 12508 12509 12510 12511 12512 12513 12514 12515 12516 12517 12518 12519 12520 12521 12522 12523 12524 12525 12526 12527 12528 12529 12530 12531 12532 12533 12534 12535 12536 12537 12538 12539 12540 12541 12542 12543 12544 12545 12546 12547 12548 12549 12550 12551 12552 12553 12554 12555 12556 12557 12558 12559 12560 12561 12562 12563 12564 12565 12566 12567 12568 12569 12570 12571 12572 12573 12574 12575 12576 12577 12578 12579 12580 12581 12582 12583 12584 12585 12586 12587 12588 12589 12590 12591 12592 12593 12594 12595 12596 12597 12598 12599 12600 12601 12602 12603 12604 12605 12606 12607 12608 12609 12610 12611 12612 12613 12614 12615 12616 12617 12618 12619 12620 12621 12622 12623 12624 12625 12626 12627 12628 12629 12630 12631 12632 12633 12634 12635 12636 12637 12638 12639 12640 12641 12642 12643 12644 12645 12646 12647 12648 12649 12650 12651 12652 12653 12654 12655 12656 12657 12658 12659 12660 12661 12662 12663 12664 12665 12666 12667 12668 12669 12670 12671 12672 12673 12674 12675 12676 12677 12678 12679 12680 12681 12682 12683 12684 12685 12686 12687 12688 12689 12690 12691 12692 12693 12694 12695 12696 12697 12698 12699 12700 12701 12702 12703 12704 12705 12706 12707 12708 12709 12710 12711 12712 12713 12714 12715 12716 12717 12718 12719 12720 12721 12722 12723 12724 12725 12726 12727 12728 12729 12730 12731 12732 12733 12734 12735 12736 12737 12738 12739 12740 12741 12742 12743 12744 12745 12746 12747 12748 12749 12750 12751 12752 12753 12754 12755 12756 12757 12758 12759 12760 12761 12762 12763 12764 12765 12766 12767 12768 12769 12770 12771 12772 12773 12774 12775 12776 12777 12778 12779 12780 12781 12782 12783 12784 12785 12786 12787 12788 12789 12790 12791 12792 12793 12794 12795 12796 12797 12798 12799 12800 12801 12802 12803 12804 12805 12806 12807 12808 12809 12810 12811 12812 12813 12814 12815 12816 12817 12818 12819 12820 12821 12822 12823 12824 12825 12826 12827 12828 12829 12830 12831 12832 12833 12834 12835 12836 12837 12838 12839 12840 12841 12842 12843 12844 12845 12846 12847 12848 12849 12850 12851 12852 12853 12854 12855 12856 12857 12858 12859 12860 12861 12862 12863 12864 12865 12866 12867 12868 12869 12870 12871 12872 12873 12874 12875 12876 12877 12878 12879 12880 12881 12882 12883 12884 12885 12886 12887 12888 12889 12890 12891 12892 12893 12894 12895 12896 12897 12898 12899 12900 12901 12902 12903 12904 12905 12906 12907 12908 12909 12910 12911 12912 12913 12914 12915 12916 12917 12918 12919 12920 12921 12922 12923 12924 12925 12926 12927 12928 12929 12930 12931 12932 12933 12934 12935 12936 12937 12938 12939 12940 12941 12942 12943 12944 12945 12946 12947 12948 12949 12950 12951 12952 12953 12954 12955 12956 12957 12958 12959 12960 12961 12962 12963 12964 12965 12966 12967 12968 12969 12970 12971 12972 12973 12974 12975 12976 12977 12978 12979 12980 12981 12982 12983 12984 12985 12986 12987 12988 12989 12990 12991 12992 12993 12994 12995 12996 12997 12998 12999 13000 13001 13002 13003 13004 13005 13006 13007 13008 13009 13010 13011 13012 13013 13014 13015 13016 13017 13018 13019 13020 13021 13022 13023 13024 13025 13026 13027 13028 13029 13030 13031 13032 13033 13034 13035 13036 13037 13038 13039 13040 13041 13042 13043 13044 13045 13046 13047 13048 13049 13050 13051 13052 13053 13054 13055 13056 13057 13058 13059 13060 13061 13062 13063 13064 13065 13066 13067 13068 13069 13070 13071 13072 13073 13074 13075 13076 13077 13078 13079 13080 13081 13082 13083 13084 13085 13086 13087 13088 13089 13090 13091 13092 13093 13094 13095 13096 13097 13098 13099 13100 13101 13102 13103 13104 13105 13106 13107 13108 13109 13110 13111 13112 13113 13114 13115 13116 13117 13118 13119 13120 13121 13122 13123 13124 13125 13126 13127 13128 13129 13130 13131 13132 13133 13134 13135 13136 13137 13138 13139 13140 13141 13142 13143 13144 13145 13146 13147 13148 13149 13150 13151 13152 13153 13154 13155 13156 13157 13158 13159 13160 13161 13162 13163 13164 13165 13166 13167 13168 13169 13170 13171 13172 13173 13174 13175 13176 13177 13178 13179 13180 13181 13182 13183 13184 13185 13186 13187 13188 13189 13190 13191 13192 13193 13194 13195 13196 13197 13198 13199 13200 13201 13202 13203 13204 13205 13206 13207 13208 13209 13210 13211 13212 13213 13214 13215 13216 13217 13218 13219 13220 13221 13222 13223 13224 13225 13226 13227 13228 13229 13230 13231 13232 13233 13234 13235 13236 13237 13238 13239 13240 13241 13242 13243 13244 13245 13246 13247 13248 13249 13250 13251 13252 13253 13254 13255 13256 13257 13258 13259 13260 13261 13262 13263 13264 13265 13266 13267 13268 13269 13270 13271 13272 13273 13274 13275 13276 13277 13278 13279 13280 13281 13282 13283 13284 13285 13286 13287 13288 13289 13290 13291 13292 13293 13294 13295 13296 13297 13298 13299 13300 13301 13302 13303 13304 13305 13306 13307 13308 13309 13310 13311 13312 13313 13314 13315 13316 13317 13318 13319 13320 13321 13322 13323 13324 13325 13326 13327 13328 13329 13330 13331 13332 13333 13334 13335 13336 13337 13338 13339 13340 13341 13342 13343 13344 13345 13346 13347 13348 13349 13350 13351 13352 13353 13354 13355 13356 13357 13358 13359 13360 13361 13362 13363 13364 13365 13366 13367 13368 13369 13370 13371 13372 13373 13374 13375 13376 13377 13378 13379 13380 13381 13382 13383 13384 13385 13386 13387 13388 13389 13390 13391 13392 13393 13394 13395 13396 13397 13398 13399 13400 13401 13402 13403 13404 13405 13406 13407 13408 13409 13410 13411 13412 13413 13414 13415 13416 13417 13418 13419 13420 13421 13422 13423 13424 13425 13426 13427 13428 13429 13430 13431 13432 13433 13434 13435 13436 13437 13438 13439 13440 13441 13442 13443 13444 13445 13446 13447 13448 13449 13450 13451 13452 13453 13454 13455 13456 13457 13458 13459 13460 13461 13462 13463 13464 13465 13466 13467 13468 13469 13470 13471 13472 13473 13474 13475 13476 13477 13478 13479 13480 13481 13482 13483 13484 13485 13486 13487 13488 13489 13490 13491 13492 13493 13494 13495 13496 13497 13498 13499 13500 13501 13502 13503 13504 13505 13506 13507 13508 13509 13510 13511 13512 13513 13514 13515 13516 13517 13518 13519 13520 13521 13522 13523 13524 13525 13526 13527 13528 13529 13530 13531 13532 13533 13534 13535 13536 13537 13538 13539 13540 13541 13542 13543 13544 13545 13546 13547 13548 13549 13550 13551 13552 13553 13554 13555 13556 13557 13558 13559 13560 13561 13562 13563 13564 13565 13566 13567 13568 13569 13570 13571 13572 13573 13574 13575 13576 13577 13578 13579 13580 13581 13582 13583 13584 13585 13586 13587 13588 13589 13590 13591 13592 13593 13594 13595 13596 13597 13598 13599 13600 13601 13602 13603 13604 13605 13606 13607 13608 13609 13610 13611 13612 13613 13614 13615 13616 13617 13618 13619 13620 13621 13622 13623 13624 13625 13626 13627 13628 13629 13630 13631 13632 13633 13634 13635 13636 13637 13638 13639 13640 13641 13642 13643 13644 13645 13646 13647 13648 13649 13650 13651 13652 13653 13654 13655 13656 13657 13658 13659 13660 13661 13662 13663 13664 13665 13666 13667 13668 13669 13670 13671 13672 13673 13674 13675 13676 13677 13678 13679 13680 13681 13682 13683 13684 13685 13686 13687 13688 13689 13690 13691 13692 13693 13694 13695 13696 13697 13698 13699 13700 13701 13702 13703 13704 13705 13706 13707 13708 13709 13710 13711 13712 13713 13714 13715 13716 13717 13718 13719 13720 13721 13722 13723 13724 13725 13726 13727 13728 13729 13730 13731 13732 13733 13734 13735 13736 13737 13738 13739 13740 13741 13742 13743 13744 13745 13746 13747 13748 13749 13750 13751 13752 13753 13754 13755 13756 13757 13758 13759 13760 13761 13762 13763 13764 13765 13766 13767 13768 13769 13770 13771 13772 13773 13774 13775 13776 13777 13778 13779 13780 13781 13782 13783 13784 13785 13786 13787 13788 13789 13790 13791 13792 13793 13794 13795 13796 13797 13798 13799 13800 13801 13802 13803 13804 13805 13806 13807 13808 13809 13810 13811 13812 13813 13814 13815 13816 13817 13818 13819 13820 13821 13822 13823 13824 13825 13826 13827 13828 13829 13830 13831 13832 13833 13834 13835 13836 13837 13838 13839 13840 13841 13842 13843 13844 13845 13846 13847 13848 13849 13850 13851 13852 13853 13854 13855 13856 13857 13858 13859 13860 13861 13862 13863 13864 13865 13866 13867 13868 13869 13870 13871 13872 13873 13874 13875 13876 13877 13878 13879 13880 13881 13882 13883 13884 13885 13886 13887 13888 13889 13890 13891 13892 13893 13894 13895 13896 13897 13898 13899 13900 13901 13902 13903 13904 13905 13906 13907 13908 13909 13910 13911 13912 13913 13914 13915 13916 13917 13918 13919 13920 13921 13922 13923 13924 13925 13926 13927 13928 13929 13930 13931 13932 13933 13934 13935 13936 13937 13938 13939 13940 13941 13942 13943 13944 13945 13946 13947 13948 13949 13950 13951 13952 13953 13954 13955 13956 13957 13958 13959 13960 13961 13962 13963 13964 13965 13966 13967 13968 13969 13970 13971 13972 13973 13974 13975 13976 13977 13978 13979 13980 13981 13982 13983 13984 13985 13986 13987 13988 13989 13990 13991 13992 13993 13994 13995 13996 13997 13998 13999 14000 14001 14002 14003 14004 14005 14006 14007 14008 14009 14010 14011 14012 14013 14014 14015 14016 14017 14018 14019 14020 14021 14022 14023 14024 14025 14026 14027 14028 14029 14030 14031 14032 14033 14034 14035 14036 14037 14038 14039 14040 14041 14042 14043 14044 14045 14046 14047 14048 14049 14050 14051 14052 14053 14054 14055 14056 14057 14058 14059 14060 14061 14062 14063 14064 14065 14066 14067 14068 14069 14070 14071 14072 14073 14074 14075 14076 14077 14078 14079 14080 14081 14082 14083 14084 14085 14086 14087 14088 14089 14090 14091 14092 14093 14094 14095 14096 14097 14098 14099 14100 14101 14102 14103 14104 14105 14106 14107 14108 14109 14110 14111 14112 14113 14114 14115 14116 14117 14118 14119 14120 14121 14122 14123 14124 14125 14126 14127 14128 14129 14130 14131 14132 14133 14134 14135 14136 14137 14138 14139 14140 14141 14142 14143 14144 14145 14146 14147 14148 14149 14150 14151 14152 14153 14154 14155 14156 14157 14158 14159 14160 14161 14162 14163 14164 14165 14166 14167 14168 14169 14170 14171 14172 14173 14174 14175 14176 14177 14178 14179 14180 14181 14182 14183 14184 14185 14186 14187 14188 14189 14190 14191 14192 14193 14194 14195 14196 14197 14198 14199 14200 14201 14202 14203 14204 14205 14206 14207 14208 14209 14210 14211 14212 14213 14214 14215 14216 14217 14218 14219 14220 14221 14222 14223 14224 14225 14226 14227 14228 14229 14230 14231 14232 14233 14234 14235 14236 14237 14238 14239 14240 14241 14242 14243 14244 14245 14246 14247 14248 14249 14250 14251 14252 14253 14254 14255 14256 14257 14258 14259 14260 14261 14262 14263 14264 14265 14266 14267 14268 14269 14270 14271 14272 14273 14274 14275 14276 14277 14278 14279 14280 14281 14282 14283 14284 14285 14286 14287 14288 14289 14290 14291 14292 14293 14294 14295 14296 14297 14298 14299 14300 14301 14302 14303 14304 14305 14306 14307 14308 14309 14310 14311 14312 14313 14314 14315 14316 14317 14318 14319 14320 14321 14322 14323 14324 14325 14326 14327 14328 14329 14330 14331 14332 14333 14334 14335 14336 14337 14338 14339 14340 14341 14342 14343 14344 14345 14346 14347 14348 14349 14350 14351 14352 14353 14354 14355 14356 14357 14358 14359 14360 14361 14362 14363 14364 14365 14366 14367 14368 14369 14370 14371 14372 14373 14374 14375 14376 14377 14378 14379 14380 14381 14382 14383 14384 14385 14386 14387 14388 14389 14390 14391 14392 14393 14394 14395 14396 14397 14398 14399 14400 14401 14402 14403 14404 14405 14406 14407 14408 14409 14410 14411 14412 14413 14414 14415 14416 14417 14418 14419 14420 14421 14422 14423 14424 14425 14426 14427 14428 14429 14430 14431 14432 14433 14434 14435 14436 14437 14438 14439 14440 14441 14442 14443 14444 14445 14446 14447 14448 14449 14450 14451 14452 14453 14454 14455 14456 14457 14458 14459 14460 14461 14462 14463 14464 14465 14466 14467 14468 14469 14470 14471 14472 14473 14474 14475 14476 14477 14478 14479 14480 14481 14482 14483 14484 14485 14486 14487 14488 14489 14490 14491 14492 14493 14494 14495 14496 14497 14498 14499 14500 14501 14502 14503 14504 14505 14506 14507 14508 14509 14510 14511 14512 14513 14514 14515 14516 14517 14518 14519 14520 14521 14522 14523 14524 14525 14526 14527 14528 14529 14530 14531 14532 14533 14534 14535 14536 14537 14538 14539 14540 14541 14542 14543 14544 14545 14546 14547 14548 14549 14550 14551 14552 14553 14554 14555 14556 14557 14558 14559 14560 14561 14562 14563 14564 14565 14566 14567 14568 14569 14570 14571 14572 14573 14574 14575 14576 14577 14578 14579 14580 14581 14582 14583 14584 14585 14586 14587 14588 14589 14590 14591 14592 14593 14594 14595 14596 14597 14598 14599 14600 14601 14602 14603 14604 14605 14606 14607 14608 14609 14610 14611 14612 14613 14614 14615 14616 14617 14618 14619 14620 14621 14622 14623 14624 14625 14626 14627 14628 14629 14630 14631 14632 14633 14634 14635 14636 14637 14638 14639 14640 14641 14642 14643 14644 14645 14646 14647 14648 14649 14650 14651 14652 14653 14654 14655 14656 14657 14658 14659 14660 14661 14662 14663 14664 14665 14666 14667 14668 14669 14670 14671 14672 14673 14674 14675 14676 14677 14678 14679 14680 14681 14682 14683 14684 14685 14686 14687 14688 14689 14690 14691 14692 14693 14694 14695 14696 14697 14698 14699 14700 14701 14702 14703 14704 14705 14706 14707 14708 14709 14710 14711 14712 14713 14714 14715 14716 14717 14718 14719 14720 14721 14722 14723 14724 14725 14726 14727 14728 14729 14730 14731 14732 14733 14734 14735 14736 14737 14738 14739 14740 14741 14742 14743 14744 14745 14746 14747 14748 14749 14750 14751 14752 14753 14754 14755 14756 14757 14758 14759 14760 14761 14762 14763 14764 14765 14766 14767 14768 14769 14770 14771 14772 14773 14774 14775 14776 14777 14778 14779 14780 14781 14782 14783 14784 14785 14786 14787 14788 14789 14790 14791 14792 14793 14794 14795 14796 14797 14798 14799 14800 14801 14802 14803 14804 14805 14806 14807 14808 14809 14810 14811 14812 14813 14814 14815 14816 14817 14818 14819 14820 14821 14822 14823 14824 14825 14826 14827 14828 14829 14830 14831 14832 14833 14834 14835 14836 14837 14838 14839 14840 14841 14842 14843 14844 14845 14846 14847 14848 14849 14850 14851 14852 14853 14854 14855 14856 14857 14858 14859 14860 14861 14862 14863 14864 14865 14866 14867 14868 14869 14870 14871 14872 14873 14874 14875 14876 14877 14878 14879 14880 14881 14882 14883 14884 14885 14886 14887 14888 14889 14890 14891 14892 14893 14894 14895 14896 14897 14898 14899 14900 14901 14902 14903 14904 14905 14906 14907 14908 14909 14910 14911 14912 14913 14914 14915 14916 14917 14918 14919 14920 14921 14922 14923 14924 14925 14926 14927 14928 14929 14930 14931 14932 14933 14934 14935 14936 14937 14938 14939 14940 14941 14942 14943 14944 14945 14946 14947 14948 14949 14950 14951 14952 14953 14954 14955 14956 14957 14958 14959 14960 14961 14962 14963 14964 14965 14966 14967 14968 14969 14970 14971 14972 14973 14974 14975 14976 14977 14978 14979 14980 14981 14982 14983 14984 14985 14986 14987 14988 14989 14990 14991 14992 14993 14994 14995 14996 14997 14998 14999 15000 15001 15002 15003 15004 15005 15006 15007 15008 15009 15010 15011 15012 15013 15014 15015 15016 15017 15018 15019 15020 15021 15022 15023 15024 15025 15026 15027 15028 15029 15030 15031 15032 15033 15034 15035 15036 15037 15038 15039 15040 15041 15042 15043 15044 15045 15046 15047 15048 15049 15050 15051 15052 15053 15054 15055 15056 15057 15058 15059 15060 15061 15062 15063 15064 15065 15066 15067 15068 15069 15070 15071 15072 15073 15074 15075 15076 15077 15078 15079 15080 15081 15082 15083 15084 15085 15086 15087 15088 15089 15090 15091 15092 15093 15094 15095 15096 15097 15098 15099 15100 15101 15102 15103 15104 15105 15106 15107 15108 15109 15110 15111 15112 15113 15114 15115 15116 15117 15118 15119 15120 15121 15122 15123 15124 15125 15126 15127 15128 15129 15130 15131 15132 15133 15134 15135 15136 15137 15138 15139 15140 15141 15142 15143 15144 15145 15146 15147 15148 15149 15150 15151 15152 15153 15154 15155 15156 15157 15158 15159 15160 15161 15162 15163 15164 15165 15166 15167 15168 15169 15170 15171 15172 15173 15174 15175 15176 15177 15178 15179 15180 15181 15182 15183 15184 15185 15186 15187 15188 15189 15190 15191 15192 15193 15194 15195 15196 15197 15198 15199 15200 15201 15202 15203 15204 15205 15206 15207 15208 15209 15210 15211 15212 15213 15214 15215 15216 15217 15218 15219 15220 15221 15222 15223 15224 15225 15226 15227 15228 15229 15230 15231 15232 15233 15234 15235 15236 15237 15238 15239 15240 15241 15242 15243 15244 15245 15246 15247 15248 15249 15250 15251 15252 15253 15254 15255 15256 15257 15258 15259 15260 15261 15262 15263 15264 15265 15266 15267 15268 15269 15270 15271 15272 15273 15274 15275 15276 15277 15278 15279 15280 15281 15282 15283 15284 15285 15286 15287 15288 15289 15290 15291 15292 15293 15294 15295 15296 15297 15298 15299 15300 15301 15302 15303 15304 15305 15306 15307 15308 15309 15310 15311 15312 15313 15314 15315 15316 15317 15318 15319 15320 15321 15322 15323 15324 15325 15326 15327 15328 15329 15330 15331 15332 15333 15334 15335 15336 15337 15338 15339 15340 15341 15342 15343 15344 15345 15346 15347 15348 15349 15350 15351 15352 15353 15354 15355 15356 15357 15358 15359 15360 15361 15362 15363 15364 15365 15366 15367 15368 15369 15370 15371 15372 15373 15374 15375 15376 15377 15378 15379 15380 15381 15382 15383 15384 15385 15386 15387 15388 15389 15390 15391 15392 15393 15394 15395 15396 15397 15398 15399 15400 15401 15402 15403 15404 15405 15406 15407 15408 15409 15410 15411 15412 15413 15414 15415 15416 15417 15418 15419 15420 15421 15422 15423 15424 15425 15426 15427 15428 15429 15430 15431 15432 15433 15434 15435 15436 15437 15438 15439 15440 15441 15442 15443 15444 15445 15446 15447 15448 15449 15450 15451 15452 15453 15454 15455 15456 15457 15458 15459 15460 15461 15462 15463 15464 15465 15466 15467 15468 15469 15470 15471 15472 15473 15474 15475 15476 15477 15478 15479 15480 15481 15482 15483 15484 15485 15486 15487 15488 15489 15490 15491 15492 15493 15494 15495 15496 15497 15498 15499 15500 15501 15502 15503 15504 15505 15506 15507 15508 15509 15510 15511 15512 15513 15514 15515 15516 15517 15518 15519 15520 15521 15522 15523 15524 15525 15526 15527 15528 15529 15530 15531 15532 15533 15534 15535 15536 15537 15538 15539 15540 15541 15542 15543 15544 15545 15546 15547 15548 15549 15550 15551 15552 15553 15554 15555 15556 15557 15558 15559 15560 15561 15562 15563 15564 15565 15566 15567 15568 15569 15570 15571 15572 15573 15574 15575 15576 15577 15578 15579 15580 15581 15582 15583 15584 15585 15586 15587 15588 15589 15590 15591 15592 15593 15594 15595 15596 15597 15598 15599 15600 15601 15602 15603 15604 15605 15606 15607 15608 15609 15610 15611 15612 15613 15614 15615 15616 15617 15618 15619 15620 15621 15622 15623 15624 15625 15626 15627 15628 15629 15630 15631 15632 15633 15634 15635 15636 15637 15638 15639 15640 15641 15642 15643 15644 15645 15646 15647 15648 15649 15650 15651 15652 15653 15654 15655 15656 15657 15658 15659 15660 15661 15662 15663 15664 15665 15666 15667 15668 15669 15670 15671 15672 15673 15674 15675 15676 15677 15678 15679 15680 15681 15682 15683 15684 15685 15686 15687 15688 15689 15690 15691 15692 15693 15694 15695 15696 15697 15698 15699 15700 15701 15702 15703 15704 15705 15706 15707 15708 15709 15710 15711 15712 15713 15714 15715 15716 15717 15718 15719 15720 15721 15722 15723 15724 15725 15726 15727 15728 15729 15730 15731 15732 15733 15734 15735 15736 15737 15738 15739 15740 15741 15742 15743 15744 15745 15746 15747 15748 15749 15750 15751 15752 15753 15754 15755 15756 15757 15758 15759 15760 15761 15762 15763 15764 15765 15766 15767 15768 15769 15770 15771 15772 15773 15774 15775 15776 15777 15778 15779 15780 15781 15782 15783 15784 15785 15786 15787 15788 15789 15790 15791 15792 15793 15794 15795 15796 15797 15798 15799 15800 15801 15802 15803 15804 15805 15806 15807 15808 15809 15810 15811 15812 15813 15814 15815 15816 15817 15818 15819 15820 15821 15822 15823 15824 15825 15826 15827 15828 15829 15830 15831 15832 15833 15834 15835 15836 15837 15838 15839 15840 15841 15842 15843 15844 15845 15846 15847 15848 15849 15850 15851 15852 15853 15854 15855 15856 15857 15858 15859 15860 15861 15862 15863 15864 15865 15866 15867 15868 15869 15870 15871 15872 15873 15874 15875 15876 15877 15878 15879 15880 15881 15882 15883 15884 15885 15886 15887 15888 15889 15890 15891 15892 15893 15894 15895 15896 15897 15898 15899 15900 15901 15902 15903 15904 15905 15906 15907 15908 15909 15910 15911 15912 15913 15914 15915 15916 15917 15918 15919 15920 15921 15922 15923 15924 15925 15926 15927 15928 15929 15930 15931 15932 15933 15934 15935 15936 15937 15938 15939 15940 15941 15942 15943 15944 15945 15946 15947 15948 15949 15950 15951 15952 15953 15954 15955 15956 15957 15958 15959 15960 15961 15962 15963 15964 15965 15966 15967 15968 15969 15970 15971 15972 15973 15974 15975 15976 15977 15978 15979 15980 15981 15982 15983 15984 15985 15986 15987 15988 15989 15990 15991 15992 15993 15994 15995 15996 15997 15998 15999 16000 16001 16002 16003 16004 16005 16006 16007 16008 16009 16010 16011 16012 16013 16014 16015 16016 16017 16018 16019 16020 16021 16022 16023 16024 16025 16026 16027 16028 16029 16030 16031 16032 16033 16034 16035 16036 16037 16038 16039 16040 16041 16042 16043 16044 16045 16046 16047 16048 16049 16050 16051 16052 16053 16054 16055 16056 16057 16058 16059 16060 16061 16062 16063 16064 16065 16066 16067 16068 16069 16070 16071 16072 16073 16074 16075 16076 16077 16078 16079 16080 16081 16082 16083 16084 16085 16086 16087 16088 16089 16090 16091 16092 16093 16094 16095 16096 16097 16098 16099 16100 16101 16102 16103 16104 16105 16106 16107 16108 16109 16110 16111 16112 16113 16114 16115 16116 16117 16118 16119 16120 16121 16122 16123 16124 16125 16126 16127 16128 16129 16130 16131 16132 16133 16134 16135 16136 16137 16138 16139 16140 16141 16142 16143 16144 16145 16146 16147 16148 16149 16150 16151 16152 16153 16154 16155 16156 16157 16158 16159 16160 16161 16162 16163 16164 16165 16166 16167 16168 16169 16170 16171 16172 16173 16174 16175 16176 16177 16178 16179 16180 16181 16182 16183 16184 16185 16186 16187 16188 16189 16190 16191 16192 16193 16194 16195 16196 16197 16198 16199 16200 16201 16202 16203 16204 16205 16206 16207 16208 16209 16210 16211 16212 16213 16214 16215 16216 16217 16218 16219 16220 16221 16222 16223 16224 16225 16226 16227 16228 16229 16230 16231 16232 16233 16234 16235 16236 16237 16238 16239 16240 16241 16242 16243 16244 16245 16246 16247 16248 16249 16250 16251 16252 16253 16254 16255 16256 16257 16258 16259 16260 16261 16262 16263 16264 16265 16266 16267 16268 16269 16270 16271 16272 16273 16274 16275 16276 16277 16278 16279 16280 16281 16282 16283 16284 16285 16286 16287 16288 16289 16290 16291 16292 16293 16294 16295 16296 16297 16298 16299 16300 16301 16302 16303 16304 16305 16306 16307 16308 16309 16310 16311 16312 16313 16314 16315 16316 16317 16318 16319 16320 16321 16322 16323 16324 16325 16326 16327 16328 16329 16330 16331 16332 16333 16334 16335 16336 16337 16338 16339 16340 16341 16342 16343 16344 16345 16346 16347 16348 16349 16350 16351 16352 16353 16354 16355 16356 16357 16358 16359 16360 16361 16362 16363 16364 16365 16366 16367 16368 16369 16370 16371 16372 16373 16374 16375 16376 16377 16378 16379 16380 16381 16382 16383 16384 16385 16386 16387 16388 16389 16390 16391 16392 16393 16394 16395 16396 16397 16398 16399 16400 16401 16402 16403 16404 16405 16406 16407 16408 16409 16410 16411 16412 16413 16414 16415 16416 16417 16418 16419 16420 16421 16422 16423 16424 16425 16426 16427 16428 16429 16430 16431 16432 16433 16434 16435 16436 16437 16438 16439 16440 16441 16442 16443 16444 16445 16446 16447 16448 16449 16450 16451 16452 16453 16454 16455 16456 16457 16458 16459 16460 16461 16462 16463 16464 16465 16466 16467 16468 16469 16470 16471 16472 16473 16474 16475 16476 16477 16478 16479 16480 16481 16482 16483 16484 16485 16486 16487 16488 16489 16490 16491 16492 16493 16494 16495 16496 16497 16498 16499 16500 16501 16502 16503 16504 16505 16506 16507 16508 16509 16510 16511 16512 16513 16514 16515 16516 16517 16518 16519 16520 16521 16522 16523 16524 16525 16526 16527 16528 16529 16530 16531 16532 16533 16534 16535 16536 16537 16538 16539 16540 16541 16542 16543 16544 16545 16546 16547 16548 16549 16550 16551 16552 16553 16554 16555 16556 16557 16558 16559 16560 16561 16562 16563 16564 16565 16566 16567 16568 16569 16570 16571 16572 16573 16574 16575 16576 16577 16578 16579 16580 16581 16582 16583 16584 16585 16586 16587 16588 16589 16590 16591 16592 16593 16594 16595 16596 16597 16598 16599 16600 16601 16602 16603 16604 16605 16606 16607 16608 16609 16610 16611 16612 16613 16614 16615 16616 16617 16618 16619 16620 16621 16622 16623 16624 16625 16626 16627 16628 16629 16630 16631 16632 16633 16634 16635 16636 16637 16638 16639 16640 16641 16642 16643 16644 16645 16646 16647 16648 16649 16650 16651 16652 16653 16654 16655 16656 16657 16658 16659 16660 16661 16662 16663 16664 16665 16666 16667 16668 16669 16670 16671 16672 16673 16674 16675 16676 16677 16678 16679 16680 16681 16682 16683 16684 16685 16686 16687 16688 16689 16690 16691 16692 16693 16694 16695 16696 16697 16698 16699 16700 16701 16702 16703 16704 16705 16706 16707 16708 16709 16710 16711 16712 16713 16714 16715 16716 16717 16718 16719 16720 16721 16722 16723 16724 16725 16726 16727 16728 16729 16730 16731 16732 16733 16734 16735 16736 16737 16738 16739 16740 16741 16742 16743 16744 16745 16746 16747 16748 16749 16750 16751 16752 16753 16754 16755 16756 16757 16758 16759 16760 16761 16762 16763 16764 16765 16766 16767 16768 16769 16770 16771 16772 16773 16774 16775 16776 16777 16778 16779 16780 16781 16782 16783 16784 16785 16786 16787 16788 16789 16790 16791 16792 16793 16794 16795 16796 16797 16798 16799 16800 16801 16802 16803 16804 16805 16806 16807 16808 16809 16810 16811 16812 16813 16814 16815 16816 16817 16818 16819 16820 16821 16822 16823 16824 16825 16826 16827 16828 16829 16830 16831 16832 16833 16834 16835 16836 16837 16838 16839 16840 16841 16842 16843 16844 16845 16846 16847 16848 16849 16850 16851 16852 16853 16854 16855 16856 16857 16858 16859 16860 16861 16862 16863 16864 16865 16866 16867 16868 16869 16870 16871 16872 16873 16874 16875 16876 16877 16878 16879 16880 16881 16882 16883 16884 16885 16886 16887 16888 16889 16890 16891 16892 16893 16894 16895 16896 16897 16898 16899 16900 16901 16902 16903 16904 16905 16906 16907 16908 16909 16910 16911 16912 16913 16914 16915 16916 16917 16918 16919 16920 16921 16922 16923 16924 16925 16926 16927 16928 16929 16930 16931 16932 16933 16934 16935 16936 16937 16938 16939 16940 16941 16942 16943 16944 16945 16946 16947 16948 16949 16950 16951 16952 16953 16954 16955 16956 16957 16958 16959 16960 16961 16962 16963 16964 16965 16966 16967 16968 16969 16970 16971 16972 16973 16974 16975 16976 16977 16978 16979 16980 16981 16982 16983 16984 16985 16986 16987 16988 16989 16990 16991 16992 16993 16994 16995 16996 16997 16998 16999 17000 17001 17002 17003 17004 17005 17006 17007 17008 17009 17010 17011 17012 17013 17014 17015 17016 17017 17018 17019 17020 17021 17022 17023 17024 17025 17026 17027 17028 17029 17030 17031 17032 17033 17034 17035 17036 17037 17038 17039 17040 17041 17042 17043 17044 17045 17046 17047 17048 17049 17050 17051 17052 17053 17054 17055 17056 17057 17058 17059 17060 17061 17062 17063 17064 17065 17066 17067 17068 17069 17070 17071 17072 17073 17074 17075 17076 17077 17078 17079 17080 17081 17082 17083 17084 17085 17086 17087 17088 17089 17090 17091 17092 17093 17094 17095 17096 17097 17098 17099 17100 17101 17102 17103 17104 17105 17106 17107 17108 17109 17110 17111 17112 17113 17114 17115 17116 17117 17118 17119 17120 17121 17122 17123 17124 17125 17126 17127 17128 17129 17130 17131 17132 17133 17134 17135 17136 17137 17138 17139 17140 17141 17142 17143 17144 17145 17146 17147 17148 17149 17150 17151 17152 17153 17154 17155 17156 17157 17158 17159 17160 17161 17162 17163 17164 17165 17166 17167 17168 17169 17170 17171 17172 17173 17174 17175 17176 17177 17178 17179 17180 17181 17182 17183 17184 17185 17186 17187 17188 17189 17190 17191 17192 17193 17194 17195 17196 17197 17198 17199 17200 17201 17202 17203 17204 17205 17206 17207 17208 17209 17210 17211 17212 17213 17214 17215 17216 17217 17218 17219 17220 17221 17222 17223 17224 17225 17226 17227 17228 17229 17230 17231 17232 17233 17234 17235 17236 17237 17238 17239 17240 17241 17242 17243 17244 17245 17246 17247 17248 17249 17250 17251 17252 17253 17254 17255 17256 17257 17258 17259 17260 17261 17262 17263 17264 17265 17266 17267 17268 17269 17270 17271 17272 17273 17274 17275 17276 17277 17278 17279 17280 17281 17282 17283 17284 17285 17286 17287 17288 17289 17290 17291 17292 17293 17294 17295 17296 17297 17298 17299 17300 17301 17302 17303 17304 17305 17306 17307 17308 17309 17310 17311 17312 17313 17314 17315 17316 17317 17318 17319 17320 17321 17322 17323 17324 17325 17326 17327 17328 17329 17330 17331 17332 17333 17334 17335 17336 17337 17338 17339 17340 17341 17342 17343 17344 17345 17346 17347 17348 17349 17350 17351 17352 17353 17354 17355 17356 17357 17358 17359 17360 17361 17362 17363 17364 17365 17366 17367 17368 17369 17370 17371 17372 17373 17374 17375 17376 17377 17378 17379 17380 17381 17382 17383 17384 17385 17386 17387 17388 17389 17390 17391 17392 17393 17394 17395 17396 17397 17398 17399 17400 17401 17402 17403 17404 17405 17406 17407 17408 17409 17410 17411 17412 17413 17414 17415 17416 17417 17418 17419 17420 17421 17422 17423 17424 17425 17426 17427 17428 17429 17430 17431 17432 17433 17434 17435 17436 17437 17438 17439 17440 17441 17442 17443 17444 17445 17446 17447 17448 17449 17450 17451 17452 17453 17454 17455 17456 17457 17458 17459 17460 17461 17462 17463 17464 17465 17466 17467 17468 17469 17470 17471 17472 17473 17474 17475 17476 17477 17478 17479 17480 17481 17482 17483 17484 17485 17486 17487 17488 17489 17490 17491 17492 17493 17494 17495 17496 17497 17498 17499 17500 17501 17502 17503 17504 17505 17506 17507 17508 17509 17510 17511 17512 17513 17514 17515 17516 17517 17518 17519 17520 17521 17522 17523 17524 17525 17526 17527 17528 17529 17530 17531 17532 17533 17534 17535 17536 17537 17538 17539 17540 17541 17542 17543 17544 17545 17546 17547 17548 17549 17550 17551 17552 17553 17554 17555 17556 17557 17558 17559 17560 17561 17562 17563 17564 17565 17566 17567 17568 17569 17570 17571 17572 17573 17574 17575 17576 17577 17578 17579 17580 17581 17582 17583 17584 17585 17586 17587 17588 17589 17590 17591 17592 17593 17594 17595 17596 17597 17598 17599 17600 17601 17602 17603 17604 17605 17606 17607 17608 17609 17610 17611 17612 17613 17614 17615 17616 17617 17618 17619 17620 17621 17622 17623 17624 17625 17626 17627 17628 17629 17630 17631 17632 17633 17634 17635 17636 17637 17638 17639 17640 17641 17642 17643 17644 17645 17646 17647 17648 17649 17650 17651 17652 17653 17654 17655 17656 17657 17658 17659 17660 17661 17662 17663 17664 17665 17666 17667 17668 17669 17670 17671 17672 17673 17674 17675 17676 17677 17678 17679 17680 17681 17682 17683 17684 17685 17686 17687 17688 17689 17690 17691 17692 17693 17694 17695 17696 17697 17698 17699 17700 17701 17702 17703 17704 17705 17706 17707 17708 17709 17710 17711 17712 17713 17714 17715 17716 17717 17718 17719 17720 17721 17722 17723 17724 17725 17726 17727 17728 17729 17730 17731 17732 17733 17734 17735 17736 17737 17738 17739 17740 17741 17742 17743 17744 17745 17746 17747 17748 17749 17750 17751 17752 17753 17754 17755 17756 17757 17758 17759 17760 17761 17762 17763 17764 17765 17766 17767 17768 17769 17770 17771 17772 17773 17774 17775 17776 17777 17778 17779 17780 17781 17782 17783 17784 17785 17786 17787 17788 17789 17790 17791 17792 17793 17794 17795 17796 17797 17798 17799 17800 17801 17802 17803 17804 17805 17806 17807 17808 17809 17810 17811 17812 17813 17814 17815 17816 17817 17818 17819 17820 17821 17822 17823 17824 17825 17826 17827 17828 17829 17830 17831 17832 17833 17834 17835 17836 17837 17838 17839 17840 17841 17842 17843 17844 17845 17846 17847 17848 17849 17850 17851 17852 17853 17854 17855 17856 17857 17858 17859 17860 17861 17862 17863 17864 17865 17866 17867 17868 17869 17870 17871 17872 17873 17874 17875 17876 17877 17878 17879 17880 17881 17882 17883 17884 17885 17886 17887 17888 17889 17890 17891 17892 17893 17894 17895 17896 17897 17898 17899 17900 17901 17902 17903 17904 17905 17906 17907 17908 17909 17910 17911 17912 17913 17914 17915 17916 17917 17918 17919 17920 17921 17922 17923 17924 17925 17926 17927 17928 17929 17930 17931 17932 17933 17934 17935 17936 17937 17938 17939 17940 17941 17942 17943 17944 17945 17946 17947 17948 17949 17950 17951 17952 17953 17954 17955 17956 17957 17958 17959 17960 17961 17962 17963 17964 17965 17966 17967 17968 17969 17970 17971 17972 17973 17974 17975 17976 17977 17978 17979 17980 17981 17982 17983 17984 17985 17986 17987 17988 17989 17990 17991 17992 17993 17994 17995 17996 17997 17998 17999 18000 18001 18002 18003 18004 18005 18006 18007 18008 18009 18010 18011 18012 18013 18014 18015 18016 18017 18018 18019 18020 18021 18022 18023 18024 18025 18026 18027 18028 18029 18030 18031 18032 18033 18034 18035 18036 18037 18038 18039 18040 18041 18042 18043 18044 18045 18046 18047 18048 18049 18050 18051 18052 18053 18054 18055 18056 18057 18058 18059 18060 18061 18062 18063 18064 18065 18066 18067 18068 18069 18070 18071 18072 18073 18074 18075 18076 18077 18078 18079 18080 18081 18082 18083 18084 18085 18086 18087 18088 18089 18090 18091 18092 18093 18094 18095 18096 18097 18098 18099 18100 18101 18102 18103 18104 18105 18106 18107 18108 18109 18110 18111 18112 18113 18114 18115 18116 18117 18118 18119 18120 18121 18122 18123 18124 18125 18126 18127 18128 18129 18130 18131 18132 18133 18134 18135 18136 18137 18138 18139 18140 18141 18142 18143 18144 18145 18146 18147 18148 18149 18150 18151 18152 18153 18154 18155 18156 18157 18158 18159 18160 18161 18162 18163 18164 18165 18166 18167 18168 18169 18170 18171 18172 18173 18174 18175 18176 18177 18178 18179 18180 18181 18182 18183 18184 18185 18186 18187 18188 18189 18190 18191 18192 18193 18194 18195 18196 18197 18198 18199 18200 18201 18202 18203 18204 18205 18206 18207 18208 18209 18210 18211 18212 18213 18214 18215 18216 18217 18218 18219 18220 18221 18222 18223 18224 18225 18226 18227 18228 18229 18230 18231 18232 18233 18234 18235 18236 18237 18238 18239 18240 18241 18242 18243 18244 18245 18246 18247 18248 18249 18250 18251 18252 18253 18254 18255 18256 18257 18258 18259 18260 18261 18262 18263 18264 18265 18266 18267 18268 18269 18270 18271 18272 18273 18274 18275 18276 18277 18278 18279 18280 18281 18282 18283 18284 18285 18286 18287 18288 18289 18290 18291 18292 18293 18294 18295 18296 18297 18298 18299 18300 18301 18302 18303 18304 18305 18306 18307 18308 18309 18310 18311 18312 18313 18314 18315 18316 18317 18318 18319 18320 18321 18322 18323 18324 18325 18326 18327 18328 18329 18330 18331 18332 18333 18334 18335 18336 18337 18338 18339 18340 18341 18342 18343 18344 18345 18346 18347 18348 18349 18350 18351 18352 18353 18354 18355 18356 18357 18358 18359 18360 18361 18362 18363 18364 18365 18366 18367 18368 18369 18370 18371 18372 18373 18374 18375 18376 18377 18378 18379 18380 18381 18382 18383 18384 18385 18386 18387 18388 18389 18390 18391 18392 18393 18394 18395 18396 18397 18398 18399 18400 18401 18402 18403 18404 18405 18406 18407 18408 18409 18410 18411 18412 18413 18414 18415 18416 18417 18418 18419 18420 18421 18422 18423 18424 18425 18426 18427 18428 18429 18430 18431 18432 18433 18434 18435 18436 18437 18438 18439 18440 18441 18442 18443 18444 18445 18446 18447 18448 18449 18450 18451 18452 18453 18454 18455 18456 18457 18458 18459 18460 18461 18462 18463 18464 18465 18466 18467 18468 18469 18470 18471 18472 18473 18474 18475 18476 18477 18478 18479 18480 18481 18482 18483 18484 18485 18486 18487 18488 18489 18490 18491 18492 18493 18494 18495 18496 18497 18498 18499 18500 18501 18502 18503 18504 18505 18506 18507 18508 18509 18510 18511 18512 18513 18514 18515 18516 18517 18518 18519 18520 18521 18522 18523 18524 18525 18526 18527 18528 18529 18530 18531 18532 18533 18534 18535 18536 18537 18538 18539 18540 18541 18542 18543 18544 18545 18546 18547 18548 18549 18550 18551 18552 18553 18554 18555 18556 18557 18558 18559 18560 18561 18562 18563 18564 18565 18566 18567 18568 18569 18570 18571 18572 18573 18574 18575 18576 18577 18578 18579 18580 18581 18582 18583 18584 18585 18586 18587 18588 18589 18590 18591 18592 18593 18594 18595 18596 18597 18598 18599 18600 18601 18602 18603 18604 18605 18606 18607 18608 18609 18610 18611 18612 18613 18614 18615 18616 18617 18618 18619 18620 18621 18622 18623 18624 18625 18626 18627 18628 18629 18630 18631 18632 18633 18634 18635 18636 18637 18638 18639 18640 18641 18642 18643 18644 18645 18646 18647 18648 18649 18650 18651 18652 18653 18654 18655 18656 18657 18658 18659 18660 18661 18662 18663 18664 18665 18666 18667 18668 18669 18670 18671 18672 18673 18674 18675 18676 18677 18678 18679 18680 18681 18682 18683 18684 18685 18686 18687 18688 18689 18690 18691 18692 18693 18694 18695 18696 18697 18698 18699 18700 18701 18702 18703 18704 18705 18706 18707 18708 18709 18710 18711 18712 18713 18714 18715 18716 18717 18718 18719 18720 18721 18722 18723 18724 18725 18726 18727 18728 18729 18730 18731 18732 18733 18734 18735 18736 18737 18738 18739 18740 18741 18742 18743 18744 18745 18746 18747 18748 18749 18750 18751 18752 18753 18754 18755 18756 18757 18758 18759 18760 18761 18762 18763 18764 18765 18766 18767 18768 18769 18770 18771 18772 18773 18774 18775 18776 18777 18778 18779 18780 18781 18782 18783 18784 18785 18786 18787 18788 18789 18790 18791 18792 18793 18794 18795 18796 18797 18798 18799 18800 18801 18802 18803 18804 18805 18806 18807 18808 18809 18810 18811 18812 18813 18814 18815 18816 18817 18818 18819 18820 18821 18822 18823 18824 18825 18826 18827 18828 18829 18830 18831 18832 18833 18834 18835 18836 18837 18838 18839 18840 18841 18842 18843 18844 18845 18846 18847 18848 18849 18850 18851 18852 18853 18854 18855 18856 18857 18858 18859 18860 18861 18862 18863 18864 18865 18866 18867 18868 18869 18870 18871 18872 18873 18874 18875 18876 18877 18878 18879 18880 18881 18882 18883 18884 18885 18886 18887 18888 18889 18890 18891 18892 18893 18894 18895 18896 18897 18898 18899 18900 18901 18902 18903 18904 18905 18906 18907 18908 18909 18910 18911 18912 18913 18914 18915 18916 18917 18918 18919 18920 18921 18922 18923 18924 18925 18926 18927 18928 18929 18930 18931 18932 18933 18934 18935 18936 18937 18938 18939 18940 18941 18942 18943 18944 18945 18946 18947 18948 18949 18950 18951 18952 18953 18954 18955 18956 18957 18958 18959 18960 18961 18962 18963 18964 18965 18966 18967 18968 18969 18970 18971 18972 18973 18974 18975 18976 18977 18978 18979 18980 18981 18982 18983 18984 18985 18986 18987 18988 18989 18990 18991 18992 18993 18994 18995 18996 18997 18998 18999 19000 19001 19002 19003 19004 19005 19006 19007 19008 19009 19010 19011 19012 19013 19014 19015 19016 19017 19018 19019 19020 19021 19022 19023 19024 19025 19026 19027 19028 19029 19030 19031 19032 19033 19034 19035 19036 19037 19038 19039 19040 19041 19042 19043 19044 19045 19046 19047 19048 19049 19050 19051 19052 19053 19054 19055 19056 19057 19058 19059 19060 19061 19062 19063 19064 19065 19066 19067 19068 19069 19070 19071 19072 19073 19074 19075 19076 19077 19078 19079 19080 19081 19082 19083 19084 19085 19086 19087 19088 19089 19090 19091 19092 19093 19094 19095 19096 19097 19098 19099 19100 19101 19102 19103 19104 19105 19106 19107 19108 19109 19110 19111 19112 19113 19114 19115 19116 19117 19118 19119 19120 19121 19122 19123 19124 19125 19126 19127 19128 19129 19130 19131 19132 19133 19134 19135 19136 19137 19138 19139 19140 19141 19142 19143 19144 19145 19146 19147 19148 19149 19150 19151 19152 19153 19154 19155 19156 19157 19158 19159 19160 19161 19162 19163 19164 19165 19166 19167 19168 19169 19170 19171 19172 19173 19174 19175 19176 19177 19178 19179 19180 19181 19182 19183 19184 19185 19186 19187 19188 19189 19190 19191 19192 19193 19194 19195 19196 19197 19198 19199 19200 19201 19202 19203 19204 19205 19206 19207 19208 19209 19210 19211 19212 19213 19214 19215 19216 19217 19218 19219 19220 19221 19222 19223 19224 19225 19226 19227 19228 19229 19230 19231 19232 19233 19234 19235 19236 19237 19238 19239 19240 19241 19242 19243 19244 19245 19246 19247 19248 19249 19250 19251 19252 19253 19254 19255 19256 19257 19258 19259 19260 19261 19262 19263 19264 19265 19266 19267 19268 19269 19270 19271 19272 19273 19274 19275 19276 19277 19278 19279 19280 19281 19282 19283 19284 19285 19286 19287 19288 19289 19290 19291 19292 19293 19294 19295 19296 19297 19298 19299 19300 19301 19302 19303 19304 19305 19306 19307 19308 19309 19310 19311 19312 19313 19314 19315 19316 19317 19318 19319 19320 19321 19322 19323 19324 19325 19326 19327 19328 19329 19330 19331 19332 19333 19334 19335 19336 19337 19338 19339 19340 19341 19342 19343 19344 19345 19346 19347 19348 19349 19350 19351 19352 19353 19354 19355 19356 19357 19358 19359 19360 19361 19362 19363 19364 19365 19366 19367 19368 19369 19370 19371 19372 19373 19374 19375 19376 19377 19378 19379 19380 19381 19382 19383 19384 19385 19386 19387 19388 19389 19390 19391 19392 19393 19394 19395 19396 19397 19398 19399 19400 19401 19402 19403 19404 19405 19406 19407 19408 19409 19410 19411 19412 19413 19414 19415 19416 19417 19418 19419 19420 19421 19422 19423 19424 19425 19426 19427 19428 19429 19430 19431 19432 19433 19434 19435 19436 19437 19438 19439 19440 19441 19442 19443 19444 19445 19446 19447 19448 19449 19450 19451 19452 19453 19454 19455 19456 19457 19458 19459 19460 19461 19462 19463 19464 19465 19466 19467 19468 19469 19470 19471 19472 19473 19474 19475 19476 19477 19478 19479 19480 19481 19482 19483 19484 19485 19486 19487 19488 19489 19490 19491 19492 19493 19494 19495 19496 19497 19498 19499 19500 19501 19502 19503 19504 19505 19506 19507 19508 19509 19510 19511 19512 19513 19514 19515 19516 19517 19518 19519 19520 19521 19522 19523 19524 19525 19526 19527 19528 19529 19530 19531 19532 19533 19534 19535 19536 19537 19538 19539 19540 19541 19542 19543 19544 19545 19546 19547 19548 19549 19550 19551 19552 19553 19554 19555 19556 19557 19558 19559 19560 19561 19562 19563 19564 19565 19566 19567 19568 19569 19570 19571 19572 19573 19574 19575 19576 19577 19578 19579 19580 19581 19582 19583 19584 19585 19586 19587 19588 19589 19590 19591 19592 19593 19594 19595 19596 19597 19598 19599 19600 19601 19602 19603 19604 19605 19606 19607 19608 19609 19610 19611 19612 19613 19614 19615 19616 19617 19618 19619 19620 19621 19622 19623 19624 19625 19626 19627 19628 19629 19630 19631 19632 19633 19634 19635 19636 19637 19638 19639 19640 19641 19642 19643 19644 19645 19646 19647 19648 19649 19650 19651 19652 19653 19654 19655 19656 19657 19658 19659 19660 19661 19662 19663 19664 19665 19666 19667 19668 19669 19670 19671 19672 19673 19674 19675 19676 19677 19678 19679 19680 19681 19682 19683 19684 19685 19686 19687 19688 19689 19690 19691 19692 19693 19694 19695 19696 19697 19698 19699 19700 19701 19702 19703 19704 19705 19706 19707 19708 19709 19710 19711 19712 19713 19714 19715 19716 19717 19718 19719 19720 19721 19722 19723 19724 19725 19726 19727 19728 19729 19730 19731 19732 19733 19734 19735 19736 19737 19738 19739 19740 19741 19742 19743 19744 19745 19746 19747 19748 19749 19750 19751 19752 19753 19754 19755 19756 19757 19758 19759 19760 19761 19762 19763 19764 19765 19766 19767 19768 19769 19770 19771 19772 19773 19774 19775 19776 19777 19778 19779 19780 19781 19782 19783 19784 19785 19786 19787 19788 19789 19790 19791 19792 19793 19794 19795 19796 19797 19798 19799 19800 19801 19802 19803 19804 19805 19806 19807 19808 19809 19810 19811 19812 19813 19814 19815 19816 19817 19818 19819 19820 19821 19822 19823 19824 19825 19826 19827 19828 19829 19830 19831 19832 19833 19834 19835 19836 19837 19838 19839 19840 19841 19842 19843 19844 19845 19846 19847 19848 19849 19850 19851 19852 19853 19854 19855 19856 19857 19858 19859 19860 19861 19862 19863 19864 19865 19866 19867 19868 19869 19870 19871 19872 19873 19874 19875 19876 19877 19878 19879 19880 19881 19882 19883 19884 19885 19886 19887 19888 19889 19890 19891 19892 19893 19894 19895 19896 19897 19898 19899 19900 19901 19902 19903 19904 19905 19906 19907 19908 19909 19910 19911 19912 19913 19914 19915 19916 19917 19918 19919 19920 19921 19922 19923 19924 19925 19926 19927 19928 19929 19930 19931 19932 19933 19934 19935 19936 19937 19938 19939 19940 19941 19942 19943 19944 19945 19946 19947 19948 19949 19950 19951 19952 19953 19954 19955 19956 19957 19958 19959 19960 19961 19962 19963 19964 19965 19966 19967 19968 19969 19970 19971 19972 19973 19974 19975 19976 19977 19978 19979 19980 19981 19982 19983 19984 19985 19986 19987 19988 19989 19990 19991 19992 19993 19994 19995 19996 19997 19998 19999 20000 20001 20002 20003 20004 20005 20006 20007 20008 20009 20010 20011 20012 20013 20014 20015 20016 20017 20018 20019 20020 20021 20022 20023 20024 20025 20026 20027 20028 20029 20030 20031 20032 20033 20034 20035 20036 20037 20038 20039 20040 20041 20042 20043 20044 20045 20046 20047 20048 20049 20050 20051 20052 20053 20054 20055 20056 20057 20058 20059 20060 20061 20062 20063 20064 20065 20066 20067 20068 20069 20070 20071 20072 20073 20074 20075 20076 20077 20078 20079 20080 20081 20082 20083 20084 20085 20086 20087 20088 20089 20090 20091 20092 20093 20094 20095 20096 20097 20098 20099 20100 20101 20102 20103 20104 20105 20106 20107 20108 20109 20110 20111 20112 20113 20114 20115 20116 20117 20118 20119 20120 20121 20122 20123 20124 20125 20126 20127 20128 20129 20130 20131 20132 20133 20134 20135 20136 20137 20138 20139 20140 20141 20142 20143 20144 20145 20146 20147 20148 20149 20150 20151 20152 20153 20154 20155 20156 20157 20158 20159 20160 20161 20162 20163 20164 20165 20166 20167 20168 20169 20170 20171 20172 20173 20174 20175 20176 20177 20178 20179 20180 20181 20182 20183 20184 20185 20186 20187 20188 20189 20190 20191 20192 20193 20194 20195 20196 20197 20198 20199 20200 20201 20202 20203 20204 20205 20206 20207 20208 20209 20210 20211 20212 20213 20214 20215 20216 20217 20218 20219 20220 20221 20222 20223 20224 20225 20226 20227 20228 20229 20230 20231 20232 20233 20234 20235 20236 20237 20238 20239 20240 20241 20242 20243 20244 20245 20246 20247 20248 20249 20250 20251 20252 20253 20254 20255 20256 20257 20258 20259 20260 20261 20262 20263 20264 20265 20266 20267 20268 20269 20270 20271 20272 20273 20274 20275 20276 20277 20278 20279 20280 20281 20282 20283 20284 20285 20286 20287 20288 20289 20290 20291 20292 20293 20294 20295 20296 20297 20298 20299 20300 20301 20302 20303 20304 20305 20306 20307 20308 20309 20310 20311 20312 20313 20314 20315 20316 20317 20318 20319 20320 20321 20322 20323 20324 20325 20326 20327 20328 20329 20330 20331 20332 20333 20334 20335 20336 20337 20338 20339 20340 20341 20342 20343 20344 20345 20346 20347 20348 20349 20350 20351 20352 20353 20354 20355 20356 20357 20358 20359 20360 20361 20362 20363 20364 20365 20366 20367 20368 20369 20370 20371 20372 20373 20374 20375 20376 20377 20378 20379 20380 20381 20382 20383 20384 20385 20386 20387 20388 20389 20390 20391 20392 20393 20394 20395 20396 20397 20398 20399 20400 20401 20402 20403 20404 20405 20406 20407 20408 20409 20410 20411 20412 20413 20414 20415 20416 20417 20418 20419 20420 20421 20422 20423 20424 20425 20426 20427 20428 20429 20430 20431 20432 20433 20434 20435 20436 20437 20438 20439 20440 20441 20442 20443 20444 20445 20446 20447 20448 20449 20450 20451 20452 20453 20454 20455 20456 20457 20458 20459 20460 20461 20462 20463 20464 20465 20466 20467 20468 20469 20470 20471 20472 20473 20474 20475 20476 20477 20478 20479 20480 20481 20482 20483 20484 20485 20486 20487 20488 20489 20490 20491 20492 20493 20494 20495 20496 20497 20498 20499 20500 20501 20502 20503 20504 20505 20506 20507 20508 20509 20510 20511 20512 20513 20514 20515 20516 20517 20518 20519 20520 20521 20522 20523 20524 20525 20526 20527 20528 20529 20530 20531 20532 20533 20534 20535 20536 20537 20538 20539 20540 20541 20542 20543 20544 20545 20546 20547 20548 20549 20550 20551 20552 20553 20554 20555 20556 20557 20558 20559 20560 20561 20562 20563 20564 20565 20566 20567 20568 20569 20570 20571 20572 20573 20574 20575 20576 20577 20578 20579 20580 20581 20582 20583 20584 20585 20586 20587 20588 20589 20590 20591 20592 20593 20594 20595 20596 20597 20598 20599 20600 20601 20602 20603 20604 20605 20606 20607 20608 20609 20610 20611 20612 20613 20614 20615 20616 20617 20618 20619 20620 20621 20622 20623 20624 20625 20626 20627 20628 20629 20630 20631 20632 20633 20634 20635 20636 20637 20638 20639 20640 20641 20642 20643 20644 20645 20646 20647 20648 20649 20650 20651 20652 20653 20654 20655 20656 20657 20658 20659 20660 20661 20662 20663 20664 20665 20666 20667 20668 20669 20670 20671 20672 20673 20674 20675 20676 20677 20678 20679 20680 20681 20682 20683 20684 20685 20686 20687 20688 20689 20690 20691 20692 20693 20694 20695 20696 20697 20698 20699 20700 20701 20702 20703 20704 20705 20706 20707 20708 20709 20710 20711 20712 20713 20714 20715 20716 20717 20718 20719 20720 20721 20722 20723 20724 20725 20726 20727 20728 20729 20730 20731 20732 20733 20734 20735 20736 20737 20738 20739 20740 20741 20742 20743 20744 20745 20746 20747 20748 20749 20750 20751 20752 20753 20754 20755 20756 20757 20758 20759 20760 20761 20762 20763 20764 20765 20766 20767 20768 20769 20770 20771 20772 20773 20774 20775 20776 20777 20778 20779 20780 20781 20782 20783 20784 20785 20786 20787 20788 20789 20790 20791 20792 20793 20794 20795 20796 20797 20798 20799 20800 20801 20802 20803 20804 20805 20806 20807 20808 20809 20810 20811 20812 20813 20814 20815 20816 20817 20818 20819 20820 20821 20822 20823 20824 20825 20826 20827 20828 20829 20830 20831 20832 20833 20834 20835 20836 20837 20838 20839 20840 20841 20842 20843 20844 20845 20846 20847 20848 20849 20850 20851 20852 20853 20854 20855 20856 20857 20858 20859 20860 20861 20862 20863 20864 20865 20866 20867 20868 20869 20870 20871 20872 20873 20874 20875 20876 20877 20878 20879 20880 20881 20882 20883 20884 20885 20886 20887 20888 20889 20890 20891 20892 20893 20894 20895 20896 20897 20898 20899 20900 20901 20902 20903 20904 20905 20906 20907 20908 20909 20910 20911 20912 20913 20914 20915 20916 20917 20918 20919 20920 20921 20922 20923 20924 20925 20926 20927 20928 20929 20930 20931 20932 20933 20934 20935 20936 20937 20938 20939 20940 20941 20942 20943 20944 20945 20946 20947 20948 20949 20950 20951 20952 20953 20954 20955 20956 20957 20958 20959 20960 20961 20962 20963 20964 20965 20966 20967 20968 20969 20970 20971 20972 20973 20974 20975 20976 20977 20978 20979 20980 20981 20982 20983 20984 20985 20986 20987 20988 20989 20990 20991 20992 20993 20994 20995 20996 20997 20998 20999 21000 21001 21002 21003 21004 21005 21006 21007 21008 21009 21010 21011 21012 21013 21014 21015 21016 21017 21018 21019 21020 21021 21022 21023 21024 21025 21026 21027 21028 21029 21030 21031 21032 21033 21034 21035 21036 21037 21038 21039 21040 21041 21042 21043 21044 21045 21046 21047 21048 21049 21050 21051 21052 21053 21054 21055 21056 21057 21058 21059 21060 21061 21062 21063 21064 21065 21066 21067 21068 21069 21070 21071 21072 21073 21074 21075 21076 21077 21078 21079 21080 21081 21082 21083 21084 21085 21086 21087 21088 21089 21090 21091 21092 21093 21094 21095 21096 21097 21098 21099 21100 21101 21102 21103 21104 21105 21106 21107 21108 21109 21110 21111 21112 21113 21114 21115 21116 21117 21118 21119 21120 21121 21122 21123 21124 21125 21126 21127 21128 21129 21130 21131 21132 21133 21134 21135 21136 21137 21138 21139 21140 21141 21142 21143 21144 21145 21146 21147 21148 21149 21150 21151 21152 21153 21154 21155 21156 21157 21158 21159 21160 21161 21162 21163 21164 21165 21166 21167 21168 21169 21170 21171 21172 21173 21174 21175 21176 21177 21178 21179 21180 21181 21182 21183 21184 21185 21186 21187 21188 21189 21190 21191 21192 21193 21194 21195 21196 21197 21198 21199 21200 21201 21202 21203 21204 21205 21206 21207 21208 21209 21210 21211 21212 21213 21214 21215 21216 21217 21218 21219 21220 21221 21222 21223 21224 21225 21226 21227 21228 21229 21230 21231 21232 21233 21234 21235 21236 21237 21238 21239 21240 21241 21242 21243 21244 21245 21246 21247 21248 21249 21250 21251 21252 21253 21254 21255 21256 21257 21258 21259 21260 21261 21262 21263 21264 21265 21266 21267 21268 21269 21270 21271 21272 21273 21274 21275 21276 21277 21278 21279 21280 21281 21282 21283 21284 21285 21286 21287 21288 21289 21290 21291 21292 21293 21294 21295 21296 21297 21298 21299 21300 21301 21302 21303 21304 21305 21306 21307 21308 21309 21310 21311 21312 21313 21314 21315 21316 21317 21318 21319 21320 21321 21322 21323 21324 21325 21326 21327 21328 21329 21330 21331 21332 21333 21334 21335 21336 21337 21338 21339 21340 21341 21342 21343 21344 21345 21346 21347 21348 21349 21350 21351 21352 21353 21354 21355 21356 21357 21358 21359 21360 21361 21362 21363 21364 21365 21366 21367 21368 21369 21370 21371 21372 21373 21374 21375 21376 21377 21378 21379 21380 21381 21382 21383 21384 21385 21386 21387 21388 21389 21390 21391 21392 21393 21394 21395 21396 21397 21398 21399 21400 21401 21402 21403 21404 21405 21406 21407 21408 21409 21410 21411 21412 21413 21414 21415 21416 21417 21418 21419 21420 21421 21422 21423 21424 21425 21426 21427 21428 21429 21430 21431 21432 21433 21434 21435 21436 21437 21438 21439 21440 21441 21442 21443 21444 21445 21446 21447 21448 21449 21450 21451 21452 21453 21454 21455 21456 21457 21458 21459 21460 21461 21462 21463 21464 21465 21466 21467 21468 21469 21470 21471 21472 21473 21474 21475 21476 21477 21478 21479 21480 21481 21482 21483 21484 21485 21486 21487 21488 21489 21490 21491 21492 21493 21494 21495 21496 21497 21498 21499 21500 21501 21502 21503 21504 21505 21506 21507 21508 21509 21510 21511 21512 21513 21514 21515 21516 21517 21518 21519 21520 21521 21522 21523 21524 21525 21526 21527 21528 21529 21530 21531 21532 21533 21534 21535 21536 21537 21538 21539 21540 21541 21542 21543 21544 21545 21546 21547 21548 21549 21550 21551 21552 21553 21554 21555 21556 21557 21558 21559 21560 21561 21562 21563 21564 21565 21566 21567 21568 21569 21570 21571 21572 21573 21574 21575 21576 21577 21578 21579 21580 21581 21582 21583 21584 21585 21586 21587 21588 21589 21590 21591 21592 21593 21594 21595 21596 21597 21598 21599 21600 21601 21602 21603 21604 21605 21606 21607 21608 21609 21610 21611 21612 21613 21614 21615 21616 21617 21618 21619 21620 21621 21622 21623 21624 21625 21626 21627 21628 21629 21630 21631 21632 21633 21634 21635 21636 21637 21638 21639 21640 21641 21642 21643 21644 21645 21646 21647 21648 21649 21650 21651 21652 21653 21654 21655 21656 21657 21658 21659 21660 21661 21662 21663 21664 21665 21666 21667 21668 21669 21670 21671 21672 21673 21674 21675 21676 21677 21678 21679 21680 21681 21682 21683 21684 21685 21686 21687 21688 21689 21690 21691 21692 21693 21694 21695 21696 21697 21698 21699 21700 21701 21702 21703 21704 21705 21706 21707 21708 21709 21710 21711 21712 21713 21714 21715 21716 21717 21718 21719 21720 21721 21722 21723 21724 21725 21726 21727 21728 21729 21730 21731 21732 21733 21734 21735 21736 21737 21738 21739 21740 21741 21742 21743 21744 21745 21746 21747 21748 21749 21750 21751 21752 21753 21754 21755 21756 21757 21758 21759 21760 21761 21762 21763 21764 21765 21766 21767 21768 21769 21770 21771 21772 21773 21774 21775 21776 21777 21778 21779 21780 21781 21782 21783 21784 21785 21786 21787 21788 21789 21790 21791 21792 21793 21794 21795 21796 21797 21798 21799 21800 21801 21802 21803 21804 21805 21806 21807 21808 21809 21810 21811 21812 21813 21814 21815 21816 21817 21818 21819 21820 21821 21822 21823 21824 21825 21826 21827 21828 21829 21830 21831 21832 21833 21834 21835 21836 21837 21838 21839 21840 21841 21842 21843 21844 21845 21846 21847 21848 21849 21850 21851 21852 21853 21854 21855 21856 21857 21858 21859 21860 21861 21862 21863 21864 21865 21866 21867 21868 21869 21870 21871 21872 21873 21874 21875 21876 21877 21878 21879 21880 21881 21882 21883 21884 21885 21886 21887 21888 21889 21890 21891 21892 21893 21894 21895 21896 21897 21898 21899 21900 21901 21902 21903 21904 21905 21906 21907 21908 21909 21910 21911 21912 21913 21914 21915 21916 21917 21918 21919 21920 21921 21922 21923 21924 21925 21926 21927 21928 21929 21930 21931 21932 21933 21934 21935 21936 21937 21938 21939 21940 21941 21942 21943 21944 21945 21946 21947 21948 21949 21950 21951 21952 21953 21954 21955 21956 21957 21958 21959 21960 21961 21962 21963 21964 21965 21966 21967 21968 21969 21970 21971 21972 21973 21974 21975 21976 21977 21978 21979 21980 21981 21982 21983 21984 21985 21986 21987 21988 21989 21990 21991 21992 21993 21994 21995 21996 21997 21998 21999 22000 22001 22002 22003 22004 22005 22006 22007 22008 22009 22010 22011 22012 22013 22014 22015 22016 22017 22018 22019 22020 22021 22022 22023 22024 22025 22026 22027 22028 22029 22030 22031 22032 22033 22034 22035 22036 22037 22038 22039 22040 22041 22042 22043 22044 22045 22046 22047 22048 22049 22050 22051 22052 22053 22054 22055 22056 22057 22058 22059 22060 22061 22062 22063 22064 22065 22066 22067 22068 22069 22070 22071 22072 22073 22074 22075 22076 22077 22078 22079 22080 22081 22082 22083 22084 22085 22086 22087 22088 22089 22090 22091 22092 22093 22094 22095 22096 22097 22098 22099 22100 22101 22102 22103 22104 22105 22106 22107 22108 22109 22110 22111 22112 22113 22114 22115 22116 22117 22118 22119 22120 22121 22122 22123 22124 22125 22126 22127 22128 22129 22130 22131 22132 22133 22134 22135 22136 22137 22138 22139 22140 22141 22142 22143 22144 22145 22146 22147 22148 22149 22150 22151 22152 22153 22154 22155 22156 22157 22158 22159 22160 22161 22162 22163 22164 22165 22166 22167 22168 22169 22170 22171 22172 22173 22174 22175 22176 22177 22178 22179 22180 22181 22182 22183 22184 22185 22186 22187 22188 22189 22190 22191 22192 22193 22194 22195 22196 22197 22198 22199 22200 22201 22202 22203 22204 22205 22206 22207 22208 22209 22210 22211 22212 22213 22214 22215 22216 22217 22218 22219 22220 22221 22222 22223 22224 22225 22226 22227 22228 22229 22230 22231 22232 22233 22234 22235 22236 22237 22238 22239 22240 22241 22242 22243 22244 22245 22246 22247 22248 22249 22250 22251 22252 22253 22254 22255 22256 22257 22258 22259 22260 22261 22262 22263 22264 22265 22266 22267 22268 22269 22270 22271 22272 22273 22274 22275 22276 22277 22278 22279 22280 22281 22282 22283 22284 22285 22286 22287 22288 22289 22290 22291 22292 22293 22294 22295 22296 22297 22298 22299 22300 22301 22302 22303 22304 22305 22306 22307 22308 22309 22310 22311 22312 22313 22314 22315 22316 22317 22318 22319 22320 22321 22322 22323 22324 22325 22326 22327 22328 22329 22330 22331 22332 22333 22334 22335 22336 22337 22338 22339 22340 22341 22342 22343 22344 22345 22346 22347 22348 22349 22350 22351 22352 22353 22354 22355 22356 22357 22358 22359 22360 22361 22362 22363 22364 22365 22366 22367 22368 22369 22370 22371 22372 22373 22374 22375 22376 22377 22378 22379 22380 22381 22382 22383 22384 22385 22386 22387 22388 22389 22390 22391 22392 22393 22394 22395 22396 22397 22398 22399 22400 22401 22402 22403 22404 22405 22406 22407 22408 22409 22410 22411 22412 22413 22414 22415 22416 22417 22418 22419 22420 22421 22422 22423 22424 22425 22426 22427 22428 22429 22430 22431 22432 22433 22434 22435 22436 22437 22438 22439 22440 22441 22442 22443 22444 22445 22446 22447 22448 22449 22450 22451 22452 22453 22454 22455 22456 22457 22458 22459 22460 22461 22462 22463 22464 22465 22466 22467 22468 22469 22470 22471 22472 22473 22474 22475 22476 22477 22478 22479 22480 22481 22482 22483 22484 22485 22486 22487 22488 22489 22490 22491 22492 22493 22494 22495 22496 22497 22498 22499 22500 22501 22502 22503 22504 22505 22506 22507 22508 22509 22510 22511 22512 22513 22514 22515 22516 22517 22518 22519 22520 22521 22522 22523 22524 22525 22526 22527 22528 22529 22530 22531 22532 22533 22534 22535 22536 22537 22538 22539 22540 22541 22542 22543 22544 22545 22546 22547 22548 22549 22550 22551 22552 22553 22554 22555 22556 22557 22558 22559 22560 22561 22562 22563 22564 22565 22566 22567 22568 22569 22570 22571 22572 22573 22574 22575 22576 22577 22578 22579 22580 22581 22582 22583 22584 22585 22586 22587 22588 22589 22590 22591 22592 22593 22594 22595 22596 22597 22598 22599 22600 22601 22602 22603 22604 22605 22606 22607 22608 22609 22610 22611 22612 22613 22614 22615 22616 22617 22618 22619 22620 22621 22622 22623 22624 22625 22626 22627 22628 22629 22630 22631 22632 22633 22634 22635 22636 22637 22638 22639 22640 22641 22642 22643 22644 22645 22646 22647 22648 22649 22650 22651 22652 22653 22654 22655 22656 22657 22658 22659 22660 22661 22662 22663 22664 22665 22666 22667 22668 22669 22670 22671 22672 22673 22674 22675 22676 22677 22678 22679 22680 22681 22682 22683 22684 22685 22686 22687 22688 22689 22690 22691 22692 22693 22694 22695 22696 22697 22698 22699 22700 22701 22702 22703 22704 22705 22706 22707 22708 22709 22710 22711 22712 22713 22714 22715 22716 22717 22718 22719 22720 22721 22722 22723 22724 22725 22726 22727 22728 22729 22730 22731 22732 22733 22734 22735 22736 22737 22738 22739 22740 22741 22742 22743 22744 22745 22746 22747 22748 22749 22750 22751 22752 22753 22754 22755 22756 22757 22758 22759 22760 22761 22762 22763 22764 22765 22766 22767 22768 22769 22770 22771 22772 22773 22774 22775 22776 22777 22778 22779 22780 22781 22782 22783 22784 22785 22786 22787 22788 22789 22790 22791 22792 22793 22794 22795 22796 22797 22798 22799 22800 22801 22802 22803 22804 22805 22806 22807 22808 22809 22810 22811 22812 22813 22814 22815 22816 22817 22818 22819 22820 22821 22822 22823 22824 22825 22826 22827 22828 22829 22830 22831 22832 22833 22834 22835 22836 22837 22838 22839 22840 22841 22842 22843 22844 22845 22846 22847 22848 22849 22850 22851 22852 22853 22854 22855 22856 22857 22858 22859 22860 22861 22862 22863 22864 22865 22866 22867 22868 22869 22870 22871 22872 22873 22874 22875 22876 22877 22878 22879 22880 22881 22882 22883 22884 22885 22886 22887 22888 22889 22890 22891 22892 22893 22894 22895 22896 22897 22898 22899 22900 22901 22902 22903 22904 22905 22906 22907 22908 22909 22910 22911 22912 22913 22914 22915 22916 22917 22918 22919 22920 22921 22922 22923 22924 22925 22926 22927 22928 22929 22930 22931 22932 22933 22934 22935 22936 22937 22938 22939 22940 22941 22942 22943 22944 22945 22946 22947 22948 22949 22950 22951 22952 22953 22954 22955 22956 22957 22958 22959 22960 22961 22962 22963 22964 22965 22966 22967 22968 22969 22970 22971 22972 22973 22974 22975 22976 22977 22978 22979 22980 22981 22982 22983 22984 22985 22986 22987 22988 22989 22990 22991 22992 22993 22994 22995 22996 22997 22998 22999 23000 23001 23002 23003 23004 23005 23006 23007 23008 23009 23010 23011 23012 23013 23014 23015 23016 23017 23018 23019 23020 23021 23022 23023 23024 23025 23026 23027 23028 23029 23030 23031 23032 23033 23034 23035 23036 23037 23038 23039 23040 23041 23042 23043 23044 23045 23046 23047 23048 23049 23050 23051 23052 23053 23054 23055 23056 23057 23058 23059 23060 23061 23062 23063 23064 23065 23066 23067 23068 23069 23070 23071 23072 23073 23074 23075 23076 23077 23078 23079 23080 23081 23082 23083 23084 23085 23086 23087 23088 23089 23090 23091 23092 23093 23094 23095 23096 23097 23098 23099 23100 23101 23102 23103 23104 23105 23106 23107 23108 23109 23110 23111 23112 23113 23114 23115 23116 23117 23118 23119 23120 23121 23122 23123 23124 23125 23126 23127 23128 23129 23130 23131 23132 23133 23134 23135 23136 23137 23138 23139 23140 23141 23142 23143 23144 23145 23146 23147 23148 23149 23150 23151 23152 23153 23154 23155 23156 23157 23158 23159 23160 23161 23162 23163 23164 23165 23166 23167 23168 23169 23170 23171 23172 23173 23174 23175 23176 23177 23178 23179 23180 23181 23182 23183 23184 23185 23186 23187 23188 23189 23190 23191 23192 23193 23194 23195 23196 23197 23198 23199 23200 23201 23202 23203 23204 23205 23206 23207 23208 23209 23210 23211 23212 23213 23214 23215 23216 23217 23218 23219 23220 23221 23222 23223 23224 23225 23226 23227 23228 23229 23230 23231 23232 23233 23234 23235 23236 23237 23238 23239 23240 23241 23242 23243 23244 23245 23246 23247 23248 23249 23250 23251 23252 23253 23254 23255 23256 23257 23258 23259 23260 23261 23262 23263 23264 23265 23266 23267 23268 23269 23270 23271 23272 23273 23274 23275 23276 23277 23278 23279 23280 23281 23282 23283 23284 23285 23286 23287 23288 23289 23290 23291 23292 23293 23294 23295 23296 23297 23298 23299 23300 23301 23302 23303 23304 23305 23306 23307 23308 23309 23310 23311 23312 23313 23314 23315 23316 23317 23318 23319 23320 23321 23322 23323 23324 23325 23326 23327 23328 23329 23330 23331 23332 23333 23334 23335 23336 23337 23338 23339 23340 23341 23342 23343 23344 23345 23346 23347 23348 23349 23350 23351 23352 23353 23354 23355 23356 23357 23358 23359 23360 23361 23362 23363 23364 23365 23366 23367 23368 23369 23370 23371 23372 23373 23374 23375 23376 23377 23378 23379 23380 23381 23382 23383 23384 23385 23386 23387 23388 23389 23390 23391 23392 23393 23394 23395 23396 23397 23398 23399 23400 23401 23402 23403 23404 23405 23406 23407 23408 23409 23410 23411 23412 23413 23414 23415 23416 23417 23418 23419 23420 23421 23422 23423 23424 23425 23426 23427 23428 23429 23430 23431 23432 23433 23434 23435 23436 23437 23438 23439 23440 23441 23442 23443 23444 23445 23446 23447 23448 23449 23450 23451 23452 23453 23454 23455 23456 23457 23458 23459 23460 23461 23462 23463 23464 23465 23466 23467 23468 23469 23470 23471 23472 23473 23474 23475 23476 23477 23478 23479 23480 23481 23482 23483 23484 23485 23486 23487 23488 23489 23490 23491 23492 23493 23494 23495 23496 23497 23498 23499 23500 23501 23502 23503 23504 23505 23506 23507 23508 23509 23510 23511 23512 23513 23514 23515 23516 23517 23518 23519 23520 23521 23522 23523 23524 23525 23526 23527 23528 23529 23530 23531 23532 23533 23534 23535 23536 23537 23538 23539 23540 23541 23542 23543 23544 23545 23546 23547 23548 23549 23550 23551 23552 23553 23554 23555 23556 23557 23558 23559 23560 23561 23562 23563 23564 23565 23566 23567 23568 23569 23570 23571 23572 23573 23574 23575 23576 23577 23578 23579 23580 23581 23582 23583 23584 23585 23586 23587 23588 23589 23590 23591 23592 23593 23594 23595 23596 23597 23598 23599 23600 23601 23602 23603 23604 23605 23606 23607 23608 23609 23610 23611 23612 23613 23614 23615 23616 23617 23618 23619 23620 23621 23622 23623 23624 23625 23626 23627 23628 23629 23630 23631 23632 23633 23634 23635 23636 23637 23638 23639 23640 23641 23642 23643 23644 23645 23646 23647 23648 23649 23650 23651 23652 23653 23654 23655 23656 23657 23658 23659 23660 23661 23662 23663 23664 23665 23666 23667 23668 23669 23670 23671 23672 23673 23674 23675 23676 23677 23678 23679 23680 23681 23682 23683 23684 23685 23686 23687 23688 23689 23690 23691 23692 23693 23694 23695 23696 23697 23698 23699 23700 23701 23702 23703 23704 23705 23706 23707 23708 23709 23710 23711 23712 23713 23714 23715 23716 23717 23718 23719 23720 23721 23722 23723 23724 23725 23726 23727 23728 23729 23730 23731 23732 23733 23734 23735 23736 23737 23738 23739 23740 23741 23742 23743 23744 23745 23746 23747 23748 23749 23750 23751 23752 23753 23754 23755 23756 23757 23758 23759 23760 23761 23762 23763 23764 23765 23766 23767 23768 23769 23770 23771 23772 23773 23774 23775 23776 23777 23778 23779 23780 23781 23782 23783 23784 23785 23786 23787 23788 23789 23790 23791 23792 23793 23794 23795 23796 23797 23798 23799 23800 23801 23802 23803 23804 23805 23806 23807 23808 23809 23810 23811 23812 23813 23814 23815 23816 23817 23818 23819 23820 23821 23822 23823 23824 23825 23826 23827 23828 23829 23830 23831 23832 23833 23834 23835 23836 23837 23838 23839 23840 23841 23842 23843 23844 23845 23846 23847 23848 23849 23850 23851 23852 23853 23854 23855 23856 23857 23858 23859 23860 23861 23862 23863 23864 23865 23866 23867 23868 23869 23870 23871 23872 23873 23874 23875 23876 23877 23878 23879 23880 23881 23882 23883 23884 23885 23886 23887 23888 23889 23890 23891 23892 23893 23894 23895 23896 23897 23898 23899 23900 23901 23902 23903 23904 23905 23906 23907 23908 23909 23910 23911 23912 23913 23914 23915 23916 23917 23918 23919 23920 23921 23922 23923 23924 23925 23926 23927 23928 23929 23930 23931 23932 23933 23934 23935 23936 23937 23938 23939 23940 23941 23942 23943 23944 23945 23946 23947 23948 23949 23950 23951 23952 23953 23954 23955 23956 23957 23958 23959 23960 23961 23962 23963 23964 23965 23966 23967 23968 23969 23970 23971 23972 23973 23974 23975 23976 23977 23978 23979 23980 23981 23982 23983 23984 23985 23986 23987 23988 23989 23990 23991 23992 23993 23994 23995 23996 23997 23998 23999 24000 24001 24002 24003 24004 24005 24006 24007 24008 24009 24010 24011 24012 24013 24014 24015 24016 24017 24018 24019 24020 24021 24022 24023 24024 24025 24026 24027 24028 24029 24030 24031 24032 24033 24034 24035 24036 24037 24038 24039 24040 24041 24042 24043 24044 24045 24046 24047 24048 24049 24050 24051 24052 24053 24054 24055 24056 24057 24058 24059 24060 24061 24062 24063 24064 24065 24066 24067 24068 24069 24070 24071 24072 24073 24074 24075 24076 24077 24078 24079 24080 24081 24082 24083 24084 24085 24086 24087 24088 24089 24090 24091 24092 24093 24094 24095 24096 24097 24098 24099 24100 24101 24102 24103 24104 24105 24106 24107 24108 24109 24110 24111 24112 24113 24114 24115 24116 24117 24118 24119 24120 24121 24122 24123 24124 24125 24126 24127 24128 24129 24130 24131 24132 24133 24134 24135 24136 24137 24138 24139 24140 24141 24142 24143 24144 24145 24146 24147 24148 24149 24150 24151 24152 24153 24154 24155 24156 24157 24158 24159 24160 24161 24162 24163 24164 24165 24166 24167 24168 24169 24170 24171 24172 24173 24174 24175 24176 24177 24178 24179 24180 24181 24182 24183 24184 24185 24186 24187 24188 24189 24190 24191 24192 24193 24194 24195 24196 24197 24198 24199 24200 24201 24202 24203 24204 24205 24206 24207 24208 24209 24210 24211 24212 24213 24214 24215 24216 24217 24218 24219 24220 24221 24222 24223 24224 24225 24226 24227 24228 24229 24230 24231 24232 24233 24234 24235 24236 24237 24238 24239 24240 24241 24242 24243 24244 24245 24246 24247 24248 24249 24250 24251 24252 24253 24254 24255 24256 24257 24258 24259 24260 24261 24262 24263 24264 24265 24266 24267 24268 24269 24270 24271 24272 24273 24274 24275 24276 24277 24278 24279 24280 24281 24282 24283 24284 24285 24286 24287 24288 24289 24290 24291 24292 24293 24294 24295 24296 24297 24298 24299 24300 24301 24302 24303 24304 24305 24306 24307 24308 24309 24310 24311 24312 24313 24314 24315 24316 24317 24318 24319 24320 24321 24322 24323 24324 24325 24326 24327 24328 24329 24330 24331 24332 24333 24334 24335 24336 24337 24338 24339 24340 24341 24342 24343 24344 24345 24346 24347 24348 24349 24350 24351 24352 24353 24354 24355 24356 24357 24358 24359 24360 24361 24362 24363 24364 24365 24366 24367 24368 24369 24370 24371 24372 24373 24374 24375 24376 24377 24378 24379 24380 24381 24382 24383 24384 24385 24386 24387 24388 24389 24390 24391 24392 24393 24394 24395 24396 24397 24398 24399 24400 24401 24402 24403 24404 24405 24406 24407 24408 24409 24410 24411 24412 24413 24414 24415 24416 24417 24418 24419 24420 24421 24422 24423 24424 24425 24426 24427 24428 24429 24430 24431 24432 24433 24434 24435 24436 24437 24438 24439 24440 24441 24442 24443 24444 24445 24446 24447 24448 24449 24450 24451 24452 24453 24454 24455 24456 24457 24458 24459 24460 24461 24462 24463 24464 24465 24466 24467 24468 24469 24470 24471 24472 24473 24474 24475 24476 24477 24478 24479 24480 24481 24482 24483 24484 24485 24486 24487 24488 24489 24490 24491 24492 24493 24494 24495 24496 24497 24498 24499 24500 24501 24502 24503 24504 24505 24506 24507 24508 24509 24510 24511 24512 24513 24514 24515 24516 24517 24518 24519 24520 24521 24522 24523 24524 24525 24526 24527 24528 24529 24530 24531 24532 24533 24534 24535 24536 24537 24538 24539 24540 24541 24542 24543 24544 24545 24546 24547 24548 24549 24550 24551 24552 24553 24554 24555 24556 24557 24558 24559 24560 24561 24562 24563 24564 24565 24566 24567 24568 24569 24570 24571 24572 24573 24574 24575 24576 24577 24578 24579 24580 24581 24582 24583 24584 24585 24586 24587 24588 24589 24590 24591 24592 24593 24594 24595 24596 24597 24598 24599 24600 24601 24602 24603 24604 24605 24606 24607 24608 24609 24610 24611 24612 24613 24614 24615 24616 24617 24618 24619 24620 24621 24622 24623 24624 24625 24626 24627 24628 24629 24630 24631 24632 24633 24634 24635 24636 24637 24638 24639 24640 24641 24642 24643 24644 24645 24646 24647 24648 24649 24650 24651 24652 24653 24654 24655 24656 24657 24658 24659 24660 24661 24662 24663 24664 24665 24666 24667 24668 24669 24670 24671 24672 24673 24674 24675 24676 24677 24678 24679 24680 24681 24682 24683 24684 24685 24686 24687 24688 24689 24690 24691 24692 24693 24694 24695 24696 24697 24698 24699 24700 24701 24702 24703 24704 24705 24706 24707 24708 24709 24710 24711 24712 24713 24714 24715 24716 24717 24718 24719 24720 24721 24722 24723 24724 24725 24726 24727 24728 24729 24730 24731 24732 24733 24734 24735 24736 24737 24738 24739 24740 24741 24742 24743 24744 24745 24746 24747 24748 24749 24750 24751 24752 24753 24754 24755 24756 24757 24758 24759 24760 24761 24762 24763 24764 24765 24766 24767 24768 24769 24770 24771 24772 24773 24774 24775 24776 24777 24778 24779 24780 24781 24782 24783 24784 24785 24786 24787 24788 24789 24790 24791 24792 24793 24794 24795 24796 24797 24798 24799 24800 24801 24802 24803 24804 24805 24806 24807 24808 24809 24810 24811 24812 24813 24814 24815 24816 24817 24818 24819 24820 24821 24822 24823 24824 24825 24826 24827 24828 24829 24830 24831 24832 24833 24834 24835 24836 24837 24838 24839 24840 24841 24842 24843 24844 24845 24846 24847 24848 24849 24850 24851 24852 24853 24854 24855 24856 24857 24858 24859 24860 24861 24862 24863 24864 24865 24866 24867 24868 24869 24870 24871 24872 24873 24874 24875 24876 24877 24878 24879 24880 24881 24882 24883 24884 24885 24886 24887 24888 24889 24890 24891 24892 24893 24894 24895 24896 24897 24898 24899 24900 24901 24902 24903 24904 24905 24906 24907 24908 24909 24910 24911 24912 24913 24914 24915 24916 24917 24918 24919 24920 24921 24922 24923 24924 24925 24926 24927 24928 24929 24930 24931 24932 24933 24934 24935 24936 24937 24938 24939 24940 24941 24942 24943 24944 24945 24946 24947 24948 24949 24950 24951 24952 24953 24954 24955 24956 24957 24958 24959 24960 24961 24962 24963 24964 24965 24966 24967 24968 24969 24970 24971 24972 24973 24974 24975 24976 24977 24978 24979 24980 24981 24982 24983 24984 24985 24986 24987 24988 24989 24990 24991 24992 24993 24994 24995 24996 24997 24998 24999 25000 25001 25002 25003 25004 25005 25006 25007 25008 25009 25010 25011 25012 25013 25014 25015 25016 25017 25018 25019 25020 25021 25022 25023 25024 25025 25026 25027 25028 25029 25030 25031 25032 25033 25034 25035 25036 25037 25038 25039 25040 25041 25042 25043 25044 25045 25046 25047 25048 25049 25050 25051 25052 25053 25054 25055 25056 25057 25058 25059 25060 25061 25062 25063 25064 25065 25066 25067 25068 25069 25070 25071 25072 25073 25074 25075 25076 25077 25078 25079 25080 25081 25082 25083 25084 25085 25086 25087 25088 25089 25090 25091 25092 25093 25094 25095 25096 25097 25098 25099 25100 25101 25102 25103 25104 25105 25106 25107 25108 25109 25110 25111 25112 25113 25114 25115 25116 25117 25118 25119 25120 25121 25122 25123 25124 25125 25126 25127 25128 25129 25130 25131 25132 25133 25134 25135 25136 25137 25138 25139 25140 25141 25142 25143 25144 25145 25146 25147 25148 25149 25150 25151 25152 25153 25154 25155 25156 25157 25158 25159 25160 25161 25162 25163 25164 25165 25166 25167 25168 25169 25170 25171 25172 25173 25174 25175 25176 25177 25178 25179 25180 25181 25182 25183 25184 25185 25186 25187 25188 25189 25190 25191 25192 25193 25194 25195 25196 25197 25198 25199 25200 25201 25202 25203 25204 25205 25206 25207 25208 25209 25210 25211 25212 25213 25214 25215 25216 25217 25218 25219 25220 25221 25222 25223 25224 25225 25226 25227 25228 25229 25230 25231 25232 25233 25234 25235 25236 25237 25238 25239 25240 25241 25242 25243 25244 25245 25246 25247 25248 25249 25250 25251 25252 25253 25254 25255 25256 25257 25258 25259 25260 25261 25262 25263 25264 25265 25266 25267 25268 25269 25270 25271 25272 25273 25274 25275 25276 25277 25278 25279 25280 25281 25282 25283 25284 25285 25286 25287 25288 25289 25290 25291 25292 25293 25294 25295 25296 25297 25298 25299 25300 25301 25302 25303 25304 25305 25306 25307 25308 25309 25310 25311 25312 25313 25314 25315 25316 25317 25318 25319 25320 25321 25322 25323 25324 25325 25326 25327 25328 25329 25330 25331 25332 25333 25334 25335 25336 25337 25338 25339 25340 25341 25342 25343 25344 25345 25346 25347 25348 25349 25350 25351 25352 25353 25354 25355 25356 25357 25358 25359 25360 25361 25362 25363 25364 25365 25366 25367 25368 25369 25370 25371 25372 25373 25374 25375 25376 25377 25378 25379 25380 25381 25382 25383 25384 25385 25386 25387 25388 25389 25390 25391 25392 25393 25394 25395 25396 25397 25398 25399 25400 25401 25402 25403 25404 25405 25406 25407 25408 25409 25410 25411 25412 25413 25414 25415 25416 25417 25418 25419 25420 25421 25422 25423 25424 25425 25426 25427 25428 25429 25430 25431 25432 25433 25434 25435 25436 25437 25438 25439 25440 25441 25442 25443 25444 25445 25446 25447 25448 25449 25450 25451 25452 25453 25454 25455 25456 25457 25458 25459 25460 25461 25462 25463 25464 25465 25466 25467 25468 25469 25470 25471 25472 25473 25474 25475 25476 25477 25478 25479 25480 25481 25482 25483 25484 25485 25486 25487 25488 25489 25490 25491 25492 25493 25494 25495 25496 25497 25498 25499 25500 25501 25502 25503 25504 25505 25506 25507 25508 25509 25510 25511 25512 25513 25514 25515 25516 25517 25518 25519 25520 25521 25522 25523 25524 25525 25526 25527 25528 25529 25530 25531 25532 25533 25534 25535 25536 25537 25538 25539 25540 25541 25542 25543 25544 25545 25546 25547 25548 25549 25550 25551 25552 25553 25554 25555 25556 25557 25558 25559 25560 25561 25562 25563 25564 25565 25566 25567 25568 25569 25570 25571 25572 25573 25574 25575 25576 25577 25578 25579 25580 25581 25582 25583 25584 25585 25586 25587 25588 25589 25590 25591 25592 25593 25594 25595 25596 25597 25598 25599 25600 25601 25602 25603 25604 25605 25606 25607 25608 25609 25610 25611 25612 25613 25614 25615 25616 25617 25618 25619 25620 25621 25622 25623 25624 25625 25626 25627 25628 25629 25630 25631 25632 25633 25634 25635 25636 25637 25638 25639 25640 25641 25642 25643 25644 25645 25646 25647 25648 25649 25650 25651 25652 25653 25654 25655 25656 25657 25658 25659 25660 25661 25662 25663 25664 25665 25666 25667 25668 25669 25670 25671 25672 25673 25674 25675 25676 25677 25678 25679 25680 25681 25682 25683 25684 25685 25686 25687 25688 25689 25690 25691 25692 25693 25694 25695 25696 25697 25698 25699 25700 25701 25702 25703 25704 25705 25706 25707 25708 25709 25710 25711 25712 25713 25714 25715 25716 25717 25718 25719 25720 25721 25722 25723 25724 25725 25726 25727 25728 25729 25730 25731 25732 25733 25734 25735 25736 25737 25738 25739 25740 25741 25742 25743 25744 25745 25746 25747 25748 25749 25750 25751 25752 25753 25754 25755 25756 25757 25758 25759 25760 25761 25762 25763 25764 25765 25766 25767 25768 25769 25770 25771 25772 25773 25774 25775 25776 25777 25778 25779 25780 25781 25782 25783 25784 25785 25786 25787 25788 25789 25790 25791 25792 25793 25794 25795 25796 25797 25798 25799 25800 25801 25802 25803 25804 25805 25806 25807 25808 25809 25810 25811 25812 25813 25814 25815 25816 25817 25818 25819 25820 25821 25822 25823 25824 25825 25826 25827 25828 25829 25830 25831 25832 25833 25834 25835 25836 25837 25838 25839 25840 25841 25842 25843 25844 25845 25846 25847 25848 25849 25850 25851 25852 25853 25854 25855 25856 25857 25858 25859 25860 25861 25862 25863 25864 25865 25866 25867 25868 25869 25870 25871 25872 25873 25874 25875 25876 25877 25878 25879 25880 25881 25882 25883 25884 25885 25886 25887 25888 25889 25890 25891 25892 25893 25894 25895 25896 25897 25898 25899 25900 25901 25902 25903 25904 25905 25906 25907 25908 25909 25910 25911 25912 25913 25914 25915 25916 25917 25918 25919 25920 25921 25922 25923 25924 25925 25926 25927 25928 25929 25930 25931 25932 25933 25934 25935 25936 25937 25938 25939 25940 25941 25942 25943 25944 25945 25946 25947 25948 25949 25950 25951 25952 25953 25954 25955 25956 25957 25958 25959 25960 25961 25962 25963 25964 25965 25966 25967 25968 25969 25970 25971 25972 25973 25974 25975 25976 25977 25978 25979 25980 25981 25982 25983 25984 25985 25986 25987 25988 25989 25990 25991 25992 25993 25994 25995 25996 25997 25998 25999 26000 26001 26002 26003 26004 26005 26006 26007 26008 26009 26010 26011 26012 26013 26014 26015 26016 26017 26018 26019 26020 26021 26022 26023 26024 26025 26026 26027 26028 26029 26030 26031 26032 26033 26034 26035 26036 26037 26038 26039 26040 26041 26042 26043 26044 26045 26046 26047 26048 26049 26050 26051 26052 26053 26054 26055 26056 26057 26058 26059 26060 26061 26062 26063 26064 26065 26066 26067 26068 26069 26070 26071 26072 26073 26074 26075 26076 26077 26078 26079 26080 26081 26082 26083 26084 26085 26086 26087 26088 26089 26090 26091 26092 26093 26094 26095 26096 26097 26098 26099 26100 26101 26102 26103 26104 26105 26106 26107 26108 26109 26110 26111 26112 26113 26114 26115 26116 26117 26118 26119 26120 26121 26122 26123 26124 26125 26126 26127 26128 26129 26130 26131 26132 26133 26134 26135 26136 26137 26138 26139 26140 26141 26142 26143 26144 26145 26146 26147 26148 26149 26150 26151 26152 26153 26154 26155 26156 26157 26158 26159 26160 26161 26162 26163 26164 26165 26166 26167 26168 26169 26170 26171 26172 26173 26174 26175 26176 26177 26178 26179 26180 26181 26182 26183 26184 26185 26186 26187 26188 26189 26190 26191 26192 26193 26194 26195 26196 26197 26198 26199 26200 26201 26202 26203 26204 26205 26206 26207 26208 26209 26210 26211 26212 26213 26214 26215 26216 26217 26218 26219 26220 26221 26222 26223 26224 26225 26226 26227 26228 26229 26230 26231 26232 26233 26234 26235 26236 26237 26238 26239 26240 26241 26242 26243 26244 26245 26246 26247 26248 26249 26250 26251 26252 26253 26254 26255 26256 26257 26258 26259 26260 26261 26262 26263 26264 26265 26266 26267 26268 26269 26270 26271 26272 26273 26274 26275 26276 26277 26278 26279 26280 26281 26282 26283 26284 26285 26286 26287 26288 26289 26290 26291 26292 26293 26294 26295 26296 26297 26298 26299 26300 26301 26302 26303 26304 26305 26306 26307 26308 26309 26310 26311 26312 26313 26314 26315 26316 26317 26318 26319 26320 26321 26322 26323 26324 26325 26326 26327 26328 26329 26330 26331 26332 26333 26334 26335 26336 26337 26338 26339 26340 26341 26342 26343 26344 26345 26346 26347 26348 26349 26350 26351 26352 26353 26354 26355 26356 26357 26358 26359 26360 26361 26362 26363 26364 26365 26366 26367 26368 26369 26370 26371 26372 26373 26374 26375 26376 26377 26378 26379 26380 26381 26382 26383 26384 26385 26386 26387 26388 26389 26390 26391 26392 26393 26394 26395 26396 26397 26398 26399 26400 26401 26402 26403 26404 26405 26406 26407 26408 26409 26410 26411 26412 26413 26414 26415 26416 26417 26418 26419 26420 26421 26422 26423 26424 26425 26426 26427 26428 26429 26430 26431 26432 26433 26434 26435 26436 26437 26438 26439 26440 26441 26442 26443 26444 26445 26446 26447 26448 26449 26450 26451 26452 26453 26454 26455 26456 26457 26458 26459 26460 26461 26462 26463 26464 26465 26466 26467 26468 26469 26470 26471 26472 26473 26474 26475 26476 26477 26478 26479 26480 26481 26482 26483 26484 26485 26486 26487 26488 26489 26490 26491 26492 26493 26494 26495 26496 26497 26498 26499 26500 26501 26502 26503 26504 26505 26506 26507 26508 26509 26510 26511 26512 26513 26514 26515 26516 26517 26518 26519 26520 26521 26522 26523 26524 26525 26526 26527 26528 26529 26530 26531 26532 26533 26534 26535 26536 26537 26538 26539 26540 26541 26542 26543 26544 26545 26546 26547 26548 26549 26550 26551 26552 26553 26554 26555 26556 26557 26558 26559 26560 26561 26562 26563 26564 26565 26566 26567 26568 26569 26570 26571 26572 26573 26574 26575 26576 26577 26578 26579 26580 26581 26582 26583 26584 26585 26586 26587 26588 26589 26590 26591 26592 26593 26594 26595 26596 26597 26598 26599 26600 26601 26602 26603 26604 26605 26606 26607 26608 26609 26610 26611 26612 26613 26614 26615 26616 26617 26618 26619 26620 26621 26622 26623 26624 26625 26626 26627 26628 26629 26630 26631 26632 26633 26634 26635 26636 26637 26638 26639 26640 26641 26642 26643 26644 26645 26646 26647 26648 26649 26650 26651 26652 26653 26654 26655 26656 26657 26658 26659 26660 26661 26662 26663 26664 26665 26666 26667 26668 26669 26670 26671 26672 26673 26674 26675 26676 26677 26678 26679 26680 26681 26682 26683 26684 26685 26686 26687 26688 26689 26690 26691 26692 26693 26694 26695 26696 26697 26698 26699 26700 26701 26702 26703 26704 26705 26706 26707 26708 26709 26710 26711 26712 26713 26714 26715 26716 26717 26718 26719 26720 26721 26722 26723 26724 26725 26726 26727 26728 26729 26730 26731 26732 26733 26734 26735 26736 26737 26738 26739 26740 26741 26742 26743 26744 26745 26746 26747 26748 26749 26750 26751 26752 26753 26754 26755 26756 26757 26758 26759 26760 26761 26762 26763 26764 26765 26766 26767 26768 26769 26770 26771 26772 26773 26774 26775 26776 26777 26778 26779 26780 26781 26782 26783 26784 26785 26786 26787 26788 26789 26790 26791 26792 26793 26794 26795 26796 26797 26798 26799 26800 26801 26802 26803 26804 26805 26806 26807 26808 26809 26810 26811 26812 26813 26814 26815 26816 26817 26818 26819 26820 26821 26822 26823 26824 26825 26826 26827 26828 26829 26830 26831 26832 26833 26834 26835 26836 26837 26838 26839 26840 26841 26842 26843 26844 26845 26846 26847 26848 26849 26850 26851 26852 26853 26854 26855 26856 26857 26858 26859 26860 26861 26862 26863 26864 26865 26866 26867 26868 26869 26870 26871 26872 26873 26874 26875 26876 26877 26878 26879 26880 26881 26882 26883 26884 26885 26886 26887 26888 26889 26890 26891 26892 26893 26894 26895 26896 26897 26898 26899 26900 26901 26902 26903 26904 26905 26906 26907 26908 26909 26910 26911 26912 26913 26914 26915 26916 26917 26918 26919 26920 26921 26922 26923 26924 26925 26926 26927 26928 26929 26930 26931 26932 26933 26934 26935 26936 26937 26938 26939 26940 26941 26942 26943 26944 26945 26946 26947 26948 26949 26950 26951 26952 26953 26954 26955 26956 26957 26958 26959 26960 26961 26962 26963 26964 26965 26966 26967 26968 26969 26970 26971 26972 26973 26974 26975 26976 26977 26978 26979 26980 26981 26982 26983 26984 26985 26986 26987 26988 26989 26990 26991 26992 26993 26994 26995 26996 26997 26998 26999 27000 27001 27002 27003 27004 27005 27006 27007 27008 27009 27010 27011 27012 27013 27014 27015 27016 27017 27018 27019 27020 27021 27022 27023 27024 27025 27026 27027 27028 27029 27030 27031 27032 27033 27034 27035 27036 27037 27038 27039 27040 27041 27042 27043 27044 27045 27046 27047 27048 27049 27050 27051 27052 27053 27054 27055 27056 27057 27058 27059 27060 27061 27062 27063 27064 27065 27066 27067 27068 27069 27070 27071 27072 27073 27074 27075 27076 27077 27078 27079 27080 27081 27082 27083 27084 27085 27086 27087 27088 27089 27090 27091 27092 27093 27094 27095 27096 27097 27098 27099 27100 27101 27102 27103 27104 27105 27106 27107 27108 27109 27110 27111 27112 27113 27114 27115 27116 27117 27118 27119 27120 27121 27122 27123 27124 27125 27126 27127 27128 27129 27130 27131 27132 27133 27134 27135 27136 27137 27138 27139 27140 27141 27142 27143 27144 27145 27146 27147 27148 27149 27150 27151 27152 27153 27154 27155 27156 27157 27158 27159 27160 27161 27162 27163 27164 27165 27166 27167 27168 27169 27170 27171 27172 27173 27174 27175 27176 27177 27178 27179 27180 27181 27182 27183 27184 27185 27186 27187 27188 27189 27190 27191 27192 27193 27194 27195 27196 27197 27198 27199 27200 27201 27202 27203 27204 27205 27206 27207 27208 27209 27210 27211 27212 27213 27214 27215 27216 27217 27218 27219 27220 27221 27222 27223 27224 27225 27226 27227 27228 27229 27230 27231 27232 27233 27234 27235 27236 27237 27238 27239 27240 27241 27242 27243 27244 27245 27246 27247 27248 27249 27250 27251 27252 27253 27254 27255 27256 27257 27258 27259 27260 27261 27262 27263 27264 27265 27266 27267 27268 27269 27270 27271 27272 27273 27274 27275 27276 27277 27278 27279 27280 27281 27282 27283 27284 27285 27286 27287 27288 27289 27290 27291 27292 27293 27294 27295 27296 27297 27298 27299 27300 27301 27302 27303 27304 27305 27306 27307 27308 27309 27310 27311 27312 27313 27314 27315 27316 27317 27318 27319 27320 27321 27322 27323 27324 27325 27326 27327 27328 27329 27330 27331 27332 27333 27334 27335 27336 27337 27338 27339 27340 27341 27342 27343 27344 27345 27346 27347 27348 27349 27350 27351 27352 27353 27354 27355 27356 27357 27358 27359 27360 27361 27362 27363 27364 27365 27366 27367 27368 27369 27370 27371 27372 27373 27374 27375 27376 27377 27378 27379 27380 27381 27382 27383 27384 27385 27386 27387 27388 27389 27390 27391 27392 27393 27394 27395 27396 27397 27398 27399 27400 27401 27402 27403 27404 27405 27406 27407 27408 27409 27410 27411 27412 27413 27414 27415 27416 27417 27418 27419 27420 27421 27422 27423 27424 27425 27426 27427 27428 27429 27430 27431 27432 27433 27434 27435 27436 27437 27438 27439 27440 27441 27442 27443 27444 27445 27446 27447 27448 27449 27450 27451 27452 27453 27454 27455 27456 27457 27458 27459 27460 27461 27462 27463 27464 27465 27466 27467 27468 27469 27470 27471 27472 27473 27474 27475 27476 27477 27478 27479 27480 27481 27482 27483 27484 27485 27486 27487 27488 27489 27490 27491 27492 27493 27494 27495 27496 27497 27498 27499 27500 27501 27502 27503 27504 27505 27506 27507 27508 27509 27510 27511 27512 27513 27514 27515 27516 27517 27518 27519 27520 27521 27522 27523 27524 27525 27526 27527 27528 27529 27530 27531 27532 27533 27534 27535 27536 27537 27538 27539 27540 27541 27542 27543 27544 27545 27546 27547 27548 27549 27550 27551 27552 27553 27554 27555 27556 27557 27558 27559 27560 27561 27562 27563 27564 27565 27566 27567 27568 27569 27570 27571 27572 27573 27574 27575 27576 27577 27578 27579 27580 27581 27582 27583 27584 27585 27586 27587 27588 27589 27590 27591 27592 27593 27594 27595 27596 27597 27598 27599 27600 27601 27602 27603 27604 27605 27606 27607 27608 27609 27610 27611 27612 27613 27614 27615 27616 27617 27618 27619 27620 27621 27622 27623 27624 27625 27626 27627 27628 27629 27630 27631 27632 27633 27634 27635 27636 27637 27638 27639 27640 27641 27642 27643 27644 27645 27646 27647 27648 27649 27650 27651 27652 27653 27654 27655 27656 27657 27658 27659 27660 27661 27662 27663 27664 27665 27666 27667 27668 27669 27670 27671 27672 27673 27674 27675 27676 27677 27678 27679 27680 27681 27682 27683 27684 27685 27686 27687 27688 27689 27690 27691 27692 27693 27694 27695 27696 27697 27698 27699 27700 27701 27702 27703 27704 27705 27706 27707 27708 27709 27710 27711 27712 27713 27714 27715 27716 27717 27718 27719 27720 27721 27722 27723 27724 27725 27726 27727 27728 27729 27730 27731 27732 27733 27734 27735 27736 27737 27738 27739 27740 27741 27742 27743 27744 27745 27746 27747 27748 27749 27750 27751 27752 27753 27754 27755 27756 27757 27758 27759 27760 27761 27762 27763 27764 27765 27766 27767 27768 27769 27770 27771 27772 27773 27774 27775 27776 27777 27778 27779 27780 27781 27782 27783 27784 27785 27786 27787 27788 27789 27790 27791 27792 27793 27794 27795 27796 27797 27798 27799 27800 27801 27802 27803 27804 27805 27806 27807 27808 27809 27810 27811 27812 27813 27814 27815 27816 27817 27818 27819 27820 27821 27822 27823 27824 27825 27826 27827 27828 27829 27830 27831 27832 27833 27834 27835 27836 27837 27838 27839 27840 27841 27842 27843 27844 27845 27846 27847 27848 27849 27850 27851 27852 27853 27854 27855 27856 27857 27858 27859 27860 27861 27862 27863 27864 27865 27866 27867 27868 27869 27870 27871 27872 27873 27874 27875 27876 27877 27878 27879 27880 27881 27882 27883 27884 27885 27886 27887 27888 27889 27890 27891 27892 27893 27894 27895 27896 27897 27898 27899 27900 27901 27902 27903 27904 27905 27906 27907 27908 27909 27910 27911 27912 27913 27914 27915 27916 27917 27918 27919 27920 27921 27922 27923 27924 27925 27926 27927 27928 27929 27930 27931 27932 27933 27934 27935 27936 27937 27938 27939 27940 27941 27942 27943 27944 27945 27946 27947 27948 27949 27950 27951 27952 27953 27954 27955 27956 27957 27958 27959 27960 27961 27962 27963 27964 27965 27966 27967 27968 27969 27970 27971 27972 27973 27974 27975 27976 27977 27978 27979 27980 27981 27982 27983 27984 27985 27986 27987 27988 27989 27990 27991 27992 27993 27994 27995 27996 27997 27998 27999 28000 28001 28002 28003 28004 28005 28006 28007 28008 28009 28010 28011 28012 28013 28014 28015 28016 28017 28018 28019 28020 28021 28022 28023 28024 28025 28026 28027 28028 28029 28030 28031 28032 28033 28034 28035 28036 28037 28038 28039 28040 28041 28042 28043 28044 28045 28046 28047 28048 28049 28050 28051 28052 28053 28054 28055 28056 28057 28058 28059 28060 28061 28062 28063 28064 28065 28066 28067 28068 28069 28070 28071 28072 28073 28074 28075 28076 28077 28078 28079 28080 28081 28082 28083 28084 28085 28086 28087 28088 28089 28090 28091 28092 28093 28094 28095 28096 28097 28098 28099 28100 28101 28102 28103 28104 28105 28106 28107 28108 28109 28110 28111 28112 28113 28114 28115 28116 28117 28118 28119 28120 28121 28122 28123 28124 28125 28126 28127 28128 28129 28130 28131 28132 28133 28134 28135 28136 28137 28138 28139 28140 28141 28142 28143 28144 28145 28146 28147 28148 28149 28150 28151 28152 28153 28154 28155 28156 28157 28158 28159 28160 28161 28162 28163 28164 28165 28166 28167 28168 28169 28170 28171 28172 28173 28174 28175 28176 28177 28178 28179 28180 28181 28182 28183 28184 28185 28186 28187 28188 28189 28190 28191 28192 28193 28194 28195 28196 28197 28198 28199 28200 28201 28202 28203 28204 28205 28206 28207 28208 28209 28210 28211 28212 28213 28214 28215 28216 28217 28218 28219 28220 28221 28222 28223 28224 28225 28226 28227 28228 28229 28230 28231 28232 28233 28234 28235 28236 28237 28238 28239 28240 28241 28242 28243 28244 28245 28246 28247 28248 28249 28250 28251 28252 28253 28254 28255 28256 28257 28258 28259 28260 28261 28262 28263 28264 28265 28266 28267 28268 28269 28270 28271 28272 28273 28274 28275 28276 28277 28278 28279 28280 28281 28282 28283 28284 28285 28286 28287 28288 28289 28290 28291 28292 28293 28294 28295 28296 28297 28298 28299 28300 28301 28302 28303 28304 28305 28306 28307 28308 28309 28310 28311 28312 28313 28314 28315 28316 28317 28318 28319 28320 28321 28322 28323 28324 28325 28326 28327 28328 28329 28330 28331 28332 28333 28334 28335 28336 28337 28338 28339 28340 28341 28342 28343 28344 28345 28346 28347 28348 28349 28350 28351 28352 28353 28354 28355 28356 28357 28358 28359 28360 28361 28362 28363 28364 28365 28366 28367 28368 28369 28370 28371 28372 28373 28374 28375 28376 28377 28378 28379 28380 28381 28382 28383 28384 28385 28386 28387 28388 28389 28390 28391 28392 28393 28394 28395 28396 28397 28398 28399 28400 28401 28402 28403 28404 28405 28406 28407 28408 28409 28410 28411 28412 28413 28414 28415 28416 28417 28418 28419 28420 28421 28422 28423 28424 28425 28426 28427 28428 28429 28430 28431 28432 28433 28434 28435 28436 28437 28438 28439 28440 28441 28442 28443 28444 28445 28446 28447 28448 28449 28450 28451 28452 28453 28454 28455 28456 28457 28458 28459 28460 28461 28462 28463 28464 28465 28466 28467 28468 28469 28470 28471 28472 28473 28474 28475 28476 28477 28478 28479 28480 28481 28482 28483 28484 28485 28486 28487 28488 28489 28490 28491 28492 28493 28494 28495 28496 28497 28498 28499 28500 28501 28502 28503 28504 28505 28506 28507 28508 28509 28510 28511 28512 28513 28514 28515 28516 28517 28518 28519 28520 28521 28522 28523 28524 28525 28526 28527 28528 28529 28530 28531 28532 28533 28534 28535 28536 28537 28538 28539 28540 28541 28542 28543 28544 28545 28546 28547 28548 28549 28550 28551 28552 28553 28554 28555 28556 28557 28558 28559 28560 28561 28562 28563 28564 28565 28566 28567 28568 28569 28570 28571 28572 28573 28574 28575 28576 28577 28578 28579 28580 28581 28582 28583 28584 28585 28586 28587 28588 28589 28590 28591 28592 28593 28594 28595 28596 28597 28598 28599 28600 28601 28602 28603 28604 28605 28606 28607 28608 28609 28610 28611 28612 28613 28614 28615 28616 28617 28618 28619 28620 28621 28622 28623 28624 28625 28626 28627 28628 28629 28630 28631 28632 28633 28634 28635 28636 28637 28638 28639 28640 28641 28642 28643 28644 28645 28646 28647 28648 28649 28650 28651 28652 28653 28654 28655 28656 28657 28658 28659 28660 28661 28662 28663 28664 28665 28666 28667 28668 28669 28670 28671 28672 28673 28674 28675 28676 28677 28678 28679 28680 28681 28682 28683 28684 28685 28686 28687 28688 28689 28690 28691 28692 28693 28694 28695 28696 28697 28698 28699 28700 28701 28702 28703 28704 28705 28706 28707 28708 28709 28710 28711 28712 28713 28714 28715 28716 28717 28718 28719 28720 28721 28722 28723 28724 28725 28726 28727 28728 28729 28730 28731 28732 28733 28734 28735 28736 28737 28738 28739 28740 28741 28742 28743 28744 28745 28746 28747 28748 28749 28750 28751 28752 28753 28754 28755 28756 28757 28758 28759 28760 28761 28762 28763 28764 28765 28766 28767 28768 28769 28770 28771 28772 28773 28774 28775 28776 28777 28778 28779 28780 28781 28782 28783 28784 28785 28786 28787 28788 28789 28790 28791 28792 28793 28794 28795 28796 28797 28798 28799 28800 28801 28802 28803 28804 28805 28806 28807 28808 28809 28810 28811 28812 28813 28814 28815 28816 28817 28818 28819 28820 28821 28822 28823 28824 28825 28826 28827 28828 28829 28830 28831 28832 28833 28834 28835 28836 28837 28838 28839 28840 28841 28842 28843 28844 28845 28846 28847 28848 28849 28850 28851 28852 28853 28854 28855 28856 28857 28858 28859 28860 28861 28862 28863 28864 28865 28866 28867 28868 28869 28870 28871 28872 28873 28874 28875 28876 28877 28878 28879 28880 28881 28882 28883 28884 28885 28886 28887 28888 28889 28890 28891 28892 28893 28894 28895 28896 28897 28898 28899 28900 28901 28902 28903 28904 28905 28906 28907 28908 28909 28910 28911 28912 28913 28914 28915 28916 28917 28918 28919 28920 28921 28922 28923 28924 28925 28926 28927 28928 28929 28930 28931 28932 28933 28934 28935 28936 28937 28938 28939 28940 28941 28942 28943 28944 28945 28946 28947 28948 28949 28950 28951 28952 28953 28954 28955 28956 28957 28958 28959 28960 28961 28962 28963 28964 28965 28966 28967 28968 28969 28970 28971 28972 28973 28974 28975 28976 28977 28978 28979 28980 28981 28982 28983 28984 28985 28986 28987 28988 28989 28990 28991 28992 28993 28994 28995 28996 28997 28998 28999 29000 29001 29002 29003 29004 29005 29006 29007 29008 29009 29010 29011 29012 29013 29014 29015 29016 29017 29018 29019 29020 29021 29022 29023 29024 29025 29026 29027 29028 29029 29030 29031 29032 29033 29034 29035 29036 29037 29038 29039 29040 29041 29042 29043 29044 29045 29046 29047 29048 29049 29050 29051 29052 29053 29054 29055 29056 29057 29058 29059 29060 29061 29062 29063 29064 29065 29066 29067 29068 29069 29070 29071 29072 29073 29074 29075 29076 29077 29078 29079 29080 29081 29082 29083 29084 29085 29086 29087 29088 29089 29090 29091 29092 29093 29094 29095 29096 29097 29098 29099 29100 29101 29102 29103 29104 29105 29106 29107 29108 29109 29110 29111 29112 29113 29114 29115 29116 29117 29118 29119 29120 29121 29122 29123 29124 29125 29126 29127 29128 29129 29130 29131 29132 29133 29134 29135 29136 29137 29138 29139 29140 29141 29142 29143 29144 29145 29146 29147 29148 29149 29150 29151 29152 29153 29154 29155 29156 29157 29158 29159 29160 29161 29162 29163 29164 29165 29166 29167 29168 29169 29170 29171 29172 29173 29174 29175 29176 29177 29178 29179 29180 29181 29182 29183 29184 29185 29186 29187 29188 29189 29190 29191 29192 29193 29194 29195 29196 29197 29198 29199 29200 29201 29202 29203 29204 29205 29206 29207 29208 29209 29210 29211 29212 29213 29214 29215 29216 29217 29218 29219 29220 29221 29222 29223 29224 29225 29226 29227 29228 29229 29230 29231 29232 29233 29234 29235 29236 29237 29238 29239 29240 29241 29242 29243 29244 29245 29246 29247 29248 29249 29250 29251 29252 29253 29254 29255 29256 29257 29258 29259 29260 29261 29262 29263 29264 29265 29266 29267 29268 29269 29270 29271 29272 29273 29274 29275 29276 29277 29278 29279 29280 29281 29282 29283 29284 29285 29286 29287 29288 29289 29290 29291 29292 29293 29294 29295 29296 29297 29298 29299 29300 29301 29302 29303 29304 29305 29306 29307 29308 29309 29310 29311 29312 29313 29314 29315 29316 29317 29318 29319 29320 29321 29322 29323 29324 29325 29326 29327 29328 29329 29330 29331 29332 29333 29334 29335 29336 29337 29338 29339 29340 29341 29342 29343 29344 29345 29346 29347 29348 29349 29350 29351 29352 29353 29354 29355 29356 29357 29358 29359 29360 29361 29362 29363 29364 29365 29366 29367 29368 29369 29370 29371 29372 29373 29374 29375 29376 29377 29378 29379 29380 29381 29382 29383 29384 29385 29386 29387 29388 29389 29390 29391 29392 29393 29394 29395 29396 29397 29398 29399 29400 29401 29402 29403 29404 29405 29406 29407 29408 29409 29410 29411 29412 29413 29414 29415 29416 29417 29418 29419 29420 29421 29422 29423 29424 29425 29426 29427 29428 29429 29430 29431 29432 29433 29434 29435 29436 29437 29438 29439 29440 29441 29442 29443 29444 29445 29446 29447 29448 29449 29450 29451 29452 29453 29454 29455 29456 29457 29458 29459 29460 29461 29462 29463 29464 29465 29466 29467 29468 29469 29470 29471 29472 29473 29474 29475 29476 29477 29478 29479 29480 29481 29482 29483 29484 29485 29486 29487 29488 29489 29490 29491 29492 29493 29494 29495 29496 29497 29498 29499 29500 29501 29502 29503 29504 29505 29506 29507 29508 29509 29510 29511 29512 29513 29514 29515 29516 29517 29518 29519 29520 29521 29522 29523 29524 29525 29526 29527 29528 29529 29530 29531 29532 29533 29534 29535 29536 29537 29538 29539 29540 29541 29542 29543 29544 29545 29546 29547 29548 29549 29550 29551 29552 29553 29554 29555 29556 29557 29558 29559 29560 29561 29562 29563 29564 29565 29566 29567 29568 29569 29570 29571 29572 29573 29574 29575 29576 29577 29578 29579 29580 29581 29582 29583 29584 29585 29586 29587 29588 29589 29590 29591 29592 29593 29594 29595 29596 29597 29598 29599 29600 29601 29602 29603 29604 29605 29606 29607 29608 29609 29610 29611 29612 29613 29614 29615 29616 29617 29618 29619 29620 29621 29622 29623 29624 29625 29626 29627 29628 29629 29630 29631 29632 29633 29634 29635 29636 29637 29638 29639 29640 29641 29642 29643 29644 29645 29646 29647 29648 29649 29650 29651 29652 29653 29654 29655 29656 29657 29658 29659 29660 29661 29662 29663 29664 29665 29666 29667 29668 29669 29670 29671 29672 29673 29674 29675 29676 29677 29678 29679 29680 29681 29682 29683 29684 29685 29686 29687 29688 29689 29690 29691 29692 29693 29694 29695 29696 29697 29698 29699 29700 29701 29702 29703 29704 29705 29706 29707 29708 29709 29710 29711 29712 29713 29714 29715 29716 29717 29718 29719 29720 29721 29722 29723 29724 29725 29726 29727 29728 29729 29730 29731 29732 29733 29734 29735 29736 29737 29738 29739 29740 29741 29742 29743 29744 29745 29746 29747 29748 29749 29750 29751 29752 29753 29754 29755 29756 29757 29758 29759 29760 29761 29762 29763 29764 29765 29766 29767 29768 29769 29770 29771 29772 29773 29774 29775 29776 29777 29778 29779 29780 29781 29782 29783 29784 29785 29786 29787 29788 29789 29790 29791 29792 29793 29794 29795 29796 29797 29798 29799 29800 29801 29802 29803 29804 29805 29806 29807 29808 29809 29810 29811 29812 29813 29814 29815 29816 29817 29818 29819 29820 29821 29822 29823 29824 29825 29826 29827 29828 29829 29830 29831 29832 29833 29834 29835 29836 29837 29838 29839 29840 29841 29842 29843 29844 29845 29846 29847 29848 29849 29850 29851 29852 29853 29854 29855 29856 29857 29858 29859 29860 29861 29862 29863 29864 29865 29866 29867 29868 29869 29870 29871 29872 29873 29874 29875 29876 29877 29878 29879 29880 29881 29882 29883 29884 29885 29886 29887 29888 29889 29890 29891 29892 29893 29894 29895 29896 29897 29898 29899 29900 29901 29902 29903 29904 29905 29906 29907 29908 29909 29910 29911 29912 29913 29914 29915 29916 29917 29918 29919 29920 29921 29922 29923 29924 29925 29926 29927 29928 29929 29930 29931 29932 29933 29934 29935 29936 29937 29938 29939 29940 29941 29942 29943 29944 29945 29946 29947 29948 29949 29950 29951 29952 29953 29954 29955 29956 29957 29958 29959 29960 29961 29962 29963 29964 29965 29966 29967 29968 29969 29970 29971 29972 29973 29974 29975 29976 29977 29978 29979 29980 29981 29982 29983 29984 29985 29986 29987 29988 29989 29990 29991 29992 29993 29994 29995 29996 29997 29998 29999 30000 30001 30002 30003 30004 30005 30006 30007 30008 30009 30010 30011 30012 30013 30014 30015 30016 30017 30018 30019 30020 30021 30022 30023 30024 30025 30026 30027 30028 30029 30030 30031 30032 30033 30034 30035 30036 30037 30038 30039 30040 30041 30042 30043 30044 30045 30046 30047 30048 30049 30050 30051 30052 30053 30054 30055 30056 30057 30058 30059 30060 30061 30062 30063 30064 30065 30066 30067 30068 30069 30070 30071 30072 30073 30074 30075 30076 30077 30078 30079 30080 30081 30082 30083 30084 30085 30086 30087 30088 30089 30090 30091 30092 30093 30094 30095 30096 30097 30098 30099 30100 30101 30102 30103 30104 30105 30106 30107 30108 30109 30110 30111 30112 30113 30114 30115 30116 30117 30118 30119 30120 30121 30122 30123 30124 30125 30126 30127 30128 30129 30130 30131 30132 30133 30134 30135 30136 30137 30138 30139 30140 30141 30142 30143 30144 30145 30146 30147 30148 30149 30150 30151 30152 30153 30154 30155 30156 30157 30158 30159 30160 30161 30162 30163 30164 30165 30166 30167 30168 30169 30170 30171 30172 30173 30174 30175 30176 30177 30178 30179 30180 30181 30182 30183 30184 30185 30186 30187 30188 30189 30190 30191 30192 30193 30194 30195 30196 30197 30198 30199 30200 30201 30202 30203 30204 30205 30206 30207 30208 30209 30210 30211 30212 30213 30214 30215 30216 30217 30218 30219 30220 30221 30222 30223 30224 30225 30226 30227 30228 30229 30230 30231 30232 30233 30234 30235 30236 30237 30238 30239 30240 30241 30242 30243 30244 30245 30246 30247 30248 30249 30250 30251 30252 30253 30254 30255 30256 30257 30258 30259 30260 30261 30262 30263 30264 30265 30266 30267 30268 30269 30270 30271 30272 30273 30274 30275 30276 30277 30278 30279 30280 30281 30282 30283 30284 30285 30286 30287 30288 30289 30290 30291 30292 30293 30294 30295 30296 30297 30298 30299 30300 30301 30302 30303 30304 30305 30306 30307 30308 30309 30310 30311 30312 30313 30314 30315 30316 30317 30318 30319 30320 30321 30322 30323 30324 30325 30326 30327 30328 30329 30330 30331 30332 30333 30334 30335 30336 30337 30338 30339 30340 30341 30342 30343 30344 30345 30346 30347 30348 30349 30350 30351 30352 30353 30354 30355 30356 30357 30358 30359 30360 30361 30362 30363 30364 30365 30366 30367 30368 30369 30370 30371 30372 30373 30374 30375 30376 30377 30378 30379 30380 30381 30382 30383 30384 30385 30386 30387 30388 30389 30390 30391 30392 30393 30394 30395 30396 30397 30398 30399 30400 30401 30402 30403 30404 30405 30406 30407 30408 30409 30410 30411 30412 30413 30414 30415 30416 30417 30418 30419 30420 30421 30422 30423 30424 30425 30426 30427 30428 30429 30430 30431 30432 30433 30434 30435 30436 30437 30438 30439 30440 30441 30442 30443 30444 30445 30446 30447 30448 30449 30450 30451 30452 30453 30454 30455 30456 30457 30458 30459 30460 30461 30462 30463 30464 30465 30466 30467 30468 30469 30470 30471 30472 30473 30474 30475 30476 30477 30478 30479 30480 30481 30482 30483 30484 30485 30486 30487 30488 30489 30490 30491 30492 30493 30494 30495 30496 30497 30498 30499 30500 30501 30502 30503 30504 30505 30506 30507 30508 30509 30510 30511 30512 30513 30514 30515 30516 30517 30518 30519 30520 30521 30522 30523 30524 30525 30526 30527 30528 30529 30530 30531 30532 30533 30534 30535 30536 30537 30538 30539 30540 30541 30542 30543 30544 30545 30546 30547 30548 30549 30550 30551 30552 30553 30554 30555 30556 30557 30558 30559 30560 30561 30562 30563 30564 30565 30566 30567 30568 30569 30570 30571 30572 30573 30574 30575 30576 30577 30578 30579 30580 30581 30582 30583 30584 30585 30586 30587 30588 30589 30590 30591 30592 30593 30594 30595 30596 30597 30598 30599 30600 30601 30602 30603 30604 30605 30606 30607 30608 30609 30610 30611 30612 30613 30614 30615 30616 30617 30618 30619 30620 30621 30622 30623 30624 30625 30626 30627 30628 30629 30630 30631 30632 30633 30634 30635 30636 30637 30638 30639 30640 30641 30642 30643 30644 30645 30646 30647 30648 30649 30650 30651 30652 30653 30654 30655 30656 30657 30658 30659 30660 30661 30662 30663 30664 30665 30666 30667 30668 30669 30670 30671 30672 30673 30674 30675 30676 30677 30678 30679 30680 30681 30682 30683 30684 30685 30686 30687 30688 30689 30690 30691 30692 30693 30694 30695 30696 30697 30698 30699 30700 30701 30702 30703 30704 30705 30706 30707 30708 30709 30710 30711 30712 30713 30714 30715 30716 30717 30718 30719 30720 30721 30722 30723 30724 30725 30726 30727 30728 30729 30730 30731 30732 30733 30734 30735 30736 30737 30738 30739 30740 30741 30742 30743 30744 30745 30746 30747 30748 30749 30750 30751 30752 30753 30754 30755 30756 30757 30758 30759 30760 30761 30762 30763 30764 30765 30766 30767 30768 30769 30770 30771 30772 30773 30774 30775 30776 30777 30778 30779 30780 30781 30782 30783 30784 30785 30786 30787 30788 30789 30790 30791 30792 30793 30794 30795 30796 30797 30798 30799 30800 30801 30802 30803 30804 30805 30806 30807 30808 30809 30810 30811 30812 30813 30814 30815 30816 30817 30818 30819 30820 30821 30822 30823 30824 30825 30826 30827 30828 30829 30830 30831 30832 30833 30834 30835 30836 30837 30838 30839 30840 30841 30842 30843 30844 30845 30846 30847 30848 30849 30850 30851 30852 30853 30854 30855 30856 30857 30858 30859 30860 30861 30862 30863 30864 30865 30866 30867 30868 30869 30870 30871 30872 30873 30874 30875 30876 30877 30878 30879 30880 30881 30882 30883 30884 30885 30886 30887 30888 30889 30890 30891 30892 30893 30894 30895 30896 30897 30898 30899 30900 30901 30902 30903 30904 30905 30906 30907 30908 30909 30910 30911 30912 30913 30914 30915 30916 30917 30918 30919 30920 30921 30922 30923 30924 30925 30926 30927 30928 30929 30930 30931 30932 30933 30934 30935 30936 30937 30938 30939 30940 30941 30942 30943 30944 30945 30946 30947 30948 30949 30950 30951 30952 30953 30954 30955 30956 30957 30958 30959 30960 30961 30962 30963 30964 30965 30966 30967 30968 30969 30970 30971 30972 30973 30974 30975 30976 30977 30978 30979 30980 30981 30982 30983 30984 30985 30986 30987 30988 30989 30990 30991 30992 30993 30994 30995 30996 30997 30998 30999 31000 31001 31002 31003 31004 31005 31006 31007 31008 31009 31010 31011 31012 31013 31014 31015 31016 31017 31018 31019 31020 31021 31022 31023 31024 31025 31026 31027 31028 31029 31030 31031 31032 31033 31034 31035 31036 31037 31038 31039 31040 31041 31042 31043 31044 31045 31046 31047 31048 31049 31050 31051 31052 31053 31054 31055 31056 31057 31058 31059 31060 31061 31062 31063 31064 31065 31066 31067 31068 31069 31070 31071 31072 31073 31074 31075 31076 31077 31078 31079 31080 31081 31082 31083 31084 31085 31086 31087 31088 31089 31090 31091 31092 31093 31094 31095 31096 31097 31098 31099 31100 31101 31102 31103 31104 31105 31106 31107 31108 31109 31110 31111 31112 31113 31114 31115 31116 31117 31118 31119 31120 31121 31122 31123 31124 31125 31126 31127 31128 31129 31130 31131 31132 31133 31134 31135 31136 31137 31138 31139 31140 31141 31142 31143 31144 31145 31146 31147 31148 31149 31150 31151 31152 31153 31154 31155 31156 31157 31158 31159 31160 31161 31162 31163 31164 31165 31166 31167 31168 31169 31170 31171 31172 31173 31174 31175 31176 31177 31178 31179 31180 31181 31182 31183 31184 31185 31186 31187 31188 31189 31190 31191 31192 31193 31194 31195 31196 31197 31198 31199 31200 31201 31202 31203 31204 31205 31206 31207 31208 31209 31210 31211 31212 31213 31214 31215 31216 31217 31218 31219 31220 31221 31222 31223 31224 31225 31226 31227 31228 31229 31230 31231 31232 31233 31234 31235 31236 31237 31238 31239 31240 31241 31242 31243 31244 31245 31246 31247 31248 31249 31250 31251 31252 31253 31254 31255 31256 31257 31258 31259 31260 31261 31262 31263 31264 31265 31266 31267 31268 31269 31270 31271 31272 31273 31274 31275 31276 31277 31278 31279 31280 31281 31282 31283 31284 31285 31286 31287 31288 31289 31290 31291 31292 31293 31294 31295 31296 31297 31298 31299 31300 31301 31302 31303 31304 31305 31306 31307 31308 31309 31310 31311 31312 31313 31314 31315 31316 31317 31318 31319 31320 31321 31322 31323 31324 31325 31326 31327 31328 31329 31330 31331 31332 31333 31334 31335 31336 31337 31338 31339 31340 31341 31342 31343 
</DataArray>
<DataArray type="UInt32" Name="offsets" format="ascii">
3 6 9 11 14 17 20 23 26 29 32 35 38 41 44 47 50 53 55 58 61 64 67 70 73 76 79 82 85 87 90 92 95 98 101 104 106 109 112 115 118 121 124 127 130 133 136 139 142 145 148 151 153 156 159 162 165 168 171 173 176 179 182 185 188 191 194 197 200 203 206 209 212 215 218 221 224 227 230 233 236 239 242 245 248 251 254 257 260 263 266 269 272 274 277 280 283 286 289 292 295 297 300 303 306 309 312 314 317 320 322 325 328 331 334 337 340 343 346 349 352 354 357 359 362 365 368 370 373 376 379 381 384 387 389 392 395 398 401 404 407 410 413 416 419 422 425 427 430 433 436 439 441 444 447 450 452 455 458 461 464 467 470 472 475 477 480 483 486 488 491 494 497 500 503 506 509 512 515 518 521 524 527 529 532 535 538 541 544 547 550 553 555 558 560 563 565 568 570 573 575 578 581 584 587 590 593 595 598 601 604 607 609 611 614 617 620 623 626 629 632 635 638 640 643 646 649 651 654 657 660 663 666 669 672 675 678 681 684 686 689 691 694 697 700 703 706 709 711 714 716 719 721 724 727 730 733 736 739 741 743 746 749 752 755 757 760 763 766 769 772 775 778 781 784 787 790 793 795 798 801 804 806 809 812 815 818 821 824 827 830 833 836 839 842 845 848 851 854 857 860 863 865 868 870 873 876 878 881 884 887 890 892 895 898 901 904 907 910 913 916 919 922 925 928 931 934 937 940 943 946 949 952 955 957 960 963 966 968 971 974 977 980 983 986 989 992 995 998 1001 1004 1007 1010 1013 1015 1017 1020 1023 1026 1028 1031 1034 1037 1039 1042 1045 1047 1050 1053 1056 1059 1062 1065 1068 1071 1074 1077 1080 1082 1085 1088 1091 1094 1097 1100 1103 1106 1108 1111 1114 1116 1119 1122 1125 1127 1130 1132 1134 1137 1140 1143 1146 1149 1152 1155 1157 1160 1163 1166 1169 1172 1175 1178 1181 1184 1187 1190 1193 1196 1199 1202 1205 1208 1211 1214 1217 1220 1223 1225 1228 1231 1233 1236 1239 1241 1244 1247 1250 1253 1256 1259 1261 1264 1267 1269 1272 1275 1278 1281 1284 1287 1290 1293 1296 1299 1302 1305 1308 1311 1314 1316 1319 1322 1325 1328 1331 1334 1337 1340 1343 1346 1349 1352 1355 1358 1361 1364 1367 1369 1372 1375 1378 1380 1383 1386 1389 1392 1395 1398 1401 1404 1407 1410 1413 1416 1419 1422 1425 1427 1430 1433 1436 1439 1442 1445 1448 1450 1452 1455 1458 1461 1463 1466 1469 1472 1474 1477 1480 1482 1485 1487 1490 1492 1494 1496 1499 1502 1505 1508 1511 1514 1517 1520 1523 1526 1529 1532 1534 1537 1540 1543 1545 1548 1550 1553 1556 1559 1562 1565 1568 1570 1573 1576 1579 1582 1585 1588 1591 1593 1596 1599 1602 1605 1607 1610 1612 1615 1618 1621 1624 1626 1629 1632 1635 1637 1640 1643 1645 1648 1651 1654 1657 1659 1662 1665 1668 1671 1674 1676 1678 1681 1684 1686 1688 1691 1694 1697 1700 1702 1705 1708 1711 1714 1716 1719 1721 1724 1726 1729 1732 1735 1737 1740 1742 1744 1747 1750 1752 1755 1758 1761 1764 1767 1770 1772 1775 1778 1781 1783 1786 1789 1791 1794 1797 1800 1803 1806 1808 1811 1813 1816 1819 1822 1824 1827 1829 1831 1834 1837 1839 1841 1844 1847 1849 1852 1855 1858 1861 1863 1866 1868 1871 1874 1877 1879 1882 1885 1888 1891 1894 1897 1900 1902 1905 1907 1910 1913 1916 1919 1921 1924 1927 1930 1933 1936 1939 1941 1943 1946 1949 1951 1954 1957 1960 1963 1966 1969 1972 1975 1978 1981 1984 1987 1990 1993 1996 1999 2001 2004 2007 2009 2012 2014 2017 2020 2023 2026 2029 2032 2035 2038 2041 2044 2047 2050 2053 2056 2059 2062 2065 2068 2071 2074 2077 2080 2083 2086 2089 2091 2094 2097 2100 2102 2104 2107 2110 2113 2116 2119 2122 2125 2128 2130 2133 2136 2138 2141 2144 2147 2150 2153 2155 2158 2161 2163 2166 2169 2172 2175 2178 2181 2184 2186 2189 2192 2194 2196 2199 2202 2204 2206 2209 2211 2214 2217 2219 2222 2225 2227 2230 2232 2234 2237 2239 2242 2245 2248 2250 2253 2256 2259 2262 2265 2268 2271 2274 2277 2280 2283 2286 2289 2292 2295 2297 2300 2303 2305 2307 2309 2312 2315 2318 2321 2324 2327 2330 2333 2336 2339 2342 2345 2348 2351 2353 2356 2359 2362 2364 2367 2370 2373 2376 2379 2382 2385 2388 2391 2394 2396 2399 2402 2405 2408 2411 2414 2417 2420 2423 2425 2428 2431 2434 2437 2440 2443 2446 2449 2451 2454 2457 2460 2463 2466 2469 2471 2474 2477 2480 2483 2486 2488 2491 2494 2497 2500 2503 2506 2509 2512 2515 2518 2521 2524 2527 2530 2532 2535 2537 2540 2543 2546 2548 2551 2554 2557 2560 2562 2565 2568 2571 2574 2577 2580 2582 2585 2588 2591 2593 2596 2598 2601 2603 2606 2609 2612 2615 2618 2620 2623 2626 2629 2632 2635 2638 2641 2644 2647 2650 2652 2655 2657 2660 2663 2666 2669 2671 2674 2677 2680 2683 2685 2688 2691 2694 2696 2698 2701 2704 2706 2709 2712 2715 2717 2720 2723 2726 2728 2731 2734 2737 2740 2743 2746 2749 2752 2755 2758 2761 2764 2767 2770 2773 2776 2779 2782 2785 2787 2790 2793 2796 2799 2802 2804 2807 2809 2812 2815 2818 2821 2824 2827 2829 2832 2834 2837 2840 2842 2845 2848 2851 2853 2856 2859 2862 2865 2868 2871 2874 2877 2880 2883 2886 2889 2891 2894 2897 2900 2903 2906 2909 2911 2913 2915 2918 2921 2923 2925 2928 2931 2933 2936 2939 2942 2944 2947 2950 2953 2956 2959 2962 2965 2968 2971 2974 2977 2980 2983 2986 2988 2990 2993 2995 2998 3001 3004 3007 3010 3013 3015 3017 3020 3022 3025 3028 3031 3033 3036 3038 3041 3044 3046 3048 3051 3053 3055 3058 3061 3064 3066 3069 3072 3075 3078 3081 3084 3087 3090 3093 3096 3099 3102 3105 3108 3111 3114 3117 3120 3123 3126 3129 3132 3135 3138 3141 3144 3147 3150 3153 3156 3159 3162 3165 3168 3171 3174 3177 3180 3183 3186 3189 3192 3195 3198 3201 3204 3207 3210 3213 3215 3218 3221 3224 3227 3230 3233 3235 3238 3241 3244 3246 3249 3252 3255 3258 3261 3264 3267 3270 3273 3276 3278 3281 3283 3285 3288 3290 3293 3296 3298 3301 3304 3307 3310 3313 3316 3319 3322 3325 3328 3331 3334 3336 3339 3342 3345 3347 3350 3353 3356 3359 3361 3363 3365 3368 3371 3373 3376 3379 3381 3384 3387 3390 3393 3395 3397 3400 3403 3406 3409 3412 3415 3418 3421 3424 3427 3430 3433 3436 3439 3442 3445 3447 3450 3453 3456 3459 3461 3463 3466 3469 3471 3474 3477 3480 3483 3486 3489 3492 3495 3498 3501 3504 3507 3510 3513 3516 3518 3521 3524 3527 3530 3532 3534 3537 3540 3543 3546 3549 3552 3555 3558 3561 3564 3567 3570 3572 3575 3578 3581 3583 3586 3589 3591 3594 3597 3600 3603 3606 3609 3612 3615 3618 3621 3624 3627 3630 3633 3636 3639 3642 3644 3647 3650 3653 3656 3659 3662 3665 3667 3670 3673 3676 3679 3682 3685 3688 3691 3694 3697 3700 3703 3706 3709 3712 3715 3718 3721 3724 3727 3730 3733 3736 3739 3741 3744 3747 3749 3752 3755 3758 3761 3764 3767 3770 3773 3776 3779 3782 3785 3788 3791 3794 3797 3800 3803 3806 3809 3812 3815 3818 3820 3823 3826 3828 3831 3834 3837 3840 3843 3846 3849 3852 3855 3857 3860 3863 3865 3868 3870 3873 3876 3879 3881 3883 3886 3889 3892 3895 3898 3900 3903 3906 3909 3912 3914 3917 3920 3923 3925 3928 3930 3933 3935 3938 3941 3944 3947 3950 3953 3956 3959 3962 3965 3968 3971 3974 3977 3980 3983 3986 3989 3992 3994 3997 4000 4003 4006 4009 4012 4014 4017 4019 4021 4024 4027 4030 4032 4035 4038 4041 4044 4047 4050 4053 4056 4059 4062 4065 4068 4071 4074 4077 4080 4083 4086 4089 4092 4095 4098 4101 4104 4107 4109 4112 4115 4117 4119 4122 4125 4128 4130 4133 4136 4139 4142 4145 4148 4151 4154 4157 4160 4163 4165 4168 4171 4174 4177 4180 4182 4184 4187 4189 4192 4194 4197 4200 4202 4204 4206 4209 4211 4213 4216 4219 4222 4225 4227 4230 4232 4235 4238 4240 4243 4246 4248 4251 4253 4256 4259 4262 4264 4266 4269 4272 4274 4277 4280 4283 4286 4288 4291 4294 4297 4300 4303 4306 4309 4312 4315 4317 4320 4323 4326 4329 4332 4335 4337 4340 4342 4345 4348 4350 4353 4355 4358 4361 4364 4367 4370 4373 4376 4379 4382 4384 4387 4390 4393 4396 4399 4402 4405 4407 4410 4413 4416 4418 4421 4423 4426 4429 4432 4435 4438 4441 4444 4447 4450 4452 4455 4458 4461 4464 4467 4470 4472 4475 4478 4481 4484 4487 4490 4492 4495 4498 4501 4504 4507 4509 4512 4515 4518 4521 4524 4527 4530 4532 4535 4538 4541 4544 4547 4550 4553 4556 4559 4562 4565 4567 4570 4573 4575 4578 4581 4584 4587 4590 4592 4594 4597 4600 4603 4606 4609 4611 4614 4617 4620 4623 4626 4629 4632 4635 4638 4641 4644 4647 4650 4653 4656 4659 4661 4664 4667 4670 4673 4676 4679 4682 4685 4688 4691 4694 4697 4700 4703 4705 4708 4711 4714 4717 4720 4722 4725 4728 4731 4734 4737 4740 4743 4746 4749 4752 4755 4758 4761 4764 4767 4770 4773 4776 4779 4782 4785 4788 4791 4794 4797 4800 4803 4806 4808 4811 4813 4816 4819 4822 4825 4828 4831 4834 4837 4840 4843 4846 4849 4852 4855 4858 4860 4862 4865 4868 4871 4873 4876 4879 4882 4885 4888 4890 4893 4895 4898 4901 4903 4906 4909 4912 4915 4917 4920 4923 4926 4929 4932 4935 4938 4941 4944 4947 4950 4953 4956 4958 4961 4964 4967 4970 4973 4976 4979 4982 4985 4988 4991 4994 4997 5000 5002 5005 5007 5010 5013 5016 5019 5021 5024 5027 5030 5033 5036 5039 5042 5045 5048 5051 5054 5057 5060 5063 5066 5069 5072 5075 5077 5080 5083 5086 5089 5092 5095 5098 5101 5104 5107 5110 5113 5116 5118 5121 5124 5126 5129 5132 5135 5138 5140 5143 5146 5149 5152 5155 5158 5160 5163 5166 5169 5171 5174 5177 5179 5182 5185 5188 5190 5193 5196 5199 5202 5205 5208 5210 5213 5216 5219 5222 5224 5227 5230 5233 5236 5239 5242 5244 5247 5250 5252 5255 5258 5261 5264 5266 5269 5272 5275 5278 5281 5284 5286 5289 5292 5294 5297 5300 5303 5306 5309 5311 5314 5317 5320 5323 5326 5329 5332 5335 5338 5341 5344 5347 5350 5353 5356 5359 5362 5365 5368 5371 5374 5377 5380 5382 5385 5388 5391 5394 5397 5400 5403 5406 5409 5412 5415 5418 5421 5424 5427 5430 5433 5436 5439 5442 5444 5447 5450 5453 5456 5459 5462 5465 5468 5471 5474 5477 5479 5482 5485 5488 5490 5493 5496 5499 5502 5505 5508 5511 5514 5517 5520 5523 5526 5529 5532 5535 5538 5541 5544 5547 5550 5553 5556 5558 5561 5564 5567 5570 5572 5575 5578 5580 5583 5586 5588 5591 5594 5597 5600 5603 5606 5609 5611 5614 5617 5620 5622 5625 5628 5630 5633 5636 5638 5640 5643 5645 5648 5651 5653 5656 5659 5661 5664 5667 5670 5673 5675 5678 5681 5684 5687 5689 5692 5695 5697 5700 5702 5705 5708 5711 5714 5717 5720 5723 5725 5728 5731 5734 5736 5739 5742 5745 5748 5750 5753 5756 5759 5762 5764 5767 5769 5772 5774 5776 5779 5782 5784 5787 5789 5792 5794 5797 5800 5803 5805 5808 5811 5814 5817 5820 5823 5826 5829 5832 5834 5837 5840 5843 5846 5848 5851 5854 5857 5859 5862 5865 5867 5870 5873 5875 5878 5881 5884 5887 5890 5893 5895 5898 5901 5904 5906 5909 5912 5915 5918 5921 5923 5926 5929 5932 5935 5938 5941 5944 5947 5950 5953 5956 5959 5961 5963 5966 5969 5971 5974 5977 5979 5981 5984 5987 5990 5992 5995 5998 6001 6004 6007 6010 6013 6016 6019 6022 6025 6027 6030 6033 6035 6038 6041 6044 6047 6050 6053 6056 6059 6062 6065 6068 6070 6073 6076 6079 6082 6085 6088 6091 6094 6097 6100 6103 6106 6109 6112 6114 6117 6120 6123 6126 6129 6132 6134 6137 6140 6143 6146 6149 6152 6155 6158 6161 6164 6166 6168 6171 6174 6177 6180 6183 6185 6188 6191 6194 6197 6200 6203 6206 6209 6212 6215 6218 6221 6224 6227 6230 6233 6236 6239 6242 6245 6248 6251 6254 6257 6260 6263 6266 6268 6271 6274 6277 6280 6283 6286 6288 6291 6294 6297 6299 6302 6305 6308 6311 6314 6317 6320 6323 6325 6328 6331 6333 6335 6338 6341 6344 6347 6350 6353 6356 6359 6362 6365 6368 6371 6374 6377 6379 6382 6385 6387 6390 6393 6396 6399 6402 6405 6408 6411 6414 6417 6420 6422 6425 6428 6431 6434 6437 6440 6443 6445 6447 6450 6453 6456 6458 6461 6464 6467 6469 6472 6475 6478 6481 6484 6487 6490 6493 6496 6499 6502 6505 6507 6510 6513 6515 6518 6521 6523 6526 6529 6532 6535 6538 6541 6544 6546 6548 6551 6554 6557 6559 6562 6565 6568 6571 6573 6576 6578 6581 6583 6586 6589 6592 6595 6598 6601 6603 6606 6609 6612 6615 6618 6621 6624 6627 6630 6632 6634 6637 6640 6643 6646 6648 6651 6654 6657 6660 6663 6666 6669 6671 6674 6677 6679 6682 6685 6687 6690 6693 6696 6698 6701 6704 6707 6710 6713 6716 6719 6722 6725 6728 6730 6733 6736 6739 6742 6745 6747 6750 6753 6756 6758 6761 6764 6766 6769 6771 6773 6775 6778 6781 6784 6787 6790 6793 6795 6797 6799 6802 6805 6807 6810 6813 6815 6818 6821 6823 6826 6829 6832 6835 6837 6840 6843 6846 6849 6852 6855 6858 6860 6863 6866 6869 6872 6875 6878 6881 6884 6887 6890 6893 6896 6899 6902 6905 6908 6911 6913 6916 6919 6922 6925 6928 6930 6933 6936 6939 6942 6945 6948 6950 6953 6955 6957 6960 6963 6965 6968 6971 6974 6976 6979 6982 6984 6987 6990 6992 6995 6997 7000 7003 7006 7008 7011 7014 7017 7020 7022 7024 7027 7030 7033 7035 7038 7040 7042 7045 7048 7050 7053 7056 7059 7062 7065 7067 7070 7073 7075 7078 7081 7084 7087 7089 7092 7095 7098 7101 7104 7106 7109 7112 7115 7118 7120 7123 7126 7129 7131 7134 7136 7139 7142 7145 7147 7150 7153 7156 7158 7161 7164 7167 7170 7173 7176 7179 7182 7184 7187 7190 7193 7196 7199 7202 7205 7208 7211 7214 7217 7220 7223 7226 7229 7232 7234 7237 7239 7242 7245 7248 7250 7253 7256 7259 7262 7265 7268 7270 7272 7275 7278 7281 7284 7287 7290 7293 7296 7299 7301 7304 7307 7310 7313 7315 7318 7321 7324 7327 7330 7333 7335 7337 7340 7343 7346 7348 7350 7353 7355 7358 7361 7364 7366 7369 7372 7375 7378 7380 7383 7386 7389 7392 7395 7398 7401 7404 7406 7408 7411 7413 7416 7419 7422 7425 7428 7431 7434 7437 7440 7443 7446 7448 7451 7454 7457 7460 7463 7466 7469 7472 7475 7478 7481 7484 7487 7490 7493 7496 7499 7502 7505 7508 7511 7514 7517 7520 7522 7525 7528 7531 7534 7537 7540 7543 7546 7549 7552 7555 7558 7561 7564 7567 7570 7573 7576 7579 7582 7585 7588 7591 7594 7597 7600 7603 7606 7609 7612 7615 7618 7621 7624 7627 7630 7633 7636 7639 7642 7645 7648 7651 7654 7657 7660 7663 7666 7669 7672 7675 7678 7681 7684 7687 7690 7693 7696 7699 7702 7705 7708 7711 7714 7717 7720 7723 7726 7729 7732 7735 7738 7741 7744 7747 7750 7753 7756 7759 7762 7765 7768 7771 7774 7777 7780 7783 7786 7789 7792 7795 7798 7801 7803 7806 7808 7811 7814 7817 7819 7822 7825 7827 7830 7832 7835 7838 7841 7844 7847 7849 7852 7855 7858 7861 7864 7867 7869 7872 7875 7878 7881 7884 7887 7889 7892 7894 7897 7899 7902 7905 7908 7910 7913 7915 7918 7920 7923 7926 7928 7931 7933 7936 7939 7942 7945 7948 7951 7954 7957 7960 7963 7965 7968 7970 7973 7976 7979 7981 7984 7986 7989 7992 7995 7998 8001 8004 8007 8009 8012 8014 8017 8020 8023 8025 8028 8030 8033 8035 8038 8041 8044 8047 8049 8052 8055 8058 8060 8063 8066 8069 8072 8075 8078 8081 8084 8087 8090 8093 8095 8097 8100 8102 8105 8108 8111 8114 8117 8119 8121 8124 8127 8129 8132 8135 8137 8140 8143 8146 8148 8150 8153 8156 8159 8162 8165 8168 8171 8174 8177 8180 8183 8186 8189 8191 8194 8196 8199 8202 8205 8208 8211 8214 8217 8220 8223 8225 8228 8231 8234 8237 8240 8243 8246 8249 8252 8255 8258 8261 8264 8267 8270 8273 8276 8279 8282 8285 8288 8291 8294 8297 8300 8303 8306 8309 8312 8315 8318 8321 8323 8326 8328 8331 8333 8336 8338 8341 8344 8347 8350 8352 8355 8357 8360 8363 8366 8369 8372 8374 8377 8380 8383 8386 8389 8392 8395 8398 8401 8404 8407 8410 8413 8416 8419 8422 8425 8428 8431 8434 8437 8440 8443 8446 8448 8451 8454 8457 8459 8462 8465 8468 8471 8474 8476 8479 8481 8484 8487 8490 8493 8496 8499 8502 8505 8508 8511 8514 8517 8520 8523 8526 8529 8531 8533 8536 8539 8542 8545 8548 8551 8554 8557 8560 8563 8565 8568 8571 8574 8577 8579 8582 8585 8588 8591 8594 8597 8600 8603 8605 8608 8610 8613 8616 8619 8622 8625 8628 8631 8633 8636 8639 8642 8645 8648 8651 8654 8657 8660 8663 8666 8669 8672 8675 8678 8681 8684 8687 8690 8692 8694 8697 8699 8702 8705 8708 8711 8714 8717 8720 8722 8725 8728 8731 8734 8736 8739 8742 8745 8748 8751 8754 8757 8760 8763 8766 8769 8771 8774 8777 8780 8783 8785 8788 8791 8794 8797 8799 8802 8805 8808 8811 8814 8817 8820 8823 8826 8829 8832 8834 8837 8840 8843 8846 8849 8852 8855 8858 8861 8864 8867 8870 8873 8876 8879 8882 8885 8888 8891 8894 8897 8900 8903 8906 8909 8912 8915 8918 8921 8924 8927 8930 8933 8936 8939 8941 8944 8947 8950 8953 8956 8959 8962 8965 8968 8971 8974 8977 8980 8983 8986 8989 8992 8995 8998 9001 9004 9007 9010 9013 9016 9019 9022 9025 9028 9031 9034 9037 9039 9042 9045 9048 9051 9054 9057 9060 9063 9066 9069 9072 9075 9078 9081 9084 9087 9090 9093 9096 9099 9102 9105 9108 9111 9114 9117 9120 9123 9126 9129 9132 9134 9136 9139 9142 9145 9148 9151 9154 9157 9160 9163 9166 9169 9172 9175 9178 9181 9184 9187 9189 9192 9195 9198 9201 9203 9206 9208 9211 9214 9217 9220 9223 9226 9229 9231 9234 9237 9240 9243 9246 9248 9251 9254 9257 9260 9263 9266 9269 9272 9275 9278 9281 9284 9287 9290 9293 9296 9299 9302 9305 9308 9311 9314 9317 9320 9323 9326 9329 9332 9335 9338 9341 9344 9347 9350 9353 9356 9359 9362 9365 9368 9371 9374 9377 9380 9383 9386 9389 9392 9395 9398 9401 9404 9407 9410 9413 9416 9419 9422 9425 9428 9431 9434 9437 9440 9443 9446 9449 9452 9455 9458 9461 9464 9467 9470 9473 9476 9479 9482 9485 9488 9491 9494 9497 9500 9503 9506 9509 9512 9515 9517 9520 9523 9526 9528 9531 9534 9537 9540 9543 9546 9549 9552 9555 9558 9561 9563 9566 9569 9572 9575 9578 9581 9584 9587 9590 9593 9596 9599 9602 9604 9607 9610 9613 9616 9619 9622 9625 9628 9631 9634 9637 9640 9643 9646 9649 9652 9655 9657 9660 9663 9666 9669 9672 9675 9678 9681 9684 9687 9690 9693 9696 9699 9702 9705 9708 9711 9714 9717 9719 9722 9725 9727 9730 9732 9735 9738 9741 9744 9747 9750 9753 9756 9759 9762 9765 9768 9771 9774 9776 9779 9782 9785 9787 9790 9792 9795 9798 9801 9804 9806 9809 9812 9814 9817 9820 9823 9826 9829 9832 9835 9838 9841 9844 9847 9850 9853 9856 9859 9862 9865 9868 9871 9874 9876 9879 9882 9885 9888 9891 9894 9897 9900 9903 9906 9908 9911 9914 9917 9920 9923 9926 9928 9930 9933 9936 9939 9942 9944 9947 9950 9953 9956 9959 9962 9965 9968 9971 9974 9977 9980 9983 9986 9989 9992 9995 9998 10001 10004 10007 10010 10013 10016 10019 10022 10025 10028 10031 10033 10035 10038 10041 10044 10047 10050 10052 10055 10057 10060 10063 10066 10069 10072 10075 10078 10081 10084 10087 10090 10092 10095 10098 10100 10102 10105 10108 10110 10113 10116 10119 10122 10124 10127 10130 10132 10135 10138 10141 10144 10146 10149 10152 10155 10158 10161 10164 10167 10170 10173 10175 10178 10181 10184 10187 10190 10192 10194 10197 10199 10202 10205 10208 10210 10213 10215 10218 10220 10223 10226 10229 10232 10235 10237 10240 10243 10246 10248 10250 10253 10256 10259 10261 10263 10266 10268 10270 10273 10276 10279 10282 10284 10287 10290 10293 10296 10299 10301 10304 10307 10310 10313 10316 10318 10321 10324 10327 10330 10332 10335 10338 10341 10344 10347 10350 10353 10356 10359 10361 10364 10367 10370 10373 10376 10379 10382 10385 10388 10391 10394 10397 10400 10403 10406 10409 10412 10415 10418 10420 10423 10426 10428 10431 10433 10436 10438 10441 10444 10447 10450 10453 10456 10459 10462 10465 10467 10469 10472 10474 10477 10480 10482 10485 10488 10491 10494 10497 10499 10502 10505 10508 10511 10514 10517 10520 10523 10526 10529 10532 10535 10537 10540 10542 10545 10547 10549 10552 10555 10558 10561 10564 10567 10570 10573 10575 10578 10581 10583 10586 10589 10592 10595 10598 10601 10604 10607 10610 10613 10615 10618 10621 10624 10627 10629 10632 10635 10638 10641 10644 10647 10650 10653 10656 10659 10662 10665 10668 10671 10674 10677 10680 10683 10686 10689 10692 10695 10698 10701 10704 10707 10710 10713 10715 10718 10721 10724 10727 10730 10732 10735 10737 10739 10742 10745 10748 10751 10754 10757 10760 10763 10766 10769 10772 10775 10778 10781 10784 10787 10790 10793 10796 10798 10801 10804 10807 10810 10813 10815 10818 10821 10824 10827 10830 10833 10836 10839 10842 10845 10848 10851 10854 10857 10859 10862 10865 10868 10871 10874 10877 10879 10882 10885 10888 10891 10894 10897 10900 10903 10906 10909 10912 10915 10918 10921 10924 10926 10929 10932 10935 10938 10941 10944 10947 10950 10953 10955 10958 10961 10963 10966 10968 10971 10974 10977 10980 10982 10985 10988 10991 10993 10996 10999 11002 11005 11008 11010 11013 11016 11019 11022 11025 11028 11030 11033 11036 11039 11042 11045 11048 11051 11054 11057 11060 11063 11066 11069 11072 11075 11078 11081 11083 11086 11089 11092 11094 11097 11100 11103 11106 11108 11111 11113 11116 11119 11122 11125 11128 11131 11134 11137 11139 11142 11145 11148 11151 11154 11157 11160 11162 11165 11168 11171 11174 11177 11180 11183 11186 11189 11192 11194 11196 11199 11202 11205 11208 11211 11214 11217 11220 11223 11226 11229 11232 11235 11238 11241 11244 11247 11250 11252 11255 11258 11261 11264 11267 11269 11272 11274 11277 11280 11283 11286 11289 11292 11295 11297 11300 11302 11305 11308 11311 11314 11316 11318 11321 11324 11327 11329 11332 11334 11336 11339 11342 11345 11348 11350 11352 11355 11358 11361 11364 11367 11370 11372 11375 11378 11381 11383 11386 11389 11392 11395 11398 11400 11403 11406 11409 11412 11415 11418 11421 11424 11427 11430 11433 11435 11438 11441 11444 11447 11450 11453 11456 11459 11462 11465 11468 11471 11474 11477 11480 11483 11486 11489 11492 11495 11498 11500 11503 11506 11509 11512 11515 11518 11521 11524 11527 11530 11533 11536 11539 11542 11545 11548 11550 11553 11556 11559 11562 11564 11567 11570 11573 11576 11579 11582 11585 11587 11590 11592 11595 11598 11600 11603 11605 11608 11610 11613 11616 11619 11622 11625 11628 11631 11634 11637 11639 11642 11645 11648 11650 11653 11656 11659 11661 11664 11667 11669 11672 11675 11678 11681 11684 11687 11690 11693 11696 11699 11702 11705 11707 11710 11713 11716 11718 11721 11724 11727 11730 11733 11736 11739 11742 11744 11747 11750 11753 11756 11759 11761 11764 11767 11770 11773 11776 11779 11782 11785 11787 11789 11792 11795 11798 11801 11804 11807 11810 11812 11815 11818 11821 11824 11827 11830 11833 11836 11839 11842 11845 11848 11851 11854 11857 11860 11863 11866 11869 11872 11875 11878 11881 11884 11887 11890 11893 11896 11899 11902 11905 11908 11911 11914 11917 11920 11923 11926 11929 11932 11935 11938 11941 11944 11947 11950 11953 11956 11959 11962 11965 11968 11971 11974 11977 11980 11983 11986 11989 11992 11995 11998 12001 12004 12007 12010 12013 12016 12018 12021 12024 12026 12029 12032 12035 12038 12041 12043 12046 12049 12052 12055 12058 12061 12064 12067 12070 12073 12076 12079 12082 12085 12088 12091 12094 12097 12100 12103 12105 12107 12110 12113 12115 12118 12121 12124 12126 12129 12132 12135 12138 12141 12144 12146 12149 12152 12155 12158 12160 12163 12166 12169 12172 12175 12178 12180 12182 12185 12188 12191 12194 12197 12200 12202 12205 12208 12211 12213 12216 12219 12222 12224 12227 12230 12233 12236 12239 12242 12245 12248 12251 12253 12256 12259 12262 12265 12268 12271 12273 12275 12278 12281 12284 12287 12290 12292 12295 12298 12301 12304 12307 12309 12312 12314 12317 12319 12322 12325 12328 12330 12333 12336 12339 12342 12345 12348 12351 12353 12355 12358 12361 12364 12367 12370 12373 12376 12379 12382 12385 12388 12391 12394 12397 12400 12403 12405 12408 12411 12414 12417 12420 12423 12426 12429 12431 12434 12437 12440 12443 12446 12448 12451 12454 12457 12460 12463 12466 12468 12471 12474 12477 12480 12483 12486 12489 12492 12495 12497 12500 12503 12505 12508 12510 12513 12515 12517 12520 12523 12526 12529 12532 12535 12538 12541 12544 12547 12550 12553 12556 12559 12562 12565 12568 12571 12573 12576 12579 12582 12584 12587 12590 12592 12595 12598 12601 12604 12607 12610 12613 12616 12619 12622 12625 12628 12631 12634 12637 12640 12643 12646 12649 12652 12655 12658 12661 12664 12667 12670 12673 12676 12679 12682 12685 12688 12691 12694 12697 12700 12703 12706 12709 12712 12715 12718 12721 12724 12727 12730 12733 12736 12739 12741 12744 12747 12750 12753 12756 12759 12762 12765 12768 12771 12774 12777 12780 12783 12786 12789 12792 12795 12798 12800 12803 12806 12809 12812 12815 12818 12821 12824 12827 12830 12833 12836 12839 12842 12845 12848 12851 12854 12857 12860 12862 12865 12868 12871 12874 12877 12880 12883 12886 12889 12892 12895 12898 12901 12904 12907 12910 12913 12916 12919 12922 12925 12928 12931 12934 12937 12940 12943 12946 12949 12952 12955 12958 12961 12964 12967 12969 12972 12975 12978 12981 12984 12987 12990 12993 12996 12998 13001 13004 13007 13010 13013 13016 13019 13022 13025 13028 13031 13033 13036 13039 13042 13045 13048 13051 13054 13057 13060 13063 13066 13069 13072 13075 13077 13080 13083 13086 13089 13092 13094 13097 13099 13102 13105 13108 13111 13114 13117 13120 13123 13126 13129 13132 13134 13137 13140 13143 13145 13148 13151 13153 13156 13159 13162 13165 13167 13170 13173 13176 13178 13181 13184 13187 13190 13192 13195 13198 13201 13204 13207 13210 13212 13215 13218 13221 13224 13226 13229 13231 13234 13237 13240 13243 13246 13249 13252 13255 13258 13261 13264 13267 13269 13272 13275 13278 13280 13283 13286 13288 13291 13294 13297 13300 13303 13305 13308 13311 13314 13317 13319 13322 13325 13328 13331 13334 13337 13340 13342 13345 13348 13351 13354 13357 13360 13363 13366 13369 13372 13374 13377 13380 13383 13386 13388 13391 13394 13397 13400 13403 13406 13409 13412 13415 13418 13421 13423 13426 13429 13432 13435 13437 13440 13442 13445 13448 13451 13454 13457 13460 13463 13466 13469 13472 13475 13477 13480 13483 13486 13488 13491 13494 13497 13499 13502 13505 13508 13510 13513 13516 13519 13522 13525 13528 13530 13533 13536 13539 13542 13545 13548 13551 13553 13556 13559 13562 13565 13567 13570 13573 13576 13579 13582 13585 13588 13591 13594 13597 13600 13603 13606 13608 13611 13614 13616 13619 13622 13625 13628 13631 13634 13637 13640 13642 13645 13648 13651 13654 13657 13660 13662 13664 13667 13670 13673 13676 13679 13682 13684 13687 13690 13693 13695 13698 13701 13704 13707 13710 13713 13716 13719 13722 13725 13728 13731 13734 13737 13740 13743 13746 13749 13752 13755 13758 13761 13764 13767 13770 13773 13776 13778 13781 13784 13787 13789 13792 13795 13798 13801 13804 13806 13809 13812 13815 13818 13820 13823 13826 13829 13832 13835 13838 13841 13844 13847 13850 13853 13856 13859 13862 13865 13868 13871 13873 13876 13879 13882 13885 13888 13891 13894 13897 13900 13903 13906 13909 13912 13915 13918 13921 13924 13927 13930 13933 13936 13939 13942 13945 13947 13949 13952 13955 13958 13961 13964 13967 13970 13973 13976 13979 13982 13985 13988 13991 13994 13997 14000 14003 14006 14009 14012 14015 14018 14021 14024 14027 14030 14033 14036 14039 14042 14045 14048 14051 14054 14057 14060 14063 14066 14069 14072 14075 14078 14081 14084 14087 14090 14093 14096 14099 14102 14105 14108 14111 14114 14117 14120 14123 14126 14129 14132 14135 14138 14141 14144 14147 14150 14153 14156 14159 14161 14163 14166 14169 14172 14175 14178 14181 14184 14187 14190 14193 14196 14199 14202 14205 14208 14211 14214 14217 14220 14223 14226 14229 14232 14235 14238 14240 14243 14246 14248 14251 14254 14257 14260 14263 14266 14269 14271 14273 14276 14279 14282 14285 14288 14290 14293 14296 14299 14302 14305 14308 14311 14314 14317 14319 14322 14325 14328 14331 14334 14337 14340 14343 14346 14349 14352 14355 14358 14361 14364 14367 14370 14373 14376 14379 14382 14384 14387 14390 14393 14396 14399 14401 14403 14405 14408 14411 14414 14417 14419 14422 14425 14428 14431 14434 14437 14440 14443 14446 14449 14451 14454 14457 14460 14463 14466 14469 14472 14474 14477 14480 14483 14486 14489 14491 14494 14497 14499 14502 14505 14507 14510 14513 14515 14518 14520 14523 14526 14529 14532 14534 14537 14539 14542 14545 14548 14551 14554 14557 14560 14563 14566 14569 14572 14575 14578 14581 14584 14587 14590 14593 14596 14599 14602 14605 14608 14611 14614 14617 14620 14623 14626 14629 14631 14634 14637 14640 14643 14645 14648 14651 14653 14656 14659 14662 14665 14668 14671 14674 14676 14679 14682 14685 14688 14691 14694 14697 14700 14703 14706 14709 14712 14715 14718 14721 14724 14727 14730 14733 14736 14739 14742 14745 14748 14751 14754 14757 14760 14763 14766 14769 14772 14775 14778 14781 14784 14787 14790 14793 14796 14799 14802 14805 14808 14811 14814 14817 14820 14823 14826 14829 14832 14835 14838 14841 14844 14847 14850 14853 14856 14859 14862 14865 14868 14871 14874 14877 14880 14883 14886 14889 14892 14895 14898 14901 14904 14907 14909 14912 14915 14918 14921 14924 14927 14930 14933 14936 14939 14942 14945 14948 14951 14954 14957 14960 14963 14966 14969 14972 14975 14978 14981 14984 14987 14990 14993 14996 14999 15002 15005 15008 15011 15014 15017 15020 15023 15026 15029 15032 15035 15038 15041 15044 15047 15050 15053 15055 15058 15061 15064 15066 15069 15072 15075 15078 15081 15084 15086 15089 15092 15095 15098 15100 15103 15106 15109 15112 15115 15118 15121 15124 15127 15130 15133 15136 15139 15142 15145 15148 15151 15154 15157 15160 15163 15166 15169 15172 15175 15178 15181 15184 15187 15190 15192 15195 15198 15200 15203 15206 15208 15211 15214 15217 15220 15223 15225 15228 15231 15234 15237 15240 15242 15245 15248 15251 15254 15257 15260 15263 15265 15268 15271 15274 15277 15279 15282 15285 15287 15290 15293 15296 15299 15302 15305 15308 15310 15313 15316 15318 15321 15324 15327 15330 15333 15335 15338 15341 15344 15347 15350 15353 15355 15358 15361 15364 15367 15370 15373 15376 15379 15381 15384 15387 15390 15393 15396 15399 15402 15405 15408 15411 15414 15417 15420 15423 15426 15429 15432 15435 15438 15441 15444 15447 15449 15452 15455 15458 15461 15463 15466 15469 15472 15475 15478 15481 15484 15487 15490 15493 15495 15497 15500 15503 15506 15509 15511 15514 15517 15520 15523 15526 15529 15532 15535 15538 15541 15544 15547 15550 15553 15556 15558 15561 15564 15567 15570 15573 15576 15579 15582 15585 15588 15591 15594 15597 15600 15603 15606 15609 15612 15615 15618 15621 15624 15627 15630 15633 15636 15639 15642 15645 15648 15651 15654 15657 15659 15662 15665 15667 15670 15673 15676 15679 15681 15684 15687 15690 15693 15696 15698 15701 15704 15707 15710 15712 15715 15718 15721 15724 15727 15730 15733 15736 15739 15742 15745 15747 15750 15753 15755 15758 15760 15763 15765 15767 15770 15773 15776 15779 15782 15785 15788 15791 15794 15797 15799 15801 15804 15807 15810 15813 15816 15819 15822 15825 15828 15831 15834 15837 15840 15843 15846 15849 15852 15855 15858 15861 15864 15867 15870 15873 15876 15879 15882 15885 15888 15891 15894 15897 15900 15902 15905 15908 15911 15914 15917 15919 15922 15925 15928 15931 15934 15937 15940 15943 15946 15949 15952 15955 15958 15961 15964 15967 15970 15973 15976 15979 15982 15985 15988 15991 15994 15997 15999 16002 16005 16008 16010 16013 16016 16019 16021 16024 16027 16030 16033 16036 16038 16041 16043 16046 16049 16052 16055 16057 16060 16062 16065 16067 16070 16073 16075 16078 16081 16084 16087 16090 16093 16096 16099 16102 16105 16108 16111 16114 16117 16120 16123 16126 16129 16131 16134 16137 16139 16142 16145 16147 16150 16152 16155 16158 16161 16163 16166 16169 16172 16175 16177 16180 16183 16186 16189 16192 16195 16198 16201 16204 16207 16210 16212 16215 16217 16220 16222 16224 16227 16229 16232 16235 16238 16241 16244 16247 16250 16253 16256 16259 16262 16265 16267 16270 16272 16275 16278 16281 16284 16287 16290 16293 16296 16298 16301 16304 16306 16308 16311 16314 16317 16320 16323 16326 16329 16331 16333 16336 16339 16342 16345 16348 16351 16354 16356 16359 16362 16365 16368 16370 16373 16376 16379 16382 16385 16388 16391 16394 16397 16400 16403 16406 16409 16412 16415 16417 16420 16423 16425 16428 16431 16434 16436 16439 16442 16444 16447 16450 16452 16455 16458 16460 16463 16466 16469 16472 16475 16478 16481 16484 16487 16489 16492 16494 16497 16500 16503 16506 16509 16511 16514 16517 16519 16522 16525 16528 16531 16534 16536 16539 16542 16545 16548 16550 16553 16556 16559 16562 16565 16567 16570 16573 16576 16578 16581 16584 16586 16589 16592 16595 16597 16600 16603 16606 16609 16612 16615 16618 16621 16624 16626 16628 16631 16634 16636 16639 16642 16645 16648 16651 16654 16656 16659 16662 16665 16668 16670 16673 16676 16679 16682 16685 16688 16691 16694 16697 16700 16703 16705 16708 16711 16713 16716 16719 16722 16725 16728 16731 16734 16737 16740 16743 16746 16749 16752 16755 16758 16761 16763 16766 16769 16772 16775 16778 16781 16784 16787 16790 16793 16796 16799 16802 16804 16807 16810 16813 16815 16818 16821 16823 16826 16829 16831 16834 16837 16839 16842 16845 16848 16851 16854 16857 16860 16863 16865 16868 16871 16874 16877 16879 16882 16885 16888 16891 16894 16897 16900 16903 16906 16909 16912 16915 16918 16921 16924 16926 16929 16932 16935 16938 16941 16944 16947 16950 16953 16956 16959 16962 16965 16967 16970 16973 16976 16979 16981 16984 16987 16990 16993 16996 16999 17002 17005 17008 17011 17014 17017 17020 17023 17026 17029 17032 17035 17038 17041 17044 17047 17050 17053 17056 17059 17061 17064 17067 17070 17073 17076 17078 17081 17084 17086 17089 17092 17095 17098 17101 17104 17107 17110 17113 17115 17118 17121 17124 17126 17129 17132 17135 17138 17141 17144 17147 17150 17153 17156 17159 17162 17165 17167 17170 17173 17175 17178 17181 17184 17187 17190 17192 17195 17198 17201 17204 17207 17210 17212 17215 17218 17221 17223 17226 17229 17232 17235 17237 17240 17242 17245 17248 17251 17254 17257 17260 17263 17266 17268 17271 17274 17277 17280 17283 17286 17288 17291 17294 17297 17300 17303 17306 17309 17312 17315 17318 17321 17324 17327 17330 17333 17336 17339 17342 17345 17348 17351 17354 17357 17360 17363 17366 17369 17372 17375 17377 17380 17383 17386 17389 17392 17395 17397 17399 17401 17404 17406 17408 17411 17414 17417 17420 17422 17425 17428 17431 17434 17437 17440 17443 17446 17449 17452 17454 17457 17460 17463 17466 17469 17471 17474 17476 17479 17482 17485 17488 17490 17493 17495 17497 17499 17502 17505 17508 17510 17513 17515 17518 17520 17523 17526 17529 17531 17534 17537 17540 17543 17545 17548 17550 17553 17556 17559 17562 17565 17568 17571 17574 17576 17579 17582 17585 17588 17590 17593 17596 17599 17602 17605 17608 17611 17614 17617 17620 17623 17626 17629 17632 17634 17637 17640 17643 17646 17648 17651 17654 17657 17660 17662 17664 17667 17670 17673 17675 17678 17681 17684 17687 17690 17693 17696 17699 17702 17705 17708 17711 17714 17717 17720 17722 17725 17728 17731 17734 17736 17739 17742 17745 17748 17751 17754 17757 17760 17763 17766 17768 17771 17774 17777 17780 17783 17786 17788 17791 17794 17797 17800 17802 17804 17807 17810 17813 17816 17819 17822 17825 17827 17830 17833 17836 17839 17842 17845 17847 17850 17853 17856 17859 17862 17865 17868 17871 17873 17876 17879 17881 17884 17886 17889 17892 17895 17898 17901 17904 17906 17909 17912 17915 17918 17920 17923 17925 17928 17931 17934 17937 17940 17943 17946 17949 17952 17954 17956 17959 17962 17965 17968 17971 17974 17976 17979 17982 17985 17988 17991 17994 17997 18000 18002 18005 18008 18011 18014 18017 18020 18023 18026 18029 18032 18034 18037 18040 18043 18045 18048 18050 18053 18056 18059 18062 18064 18067 18070 18073 18076 18079 18082 18084 18087 18089 18092 18095 18098 18100 18103 18106 18109 18111 18114 18117 18119 18122 18125 18128 18131 18134 18137 18140 18143 18146 18149 18152 18155 18158 18160 18163 18166 18169 18172 18175 18178 18181 18183 18186 18188 18190 18193 18196 18198 18201 18204 18206 18209 18212 18215 18218 18221 18224 18226 18229 18232 18235 18237 18240 18243 18246 18249 18252 18255 18258 18261 18264 18266 18269 18272 18275 18278 18280 18283 18286 18289 18292 18295 18298 18301 18304 18307 18310 18312 18315 18317 18320 18323 18326 18329 18332 18335 18338 18341 18344 18347 18350 18353 18356 18359 18362 18365 18367 18370 18373 18376 18379 18382 18385 18388 18391 18394 18396 18399 18402 18405 18408 18411 18414 18417 18420 18423 18426 18429 18432 18435 18438 18441 18444 18447 18450 18453 18456 18459 18462 18465 18467 18470 18473 18476 18479 18482 18485 18488 18490 18493 18496 18499 18502 18505 18507 18510 18513 18516 18519 18522 18525 18528 18531 18534 18537 18540 18543 18546 18549 18552 18555 18558 18561 18564 18567 18570 18573 18576 18579 18582 18585 18588 18591 18593 18596 18599 18602 18605 18608 18611 18613 18616 18619 18622 18625 18627 18630 18633 18636 18638 18640 18643 18646 18649 18652 18655 18658 18661 18664 18667 18670 18673 18676 18679 18682 18685 18688 18691 18694 18697 18700 18703 18706 18709 18712 18715 18718 18721 18724 18727 18730 18733 18736 18739 18742 18745 18748 18751 18754 18757 18760 18763 18766 18769 18772 18775 18778 18781 18783 18786 18789 18792 18795 18797 18800 18803 18806 18809 18812 18815 18818 18821 18824 18827 18830 18833 18836 18839 18842 18845 18847 18850 18853 18856 18859 18862 18865 18867 18870 18873 18875 18878 18880 18883 18886 18889 18892 18895 18898 18900 18903 18906 18909 18912 18915 18918 18921 18924 18927 18930 18933 18936 18939 18942 18945 18948 18951 18954 18957 18960 18963 18966 18969 18972 18975 18978 18981 18983 18986 18988 18991 18994 18996 18999 19002 19005 19008 19011 19014 19017 19020 19023 19025 19028 19030 19033 19036 19039 19042 19045 19048 19051 19053 19056 19059 19062 19065 19068 19071 19074 19077 19080 19083 19086 19089 19092 19094 19097 19100 19103 19106 19109 19112 19115 19118 19121 19123 19126 19129 19132 19135 19137 19140 19143 19146 19149 19152 19155 19158 19160 19162 19165 19168 19171 19174 19177 19180 19183 19186 19189 19192 19195 19198 19201 19204 19207 19210 19212 19215 19218 19221 19224 19227 19230 19233 19236 19238 19241 19244 19247 19249 19252 19255 19258 19261 19264 19267 19270 19273 19276 19279 19282 19285 19288 19291 19294 19297 19300 19303 19306 19308 19311 19314 19317 19320 19323 19326 19329 19331 19334 19337 19339 19342 19345 19348 19351 19354 19357 19360 19363 19365 19368 19371 19373 19376 19379 19382 19385 19388 19391 19394 19397 19400 19403 19406 19409 19411 19414 19417 19420 19423 19425 19428 19431 19434 19437 19440 19443 19445 19448 19451 19454 19456 19459 19462 19465 19467 19470 19473 19476 19479 19482 19485 19488 19491 19494 19496 19499 19502 19505 19508 19511 19513 19516 19519 19521 19524 19527 19529 19532 19535 19538 19541 19544 19547 19549 19552 19555 19558 19561 19564 19567 19570 19573 19576 19579 19581 19584 19587 19590 19593 19596 19598 19601 19604 19607 19610 19613 19616 19619 19622 19625 19628 19631 19634 19637 19640 19643 19646 19649 19652 19655 19658 19661 19664 19667 19669 19672 19675 19678 19681 19684 19687 19690 19693 19696 19699 19702 19705 19708 19711 19713 19716 19719 19721 19724 19727 19730 19733 19736 19738 19741 19744 19746 19749 19752 19755 19758 19761 19764 19767 19770 19772 19775 19778 19781 19784 19787 19790 19793 19796 19799 19802 19805 19808 19811 19814 19817 19820 19823 19826 19829 19832 19835 19838 19841 19843 19845 19848 19851 19854 19857 19859 19862 19865 19868 19871 19874 19877 19880 19883 19886 19888 19891 19894 19897 19900 19903 19906 19909 19912 19915 19917 19920 19923 19926 19929 19932 19935 19938 19941 19943 19946 19949 19952 19954 19956 19959 19962 19964 19967 19970 19973 19976 19979 19982 19984 19987 19989 19992 19995 19998 20001 20004 20007 20009 20012 20015 20018 20021 20024 20027 20030 20033 20036 20039 20042 20045 20048 20051 20054 20057 20059 20062 20065 20068 20070 20073 20076 20078 20081 20084 20086 20089 20092 20095 20098 20101 20104 20107 20110 20113 20116 20119 20122 20125 20128 20130 20133 20136 20138 20141 20143 20146 20149 20151 20154 20157 20160 20163 20166 20169 20172 20175 20178 20181 20184 20187 20190 20193 20196 20199 20202 20205 20208 20211 20214 20217 20220 20223 20226 20229 20232 20235 20238 20241 20244 20247 20250 20253 20256 20259 20262 20265 20268 20271 20274 20277 20280 20283 20286 20288 20291 20294 20297 20300 20303 20306 20309 20312 20315 20318 20321 20323 20325 20328 20331 20334 20337 20339 20342 20345 20348 20351 20354 20357 20360 20363 20366 20369 20372 20375 20378 20381 20384 20387 20390 20393 20396 20399 20402 20405 20408 20411 20413 20416 20419 20421 20424 20427 20429 20432 20435 20438 20441 20443 20446 20448 20451 20454 20457 20460 20463 20465 20468 20471 20474 20476 20479 20481 20484 20487 20490 20493 20496 20499 20502 20505 20508 20511 20514 20517 20520 20523 20526 20529 20532 20535 20538 20541 20543 20546 20549 20552 20555 20558 20560 20563 20566 20569 20572 20575 20578 20581 20584 20586 20589 20592 20595 20598 20601 20604 20607 20610 20613 20616 20619 20621 20624 20627 20630 20633 20636 20639 20642 20644 20647 20650 20653 20656 20659 20662 20665 20668 20671 20674 20677 20680 20683 20686 20688 20691 20694 20697 20700 20702 20705 20708 20711 20714 20717 20720 20723 20726 20729 20732 20734 20737 20740 20743 20746 20748 20751 20753 20756 20759 20762 20765 20768 20771 20774 20777 20779 20782 20785 20788 20791 20794 20796 20799 20802 20804 20807 20810 20813 20816 20819 20822 20824 20827 20830 20833 20836 20839 20842 20845 20848 20851 20854 20857 20860 20862 20865 20868 20871 20874 20877 20880 20883 20885 20888 20891 20894 20897 20900 20902 20905 20908 20911 20914 20917 20920 20922 20925 20928 20931 20934 20937 20940 20943 20946 20949 20952 20955 20958 20961 20963 20966 20969 20971 20974 20977 20980 20983 20986 20989 20992 20995 20998 21001 21004 21006 21009 21012 21015 21018 21021 21023 21026 21029 21032 21035 21038 21041 21044 21047 21050 21053 21056 21058 21061 21064 21067 21069 21072 21075 21078 21081 21084 21087 21090 21093 21096 21099 21102 21105 21108 21111 21114 21117 21120 21123 21126 21129 21132 21135 21138 21141 21144 21146 21149 21152 21154 21157 21160 21163 21165 21168 21171 21173 21176 21179 21182 21185 21188 21191 21194 21197 21200 21203 21205 21207 21210 21212 21215 21218 21221 21224 21227 21230 21232 21235 21238 21241 21244 21247 21249 21252 21255 21258 21261 21263 21266 21269 21272 21275 21278 21281 21284 21287 21290 21293 21296 21299 21302 21305 21308 21311 21314 21317 21319 21322 21325 21328 21331 21334 21337 21340 21342 21345 21348 21351 21354 21357 21360 21363 21365 21368 21371 21374 21376 21379 21382 21385 21388 21391 21394 21397 21400 21403 21406 21409 21412 21415 21418 21421 21424 21427 21430 21432 21435 21438 21441 21444 21446 21449 21452 21455 21458 21461 21463 21466 21469 21471 21474 21477 21480 21483 21485 21488 21491 21494 21497 21500 21502 21505 21508 21511 21514 21517 21520 21523 21525 21528 21531 21534 21536 21539 21542 21545 21548 21551 21554 21557 21560 21563 21565 21568 21571 21573 21576 21579 21582 21585 21588 21591 21594 21597 21600 21603 21606 21609 21612 21615 21618 21621 21624 21627 21630 21633 21636 21639 21642 21645 21648 21651 21654 21657 21660 21663 21665 21668 21670 21673 21676 21679 21681 21684 21687 21690 21693 21696 21698 21701 21704 21706 21709 21712 21715 21718 21721 21724 21727 21730 21733 21736 21738 21741 21743 21746 21749 21752 21755 21758 21760 21762 21765 21768 21770 21772 21775 21778 21781 21784 21787 21790 21792 21795 21798 21801 21804 21807 21810 21813 21816 21819 21822 21825 21828 21831 21834 21837 21839 21842 21845 21848 21850 21853 21856 21858 21861 21864 21867 21870 21873 21876 21879 21882 21885 21888 21891 21894 21897 21899 21902 21905 21908 21911 21914 21917 21920 21923 21926 21929 21932 21935 21938 21941 21944 21947 21950 21953 21956 21959 21962 21964 21967 21970 21973 21976 21979 21982 21985 21988 21991 21994 21997 22000 22003 22006 22009 22012 22015 22018 22021 22024 22027 22030 22033 22036 22039 22042 22045 22048 22051 22054 22057 22060 22063 22066 22069 22072 22075 22078 22081 22084 22087 22089 22092 22095 22098 22101 22104 22107 22110 22113 22116 22118 22121 22124 22127 22130 22133 22136 22139 22142 22145 22148 22151 22154 22157 22160 22163 22166 22169 22171 22174 22177 22179 22181 22184 22187 22190 22193 22195 22198 22200 22203 22206 22209 22212 22214 22217 22219 22222 22225 22228 22231 22234 22237 22240 22242 22244 22247 22250 22252 22255 22258 22261 22264 22266 22269 22272 22275 22278 22281 22284 22287 22290 22293 22296 22299 22302 22305 22308 22311 22314 22317 22320 22322 22324 22327 22330 22333 22336 22339 22342 22345 22348 22351 22354 22357 22360 22363 22366 22369 22372 22375 22378 22381 22384 22387 22390 22393 22395 22398 22401 22403 22406 22409 22411 22414 22417 22420 22422 22425 22427 22430 22433 22436 22439 22442 22445 22448 22451 22454 22457 22459 22462 22465 22467 22470 22473 22476 22479 22482 22485 22488 22491 22494 22497 22500 22503 22506 22509 22512 22515 22518 22521 22524 22527 22530 22533 22535 22538 22541 22544 22547 22550 22553 22556 22559 22562 22565 22567 22570 22573 22576 22579 22582 22585 22588 22591 22594 22597 22600 22603 22606 22609 22612 22615 22617 22620 22623 22626 22628 22631 22634 22637 22640 22643 22646 22648 22651 22654 22657 22660 22663 22666 22669 22672 22675 22678 22681 22684 22687 22690 22693 22696 22699 22702 22705 22708 22711 22714 22716 22718 22721 22724 22727 22730 22733 22736 22738 22741 22744 22747 22750 22753 22756 22759 22762 22765 22768 22771 22773 22776 22779 22782 22785 22788 22791 22794 22797 22800 22803 22806 22809 22812 22815 22818 22821 22824 22827 22830 22833 22836 22838 22841 22844 22847 22850 22853 22856 22859 22861 22864 22867 22870 22873 22876 22879 22882 22884 22886 22889 22892 22895 22897 22899 22902 22905 22908 22911 22913 22916 22919 22922 22925 22927 22930 22932 22935 22938 22941 22944 22947 22949 22951 22954 22957 22960 22963 22966 22969 22972 22974 22976 22978 22980 22982 22985 22988 22990 22993 22996 22999 23002 23005 23007 23010 23013 23016 23018 23020 23023 23026 23029 23032 23035 23038 23041 23044 23046 23048 23050 23053 23056 23059 23062 23064 23067 23069 23072 23074 23077 23080 23082 23085 23088 23091 23093 23096 23098 23101 23103 23106 23109 23112 23115 23118 23121 23124 23127 23129 23132 23135 23138 23141 23143 23146 23149 23152 23154 23157 23159 23162 23164 23167 23170 23173 23176 23179 23182 23184 23187 23190 23193 23196 23198 23201 23204 23206 23208 23210 23213 23216 23218 23221 23224 23226 23229 23232 23235 23238 23241 23244 23247 23250 23252 23255 23257 23260 23263 23265 23267 23270 23273 23276 23279 23282 23285 23288 23291 23294 23297 23300 23303 23306 23309 23311 23313 23316 23319 23322 23325 23327 23330 23333 23335 23338 23341 23343 23345 23348 23351 23354 23357 23360 23363 23366 23369 23372 23375 23377 23380 23383 23386 23389 23392 23395 23397 23400 23403 23406 23409 23412 23415 23418 23421 23424 23427 23430 23433 23436 23439 23442 23444 23447 23450 23452 23455 23458 23461 23464 23466 23468 23471 23474 23477 23480 23483 23486 23489 23492 23495 23498 23501 23504 23507 23510 23513 23515 23517 23519 23522 23525 23528 23531 23534 23537 23540 23543 23545 23548 23550 23553 23556 23559 23562 23565 23568 23571 23574 23577 23580 23583 23586 23588 23590 23592 23595 23597 23600 23603 23606 23608 23610 23613 23616 23619 23622 23625 23628 23630 23633 23636 23639 23642 23645 23648 23651 23654 23657 23660 23662 23664 23667 23670 23673 23676 23679 23681 23684 23686 23688 23690 23692 23695 23698 23700 23702 23704 23707 23710 23713 23716 23718 23721 23724 23727 23730 23733 23736 23738 23740 23743 23746 23748 23751 23754 23757 23760 23763 23766 23769 23772 23774 23776 23779 23782 23785 23787 23790 23793 23795 23798 23801 23804 23807 23809 23812 23815 23817 23820 23822 23825 23827 23830 23833 23836 23839 23841 23844 23847 23850 23853 23856 23859 23862 23865 23868 23871 23874 23877 23880 23883 23885 23888 23891 23894 23897 23900 23902 23905 23907 23910 23913 23916 23919 23922 23925 23928 23931 23934 23937 23940 23943 23946 23949 23951 23953 23956 23959 23962 23965 23967 23970 23972 23975 23978 23980 23983 23986 23989 23992 23994 23997 24000 24002 24005 24007 24009 24012 24015 24018 24021 24024 24027 24030 24033 24036 24038 24041 24044 24046 24049 24052 24054 24057 24059 24061 24064 24066 24069 24072 24075 24078 24081 24084 24087 24090 24093 24096 24099 24102 24105 24108 24111 24114 24117 24120 24123 24126 24129 24132 24135 24138 24141 24144 24147 24150 24153 24156 24159 24162 24165 24168 24171 24174 24177 24180 24183 24186 24189 24192 24195 24198 24201 24204 24207 24210 24213 24216 24219 24222 24225 24228 24231 24234 24237 24240 24243 24246 24249 24252 24254 24257 24260 24263 24266 24269 24272 24275 24278 24281 24284 24287 24290 24293 24296 24299 24302 24305 24308 24310 24313 24316 24319 24322 24325 24328 24331 24334 24336 24339 24342 24345 24347 24350 24353 24356 24358 24361 24364 24367 24370 24372 24375 24378 24381 24383 24386 24389 24392 24395 24398 24401 24404 24407 24410 24412 24415 24418 24420 24423 24426 24429 24432 24435 24438 24441 24444 24447 24450 24453 24456 24459 24462 24465 24468 24471 24474 24477 24480 24483 24486 24489 24492 24494 24496 24499 24502 24504 24506 24508 24511 24514 24517 24519 24522 24525 24527 24530 24533 24535 24538 24541 24544 24547 24549 24552 24555 24557 24560 24563 24566 24569 24572 24575 24578 24581 24584 24587 24590 24593 24596 24599 24602 24605 24608 24611 24614 24617 24620 24623 24626 24629 24632 24635 24638 24641 24644 24647 24650 24652 24655 24658 24661 24664 24666 24669 24672 24675 24678 24681 24684 24686 24689 24692 24695 24698 24701 24704 24707 24710 24713 24716 24719 24722 24725 24728 24730 24733 24736 24739 24742 24745 24748 24751 24754 24756 24759 24762 24765 24768 24771 24774 24777 24779 24782 24785 24787 24790 24793 24796 24798 24801 24804 24807 24810 24813 24816 24819 24822 24825 24828 24831 24834 24837 24840 24843 24846 24849 24852 24855 24858 24861 24864 24867 24870 24873 24875 24878 24881 24884 24887 24890 24893 24896 24899 24902 24905 24908 24910 24913 24916 24919 24922 24925 24928 24931 24934 24937 24940 24943 24946 24949 24952 24955 24958 24961 24964 24967 24970 24973 24976 24978 24981 24984 24987 24989 24992 24995 24997 25000 25003 25006 25009 25012 25015 25018 25021 25024 25027 25030 25033 25036 25039 25042 25045 25048 25051 25054 25057 25060 25063 25066 25069 25072 25075 25078 25081 25084 25087 25090 25093 25096 25099 25102 25105 25108 25111 25114 25117 25120 25123 25126 25129 25132 25135 25138 25141 25144 25147 25150 25153 25156 25159 25162 25165 25168 25171 25174 25177 25180 25183 25186 25189 25192 25195 25197 25200 25203 25205 25208 25210 25213 25216 25219 25222 25225 25228 25231 25234 25237 25240 25243 25246 25249 25252 25255 25258 25260 25263 25266 25269 25272 25275 25277 25280 25283 25285 25288 25291 25294 25296 25299 25302 25305 25308 25310 25313 25316 25319 25322 25325 25328 25331 25334 25336 25339 25341 25344 25346 25349 25351 25354 25357 25360 25363 25366 25368 25371 25374 25377 25379 25382 25385 25388 25391 25394 25397 25399 25402 25405 25408 25411 25414 25417 25419 25422 25425 25428 25431 25434 25436 25439 25442 25445 25448 25451 25454 25457 25460 25463 25466 25469 25472 25475 25478 25481 25484 25487 25490 25493 25496 25498 25501 25504 25507 25510 25513 25515 25518 25521 25523 25526 25529 25532 25535 25538 25540 25542 25545 25547 25550 25553 25556 25559 25561 25564 25567 25570 25573 25576 25579 25582 25585 25588 25591 25593 25596 25599 25602 25605 25608 25610 25613 25616 25619 25622 25625 25628 25631 25634 25637 25640 25643 25646 25649 25652 25655 25657 25660 25662 25665 25668 25670 25673 25676 25679 25682 25685 25687 25690 25693 25696 25699 25702 25705 25708 25711 25713 25716 25718 25721 25724 25726 25729 25732 25735 25738 25741 25744 25747 25750 25753 25756 25759 25762 25765 25768 25771 25773 25776 25779 25782 25785 25788 25791 25794 25797 25800 25803 25805 25808 25811 25814 25817 25820 25823 25826 25829 25832 25835 25838 25841 25844 25847 25850 25853 25856 25859 25862 25865 25868 25871 25874 25877 25880 25883 25886 25889 25891 25894 25896 25899 25902 25905 25908 25911 25914 25917 25920 25923 25926 25929 25932 25935 25937 25940 25943 25946 25949 25952 25955 25958 25960 25963 25966 25969 25972 25975 25978 25981 25984 25987 25989 25992 25995 25997 26000 26002 26004 26007 26010 26013 26016 26018 26021 26024 26027 26030 26033 26036 26039 26042 26045 26048 26051 26054 26057 26060 26063 26066 26069 26072 26075 26078 26081 26084 26086 26089 26092 26095 26098 26101 26104 26107 26110 26113 26116 26119 26122 26125 26128 26131 26134 26137 26140 26143 26146 26149 26152 26155 26158 26161 26164 26167 26170 26173 26176 26179 26182 26185 26188 26191 26194 26197 26200 26203 26206 26209 26212 26215 26218 26221 26224 26227 26230 26233 26236 26239 26242 26245 26248 26251 26254 26257 26260 26263 26266 26269 26272 26275 26278 26281 26284 26287 26290 26293 26296 26299 26302 26305 26308 26311 26314 26317 26320 26322 26325 26328 26331 26334 26337 26340 26343 26346 26349 26352 26355 26358 26361 26363 26366 26369 26372 26375 26378 26381 26384 26387 26390 26393 26396 26399 26402 26405 26408 26411 26414 26417 26420 26422 26425 26428 26431 26434 26436 26439 26442 26445 26448 26451 26454 26457 26460 26463 26466 26469 26472 26475 26478 26481 26484 26487 26490 26493 26496 26499 26502 26505 26508 26511 26514 26517 26520 26523 26526 26529 26532 26535 26538 26541 26544 26547 26550 26553 26556 26559 26562 26565 26568 26571 26573 26576 26579 26582 26584 26587 26590 26593 26595 26598 26601 26604 26607 26610 26613 26616 26619 26622 26625 26628 26631 26634 26637 26640 26643 26646 26648 26651 26654 26657 26660 26663 26666 26669 26671 26674 26677 26680 26682 26685 26688 26691 26693 26696 26698 26701 26704 26707 26710 26713 26716 26718 26720 26723 26726 26729 26731 26734 26737 26740 26743 26746 26749 26751 26754 26757 26760 26763 26765 26768 26771 26774 26777 26780 26783 26786 26789 26791 26794 26797 26800 26803 26806 26809 26812 26815 26818 26820 26823 26826 26829 26831 26834 26837 26840 26843 26845 26848 26851 26853 26856 26859 26862 26865 26868 26871 26874 26877 26880 26883 26886 26889 26892 26895 26898 26901 26904 26907 26910 26912 26915 26918 26921 26924 26927 26929 26932 26934 26936 26939 26942 26945 26948 26951 26953 26956 26958 26961 26963 26965 26968 26971 26974 26977 26980 26983 26986 26989 26992 26995 26997 27000 27003 27006 27008 27011 27014 27016 27019 27022 27025 27028 27031 27034 27037 27040 27043 27046 27049 27052 27055 27058 27061 27064 27067 27070 27073 27076 27079 27082 27085 27088 27091 27094 27097 27100 27103 27106 27109 27112 27115 27118 27121 27124 27127 27130 27133 27136 27139 27142 27145 27148 27151 27154 27157 27160 27163 27166 27169 27172 27175 27178 27180 27183 27186 27189 27192 27195 27198 27200 27203 27206 27208 27211 27214 27216 27219 27222 27225 27228 27231 27234 27237 27240 27243 27246 27248 27250 27253 27256 27259 27262 27265 27268 27271 27274 27277 27280 27283 27285 27288 27291 27294 27297 27300 27303 27306 27309 27312 27315 27318 27321 27324 27327 27330 27333 27335 27338 27341 27344 27346 27349 27352 27355 27357 27360 27363 27366 27368 27371 27374 27377 27380 27383 27386 27389 27392 27395 27398 27401 27404 27407 27410 27413 27416 27419 27421 27424 27427 27430 27433 27436 27439 27442 27445 27447 27450 27452 27455 27458 27461 27464 27467 27470 27472 27475 27478 27481 27483 27486 27489 27492 27494 27497 27500 27502 27505 27508 27511 27513 27516 27519 27522 27525 27528 27531 27534 27537 27540 27543 27546 27549 27552 27555 27558 27561 27564 27567 27570 27573 27576 27579 27582 27585 27588 27591 27594 27597 27600 27603 27606 27609 27612 27615 27618 27621 27624 27627 27630 27632 27635 27638 27640 27643 27646 27649 27652 27655 27657 27660 27663 27665 27668 27671 27674 27677 27680 27683 27686 27689 27692 27695 27698 27701 27704 27707 27710 27712 27715 27718 27721 27723 27726 27729 27731 27734 27737 27740 27743 27746 27749 27752 27755 27758 27761 27764 27767 27769 27772 27775 27778 27781 27784 27787 27790 27793 27796 27799 27802 27805 27808 27811 27814 27817 27820 27823 27826 27829 27832 27835 27837 27840 27843 27846 27849 27851 27854 27857 27860 27863 27866 27869 27872 27875 27878 27881 27884 27887 27890 27892 27895 27898 27901 27903 27906 27908 27911 27914 27917 27920 27923 27925 27928 27931 27934 27936 27938 27941 27944 27947 27950 27953 27956 27959 27962 27965 27967 27970 27973 27976 27979 27982 27984 27987 27990 27993 27996 27999 28002 28005 28008 28011 28014 28017 28020 28023 28026 28029 28032 28035 28038 28041 28044 28047 28049 28052 28055 28058 28061 28064 28067 28070 28073 28076 28079 28081 28084 28087 28089 28092 28095 28098 28100 28103 28106 28109 28112 28115 28118 28121 28124 28127 28130 28133 28136 28139 28142 28144 28147 28149 28152 28155 28158 28161 28163 28166 28169 28172 28175 28178 28181 28184 28186 28189 28192 28195 28198 28201 28204 28207 28210 28213 28216 28219 28222 28225 28228 28231 28234 28237 28240 28243 28246 28249 28252 28255 28258 28261 28264 28266 28269 28272 28274 28276 28279 28282 28285 28287 28290 28293 28295 28298 28301 28304 28307 28309 28312 28315 28318 28321 28324 28327 28330 28333 28336 28339 28342 28345 28348 28350 28353 28356 28359 28362 28364 28367 28370 28372 28375 28378 28381 28384 28386 28389 28392 28395 28397 28400 28403 28406 28408 28411 28414 28417 28420 28423 28426 28429 28432 28435 28437 28440 28443 28446 28449 28452 28455 28458 28461 28464 28467 28469 28472 28475 28478 28481 28484 28487 28490 28493 28496 28499 28502 28505 28508 28511 28514 28516 28519 28521 28524 28526 28529 28532 28535 28538 28541 28544 28547 28550 28553 28555 28558 28561 28564 28567 28570 28572 28575 28578 28581 28584 28587 28590 28592 28595 28598 28600 28603 28606 28609 28612 28615 28618 28621 28624 28627 28630 28633 28636 28639 28642 28645 28648 28651 28654 28657 28660 28663 28666 28669 28672 28675 28678 28681 28684 28687 28689 28692 28695 28697 28700 28702 28705 28708 28711 28714 28717 28720 28722 28725 28728 28731 28733 28736 28739 28742 28745 28748 28751 28754 28756 28759 28762 28765 28768 28771 28774 28777 28780 28783 28785 28788 28791 28794 28796 28799 28802 28804 28806 28809 28811 28814 28817 28820 28822 28825 28828 28831 28834 28837 28840 28842 28845 28848 28851 28854 28857 28859 28861 28864 28867 28870 28873 28875 28878 28881 28884 28887 28890 28893 28896 28899 28902 28905 28908 28911 28914 28917 28920 28922 28925 28928 28930 28933 28936 28939 28942 28945 28948 28951 28954 28956 28959 28962 28965 28968 28970 28973 28976 28979 28982 28985 28988 28990 28993 28996 28998 29001 29003 29006 29009 29012 29015 29017 29019 29022 29025 29028 29030 29032 29035 29038 29040 29043 29046 29049 29052 29055 29058 29061 29064 29067 29070 29073 29076 29079 29082 29085 29088 29090 29093 29096 29099 29101 29104 29107 29110 29113 29116 29119 29121 29124 29127 29130 29133 29136 29139 29142 29145 29148 29151 29153 29156 29159 29162 29165 29168 29171 29174 29177 29180 29182 29184 29187 29189 29192 29195 29197 29200 29203 29206 29209 29212 29215 29218 29220 29223 29226 29228 29230 29233 29236 29239 29242 29244 29247 29250 29253 29256 29259 29262 29265 29268 29271 29274 29277 29279 29282 29284 29287 29290 29293 29296 29298 29301 29304 29307 29309 29312 29314 29317 29320 29323 29326 29329 29332 29335 29338 29341 29344 29347 29349 29352 29355 29358 29361 29364 29367 29370 29373 29376 29379 29382 29385 29388 29391 29394 29397 29400 29402 29405 29408 29411 29414 29417 29420 29423 29426 29428 29430 29433 29436 29439 29442 29445 29448 29451 29454 29457 29460 29463 29466 29469 29472 29475 29478 29481 29483 29486 29489 29492 29495 29497 29500 29503 29505 29507 29510 29513 29515 29518 29521 29524 29526 29529 29532 29535 29538 29541 29544 29547 29550 29553 29556 29559 29562 29565 29568 29571 29574 29577 29580 29583 29586 29589 29592 29595 29598 29601 29604 29607 29610 29613 29616 29619 29622 29625 29628 29631 29634 29637 29640 29643 29646 29648 29651 29654 29657 29660 29663 29665 29668 29671 29674 29677 29680 29683 29686 29689 29692 29695 29698 29701 29704 29707 29710 29713 29716 29719 29722 29725 29728 29731 29734 29737 29740 29743 29746 29749 29752 29755 29758 29761 29764 29767 29769 29772 29774 29777 29779 29781 29784 29787 29790 29793 29795 29798 29801 29804 29806 29809 29812 29815 29817 29820 29823 29826 29828 29831 29834 29837 29840 29843 29846 29849 29852 29855 29857 29860 29863 29866 29869 29872 29875 29878 29881 29884 29887 29890 29893 29896 29899 29902 29905 29908 29911 29914 29917 29920 29923 29926 29929 29932 29935 29938 29941 29944 29947 29949 29952 29954 29957 29959 29962 29965 29967 29970 29973 29976 29979 29982 29985 29988 29991 29994 29997 29999 30002 30005 30008 30011 30014 30017 30020 30023 30026 30028 30031 30034 30037 30040 30043 30046 30048 30051 30054 30057 30060 30063 30066 30069 30072 30075 30078 30081 30084 30087 30090 30093 30096 30099 30102 30105 30108 30111 30114 30117 30120 30122 30125 30128 30131 30134 30137 30140 30143 30145 30148 30151 30154 30157 30160 30163 30166 30169 30172 30175 30177 30180 30183 30185 30188 30191 30194 30197 30200 30203 30205 30208 30211 30214 30217 30220 30223 30226 30228 30231 30234 30237 30240 30243 30246 30249 30252 30255 30258 30261 30264 30267 30270 30273 30276 30278 30281 30284 30287 30290 30293 30296 30299 30302 30305 30308 30311 30313 30316 30319 30322 30325 30327 30330 30333 30335 30338 30341 30344 30347 30350 30353 30356 30359 30362 30365 30368 30371 30374 30377 30380 30383 30386 30389 30392 30394 30397 30400 30403 30406 30409 30412 30415 30418 30420 30423 30426 30429 30432 30435 30438 30441 30443 30446 30449 30452 30455 30458 30460 30463 30466 30469 30472 30474 30477 30480 30483 30486 30489 30492 30495 30498 30500 30503 30506 30509 30512 30515 30518 30521 30524 30526 30529 30532 30535 30538 30541 30544 30547 30550 30553 30556 30559 30562 30565 30568 30571 30574 30577 30580 30583 30586 30589 30592 30595 30598 30600 30603 30606 30609 30612 30615 30617 30620 30623 30626 30629 30631 30634 30636 30639 30642 30645 30648 30651 30654 30657 30660 30663 30666 30669 30672 30675 30678 30681 30683 30686 30689 30692 30694 30697 30700 30703 30706 30709 30712 30715 30718 30721 30724 30727 30730 30733 30736 30739 30742 30745 30748 30751 30754 30757 30760 30763 30766 30769 30772 30775 30778 30781 30784 30787 30790 30793 30796 30799 30802 30805 30808 30811 30814 30817 30820 30823 30826 30829 30832 30835 30838 30841 30844 30847 30850 30853 30855 30858 30861 30864 30867 30870 30873 30876 30879 30882 30885 30888 30890 30893 30896 30899 30902 30905 30908 30911 30914 30916 30919 30922 30924 30927 30930 30933 30936 30939 30942 30945 30947 30950 30953 30956 30959 30961 30964 30967 30970 30973 30976 30978 30981 30984 30987 30990 30993 30996 30999 31002 31005 31008 31011 31014 31017 31020 31023 31026 31029 31032 31034 31037 31040 31043 31045 31048 31051 31054 31057 31060 31063 31066 31068 31071 31073 31076 31079 31082 31085 31088 31091 31093 31095 31098 31101 31104 31107 31110 31113 31116 31118 31121 31124 31126 31129 31131 31134 31137 31140 31143 31146 31149 31152 31155 31158 31161 31163 31166 31169 31172 31175 31177 31179 31182 31185 31188 31190 31193 31196 31199 31201 31204 31207 31209 31212 31215 31218 31221 31224 31227 31229 31232 31235 31238 31240 31243 31246 31249 31252 31254 31256 31259 31262 31265 31268 31271 31274 31277 31280 31283 31286 31289 31292 31295 31298 31301 31303 31306 31309 31312 31315 31318 31321 31324 31327 31330 31333 31336 31339 31342 31344 
</DataArray>
<DataArray type="UInt32" Name="types" format="ascii">
5 5 5 3 5 5 5 5 5 5 5 5 5 5 5 5 5 5 3 5 5 5 5 5 5 5 5 5 5 3 5 3 5 5 5 5 3 5 5 5 5 5 5 5 5 5 5 5 5 5 5 5 3 5 5 5 5 5 5 3 5 5 5 5 5 5 5 5 5 5 5 5 5 5 5 5 5 5 5 5 5 5 5 5 5 5 5 5 5 5 5 5 5 3 5 5 5 5 5 5 5 3 5 5 5 5 5 3 5 5 3 5 5 5 5 5 5 5 5 5 5 3 5 3 5 5 5 3 5 5 5 3 5 5 3 5 5 5 5 5 5 5 5 5 5 5 5 3 5 5 5 5 3 5 5 5 3 5 5 5 5 5 5 3 5 3 5 5 5 3 5 5 5 5 5 5 5 5 5 5 5 5 5 3 5 5 5 5 5 5 5 5 3 5 3 5 3 5 3 5 3 5 5 5 5 5 5 3 5 5 5 5 3 3 5 5 5 5 5 5 5 5 5 3 5 5 5 3 5 5 5 5 5 5 5 5 5 5 5 3 5 3 5 5 5 5 5 5 3 5 3 5 3 5 5 5 5 5 5 3 3 5 5 5 5 3 5 5 5 5 5 5 5 5 5 5 5 5 3 5 5 5 3 5 5 5 5 5 5 5 5 5 5 5 5 5 5 5 5 5 5 5 3 5 3 5 5 3 5 5 5 5 3 5 5 5 5 5 5 5 5 5 5 5 5 5 5 5 5 5 5 5 5 5 3 5 5 5 3 5 5 5 5 5 5 5 5 5 5 5 5 5 5 5 3 3 5 5 5 3 5 5 5 3 5 5 3 5 5 5 5 5 5 5 5 5 5 5 3 5 5 5 5 5 5 5 5 3 5 5 3 5 5 5 3 5 3 3 5 5 5 5 5 5 5 3 5 5 5 5 5 5 5 5 5 5 5 5 5 5 5 5 5 5 5 5 5 5 3 5 5 3 5 5 3 5 5 5 5 5 5 3 5 5 3 5 5 5 5 5 5 5 5 5 5 5 5 5 5 5 3 5 5 5 5 5 5 5 5 5 5 5 5 5 5 5 5 5 3 5 5 5 3 5 5 5 5 5 5 5 5 5 5 5 5 5 5 5 3 5 5 5 5 5 5 5 3 3 5 5 5 3 5 5 5 3 5 5 3 5 3 5 3 3 3 5 5 5 5 5 5 5 5 5 5 5 5 3 5 5 5 3 5 3 5 5 5 5 5 5 3 5 5 5 5 5 5 5 3 5 5 5 5 3 5 3 5 5 5 5 3 5 5 5 3 5 5 3 5 5 5 5 3 5 5 5 5 5 3 3 5 5 3 3 5 5 5 5 3 5 5 5 5 3 5 3 5 3 5 5 5 3 5 3 3 5 5 3 5 5 5 5 5 5 3 5 5 5 3 5 5 3 5 5 5 5 5 3 5 3 5 5 5 3 5 3 3 5 5 3 3 5 5 3 5 5 5 5 3 5 3 5 5 5 3 5 5 5 5 5 5 5 3 5 3 5 5 5 5 3 5 5 5 5 5 5 3 3 5 5 3 5 5 5 5 5 5 5 5 5 5 5 5 5 5 5 5 3 5 5 3 5 3 5 5 5 5 5 5 5 5 5 5 5 5 5 5 5 5 5 5 5 5 5 5 5 5 5 3 5 5 5 3 3 5 5 5 5 5 5 5 5 3 5 5 3 5 5 5 5 5 3 5 5 3 5 5 5 5 5 5 5 3 5 5 3 3 5 5 3 3 5 3 5 5 3 5 5 3 5 3 3 5 3 5 5 5 3 5 5 5 5 5 5 5 5 5 5 5 5 5 5 5 3 5 5 3 3 3 5 5 5 5 5 5 5 5 5 5 5 5 5 5 3 5 5 5 3 5 5 5 5 5 5 5 5 5 5 3 5 5 5 5 5 5 5 5 5 3 5 5 5 5 5 5 5 5 3 5 5 5 5 5 5 3 5 5 5 5 5 3 5 5 5 5 5 5 5 5 5 5 5 5 5 5 3 5 3 5 5 5 3 5 5 5 5 3 5 5 5 5 5 5 3 5 5 5 3 5 3 5 3 5 5 5 5 5 3 5 5 5 5 5 5 5 5 5 5 3 5 3 5 5 5 5 3 5 5 5 5 3 5 5 5 3 3 5 5 3 5 5 5 3 5 5 5 3 5 5 5 5 5 5 5 5 5 5 5 5 5 5 5 5 5 5 5 3 5 5 5 5 5 3 5 3 5 5 5 5 5 5 3 5 3 5 5 3 5 5 5 3 5 5 5 5 5 5 5 5 5 5 5 5 3 5 5 5 5 5 5 3 3 3 5 5 3 3 5 5 3 5 5 5 3 5 5 5 5 5 5 5 5 5 5 5 5 5 5 3 3 5 3 5 5 5 5 5 5 3 3 5 3 5 5 5 3 5 3 5 5 3 3 5 3 3 5 5 5 3 5 5 5 5 5 5 5 5 5 5 5 5 5 5 5 5 5 5 5 5 5 5 5 5 5 5 5 5 5 5 5 5 5 5 5 5 5 5 5 5 5 5 5 5 5 5 5 5 5 3 5 5 5 5 5 5 3 5 5 5 3 5 5 5 5 5 5 5 5 5 5 3 5 3 3 5 3 5 5 3 5 5 5 5 5 5 5 5 5 5 5 5 3 5 5 5 3 5 5 5 5 3 3 3 5 5 3 5 5 3 5 5 5 5 3 3 5 5 5 5 5 5 5 5 5 5 5 5 5 5 5 5 3 5 5 5 5 3 3 5 5 3 5 5 5 5 5 5 5 5 5 5 5 5 5 5 5 3 5 5 5 5 3 3 5 5 5 5 5 5 5 5 5 5 5 5 3 5 5 5 3 5 5 3 5 5 5 5 5 5 5 5 5 5 5 5 5 5 5 5 5 3 5 5 5 5 5 5 5 3 5 5 5 5 5 5 5 5 5 5 5 5 5 5 5 5 5 5 5 5 5 5 5 5 3 5 5 3 5 5 5 5 5 5 5 5 5 5 5 5 5 5 5 5 5 5 5 5 5 5 5 3 5 5 3 5 5 5 5 5 5 5 5 5 3 5 5 3 5 3 5 5 5 3 3 5 5 5 5 5 3 5 5 5 5 3 5 5 5 3 5 3 5 3 5 5 5 5 5 5 5 5 5 5 5 5 5 5 5 5 5 5 5 3 5 5 5 5 5 5 3 5 3 3 5 5 5 3 5 5 5 5 5 5 5 5 5 5 5 5 5 5 5 5 5 5 5 5 5 5 5 5 5 3 5 5 3 3 5 5 5 3 5 5 5 5 5 5 5 5 5 5 5 3 5 5 5 5 5 3 3 5 3 5 3 5 5 3 3 3 5 3 3 5 5 5 5 3 5 3 5 5 3 5 5 3 5 3 5 5 5 3 3 5 5 3 5 5 5 5 3 5 5 5 5 5 5 5 5 5 3 5 5 5 5 5 5 3 5 3 5 5 3 5 3 5 5 5 5 5 5 5 5 5 3 5 5 5 5 5 5 5 3 5 5 5 3 5 3 5 5 5 5 5 5 5 5 5 3 5 5 5 5 5 5 3 5 5 5 5 5 5 3 5 5 5 5 5 3 5 5 5 5 5 5 5 3 5 5 5 5 5 5 5 5 5 5 5 3 5 5 3 5 5 5 5 5 3 3 5 5 5 5 5 3 5 5 5 5 5 5 5 5 5 5 5 5 5 5 5 5 3 5 5 5 5 5 5 5 5 5 5 5 5 5 5 3 5 5 5 5 5 3 5 5 5 5 5 5 5 5 5 5 5 5 5 5 5 5 5 5 5 5 5 5 5 5 5 5 5 5 3 5 3 5 5 5 5 5 5 5 5 5 5 5 5 5 5 5 3 3 5 5 5 3 5 5 5 5 5 3 5 3 5 5 3 5 5 5 5 3 5 5 5 5 5 5 5 5 5 5 5 5 5 3 5 5 5 5 5 5 5 5 5 5 5 5 5 5 3 5 3 5 5 5 5 3 5 5 5 5 5 5 5 5 5 5 5 5 5 5 5 5 5 5 3 5 5 5 5 5 5 5 5 5 5 5 5 5 3 5 5 3 5 5 5 5 3 5 5 5 5 5 5 3 5 5 5 3 5 5 3 5 5 5 3 5 5 5 5 5 5 3 5 5 5 5 3 5 5 5 5 5 5 3 5 5 3 5 5 5 5 3 5 5 5 5 5 5 3 5 5 3 5 5 5 5 5 3 5 5 5 5 5 5 5 5 5 5 5 5 5 5 5 5 5 5 5 5 5 5 5 3 5 5 5 5 5 5 5 5 5 5 5 5 5 5 5 5 5 5 5 5 3 5 5 5 5 5 5 5 5 5 5 5 3 5 5 5 3 5 5 5 5 5 5 5 5 5 5 5 5 5 5 5 5 5 5 5 5 5 5 3 5 5 5 5 3 5 5 3 5 5 3 5 5 5 5 5 5 5 3 5 5 5 3 5 5 3 5 5 3 3 5 3 5 5 3 5 5 3 5 5 5 5 3 5 5 5 5 3 5 5 3 5 3 5 5 5 5 5 5 5 3 5 5 5 3 5 5 5 5 3 5 5 5 5 3 5 3 5 3 3 5 5 3 5 3 5 3 5 5 5 3 5 5 5 5 5 5 5 5 5 3 5 5 5 5 3 5 5 5 3 5 5 3 5 5 3 5 5 5 5 5 5 3 5 5 5 3 5 5 5 5 5 3 5 5 5 5 5 5 5 5 5 5 5 5 3 3 5 5 3 5 5 3 3 5 5 5 3 5 5 5 5 5 5 5 5 5 5 5 3 5 5 3 5 5 5 5 5 5 5 5 5 5 5 3 5 5 5 5 5 5 5 5 5 5 5 5 5 5 3 5 5 5 5 5 5 3 5 5 5 5 5 5 5 5 5 5 3 3 5 5 5 5 5 3 5 5 5 5 5 5 5 5 5 5 5 5 5 5 5 5 5 5 5 5 5 5 5 5 5 5 5 3 5 5 5 5 5 5 3 5 5 5 3 5 5 5 5 5 5 5 5 3 5 5 3 3 5 5 5 5 5 5 5 5 5 5 5 5 5 5 3 5 5 3 5 5 5 5 5 5 5 5 5 5 5 3 5 5 5 5 5 5 5 3 3 5 5 5 3 5 5 5 3 5 5 5 5 5 5 5 5 5 5 5 5 3 5 5 3 5 5 3 5 5 5 5 5 5 5 3 3 5 5 5 3 5 5 5 5 3 5 3 5 3 5 5 5 5 5 5 3 5 5 5 5 5 5 5 5 5 3 3 5 5 5 5 3 5 5 5 5 5 5 5 3 5 5 3 5 5 3 5 5 5 3 5 5 5 5 5 5 5 5 5 5 3 5 5 5 5 5 3 5 5 5 3 5 5 3 5 3 3 3 5 5 5 5 5 5 3 3 3 5 5 3 5 5 3 5 5 3 5 5 5 5 3 5 5 5 5 5 5 5 3 5 5 5 5 5 5 5 5 5 5 5 5 5 5 5 5 5 3 5 5 5 5 5 3 5 5 5 5 5 5 3 5 3 3 5 5 3 5 5 5 3 5 5 3 5 5 3 5 3 5 5 5 3 5 5 5 5 3 3 5 5 5 3 5 3 3 5 5 3 5 5 5 5 5 3 5 5 3 5 5 5 5 3 5 5 5 5 5 3 5 5 5 5 3 5 5 5 3 5 3 5 5 5 3 5 5 5 3 5 5 5 5 5 5 5 5 3 5 5 5 5 5 5 5 5 5 5 5 5 5 5 5 5 3 5 3 5 5 5 3 5 5 5 5 5 5 3 3 5 5 5 5 5 5 5 5 5 3 5 5 5 5 3 5 5 5 5 5 5 3 3 5 5 5 3 3 5 3 5 5 5 3 5 5 5 5 3 5 5 5 5 5 5 5 5 3 3 5 3 5 5 5 5 5 5 5 5 5 5 5 3 5 5 5 5 5 5 5 5 5 5 5 5 5 5 5 5 5 5 5 5 5 5 5 5 3 5 5 5 5 5 5 5 5 5 5 5 5 5 5 5 5 5 5 5 5 5 5 5 5 5 5 5 5 5 5 5 5 5 5 5 5 5 5 5 5 5 5 5 5 5 5 5 5 5 5 5 5 5 5 5 5 5 5 5 5 5 5 5 5 5 5 5 5 5 5 5 5 5 5 5 5 5 5 5 5 5 5 5 5 5 5 5 5 5 5 5 5 5 3 5 3 5 5 5 3 5 5 3 5 3 5 5 5 5 5 3 5 5 5 5 5 5 3 5 5 5 5 5 5 3 5 3 5 3 5 5 5 3 5 3 5 3 5 5 3 5 3 5 5 5 5 5 5 5 5 5 5 3 5 3 5 5 5 3 5 3 5 5 5 5 5 5 5 3 5 3 5 5 5 3 5 3 5 3 5 5 5 5 3 5 5 5 3 5 5 5 5 5 5 5 5 5 5 5 3 3 5 3 5 5 5 5 5 3 3 5 5 3 5 5 3 5 5 5 3 3 5 5 5 5 5 5 5 5 5 5 5 5 5 3 5 3 5 5 5 5 5 5 5 5 5 3 5 5 5 5 5 5 5 5 5 5 5 5 5 5 5 5 5 5 5 5 5 5 5 5 5 5 5 5 5 5 5 5 3 5 3 5 3 5 3 5 5 5 5 3 5 3 5 5 5 5 5 3 5 5 5 5 5 5 5 5 5 5 5 5 5 5 5 5 5 5 5 5 5 5 5 5 3 5 5 5 3 5 5 5 5 5 3 5 3 5 5 5 5 5 5 5 5 5 5 5 5 5 5 5 5 3 3 5 5 5 5 5 5 5 5 5 5 3 5 5 5 5 3 5 5 5 5 5 5 5 5 3 5 3 5 5 5 5 5 5 5 3 5 5 5 5 5 5 5 5 5 5 5 5 5 5 5 5 5 5 5 3 3 5 3 5 5 5 5 5 5 5 3 5 5 5 5 3 5 5 5 5 5 5 5 5 5 5 5 3 5 5 5 5 3 5 5 5 5 3 5 5 5 5 5 5 5 5 5 5 5 3 5 5 5 5 5 5 5 5 5 5 5 5 5 5 5 5 5 5 5 5 5 5 5 5 5 5 5 5 5 5 5 5 5 5 5 3 5 5 5 5 5 5 5 5 5 5 5 5 5 5 5 5 5 5 5 5 5 5 5 5 5 5 5 5 5 5 5 5 3 5 5 5 5 5 5 5 5 5 5 5 5 5 5 5 5 5 5 5 5 5 5 5 5 5 5 5 5 5 5 5 3 3 5 5 5 5 5 5 5 5 5 5 5 5 5 5 5 5 5 3 5 5 5 5 3 5 3 5 5 5 5 5 5 5 3 5 5 5 5 5 3 5 5 5 5 5 5 5 5 5 5 5 5 5 5 5 5 5 5 5 5 5 5 5 5 5 5 5 5 5 5 5 5 5 5 5 5 5 5 5 5 5 5 5 5 5 5 5 5 5 5 5 5 5 5 5 5 5 5 5 5 5 5 5 5 5 5 5 5 5 5 5 5 5 5 5 5 5 5 5 5 5 5 5 5 5 5 5 5 5 3 5 5 5 3 5 5 5 5 5 5 5 5 5 5 5 3 5 5 5 5 5 5 5 5 5 5 5 5 5 3 5 5 5 5 5 5 5 5 5 5 5 5 5 5 5 5 5 3 5 5 5 5 5 5 5 5 5 5 5 5 5 5 5 5 5 5 5 5 3 5 5 3 5 3 5 5 5 5 5 5 5 5 5 5 5 5 5 5 3 5 5 5 3 5 3 5 5 5 5 3 5 5 3 5 5 5 5 5 5 5 5 5 5 5 5 5 5 5 5 5 5 5 5 3 5 5 5 5 5 5 5 5 5 5 3 5 5 5 5 5 5 3 3 5 5 5 5 3 5 5 5 5 5 5 5 5 5 5 5 5 5 5 5 5 5 5 5 5 5 5 5 5 5 5 5 5 5 3 3 5 5 5 5 5 3 5 3 5 5 5 5 5 5 5 5 5 5 5 3 5 5 3 3 5 5 3 5 5 5 5 3 5 5 3 5 5 5 5 3 5 5 5 5 5 5 5 5 5 3 5 5 5 5 5 3 3 5 3 5 5 5 3 5 3 5 3 5 5 5 5 5 3 5 5 5 3 3 5 5 5 3 3 5 3 3 5 5 5 5 3 5 5 5 5 5 3 5 5 5 5 5 3 5 5 5 5 3 5 5 5 5 5 5 5 5 5 3 5 5 5 5 5 5 5 5 5 5 5 5 5 5 5 5 5 5 5 3 5 5 3 5 3 5 3 5 5 5 5 5 5 5 5 5 3 3 5 3 5 5 3 5 5 5 5 5 3 5 5 5 5 5 5 5 5 5 5 5 5 3 5 3 5 3 3 5 5 5 5 5 5 5 5 3 5 5 3 5 5 5 5 5 5 5 5 5 5 3 5 5 5 5 3 5 5 5 5 5 5 5 5 5 5 5 5 5 5 5 5 5 5 5 5 5 5 5 5 5 5 5 5 3 5 5 5 5 5 3 5 3 3 5 5 5 5 5 5 5 5 5 5 5 5 5 5 5 5 5 5 5 3 5 5 5 5 5 3 5 5 5 5 5 5 5 5 5 5 5 5 5 5 3 5 5 5 5 5 5 3 5 5 5 5 5 5 5 5 5 5 5 5 5 5 5 3 5 5 5 5 5 5 5 5 5 3 5 5 3 5 3 5 5 5 5 3 5 5 5 3 5 5 5 5 5 3 5 5 5 5 5 5 3 5 5 5 5 5 5 5 5 5 5 5 5 5 5 5 5 5 3 5 5 5 3 5 5 5 5 3 5 3 5 5 5 5 5 5 5 5 3 5 5 5 5 5 5 5 3 5 5 5 5 5 5 5 5 5 5 3 3 5 5 5 5 5 5 5 5 5 5 5 5 5 5 5 5 5 5 3 5 5 5 5 5 3 5 3 5 5 5 5 5 5 5 3 5 3 5 5 5 5 3 3 5 5 5 3 5 3 3 5 5 5 5 3 3 5 5 5 5 5 5 3 5 5 5 3 5 5 5 5 5 3 5 5 5 5 5 5 5 5 5 5 5 3 5 5 5 5 5 5 5 5 5 5 5 5 5 5 5 5 5 5 5 5 5 3 5 5 5 5 5 5 5 5 5 5 5 5 5 5 5 5 3 5 5 5 5 3 5 5 5 5 5 5 5 3 5 3 5 5 3 5 3 5 3 5 5 5 5 5 5 5 5 5 3 5 5 5 3 5 5 5 3 5 5 3 5 5 5 5 5 5 5 5 5 5 5 5 3 5 5 5 3 5 5 5 5 5 5 5 5 3 5 5 5 5 5 3 5 5 5 5 5 5 5 5 3 3 5 5 5 5 5 5 5 3 5 5 5 5 5 5 5 5 5 5 5 5 5 5 5 5 5 5 5 5 5 5 5 5 5 5 5 5 5 5 5 5 5 5 5 5 5 5 5 5 5 5 5 5 5 5 5 5 5 5 5 5 5 5 5 5 5 5 5 5 5 5 5 5 5 5 5 5 3 5 5 3 5 5 5 5 5 3 5 5 5 5 5 5 5 5 5 5 5 5 5 5 5 5 5 5 5 5 3 3 5 5 3 5 5 5 3 5 5 5 5 5 5 3 5 5 5 5 3 5 5 5 5 5 5 3 3 5 5 5 5 5 5 3 5 5 5 3 5 5 5 3 5 5 5 5 5 5 5 5 5 3 5 5 5 5 5 5 3 3 5 5 5 5 5 3 5 5 5 5 5 3 5 3 5 3 5 5 5 3 5 5 5 5 5 5 5 3 3 5 5 5 5 5 5 5 5 5 5 5 5 5 5 5 5 3 5 5 5 5 5 5 5 5 3 5 5 5 5 5 3 5 5 5 5 5 5 3 5 5 5 5 5 5 5 5 5 3 5 5 3 5 3 5 3 3 5 5 5 5 5 5 5 5 5 5 5 5 5 5 5 5 5 5 3 5 5 5 3 5 5 3 5 5 5 5 5 5 5 5 5 5 5 5 5 5 5 5 5 5 5 5 5 5 5 5 5 5 5 5 5 5 5 5 5 5 5 5 5 5 5 5 5 5 5 5 5 5 5 5 5 3 5 5 5 5 5 5 5 5 5 5 5 5 5 5 5 5 5 5 5 3 5 5 5 5 5 5 5 5 5 5 5 5 5 5 5 5 5 5 5 5 3 5 5 5 5 5 5 5 5 5 5 5 5 5 5 5 5 5 5 5 5 5 5 5 5 5 5 5 5 5 5 5 5 5 5 5 3 5 5 5 5 5 5 5 5 5 3 5 5 5 5 5 5 5 5 5 5 5 3 5 5 5 5 5 5 5 5 5 5 5 5 5 5 3 5 5 5 5 5 3 5 3 5 5 5 5 5 5 5 5 5 5 5 3 5 5 5 3 5 5 3 5 5 5 5 3 5 5 5 3 5 5 5 5 3 5 5 5 5 5 5 3 5 5 5 5 3 5 3 5 5 5 5 5 5 5 5 5 5 5 5 3 5 5 5 3 5 5 3 5 5 5 5 5 3 5 5 5 5 3 5 5 5 5 5 5 5 3 5 5 5 5 5 5 5 5 5 5 3 5 5 5 5 3 5 5 5 5 5 5 5 5 5 5 5 3 5 5 5 5 3 5 3 5 5 5 5 5 5 5 5 5 5 5 3 5 5 5 3 5 5 5 3 5 5 5 3 5 5 5 5 5 5 3 5 5 5 5 5 5 5 3 5 5 5 5 3 5 5 5 5 5 5 5 5 5 5 5 5 5 3 5 5 3 5 5 5 5 5 5 5 5 3 5 5 5 5 5 5 3 3 5 5 5 5 5 5 3 5 5 5 3 5 5 5 5 5 5 5 5 5 5 5 5 5 5 5 5 5 5 5 5 5 5 5 5 5 5 5 3 5 5 5 3 5 5 5 5 5 3 5 5 5 5 3 5 5 5 5 5 5 5 5 5 5 5 5 5 5 5 5 5 3 5 5 5 5 5 5 5 5 5 5 5 5 5 5 5 5 5 5 5 5 5 5 5 5 3 3 5 5 5 5 5 5 5 5 5 5 5 5 5 5 5 5 5 5 5 5 5 5 5 5 5 5 5 5 5 5 5 5 5 5 5 5 5 5 5 5 5 5 5 5 5 5 5 5 5 5 5 5 5 5 5 5 5 5 5 5 5 5 5 5 5 5 5 5 5 5 3 3 5 5 5 5 5 5 5 5 5 5 5 5 5 5 5 5 5 5 5 5 5 5 5 5 5 3 5 5 3 5 5 5 5 5 5 5 3 3 5 5 5 5 5 3 5 5 5 5 5 5 5 5 5 3 5 5 5 5 5 5 5 5 5 5 5 5 5 5 5 5 5 5 5 5 5 3 5 5 5 5 5 3 3 3 5 5 5 5 3 5 5 5 5 5 5 5 5 5 5 3 5 5 5 5 5 5 5 3 5 5 5 5 5 3 5 5 3 5 5 3 5 5 3 5 3 5 5 5 5 3 5 3 5 5 5 5 5 5 5 5 5 5 5 5 5 5 5 5 5 5 5 5 5 5 5 5 5 5 5 5 5 5 3 5 5 5 5 3 5 5 3 5 5 5 5 5 5 5 3 5 5 5 5 5 5 5 5 5 5 5 5 5 5 5 5 5 5 5 5 5 5 5 5 5 5 5 5 5 5 5 5 5 5 5 5 5 5 5 5 5 5 5 5 5 5 5 5 5 5 5 5 5 5 5 5 5 5 5 5 5 5 5 5 5 5 5 5 5 5 5 5 5 5 5 5 5 3 5 5 5 5 5 5 5 5 5 5 5 5 5 5 5 5 5 5 5 5 5 5 5 5 5 5 5 5 5 5 5 5 5 5 5 5 5 5 5 5 5 5 5 5 5 5 5 5 3 5 5 5 3 5 5 5 5 5 5 3 5 5 5 5 3 5 5 5 5 5 5 5 5 5 5 5 5 5 5 5 5 5 5 5 5 5 5 5 5 5 5 5 5 5 5 3 5 5 3 5 5 3 5 5 5 5 5 3 5 5 5 5 5 3 5 5 5 5 5 5 5 3 5 5 5 5 3 5 5 3 5 5 5 5 5 5 5 3 5 5 3 5 5 5 5 5 3 5 5 5 5 5 5 3 5 5 5 5 5 5 5 5 3 5 5 5 5 5 5 5 5 5 5 5 5 5 5 5 5 5 5 5 5 5 5 3 5 5 5 5 3 5 5 5 5 5 5 5 5 5 5 3 3 5 5 5 5 3 5 5 5 5 5 5 5 5 5 5 5 5 5 5 5 3 5 5 5 5 5 5 5 5 5 5 5 5 5 5 5 5 5 5 5 5 5 5 5 5 5 5 5 5 5 5 5 5 5 3 5 5 3 5 5 5 5 3 5 5 5 5 5 3 5 5 5 5 3 5 5 5 5 5 5 5 5 5 5 5 3 5 5 3 5 3 5 3 3 5 5 5 5 5 5 5 5 5 5 3 3 5 5 5 5 5 5 5 5 5 5 5 5 5 5 5 5 5 5 5 5 5 5 5 5 5 5 5 5 5 5 5 5 5 3 5 5 5 5 5 3 5 5 5 5 5 5 5 5 5 5 5 5 5 5 5 5 5 5 5 5 5 5 5 5 5 5 3 5 5 5 3 5 5 5 3 5 5 5 5 5 3 5 3 5 5 5 5 3 5 3 5 3 5 5 3 5 5 5 5 5 5 5 5 5 5 5 5 5 5 5 5 5 5 3 5 5 3 5 5 3 5 3 5 5 5 3 5 5 5 5 3 5 5 5 5 5 5 5 5 5 5 5 3 5 3 5 3 3 5 3 5 5 5 5 5 5 5 5 5 5 5 5 3 5 3 5 5 5 5 5 5 5 5 3 5 5 3 3 5 5 5 5 5 5 5 3 3 5 5 5 5 5 5 5 3 5 5 5 5 3 5 5 5 5 5 5 5 5 5 5 5 5 5 5 5 3 5 5 3 5 5 5 3 5 5 3 5 5 3 5 5 3 5 5 5 5 5 5 5 5 5 3 5 3 5 5 5 5 5 3 5 5 3 5 5 5 5 5 3 5 5 5 5 3 5 5 5 5 5 3 5 5 5 3 5 5 3 5 5 5 3 5 5 5 5 5 5 5 5 5 3 3 5 5 3 5 5 5 5 5 5 3 5 5 5 5 3 5 5 5 5 5 5 5 5 5 5 5 3 5 5 3 5 5 5 5 5 5 5 5 5 5 5 5 5 5 5 5 3 5 5 5 5 5 5 5 5 5 5 5 5 5 3 5 5 5 3 5 5 3 5 5 3 5 5 3 5 5 5 5 5 5 5 5 3 5 5 5 5 3 5 5 5 5 5 5 5 5 5 5 5 5 5 5 5 3 5 5 5 5 5 5 5 5 5 5 5 5 5 3 5 5 5 5 3 5 5 5 5 5 5 5 5 5 5 5 5 5 5 5 5 5 5 5 5 5 5 5 5 5 5 3 5 5 5 5 5 3 5 5 3 5 5 5 5 5 5 5 5 5 3 5 5 5 3 5 5 5 5 5 5 5 5 5 5 5 5 5 3 5 5 3 5 5 5 5 5 3 5 5 5 5 5 5 3 5 5 5 3 5 5 5 5 3 5 3 5 5 5 5 5 5 5 5 3 5 5 5 5 5 5 3 5 5 5 5 5 5 5 5 5 5 5 5 5 5 5 5 5 5 5 5 5 5 5 5 5 5 5 5 5 3 5 5 5 5 5 5 3 3 3 5 3 3 5 5 5 5 3 5 5 5 5 5 5 5 5 5 5 3 5 5 5 5 5 3 5 3 5 5 5 5 3 5 3 3 3 5 5 5 3 5 3 5 3 5 5 5 3 5 5 5 5 3 5 3 5 5 5 5 5 5 5 5 3 5 5 5 5 3 5 5 5 5 5 5 5 5 5 5 5 5 5 5 3 5 5 5 5 3 5 5 5 5 3 3 5 5 5 3 5 5 5 5 5 5 5 5 5 5 5 5 5 5 5 3 5 5 5 5 3 5 5 5 5 5 5 5 5 5 5 3 5 5 5 5 5 5 3 5 5 5 5 3 3 5 5 5 5 5 5 5 3 5 5 5 5 5 5 3 5 5 5 5 5 5 5 5 3 5 5 3 5 3 5 5 5 5 5 5 3 5 5 5 5 3 5 3 5 5 5 5 5 5 5 5 5 3 3 5 5 5 5 5 5 3 5 5 5 5 5 5 5 5 3 5 5 5 5 5 5 5 5 5 5 3 5 5 5 3 5 3 5 5 5 5 3 5 5 5 5 5 5 3 5 3 5 5 5 3 5 5 5 3 5 5 3 5 5 5 5 5 5 5 5 5 5 5 5 5 3 5 5 5 5 5 5 5 3 5 3 3 5 5 3 5 5 3 5 5 5 5 5 5 3 5 5 5 3 5 5 5 5 5 5 5 5 5 3 5 5 5 5 3 5 5 5 5 5 5 5 5 5 5 3 5 3 5 5 5 5 5 5 5 5 5 5 5 5 5 5 5 5 3 5 5 5 5 5 5 5 5 5 3 5 5 5 5 5 5 5 5 5 5 5 5 5 5 5 5 5 5 5 5 5 5 5 3 5 5 5 5 5 5 5 3 5 5 5 5 5 3 5 5 5 5 5 5 5 5 5 5 5 5 5 5 5 5 5 5 5 5 5 5 5 5 5 5 5 5 3 5 5 5 5 5 5 3 5 5 5 5 3 5 5 5 3 3 5 5 5 5 5 5 5 5 5 5 5 5 5 5 5 5 5 5 5 5 5 5 5 5 5 5 5 5 5 5 5 5 5 5 5 5 5 5 5 5 5 5 5 5 5 5 5 3 5 5 5 5 3 5 5 5 5 5 5 5 5 5 5 5 5 5 5 5 5 3 5 5 5 5 5 5 3 5 5 3 5 3 5 5 5 5 5 5 3 5 5 5 5 5 5 5 5 5 5 5 5 5 5 5 5 5 5 5 5 5 5 5 5 5 5 5 3 5 3 5 5 3 5 5 5 5 5 5 5 5 5 3 5 3 5 5 5 5 5 5 5 3 5 5 5 5 5 5 5 5 5 5 5 5 5 3 5 5 5 5 5 5 5 5 5 3 5 5 5 5 3 5 5 5 5 5 5 5 3 3 5 5 5 5 5 5 5 5 5 5 5 5 5 5 5 5 3 5 5 5 5 5 5 5 5 3 5 5 5 3 5 5 5 5 5 5 5 5 5 5 5 5 5 5 5 5 5 5 5 3 5 5 5 5 5 5 5 3 5 5 3 5 5 5 5 5 5 5 5 3 5 5 3 5 5 5 5 5 5 5 5 5 5 5 5 3 5 5 5 5 3 5 5 5 5 5 5 3 5 5 5 3 5 5 5 3 5 5 5 5 5 5 5 5 5 3 5 5 5 5 5 3 5 5 3 5 5 3 5 5 5 5 5 5 3 5 5 5 5 5 5 5 5 5 5 3 5 5 5 5 5 3 5 5 5 5 5 5 5 5 5 5 5 5 5 5 5 5 5 5 5 5 5 5 5 3 5 5 5 5 5 5 5 5 5 5 5 5 5 5 3 5 5 3 5 5 5 5 5 3 5 5 3 5 5 5 5 5 5 5 5 3 5 5 5 5 5 5 5 5 5 5 5 5 5 5 5 5 5 5 5 5 5 5 5 3 3 5 5 5 5 3 5 5 5 5 5 5 5 5 5 3 5 5 5 5 5 5 5 5 5 3 5 5 5 5 5 5 5 5 3 5 5 5 3 3 5 5 3 5 5 5 5 5 5 3 5 3 5 5 5 5 5 5 3 5 5 5 5 5 5 5 5 5 5 5 5 5 5 5 5 3 5 5 5 3 5 5 3 5 5 3 5 5 5 5 5 5 5 5 5 5 5 5 5 5 3 5 5 3 5 3 5 5 3 5 5 5 5 5 5 5 5 5 5 5 5 5 5 5 5 5 5 5 5 5 5 5 5 5 5 5 5 5 5 5 5 5 5 5 5 5 5 5 5 5 5 5 5 5 3 5 5 5 5 5 5 5 5 5 5 5 3 3 5 5 5 5 3 5 5 5 5 5 5 5 5 5 5 5 5 5 5 5 5 5 5 5 5 5 5 5 5 3 5 5 3 5 5 3 5 5 5 5 3 5 3 5 5 5 5 5 3 5 5 5 3 5 3 5 5 5 5 5 5 5 5 5 5 5 5 5 5 5 5 5 5 5 5 3 5 5 5 5 5 3 5 5 5 5 5 5 5 5 3 5 5 5 5 5 5 5 5 5 5 5 3 5 5 5 5 5 5 5 3 5 5 5 5 5 5 5 5 5 5 5 5 5 5 3 5 5 5 5 3 5 5 5 5 5 5 5 5 5 5 3 5 5 5 5 3 5 3 5 5 5 5 5 5 5 5 3 5 5 5 5 5 3 5 5 3 5 5 5 5 5 5 3 5 5 5 5 5 5 5 5 5 5 5 5 3 5 5 5 5 5 5 5 3 5 5 5 5 5 3 5 5 5 5 5 5 3 5 5 5 5 5 5 5 5 5 5 5 5 5 3 5 5 3 5 5 5 5 5 5 5 5 5 5 5 3 5 5 5 5 5 3 5 5 5 5 5 5 5 5 5 5 5 3 5 5 5 3 5 5 5 5 5 5 5 5 5 5 5 5 5 5 5 5 5 5 5 5 5 5 5 5 5 3 5 5 3 5 5 5 3 5 5 3 5 5 5 5 5 5 5 5 5 5 3 3 5 3 5 5 5 5 5 5 3 5 5 5 5 5 3 5 5 5 5 3 5 5 5 5 5 5 5 5 5 5 5 5 5 5 5 5 5 5 3 5 5 5 5 5 5 5 3 5 5 5 5 5 5 5 3 5 5 5 3 5 5 5 5 5 5 5 5 5 5 5 5 5 5 5 5 5 5 3 5 5 5 5 3 5 5 5 5 5 3 5 5 3 5 5 5 5 3 5 5 5 5 5 3 5 5 5 5 5 5 5 3 5 5 5 3 5 5 5 5 5 5 5 5 5 3 5 5 3 5 5 5 5 5 5 5 5 5 5 5 5 5 5 5 5 5 5 5 5 5 5 5 5 5 5 5 5 5 5 3 5 3 5 5 5 3 5 5 5 5 5 3 5 5 3 5 5 5 5 5 5 5 5 5 5 3 5 3 5 5 5 5 5 3 3 5 5 3 3 5 5 5 5 5 5 3 5 5 5 5 5 5 5 5 5 5 5 5 5 5 5 3 5 5 5 3 5 5 3 5 5 5 5 5 5 5 5 5 5 5 5 5 3 5 5 5 5 5 5 5 5 5 5 5 5 5 5 5 5 5 5 5 5 5 3 5 5 5 5 5 5 5 5 5 5 5 5 5 5 5 5 5 5 5 5 5 5 5 5 5 5 5 5 5 5 5 5 5 5 5 5 5 5 5 5 5 3 5 5 5 5 5 5 5 5 5 3 5 5 5 5 5 5 5 5 5 5 5 5 5 5 5 5 5 3 5 5 3 3 5 5 5 5 3 5 3 5 5 5 5 3 5 3 5 5 5 5 5 5 5 3 3 5 5 3 5 5 5 5 3 5 5 5 5 5 5 5 5 5 5 5 5 5 5 5 5 5 5 3 3 5 5 5 5 5 5 5 5 5 5 5 5 5 5 5 5 5 5 5 5 5 5 5 3 5 5 3 5 5 3 5 5 5 3 5 3 5 5 5 5 5 5 5 5 5 5 3 5 5 3 5 5 5 5 5 5 5 5 5 5 5 5 5 5 5 5 5 5 5 5 5 5 3 5 5 5 5 5 5 5 5 5 5 3 5 5 5 5 5 5 5 5 5 5 5 5 5 5 5 5 3 5 5 5 3 5 5 5 5 5 5 3 5 5 5 5 5 5 5 5 5 5 5 5 5 5 5 5 5 5 5 5 5 5 3 3 5 5 5 5 5 5 3 5 5 5 5 5 5 5 5 5 5 5 3 5 5 5 5 5 5 5 5 5 5 5 5 5 5 5 5 5 5 5 5 5 3 5 5 5 5 5 5 5 3 5 5 5 5 5 5 5 3 3 5 5 5 3 3 5 5 5 5 3 5 5 5 5 3 5 3 5 5 5 5 5 3 3 5 5 5 5 5 5 5 3 3 3 3 3 5 5 3 5 5 5 5 5 3 5 5 5 3 3 5 5 5 5 5 5 5 5 3 3 3 5 5 5 5 3 5 3 5 3 5 5 3 5 5 5 3 5 3 5 3 5 5 5 5 5 5 5 5 3 5 5 5 5 3 5 5 5 3 5 3 5 3 5 5 5 5 5 5 3 5 5 5 5 3 5 5 3 3 3 5 5 3 5 5 3 5 5 5 5 5 5 5 5 3 5 3 5 5 3 3 5 5 5 5 5 5 5 5 5 5 5 5 5 5 3 3 5 5 5 5 3 5 5 3 5 5 3 3 5 5 5 5 5 5 5 5 5 5 3 5 5 5 5 5 5 3 5 5 5 5 5 5 5 5 5 5 5 5 5 5 5 3 5 5 3 5 5 5 5 3 3 5 5 5 5 5 5 5 5 5 5 5 5 5 5 5 3 3 3 5 5 5 5 5 5 5 5 3 5 3 5 5 5 5 5 5 5 5 5 5 5 5 3 3 3 5 3 5 5 5 3 3 5 5 5 5 5 5 3 5 5 5 5 5 5 5 5 5 5 3 3 5 5 5 5 5 3 5 3 3 3 3 5 5 3 3 3 5 5 5 5 3 5 5 5 5 5 5 3 3 5 5 3 5 5 5 5 5 5 5 5 3 3 5 5 5 3 5 5 3 5 5 5 5 3 5 5 3 5 3 5 3 5 5 5 5 3 5 5 5 5 5 5 5 5 5 5 5 5 5 5 3 5 5 5 5 5 3 5 3 5 5 5 5 5 5 5 5 5 5 5 5 5 5 3 3 5 5 5 5 3 5 3 5 5 3 5 5 5 5 3 5 5 3 5 3 3 5 5 5 5 5 5 5 5 5 3 5 5 3 5 5 3 5 3 3 5 3 5 5 5 5 5 5 5 5 5 5 5 5 5 5 5 5 5 5 5 5 5 5 5 5 5 5 5 5 5 5 5 5 5 5 5 5 5 5 5 5 5 5 5 5 5 5 5 5 5 5 5 5 5 5 5 5 5 5 5 5 5 5 3 5 5 5 5 5 5 5 5 5 5 5 5 5 5 5 5 5 5 3 5 5 5 5 5 5 5 5 3 5 5 5 3 5 5 5 3 5 5 5 5 3 5 5 5 3 5 5 5 5 5 5 5 5 5 3 5 5 3 5 5 5 5 5 5 5 5 5 5 5 5 5 5 5 5 5 5 5 5 5 5 5 5 3 3 5 5 3 3 3 5 5 5 3 5 5 3 5 5 3 5 5 5 5 3 5 5 3 5 5 5 5 5 5 5 5 5 5 5 5 5 5 5 5 5 5 5 5 5 5 5 5 5 5 5 5 5 5 5 3 5 5 5 5 3 5 5 5 5 5 5 3 5 5 5 5 5 5 5 5 5 5 5 5 5 5 3 5 5 5 5 5 5 5 5 3 5 5 5 5 5 5 5 3 5 5 3 5 5 5 3 5 5 5 5 5 5 5 5 5 5 5 5 5 5 5 5 5 5 5 5 5 5 5 5 5 3 5 5 5 5 5 5 5 5 5 5 5 3 5 5 5 5 5 5 5 5 5 5 5 5 5 5 5 5 5 5 5 5 5 5 3 5 5 5 3 5 5 3 5 5 5 5 5 5 5 5 5 5 5 5 5 5 5 5 5 5 5 5 5 5 5 5 5 5 5 5 5 5 5 5 5 5 5 5 5 5 5 5 5 5 5 5 5 5 5 5 5 5 5 5 5 5 5 5 5 5 5 5 5 5 5 5 5 5 3 5 5 3 5 3 5 5 5 5 5 5 5 5 5 5 5 5 5 5 5 5 3 5 5 5 5 5 3 5 5 3 5 5 5 3 5 5 5 5 3 5 5 5 5 5 5 5 5 3 5 3 5 3 5 3 5 5 5 5 5 3 5 5 5 3 5 5 5 5 5 5 3 5 5 5 5 5 5 3 5 5 5 5 5 3 5 5 5 5 5 5 5 5 5 5 5 5 5 5 5 5 5 5 5 5 3 5 5 5 5 5 3 5 5 3 5 5 5 5 5 3 3 5 3 5 5 5 5 3 5 5 5 5 5 5 5 5 5 5 3 5 5 5 5 5 3 5 5 5 5 5 5 5 5 5 5 5 5 5 5 5 3 5 3 5 5 3 5 5 5 5 5 3 5 5 5 5 5 5 5 5 3 5 3 5 5 3 5 5 5 5 5 5 5 5 5 5 5 5 5 5 5 3 5 5 5 5 5 5 5 5 5 5 3 5 5 5 5 5 5 5 5 5 5 5 5 5 5 5 5 5 5 5 5 5 5 5 5 5 5 5 5 3 5 3 5 5 5 5 5 5 5 5 5 5 5 5 5 3 5 5 5 5 5 5 5 3 5 5 5 5 5 5 5 5 5 3 5 5 3 5 3 3 5 5 5 5 3 5 5 5 5 5 5 5 5 5 5 5 5 5 5 5 5 5 5 5 5 5 5 3 5 5 5 5 5 5 5 5 5 5 5 5 5 5 5 5 5 5 5 5 5 5 5 5 5 5 5 5 5 5 5 5 5 5 5 5 5 5 5 5 5 5 5 5 5 5 5 5 5 5 5 5 5 5 5 5 5 5 5 5 5 5 5 5 5 5 5 5 5 5 5 5 5 5 5 5 5 5 3 5 5 5 5 5 5 5 5 5 5 5 5 5 3 5 5 5 5 5 5 5 5 5 5 5 5 5 5 5 5 5 5 5 3 5 5 5 5 3 5 5 5 5 5 5 5 5 5 5 5 5 5 5 5 5 5 5 5 5 5 5 5 5 5 5 5 5 5 5 5 5 5 5 5 5 5 5 5 5 5 5 5 5 5 3 5 5 5 3 5 5 5 3 5 5 5 5 5 5 5 5 5 5 5 5 5 5 5 5 5 3 5 5 5 5 5 5 5 3 5 5 5 3 5 5 5 3 5 3 5 5 5 5 5 5 3 3 5 5 5 3 5 5 5 5 5 5 3 5 5 5 5 3 5 5 5 5 5 5 5 5 3 5 5 5 5 5 5 5 5 5 3 5 5 5 3 5 5 5 5 3 5 5 3 5 5 5 5 5 5 5 5 5 5 5 5 5 5 5 5 5 5 5 3 5 5 5 5 5 3 5 3 3 5 5 5 5 5 3 5 3 5 3 3 5 5 5 5 5 5 5 5 5 5 3 5 5 5 3 5 5 3 5 5 5 5 5 5 5 5 5 5 5 5 5 5 5 5 5 5 5 5 5 5 5 5 5 5 5 5 5 5 5 5 5 5 5 5 5 5 5 5 5 5 5 5 5 5 5 5 5 5 5 5 5 5 3 5 5 5 5 5 5 3 5 5 3 5 5 3 5 5 5 5 5 5 5 5 5 5 3 3 5 5 5 5 5 5 5 5 5 5 5 3 5 5 5 5 5 5 5 5 5 5 5 5 5 5 5 5 3 5 5 5 3 5 5 5 3 5 5 5 3 5 5 5 5 5 5 5 5 5 5 5 5 5 5 5 5 5 3 5 5 5 5 5 5 5 5 3 5 3 5 5 5 5 5 5 3 5 5 5 3 5 5 5 3 5 5 3 5 5 5 3 5 5 5 5 5 5 5 5 5 5 5 5 5 5 5 5 5 5 5 5 5 5 5 5 5 5 5 5 5 5 5 5 5 5 5 5 5 5 5 3 5 5 3 5 5 5 5 5 3 5 5 3 5 5 5 5 5 5 5 5 5 5 5 5 5 5 5 3 5 5 5 3 5 5 3 5 5 5 5 5 5 5 5 5 5 5 5 3 5 5 5 5 5 5 5 5 5 5 5 5 5 5 5 5 5 5 5 5 5 5 3 5 5 5 5 3 5 5 5 5 5 5 5 5 5 5 5 5 5 3 5 5 5 3 5 3 5 5 5 5 5 3 5 5 5 3 3 5 5 5 5 5 5 5 5 5 3 5 5 5 5 5 3 5 5 5 5 5 5 5 5 5 5 5 5 5 5 5 5 5 5 5 5 5 3 5 5 5 5 5 5 5 5 5 5 3 5 5 3 5 5 5 3 5 5 5 5 5 5 5 5 5 5 5 5 5 5 3 5 3 5 5 5 5 3 5 5 5 5 5 5 5 3 5 5 5 5 5 5 5 5 5 5 5 5 5 5 5 5 5 5 5 5 5 5 5 5 5 5 3 5 5 3 3 5 5 5 3 5 5 3 5 5 5 5 3 5 5 5 5 5 5 5 5 5 5 5 5 5 3 5 5 5 5 3 5 5 3 5 5 5 5 3 5 5 5 3 5 5 5 3 5 5 5 5 5 5 5 5 5 3 5 5 5 5 5 5 5 5 5 5 3 5 5 5 5 5 5 5 5 5 5 5 5 5 5 5 3 5 3 5 3 5 5 5 5 5 5 5 5 5 3 5 5 5 5 5 3 5 5 5 5 5 5 3 5 5 3 5 5 5 5 5 5 5 5 5 5 5 5 5 5 5 5 5 5 5 5 5 5 5 5 5 5 5 5 5 3 5 5 3 5 3 5 5 5 5 5 5 3 5 5 5 3 5 5 5 5 5 5 5 3 5 5 5 5 5 5 5 5 5 3 5 5 5 3 5 5 3 3 5 3 5 5 5 3 5 5 5 5 5 5 3 5 5 5 5 5 3 3 5 5 5 5 3 5 5 5 5 5 5 5 5 5 5 5 5 5 5 5 3 5 5 3 5 5 5 5 5 5 5 5 3 5 5 5 5 3 5 5 5 5 5 5 3 5 5 3 5 3 5 5 5 5 3 3 5 5 5 3 3 5 5 3 5 5 5 5 5 5 5 5 5 5 5 5 5 5 5 5 3 5 5 5 3 5 5 5 5 5 5 3 5 5 5 5 5 5 5 5 5 5 3 5 5 5 5 5 5 5 5 5 3 3 5 3 5 5 3 5 5 5 5 5 5 5 3 5 5 3 3 5 5 5 5 3 5 5 5 5 5 5 5 5 5 5 5 3 5 3 5 5 5 5 3 5 5 5 3 5 3 5 5 5 5 5 5 5 5 5 5 5 3 5 5 5 5 5 5 5 5 5 5 5 5 5 5 5 5 5 3 5 5 5 5 5 5 5 5 3 3 5 5 5 5 5 5 5 5 5 5 5 5 5 5 5 5 5 3 5 5 5 5 3 5 5 3 3 5 5 3 5 5 5 3 5 5 5 5 5 5 5 5 5 5 5 5 5 5 5 5 5 5 5 5 5 5 5 5 5 5 5 5 5 5 5 5 5 5 5 5 5 5 5 5 3 5 5 5 5 5 3 5 5 5 5 5 5 5 5 5 5 5 5 5 5 5 5 5 5 5 5 5 5 5 5 5 5 5 5 5 5 5 5 5 5 3 5 3 5 3 3 5 5 5 5 3 5 5 5 3 5 5 5 3 5 5 5 3 5 5 5 5 5 5 5 5 5 3 5 5 5 5 5 5 5 5 5 5 5 5 5 5 5 5 5 5 5 5 5 5 5 5 5 5 5 5 5 5 3 5 3 5 3 5 5 3 5 5 5 5 5 5 5 5 5 5 3 5 5 5 5 5 5 5 5 5 3 5 5 5 5 5 5 3 5 5 5 5 5 5 5 5 5 5 5 5 5 5 5 5 5 5 5 5 5 5 5 5 3 5 5 5 5 5 5 5 3 5 5 5 5 5 5 5 5 5 5 3 5 5 3 5 5 5 5 5 5 3 5 5 5 5 5 5 5 3 5 5 5 5 5 5 5 5 5 5 5 5 5 5 5 5 3 5 5 5 5 5 5 5 5 5 5 5 3 5 5 5 5 3 5 5 3 5 5 5 5 5 5 5 5 5 5 5 5 5 5 5 5 5 5 5 3 5 5 5 5 5 5 5 5 3 5 5 5 5 5 5 5 3 5 5 5 5 5 3 5 5 5 5 3 5 5 5 5 5 5 5 5 3 5 5 5 5 5 5 5 5 3 5 5 5 5 5 5 5 5 5 5 5 5 5 5 5 5 5 5 5 5 5 5 5 5 3 5 5 5 5 5 3 5 5 5 5 3 5 3 5 5 5 5 5 5 5 5 5 5 5 5 5 5 5 3 5 5 5 3 5 5 5 5 5 5 5 5 5 5 5 5 5 5 5 5 5 5 5 5 5 5 5 5 5 5 5 5 5 5 5 5 5 5 5 5 5 5 5 5 5 5 5 5 5 5 5 5 5 5 5 5 5 3 5 5 5 5 5 5 5 5 5 5 5 3 5 5 5 5 5 5 5 5 3 5 5 3 5 5 5 5 5 5 5 3 5 5 5 5 3 5 5 5 5 5 3 5 5 5 5 5 5 5 5 5 5 5 5 5 5 5 5 5 5 3 5 5 5 3 5 5 5 5 5 5 5 3 5 3 5 5 5 5 5 5 3 3 5 5 5 5 5 5 5 3 5 5 3 5 3 5 5 5 5 5 5 5 5 5 5 3 5 5 5 5 3 3 5 5 5 3 5 5 5 3 5 5 3 5 5 5 5 5 5 3 5 5 5 3 5 5 5 5 3 3 5 5 5 5 5 5 5 5 5 5 5 5 5 5 5 3 5 5 5 5 5 5 5 5 5 5 5 5 5 3 
</DataArray>
</Cells>
<PointData Scalars="" Vectors="displacement," Tensors="">
<DataArray type="Float64" Name="displacement" NumberOfComponents="3" format="ascii">
-0.034999512702227863 -0.03499776198176404 0 -0.033726345949851924 -0.035243759199041901 0 -0.034999041278184762 -0.033196723436185141 0 -0.034999512702227863 -0.03499776198176404 0 -0.033726345949851924 -0.035243759199041901 0 -0.03160265992094969 -0.035000178824116532 0 -0.033592936468617961 -0.033341498757661896 0 -0.034998073131571696 -0.033190116730211952 0 -0.033891192567649435 -0.033272565596025441 0 -0.033589558936271045 -0.034291258816502072 0 -0.034999357005506347 -0.033192746708221463 0 -0.034998073131571696 -0.033190116730211952 0 -0.033891192567649435 -0.033272565596025441 0 -0.034999107191977748 -0.031374490896264574 0 -0.033891192567649435 -0.033272565596025441 0 -0.0342852491454416 -0.032126797269716172 0 -0.034999107191977748 -0.031374490896264574 0 -0.0342852491454416 -0.032126797269716172 0 -0.034999107191977748 -0.031374490896264574 0 -0.03475856633488409 -0.030811155827339141 0 -0.033828673585907194 -0.033109203991738889 0 -0.034570683361183852 -0.031445813254256931 0 -0.034528235195703701 -0.032614149384164383 0 -0.033828673585907194 -0.033109203991738889 0 -0.032469105130885932 -0.034298818507069742 0 -0.034528235195703701 -0.032614149384164383 0 -0.0342852491454416 -0.032126797269716172 0 -0.033828673585907194 -0.033109203991738889 0 -0.034570683361183852 -0.031445813254256931 0 -0.033891192567649435 -0.033272565596025441 0 -0.0342852491454416 -0.032126797269716172 0 -0.033828673585907194 -0.033109203991738889 0 -0.033891192567649435 -0.033272565596025441 0 -0.033828673585907194 -0.033109203991738889 0 -0.032961124476003606 -0.033862601372084279 0 -0.032961124476003606 -0.033862601372084279 0 -0.031811312157070185 -0.034457124825815498 0 -0.032469105130885932 -0.034298818507069742 0 -0.033828673585907194 -0.033109203991738889 0 -0.032961124476003606 -0.033862601372084279 0 -0.032469105130885932 -0.034298818507069742 0 -0.032961124476003606 -0.033862601372084279 0 -0.031811312157070185 -0.034457124825815498 0 -0.032724771025831746 -0.033967836102620531 0 -0.033891192567649435 -0.033272565596025441 0 -0.032961124476003606 -0.033862601372084279 0 -0.032724771025831746 -0.033967836102620531 0 -0.033592936468617961 -0.033341498757661896 0 -0.033891192567649435 -0.033272565596025441 0 -0.032724771025831746 -0.033967836102620531 0 -0.033592936468617961 -0.033341498757661896 0 -0.032724771025831746 -0.033967836102620531 0 -0.03160113421102282 -0.034997118036436708 0 -0.033589558936271045 -0.034291258816502072 0 -0.031907135325756938 -0.034855210051279437 0 -0.031811312157070185 -0.034457124825815498 0 -0.03160113421102282 -0.034997118036436708 0 -0.030567235810929533 -0.034999138158071735 0 -0.031811312157070185 -0.034457124825815498 0 -0.032724771025831746 -0.033967836102620531 0 -0.03160113421102282 -0.034997118036436708 0 -0.031811312157070185 -0.034457124825815498 0 -0.030567235810929533 -0.034999138158071735 0 -0.030104325062183447 -0.034908287792451129 0 -0.030567235810929533 -0.034999138158071735 0 -0.030104325062183447 -0.034908287792451129 0 -0.027198216294360134 -0.03499795548601433 0 -0.031811312157070185 -0.034457124825815498 0 -0.030104325062183447 -0.034908287792451129 0 -0.032469105130885932 -0.034298818507069742 0 -0.030104325062183447 -0.034908287792451129 0 -0.027198216294360134 -0.03499795548601433 0 -0.028025865448626376 -0.035729797911955935 0 -0.027198216294360134 -0.03499795548601433 0 -0.028025865448626376 -0.035729797911955935 0 -0.025601243244280498 -0.035881260818765734 0 -0.028025865448626376 -0.035729797911955935 0 -0.028651711812483445 -0.036804702126092839 0 -0.026531799242786112 -0.037136824059284125 0 -0.028025865448626376 -0.035729797911955935 0 -0.028651711812483445 -0.036804702126092839 0 -0.030090347959734795 -0.035453738666491673 0 -0.030104325062183447 -0.034908287792451129 0 -0.028025865448626376 -0.035729797911955935 0 -0.030090347959734795 -0.035453738666491673 0 -0.032819858438231424 -0.033444910955658692 0 -0.033875112038762346 -0.033309646681563956 0 -0.037115056714572797 -0.030109466067101492 0 -0.036857322336548544 -0.03126458927661005 0 -0.037211587144937677 -0.030347121128803015 0 -0.032819858438231424 -0.033444910955658692 0 -0.031400668566206213 -0.033322242482724529 0 -0.037115056714572797 -0.030109466067101492 0 -0.036922259432345089 -0.030137651069465581 0 -0.036587224341303314 -0.029600162287670616 0 -0.030104325062183447 -0.034908287792451129 0 -0.032469105130885932 -0.034298818507069742 0 -0.030090347959734795 -0.035453738666491673 0 -0.032469105130885932 -0.034298818507069742 0 -0.030090347959734795 -0.035453738666491673 0 -0.031356015326281003 -0.03562599770001168 0 -0.028651711812483445 -0.036804702126092839 0 -0.030090347959734795 -0.035453738666491673 0 -0.031356015326281003 -0.03562599770001168 0 -0.033875112038762346 -0.033309646681563956 0 -0.034190447516987799 -0.032743866655658337 0 -0.032469105130885932 -0.034298818507069742 0 -0.031356015326281003 -0.03562599770001168 0 -0.034528235195703701 -0.032614149384164383 0 -0.036857322336548544 -0.03126458927661005 0 -0.036709994308415844 -0.030430094547001754 0 -0.034528235195703701 -0.032614149384164383 0 -0.036709994308415844 -0.030430094547001754 0 -0.034528235195703701 -0.032614149384164383 0 -0.035393885617253255 -0.029812885588380744 0 -0.036709994308415844 -0.030430094547001754 0 -0.037211587144937677 -0.030347121128803015 0 -0.03734650820486278 -0.029910116739338698 0 -0.036857322336548544 -0.03126458927661005 0 -0.036709994308415844 -0.030430094547001754 0 -0.037211587144937677 -0.030347121128803015 0 -0.03734650820486278 -0.029910116739338698 0 -0.037487375980141589 -0.029107036970284276 0 -0.036833444523784613 -0.029158846597410793 0 -0.036709994308415844 -0.030430094547001754 0 -0.03734650820486278 -0.029910116739338698 0 -0.036833444523784613 -0.029158846597410793 0 -0.036709994308415844 -0.030430094547001754 0 -0.036833444523784613 -0.029158846597410793 0 -0.035393885617253255 -0.029812885588380744 0 -0.037115056714572797 -0.030109466067101492 0 -0.036922259432345089 -0.030137651069465581 0 -0.037211587144937677 -0.030347121128803015 0 -0.036922259432345089 -0.030137651069465581 0 -0.037211587144937677 -0.030347121128803015 0 -0.03734650820486278 -0.029910116739338698 0 -0.036922259432345089 -0.030137651069465581 0 -0.03734650820486278 -0.029910116739338698 0 -0.03753275787481937 -0.029617130483311962 0 -0.03734650820486278 -0.029910116739338698 0 -0.03753275787481937 -0.029617130483311962 0 -0.037487375980141589 -0.029107036970284276 0 -0.036922259432345089 -0.030137651069465581 0 -0.036025378311577365 -0.028985506271798449 0 -0.035426542669072726 -0.028831467338458913 0 -0.036922259432345089 -0.030137651069465581 0 -0.03753275787481937 -0.029617130483311962 0 -0.03810722744970816 -0.029060458638006322 0 -0.036922259432345089 -0.030137651069465581 0 -0.036025378311577365 -0.028985506271798449 0 -0.036586400984491639 -0.029761926946812494 0 -0.036895584318575529 -0.029987770526989976 0 -0.036773746188203282 -0.028822993051957242 0 -0.036025378311577365 -0.028985506271798449 0 -0.035765792373657762 -0.027801039442447328 0 -0.036574386101126947 -0.027949495471432481 0 -0.036025378311577365 -0.028985506271798449 0 -0.035426542669072726 -0.028831467338458913 0 -0.035765792373657762 -0.027801039442447328 0 -0.03810722744970816 -0.029060458638006322 0 -0.037487375980141589 -0.029107036970284276 0 -0.037473925392819164 -0.028197943616575225 0 -0.03753275787481937 -0.029617130483311962 0 -0.03810722744970816 -0.029060458638006322 0 -0.037487375980141589 -0.029107036970284276 0 -0.03810722744970816 -0.029060458638006322 0 -0.037473925392819164 -0.028197943616575225 0 -0.038188723747787139 -0.027238969017523873 0 -0.037473925392819164 -0.028197943616575225 0 -0.03740162618165014 -0.02727166497102089 0 -0.038188723747787139 -0.027238969017523873 0 -0.036773746188203282 -0.028822993051957242 0 -0.036294241990054404 -0.026928385992991181 0 -0.035765792373657762 -0.027801039442447328 0 -0.035995576257509015 -0.026994668420224521 0 -0.03471498378276678 -0.026239496321383667 0 -0.035426542669072726 -0.028831467338458913 0 -0.035765792373657762 -0.027801039442447328 0 -0.03471498378276678 -0.026239496321383667 0 -0.035765792373657762 -0.027801039442447328 0 -0.035995576257509015 -0.026994668420224521 0 -0.036574386101126947 -0.027949495471432481 0 -0.036833444523784613 -0.029158846597410793 0 -0.036963468695830948 -0.028099440077535918 0 -0.036273048156967462 -0.028106909805531689 0 -0.036833444523784613 -0.029158846597410793 0 -0.036273048156967462 -0.028106909805531689 0 -0.035393885617253255 -0.029812885588380744 0 -0.037487375980141589 -0.029107036970284276 0 -0.036833444523784613 -0.029158846597410793 0 -0.037473925392819164 -0.028197943616575225 0 -0.036833444523784613 -0.029158846597410793 0 -0.037473925392819164 -0.028197943616575225 0 -0.036963468695830948 -0.028099440077535918 0 -0.037473925392819164 -0.028197943616575225 0 -0.036963468695830948 -0.028099440077535918 0 -0.03740162618165014 -0.02727166497102089 0 -0.036963468695830948 -0.028099440077535918 0 -0.037046860756570654 -0.026887496375711771 0 -0.03740162618165014 -0.02727166497102089 0 -0.036963468695830948 -0.028099440077535918 0 -0.036273048156967462 -0.028106909805531689 0 -0.037046860756570654 -0.026887496375711771 0 -0.036303536112224942 -0.026979433861654578 0 -0.036273048156967462 -0.028106909805531689 0 -0.037046860756570654 -0.026887496375711771 0 -0.036303536112224942 -0.026979433861654578 0 -0.036273048156967462 -0.028106909805531689 0 -0.035578390332178009 -0.02806208641624286 0 -0.036273048156967462 -0.028106909805531689 0 -0.035578390332178009 -0.02806208641624286 0 -0.035393885617253255 -0.029812885588380744 0 -0.035578390332178009 -0.02806208641624286 0 -0.035276169654444384 -0.026919109500699319 0 -0.035879352953953711 -0.026141573721986132 0 -0.036303536112224942 -0.026979433861654578 0 -0.035578390332178009 -0.02806208641624286 0 -0.035879352953953711 -0.026141573721986132 0 -0.035578390332178009 -0.02806208641624286 0 -0.035276169654444384 -0.026919109500699319 0 -0.035067792659289526 -0.028391895722202333 0 -0.035276169654444384 -0.026919109500699319 0 -0.034999210144122599 -0.027733731340316828 0 -0.034999300054829117 -0.025913813603565695 0 -0.034999210144122599 -0.027733731340316828 0 -0.035067792659289526 -0.028391895722202333 0 -0.034998736447827659 -0.029553590133181498 0 -0.035276169654444384 -0.026919109500699319 0 -0.034999210144122599 -0.027733731340316828 0 -0.035067792659289526 -0.028391895722202333 0 -0.035578390332178009 -0.02806208641624286 0 -0.035067792659289526 -0.028391895722202333 0 -0.034811410078102359 -0.030006983996093837 0 -0.035067792659289526 -0.028391895722202333 0 -0.034811410078102359 -0.030006983996093837 0 -0.034998736447827659 -0.029553590133181498 0 -0.034999107191977748 -0.031374490896264574 0 -0.034998736447827659 -0.029553590133181498 0 -0.03475856633488409 -0.030811155827339141 0 -0.034811410078102359 -0.030006983996093837 0 -0.034998736447827659 -0.029553590133181498 0 -0.03475856633488409 -0.030811155827339141 0 -0.0342852491454416 -0.032126797269716172 0 -0.034811410078102359 -0.030006983996093837 0 -0.03475856633488409 -0.030811155827339141 0 -0.0342852491454416 -0.032126797269716172 0 -0.034811410078102359 -0.030006983996093837 0 -0.034570683361183852 -0.031445813254256931 0 -0.034570683361183852 -0.031445813254256931 0 -0.034528235195703701 -0.032614149384164383 0 -0.035393885617253255 -0.029812885588380744 0 -0.034811410078102359 -0.030006983996093837 0 -0.034570683361183852 -0.031445813254256931 0 -0.035393885617253255 -0.029812885588380744 0 -0.035578390332178009 -0.02806208641624286 0 -0.034811410078102359 -0.030006983996093837 0 -0.035393885617253255 -0.029812885588380744 0 -0.024687025310188439 -0.026542287882204689 0 -0.024876663062763066 -0.02616776420306368 0 -0.024403697670371507 -0.026236379626497705 0 -0.024687025310188439 -0.026542287882204689 0 -0.025032436858276701 -0.026529972135529094 0 -0.024876663062763066 -0.02616776420306368 0 -0.024687025310188439 -0.026542287882204689 0 -0.025032436858276701 -0.026529972135529094 0 -0.024636990613699655 -0.026853377114104873 0 -0.025032436858276701 -0.026529972135529094 0 -0.025302897823777447 -0.026351409757799777 0 -0.025093685255846786 -0.026688426036408208 0 -0.025302897823777447 -0.026351409757799777 0 -0.025564166421964525 -0.026420608646107849 0 -0.025093685255846786 -0.026688426036408208 0 -0.025481213385437809 -0.026469387570696029 0 -0.025557730241158243 -0.026453857584515617 0 -0.025302897823777447 -0.026351409757799777 0 -0.025325666902673957 -0.026124991234455032 0 -0.025611301281429161 -0.026258489444145033 0 -0.025032436858276701 -0.026529972135529094 0 -0.025302897823777447 -0.026351409757799777 0 -0.024876663062763066 -0.02616776420306368 0 -0.025325666902673957 -0.026124991234455032 0 -0.025056808298593546 -0.025774678795884146 0 -0.025675644057032296 -0.026012014583097355 0 -0.025302897823777447 -0.026351409757799777 0 -0.025325666902673957 -0.026124991234455032 0 -0.024876663062763066 -0.02616776420306368 0 -0.025325666902673957 -0.026124991234455032 0 -0.024876663062763066 -0.02616776420306368 0 -0.025056808298593546 -0.025774678795884146 0 -0.024876663062763066 -0.02616776420306368 0 -0.025056808298593546 -0.025774678795884146 0 -0.02429512622102455 -0.025638558456768483 0 -0.017915889151546727 -0.035739570660367218 0 -0.018775838758755221 -0.036759215580061205 0 -0.016875390710008972 -0.036354327239083169 0 -0.02249678751352294 -0.03139873120792297 0 -0.018526718852141813 -0.030470333999286843 0 -0.017915889151546727 -0.035739570660367218 0 -0.018693294573540811 -0.034999957571831178 0 -0.016693602370795525 -0.034999942476237979 0 -0.017915889151546727 -0.035739570660367218 0 -0.018693294573540811 -0.034999957571831178 0 -0.019616464199959389 -0.035872148408079722 0 -0.018693294573540811 -0.034999957571831178 0 -0.019616464199959389 -0.035872148408079722 0 -0.020693011566124169 -0.034999970027769042 0 -0.017915889151546727 -0.035739570660367218 0 -0.019616464199959389 -0.035872148408079722 0 -0.018775838758755221 -0.036759215580061205 0 -0.019616464199959389 -0.035872148408079722 0 -0.018775838758755221 -0.036759215580061205 0 -0.020669744800945272 -0.037139267531082341 0 -0.02249678751352294 -0.03139873120792297 0 -0.022504638092723146 -0.031500037047474914 0 -0.019616464199959389 -0.035872148408079722 0 -0.020693011566124169 -0.034999970027769042 0 -0.020669744800945272 -0.037139267531082341 0 -0.020693011566124169 -0.034999970027769042 0 -0.020669744800945272 -0.037139267531082341 0 -0.022601567116465483 -0.036264015429608616 0 -0.022504638092723146 -0.031500037047474914 0 -0.026775655071449515 -0.031829683487373556 0 -0.025675644057032296 -0.026012014583097355 0 -0.025805373465051049 -0.026242308283489758 0 -0.025981710868512656 -0.026177740054376394 0 -0.025325666902673957 -0.026124991234455032 0 -0.025675644057032296 -0.026012014583097355 0 -0.025611301281429161 -0.026258489444145033 0 -0.025675644057032296 -0.026012014583097355 0 -0.025611301281429161 -0.026258489444145033 0 -0.025805373465051049 -0.026242308283489758 0 -0.025611301281429161 -0.026258489444145033 0 -0.025564166421964525 -0.026420608646107849 0 -0.02575527943226158 -0.026359636973446659 0 -0.025302897823777447 -0.026351409757799777 0 -0.025611301281429161 -0.026258489444145033 0 -0.025564166421964525 -0.026420608646107849 0 -0.025611301281429161 -0.026258489444145033 0 -0.025805373465051049 -0.026242308283489758 0 -0.02575527943226158 -0.026359636973446659 0 -0.025805373465051049 -0.026242308283489758 0 -0.02575527943226158 -0.026359636973446659 0 -0.02593907901217175 -0.026344698334749447 0 -0.027198216294360134 -0.03499795548601433 0 -0.022694091417239642 -0.034999835826321268 0 -0.025601243244280498 -0.035881260818765734 0 -0.035824685679443927 -0.029543361195279026 0 -0.036058651547603543 -0.02957816593230073 0 -0.035653698183482643 -0.029259390699418273 0 -0.025805373465051049 -0.026242308283489758 0 -0.02593907901217175 -0.026344698334749447 0 -0.025981710868512656 -0.026177740054376394 0 -0.031156883856788421 -0.027049208143785121 0 -0.026775655071449515 -0.031829683487373556 0 -0.036058651547603543 -0.02957816593230073 0 -0.035653698183482643 -0.029259390699418273 0 -0.036121070321295572 -0.029382690629993428 0 -0.026775655071449515 -0.031829683487373556 0 -0.031011674242916565 -0.033445008739589138 0 -0.023214040827475382 -0.03689387085272517 0 -0.023858873954859118 -0.036129613847219355 0 -0.024746865168042326 -0.037143918760644018 0 -0.020669744800945272 -0.037139267531082341 0 -0.022537358548488585 -0.037502992325731538 0 -0.022601567116465483 -0.036264015429608616 0 -0.023214040827475382 -0.03689387085272517 0 -0.023092416812139721 -0.035857752186430454 0 -0.023858873954859118 -0.036129613847219355 0 -0.026775655071449515 -0.031829683487373556 0 -0.022662739535904711 -0.037031705049045231 0 -0.022694091417239642 -0.034999835826321268 0 -0.023858873954859118 -0.036129613847219355 0 -0.025601243244280498 -0.035881260818765734 0 -0.020693011566124169 -0.034999970027769042 0 -0.022601567116465483 -0.036264015429608616 0 -0.022692536638568322 -0.034999949480095688 0 -0.023092416812139721 -0.035857752186430454 0 -0.022694091417239642 -0.034999835826321268 0 -0.023858873954859118 -0.036129613847219355 0 -0.022662739535904711 -0.037031705049045231 0 -0.022692816526633228 -0.034999187659809916 0 -0.023858873954859118 -0.036129613847219355 0 -0.025601243244280498 -0.035881260818765734 0 -0.024746865168042326 -0.037143918760644018 0 -0.028025865448626376 -0.035729797911955935 0 -0.025601243244280498 -0.035881260818765734 0 -0.026531799242786112 -0.037136824059284125 0 -0.031011674242916565 -0.033445008739589138 0 -0.031400668566206213 -0.033322242482724529 0 -0.025601243244280498 -0.035881260818765734 0 -0.024746865168042326 -0.037143918760644018 0 -0.026531799242786112 -0.037136824059284125 0 -0.036058651547603543 -0.02957816593230073 0 -0.036121070321295572 -0.029382690629993428 0 -0.036354530381730206 -0.029751238357648296 0 -0.036121070321295572 -0.029382690629993428 0 -0.036560742841159753 -0.029816595936181196 0 -0.036354530381730206 -0.029751238357648296 0 -0.036922259432345089 -0.030137651069465581 0 -0.036587224341303314 -0.029600162287670616 0 -0.036560742841159753 -0.029816595936181196 0 -0.036121070321295572 -0.029382690629993428 0 -0.036587224341303314 -0.029600162287670616 0 -0.036560742841159753 -0.029816595936181196 0 -0.036560742841159753 -0.029816595936181196 0 -0.036354530381730206 -0.029751238357648296 0 -0.036586400984491639 -0.029761926946812494 0 -0.036922259432345089 -0.030137651069465581 0 -0.036560742841159753 -0.029816595936181196 0 -0.036586400984491639 -0.029761926946812494 0 -0.036354530381730206 -0.029751238357648296 0 -0.036556744294387308 -0.029627068905105598 0 -0.036177008698769525 -0.029754278896256075 0 -0.036025378311577365 -0.028985506271798449 0 -0.036586400984491639 -0.029761926946812494 0 -0.036556744294387308 -0.029627068905105598 0 -0.036354530381730206 -0.029751238357648296 0 -0.036586400984491639 -0.029761926946812494 0 -0.036556744294387308 -0.029627068905105598 0 -0.036025378311577365 -0.028985506271798449 0 -0.037196757933864372 -0.028426673640652152 0 -0.036574386101126947 -0.027949495471432481 0 -0.037196757933864372 -0.028426673640652152 0 -0.036574386101126947 -0.027949495471432481 0 -0.037735568733574726 -0.02734957908152896 0 -0.036116269014957882 -0.029002190870600193 0 -0.03656276152345745 -0.029028418341689451 0 -0.035995576257509015 -0.026994668420224521 0 -0.036574386101126947 -0.027949495471432481 0 -0.036808087283770247 -0.026630758744526317 0 -0.036574386101126947 -0.027949495471432481 0 -0.036808087283770247 -0.026630758744526317 0 -0.037735568733574726 -0.02734957908152896 0 -0.037735568733574726 -0.02734957908152896 0 -0.038547573695096746 -0.026466949176418422 0 -0.03775187420996691 -0.025853883005016402 0 -0.036808087283770247 -0.026630758744526317 0 -0.037735568733574726 -0.02734957908152896 0 -0.03775187420996691 -0.025853883005016402 0 -0.03656276152345745 -0.029028418341689451 0 -0.038507637896310551 -0.029121546728470348 0 -0.036556744294387308 -0.029627068905105598 0 -0.036230920131748882 -0.029852861108081219 0 -0.036177008698769525 -0.029754278896256075 0 -0.037196757933864372 -0.028426673640652152 0 -0.037735568733574726 -0.02734957908152896 0 -0.038476962317910562 -0.028264645668924622 0 -0.037735568733574726 -0.02734957908152896 0 -0.038476962317910562 -0.028264645668924622 0 -0.039074370774955028 -0.027369511736175391 0 -0.038507637896310551 -0.029121546728470348 0 -0.032086111832808989 -0.027421757356149924 0 -0.038476962317910562 -0.028264645668924622 0 -0.039074370774955028 -0.027369511736175391 0 -0.03983583228969071 -0.02819224177580755 0 -0.036230920131748882 -0.029852861108081219 0 -0.035960880269002182 -0.029891454031588945 0 -0.036177008698769525 -0.029754278896256075 0 -0.039074370774955028 -0.027369511736175391 0 -0.039399429561656166 -0.026038460667805557 0 -0.038547573695096746 -0.026466949176418422 0 -0.037735568733574726 -0.02734957908152896 0 -0.039074370774955028 -0.027369511736175391 0 -0.038547573695096746 -0.026466949176418422 0 -0.039074370774955028 -0.027369511736175391 0 -0.039978264102911297 -0.026812070824111571 0 -0.03983583228969071 -0.02819224177580755 0 -0.039074370774955028 -0.027369511736175391 0 -0.039978264102911297 -0.026812070824111571 0 -0.039399429561656166 -0.026038460667805557 0 -0.033040220309872644 -0.027083643607101839 0 -0.032086111832808989 -0.027421757356149924 0 -0.035960880269002182 -0.029891454031588945 0 -0.035944631314071759 -0.029716568874401772 0 -0.036177008698769525 -0.029754278896256075 0 -0.032086111832808989 -0.027421757356149924 0 -0.030818543962497672 -0.028381472437963115 0 -0.025892778688124927 -0.026425114756342787 0 -0.025893501773295031 -0.026422507827564546 0 -0.02585292678400198 -0.026414655866501126 0 -0.036058651547603543 -0.02957816593230073 0 -0.035944631314071759 -0.029716568874401772 0 -0.036177008698769525 -0.029754278896256075 0 -0.036058651547603543 -0.02957816593230073 0 -0.036354530381730206 -0.029751238357648296 0 -0.036177008698769525 -0.029754278896256075 0 -0.031156883856788421 -0.027049208143785121 0 -0.030818543962497672 -0.028381472437963115 0 -0.02593907901217175 -0.026344698334749447 0 -0.025893501773295031 -0.026422507827564546 0 -0.025836037466885887 -0.026395383735552207 0 -0.035824685679443927 -0.029543361195279026 0 -0.036058651547603543 -0.02957816593230073 0 -0.035944631314071759 -0.029716568874401772 0 -0.02575527943226158 -0.026359636973446659 0 -0.02593907901217175 -0.026344698334749447 0 -0.025836037466885887 -0.026395383735552207 0 -0.02575527943226158 -0.026359636973446659 0 -0.025771701787620258 -0.026396173907001042 0 -0.025836037466885887 -0.026395383735552207 0 -0.02575527943226158 -0.026359636973446659 0 -0.025771701787620258 -0.026396173907001042 0 -0.025666983244776152 -0.026378020875165289 0 -0.025666983244776152 -0.026378020875165289 0 -0.025766952652521945 -0.026376369254197229 0 -0.025634840025821851 -0.026327779947472554 0 -0.025564166421964525 -0.026420608646107849 0 -0.02575527943226158 -0.026359636973446659 0 -0.025666983244776152 -0.026378020875165289 0 -0.025766952652521945 -0.026376369254197229 0 -0.02585292678400198 -0.026414655866501126 0 -0.025881473679337619 -0.02637776829410932 0 -0.025771701787620258 -0.026396173907001042 0 -0.025666983244776152 -0.026378020875165289 0 -0.025766952652521945 -0.026376369254197229 0 -0.025771701787620258 -0.026396173907001042 0 -0.025766952652521945 -0.026376369254197229 0 -0.02585292678400198 -0.026414655866501126 0 -0.025771701787620258 -0.026396173907001042 0 -0.025836037466885887 -0.026395383735552207 0 -0.02585292678400198 -0.026414655866501126 0 -0.025893501773295031 -0.026422507827564546 0 -0.025836037466885887 -0.026395383735552207 0 -0.02585292678400198 -0.026414655866501126 0 -0.026216806642949814 -0.026323900151723555 0 -0.025992992941870064 -0.026477142970410088 0 -0.025881473679337619 -0.02637776829410932 0 -0.032086111832808989 -0.027421757356149924 0 -0.023494175413661209 -0.02625655699649421 0 -0.025892778688124927 -0.026425114756342787 0 -0.02585292678400198 -0.026414655866501126 0 -0.025881473679337619 -0.02637776829410932 0 -0.026213617369972016 -0.026490335914506082 0 -0.026216806642949814 -0.026323900151723555 0 -0.025992992941870064 -0.026477142970410088 0 -0.025992992941870064 -0.026477142970410088 0 -0.025833387154571136 -0.026420990637278378 0 -0.025989940346046007 -0.026587359930066341 0 -0.025992992941870064 -0.026477142970410088 0 -0.025833387154571136 -0.026420990637278378 0 -0.025881473679337619 -0.02637776829410932 0 -0.025766952652521945 -0.026376369254197229 0 -0.025833387154571136 -0.026420990637278378 0 -0.025881473679337619 -0.02637776829410932 0 -0.025766952652521945 -0.026376369254197229 0 -0.025833387154571136 -0.026420990637278378 0 -0.025741378994795401 -0.026380716086406748 0 -0.025833387154571136 -0.026420990637278378 0 -0.025741378994795401 -0.026380716086406748 0 -0.025738433104532072 -0.026425202382904842 0 -0.025833387154571136 -0.026420990637278378 0 -0.025738433104532072 -0.026425202382904842 0 -0.025806855157546407 -0.026506294741684013 0 -0.024127927433199088 -0.022677071577249561 0 -0.029568020201844167 -0.018445701696441733 0 -0.015985181652443926 -0.018240694854903601 0 -0.016656703796019252 -0.018923738710330189 0 -0.0162186502508413 -0.017768373051317482 0 -0.01909489818513593 -0.021031519782493978 0 -0.015515375756872075 -0.016412707611979931 0 -0.016656703796019252 -0.018923738710330189 0 -0.016268786578753035 -0.017510447217726054 0 -0.0162186502508413 -0.017768373051317482 0 -0.024127927433199088 -0.022677071577249561 0 -0.023634379857160392 -0.016642900220318026 0 -0.015985181652443926 -0.018240694854903601 0 -0.016086986413105873 -0.017741674561746728 0 -0.0162186502508413 -0.017768373051317482 0 -0.024127927433199088 -0.022677071577249561 0 -0.01909489818513593 -0.021031519782493978 0 -0.02555764370384955 -0.02580392488938869 0 -0.025653141587851754 -0.025195131561048478 0 -0.025954819635286251 -0.025571226297932403 0 -0.025700183057147451 -0.026685446527226056 0 -0.024127927433199088 -0.022677071577249561 0 -0.02555764370384955 -0.02580392488938869 0 -0.025954819635286251 -0.025571226297932403 0 -0.02572015103858 -0.026021090595364896 0 -0.025954819635286251 -0.025571226297932403 0 -0.025858477230902469 -0.026109006478477814 0 -0.026007464835133495 -0.026265428968364483 0 -0.025954819635286251 -0.025571226297932403 0 -0.025858477230902469 -0.026109006478477814 0 -0.02572015103858 -0.026021090595364896 0 -0.025858477230902469 -0.026109006478477814 0 -0.02572015103858 -0.026021090595364896 0 -0.025747680482011565 -0.026263921170900654 0 -0.025766952652521945 -0.026376369254197229 0 -0.025741378994795401 -0.026380716086406748 0 -0.025634840025821851 -0.026327779947472554 0 -0.02555764370384955 -0.02580392488938869 0 -0.02572015103858 -0.026021090595364896 0 -0.025634840025821851 -0.026327779947472554 0 -0.025700183057147451 -0.026685446527226056 0 -0.025660967496770194 -0.026060644046828986 0 -0.025634840025821851 -0.026327779947472554 0 -0.025682904703297531 -0.026394215935037813 0 -0.025747680482011565 -0.026263921170900654 0 -0.02572015103858 -0.026021090595364896 0 -0.025634840025821851 -0.026327779947472554 0 -0.025747680482011565 -0.026263921170900654 0 -0.025564166421964525 -0.026420608646107849 0 -0.025666983244776152 -0.026378020875165289 0 -0.025634840025821851 -0.026327779947472554 0 -0.025564166421964525 -0.026420608646107849 0 -0.025634840025821851 -0.026327779947472554 0 -0.025682904703297531 -0.026394215935037813 0 -0.025014074448303888 -0.026527243958474923 0 -0.023997796580251203 -0.026256103173038316 0 -0.025557730241158243 -0.026453857584515617 0 -0.023997796580251203 -0.026256103173038316 0 -0.025682904703297531 -0.026394215935037813 0 -0.025892140405869291 -0.026346870372001983 0 -0.025747680482011565 -0.026263921170900654 0 -0.025032436858276701 -0.026529972135529094 0 -0.025093685255846786 -0.026688426036408208 0 -0.024671643604534384 -0.026815598621672161 0 -0.024687025310188439 -0.026542287882204689 0 -0.024636990613699655 -0.026853377114104873 0 -0.024453753945403469 -0.026903557891412747 0 -0.025858477230902469 -0.026109006478477814 0 -0.025892140405869291 -0.026346870372001983 0 -0.025747680482011565 -0.026263921170900654 0 -0.025858477230902469 -0.026109006478477814 0 -0.025892140405869291 -0.026346870372001983 0 -0.026007464835133495 -0.026265428968364483 0 -0.029226132072121009 -0.020735705214296522 0 -0.029640521178663646 -0.020691371733396302 0 -0.031448889998150049 -0.023599390339948043 0 -0.01735497398799624 -6.6059310035218471e-05 0 -0.016991114139519869 -0.00081538262369019478 0 -0.018239489395585173 -0.0012757763352624508 0 -0.01735497398799624 -6.6059310035218471e-05 0 -0.016405687916851219 -0.00023493078726900216 0 -0.016444172482278786 -0.0001267169476682468 0 -0.01735497398799624 -6.6059310035218471e-05 0 -0.016991114139519869 -0.00081538262369019478 0 -0.016405687916851219 -0.00023493078726900216 0 -0.023938285476039167 -0.014461080924105731 0 -0.019489880070043621 -0.013296616494299283 0 -0.031128483425014956 -0.020996659086317544 0 -0.029640521178663646 -0.020691371733396302 0 -0.031448889998150049 -0.023599390339948043 0 -0.031128483425014956 -0.020996659086317544 0 -0.033002290253270325 -0.020967113138089213 0 -0.031448889998150049 -0.023599390339948043 0 -0.033002290253270325 -0.020967113138089213 0 -0.033630435441379385 -0.023143802717542124 0 -0.031448889998150049 -0.023599390339948043 0 -0.023938285476039167 -0.014461080924105731 0 -0.024450514107784111 -0.011887428925693883 0 -0.031378838863749391 -0.019544933110993694 0 -0.02985232872070093 -0.01888892753962652 0 -0.030163687708435923 -0.020138245881237339 0 -0.031128483425014956 -0.020996659086317544 0 -0.029640521178663646 -0.020691371733396302 0 -0.030163687708435923 -0.020138245881237339 0 -0.031128483425014956 -0.020996659086317544 0 -0.031378838863749391 -0.019544933110993694 0 -0.030163687708435923 -0.020138245881237339 0 -0.031128483425014956 -0.020996659086317544 0 -0.031378838863749391 -0.019544933110993694 0 -0.033002290253270325 -0.020967113138089213 0 -0.031378838863749391 -0.019544933110993694 0 -0.033102919655665239 -0.01909349088423264 0 -0.033002290253270325 -0.020967113138089213 0 -0.031378838863749391 -0.019544933110993694 0 -0.031461146372420826 -0.017609468657007341 0 -0.033102919655665239 -0.01909349088423264 0 -0.031378838863749391 -0.019544933110993694 0 -0.02985232872070093 -0.01888892753962652 0 -0.031461146372420826 -0.017609468657007341 0 -0.027974391445610033 -0.019030252190860179 0 -0.028118603766373328 -0.01729087968402708 0 -0.027056115859105775 -0.020760075632012369 0 -0.02985232872070093 -0.01888892753962652 0 -0.027974391445610033 -0.019030252190860179 0 -0.029661642450665434 -0.017407184215965717 0 -0.029212741554095287 -0.02074013555872686 0 -0.02985232872070093 -0.01888892753962652 0 -0.030163687708435923 -0.020138245881237339 0 -0.029212741554095287 -0.02074013555872686 0 -0.02985232872070093 -0.01888892753962652 0 -0.027974391445610033 -0.019030252190860179 0 -0.023938285476039167 -0.014461080924105731 0 -0.024991751947562198 -0.014744226113194142 0 -0.029212741554095287 -0.02074013555872686 0 -0.029640521178663646 -0.020691371733396302 0 -0.030163687708435923 -0.020138245881237339 0 -0.023938285476039167 -0.014461080924105731 0 -0.028975182673249958 -0.020722195404918216 0 -0.028964964738785771 -0.020488149909780963 0 -0.027974391445610033 -0.019030252190860179 0 -0.027056115859105775 -0.020760075632012369 0 -0.016302135048173277 -0.017148477512458501 0 -0.016268786578753035 -0.017510447217726054 0 -0.016366864718228222 -0.017373064263736738 0 -0.027974391445610033 -0.019030252190860179 0 -0.028118603766373328 -0.01729087968402708 0 -0.029661642450665434 -0.017407184215965717 0 -0.028118603766373328 -0.01729087968402708 0 -0.029661642450665434 -0.017407184215965717 0 -0.030055315764532867 -0.015948181411869492 0 -0.028118603766373328 -0.01729087968402708 0 -0.030055315764532867 -0.015948181411869492 0 -0.029141706964134716 -0.013502068097672274 0 -0.016302135048173277 -0.017148477512458501 0 -0.016268786578753035 -0.017510447217726054 0 -0.016126083000404624 -0.017660469245042554 0 -0.022196681668102351 -0.018059393402491342 0 -0.023634379857160392 -0.016642900220318026 0 -0.025625598934572415 -0.01856448075135711 0 -0.025398872144785888 -0.019379472457544719 0 -0.026580611073298132 -0.019629380175521946 0 -0.023634379857160392 -0.016642900220318026 0 -0.021295247140094238 -0.01640285731439927 0 -0.016268786578753035 -0.017510447217726054 0 -0.016126083000404624 -0.017660469245042554 0 -0.0162186502508413 -0.017768373051317482 0 -0.023634379857160392 -0.016642900220318026 0 -0.029568020201844167 -0.018445701696441733 0 -0.030055315764532867 -0.015948181411869492 0 -0.029141706964134716 -0.013502068097672274 0 -0.031524354073043249 -0.013996323101721019 0 -0.031524354073043249 -0.013996323101721019 0 -0.031461146372420826 -0.017609468657007341 0 -0.034841577439635944 -0.017814098682863658 0 -0.030055315764532867 -0.015948181411869492 0 -0.031524354073043249 -0.013996323101721019 0 -0.031461146372420826 -0.017609468657007341 0 -0.029661642450665434 -0.017407184215965717 0 -0.030055315764532867 -0.015948181411869492 0 -0.031461146372420826 -0.017609468657007341 0 -0.02985232872070093 -0.01888892753962652 0 -0.029661642450665434 -0.017407184215965717 0 -0.031461146372420826 -0.017609468657007341 0 -0.031461146372420826 -0.017609468657007341 0 -0.034841577439635944 -0.017814098682863658 0 -0.033102919655665239 -0.01909349088423264 0 -0.029568020201844167 -0.018445701696441733 0 -0.035086267259257294 -0.016263436488326042 0 -0.029568020201844167 -0.018445701696441733 0 -0.029964402542434473 -0.020732910951731128 0 -0.025833387154571136 -0.026420990637278378 0 -0.025806855157546407 -0.026506294741684013 0 -0.025989940346046007 -0.026587359930066341 0 -0.031807909514090627 -0.014396364559945099 0 -0.034841577439635944 -0.017814098682863658 0 -0.035152968267756025 -0.015080694538510919 0 -0.025992992941870064 -0.026477142970410088 0 -0.025989940346046007 -0.026587359930066341 0 -0.026246904426181376 -0.026641371518874347 0 -0.026213617369972016 -0.026490335914506082 0 -0.025992992941870064 -0.026477142970410088 0 -0.026246904426181376 -0.026641371518874347 0 -0.029964402542434473 -0.020732910951731128 0 -0.034879840004924952 -0.023511590893900855 0 -0.036879205253448136 -0.01812537972881062 0 -0.038341607037625888 -0.019834392586902106 0 -0.038601236079969008 -0.015860317264877234 0 -0.034841577439635944 -0.017814098682863658 0 -0.035152968267756025 -0.015080694538510919 0 -0.036879205253448136 -0.01812537972881062 0 -0.035152968267756025 -0.015080694538510919 0 -0.036879205253448136 -0.01812537972881062 0 -0.038601236079969008 -0.015860317264877234 0 -0.036879205253448136 -0.01812537972881062 0 -0.037481057993154258 -0.020238898575056709 0 -0.038341607037625888 -0.019834392586902106 0 -0.037481057993154258 -0.020238898575056709 0 -0.0351707864422885 -0.019538290150167267 0 -0.035011749317534084 -0.021300468611802178 0 -0.036879205253448136 -0.01812537972881062 0 -0.037481057993154258 -0.020238898575056709 0 -0.0351707864422885 -0.019538290150167267 0 -0.034841577439635944 -0.017814098682863658 0 -0.036879205253448136 -0.01812537972881062 0 -0.0351707864422885 -0.019538290150167267 0 -0.034841577439635944 -0.017814098682863658 0 -0.0351707864422885 -0.019538290150167267 0 -0.033102919655665239 -0.01909349088423264 0 -0.0351707864422885 -0.019538290150167267 0 -0.033102919655665239 -0.01909349088423264 0 -0.033002290253270325 -0.020967113138089213 0 -0.0351707864422885 -0.019538290150167267 0 -0.035011749317534084 -0.021300468611802178 0 -0.033002290253270325 -0.020967113138089213 0 -0.035011749317534084 -0.021300468611802178 0 -0.033002290253270325 -0.020967113138089213 0 -0.033630435441379385 -0.023143802717542124 0 -0.035011749317534084 -0.021300468611802178 0 -0.033630435441379385 -0.023143802717542124 0 -0.035261892206741474 -0.023369126823503755 0 -0.037575095655336677 -0.019867786201406515 0 -0.036902692925502509 -0.024016011151760473 0 -0.037481057993154258 -0.020238898575056709 0 -0.038308635638476307 -0.022018623974209572 0 -0.037813809548760881 -0.021834224920280223 0 -0.037481057993154258 -0.020238898575056709 0 -0.038341607037625888 -0.019834392586902106 0 -0.038308635638476307 -0.022018623974209572 0 -0.037481057993154258 -0.020238898575056709 0 -0.035011749317534084 -0.021300468611802178 0 -0.035261892206741474 -0.023369126823503755 0 -0.038938068639892451 -0.020908040893215345 0 -0.0382660948931315 -0.022372870901418943 0 -0.038127054176607028 -0.022805501163426879 0 -0.038770958532503848 -0.023538212093133223 0 -0.038308635638476307 -0.022018623974209572 0 -0.038127054176607028 -0.022805501163426879 0 -0.037992893460754761 -0.022217406250429745 0 -0.038308635638476307 -0.022018623974209572 0 -0.038127054176607028 -0.022805501163426879 0 -0.037653185477520251 -0.022379626268478888 0 -0.037992893460754761 -0.022217406250429745 0 -0.038127054176607028 -0.022805501163426879 0 -0.0377153983967147 -0.022992285027602463 0 -0.037653185477520251 -0.022379626268478888 0 -0.0377153983967147 -0.022992285027602463 0 -0.03741818446257475 -0.022641561280476463 0 -0.037653185477520251 -0.022379626268478888 0 -0.0377153983967147 -0.022992285027602463 0 -0.037392823449649795 -0.023116442878914744 0 -0.03741818446257475 -0.022641561280476463 0 -0.038127054176607028 -0.022805501163426879 0 -0.0377153983967147 -0.022992285027602463 0 -0.037977423078459027 -0.023342049693261813 0 -0.037977423078459027 -0.023342049693261813 0 -0.038162791929940286 -0.023784011009044967 0 -0.038284556307747554 -0.02345804982852924 0 -0.037977423078459027 -0.023342049693261813 0 -0.037750675842674317 -0.023590984276694094 0 -0.038162791929940286 -0.023784011009044967 0 -0.0377153983967147 -0.022992285027602463 0 -0.037750675842674317 -0.023590984276694094 0 -0.037392823449649795 -0.023116442878914744 0 -0.0377153983967147 -0.022992285027602463 0 -0.037977423078459027 -0.023342049693261813 0 -0.037750675842674317 -0.023590984276694094 0 -0.037750675842674317 -0.023590984276694094 0 -0.037975981013576514 -0.024195299343674627 0 -0.037373685553128262 -0.023864264293487234 0 -0.037750675842674317 -0.023590984276694094 0 -0.038162791929940286 -0.023784011009044967 0 -0.037975981013576514 -0.024195299343674627 0 -0.038162791929940286 -0.023784011009044967 0 -0.038416331841979054 -0.023741410427800244 0 -0.038482095910243951 -0.024153549291082325 0 -0.038162791929940286 -0.023784011009044967 0 -0.038416331841979054 -0.023741410427800244 0 -0.038284556307747554 -0.02345804982852924 0 -0.038127054176607028 -0.022805501163426879 0 -0.038284556307747554 -0.02345804982852924 0 -0.038770958532503848 -0.023538212093133223 0 -0.038127054176607028 -0.022805501163426879 0 -0.037977423078459027 -0.023342049693261813 0 -0.038284556307747554 -0.02345804982852924 0 -0.038416331841979054 -0.023741410427800244 0 -0.038770958532503848 -0.023538212093133223 0 -0.038482095910243951 -0.024153549291082325 0 -0.038416331841979054 -0.023741410427800244 0 -0.038284556307747554 -0.02345804982852924 0 -0.038770958532503848 -0.023538212093133223 0 -0.038938068639892451 -0.020908040893215345 0 -0.034879840004924952 -0.023511590893900855 0 -0.038770958532503848 -0.023538212093133223 0 -0.038482095910243951 -0.024153549291082325 0 -0.038697880702290945 -0.024634174024792076 0 -0.034879840004924952 -0.023511590893900855 0 -0.039276480717549363 -0.024926760873332638 0 -0.038482095910243951 -0.024153549291082325 0 -0.038697880702290945 -0.024634174024792076 0 -0.038166314593466193 -0.024499651089125812 0 -0.039978264102911297 -0.026812070824111571 0 -0.040092923019349198 -0.025338547718278339 0 -0.039399429561656166 -0.026038460667805557 0 -0.033040220309872644 -0.027083643607101839 0 -0.034879840004924952 -0.023511590893900855 0 -0.040092923019349198 -0.025338547718278339 0 -0.039399429561656166 -0.026038460667805557 0 -0.039046710049025865 -0.025066578304890799 0 -0.038547573695096746 -0.026466949176418422 0 -0.039046710049025865 -0.025066578304890799 0 -0.03775187420996691 -0.025853883005016402 0 -0.039399429561656166 -0.026038460667805557 0 -0.038547573695096746 -0.026466949176418422 0 -0.039046710049025865 -0.025066578304890799 0 -0.038482095910243951 -0.024153549291082325 0 -0.038166314593466193 -0.024499651089125812 0 -0.037975981013576514 -0.024195299343674627 0 -0.039276480717549363 -0.024926760873332638 0 -0.03769665885117611 -0.024624899675033993 0 -0.038166314593466193 -0.024499651089125812 0 -0.037975981013576514 -0.024195299343674627 0 -0.03781427935332498 -0.024678438577985646 0 -0.039046710049025865 -0.025066578304890799 0 -0.03781427935332498 -0.024678438577985646 0 -0.03775187420996691 -0.025853883005016402 0 -0.038162791929940286 -0.023784011009044967 0 -0.038482095910243951 -0.024153549291082325 0 -0.037975981013576514 -0.024195299343674627 0 -0.03781427935332498 -0.024678438577985646 0 -0.036981153967297675 -0.025115596790227991 0 -0.037373685553128262 -0.023864264293487234 0 -0.037975981013576514 -0.024195299343674627 0 -0.03781427935332498 -0.024678438577985646 0 -0.037373685553128262 -0.023864264293487234 0 -0.03781427935332498 -0.024678438577985646 0 -0.03775187420996691 -0.025853883005016402 0 -0.036981153967297675 -0.025115596790227991 0 -0.036808087283770247 -0.026630758744526317 0 -0.03775187420996691 -0.025853883005016402 0 -0.036981153967297675 -0.025115596790227991 0 -0.036808087283770247 -0.026630758744526317 0 -0.036981153967297675 -0.025115596790227991 0 -0.03586246980334027 -0.025502030133528569 0 -0.035995576257509015 -0.026994668420224521 0 -0.036808087283770247 -0.026630758744526317 0 -0.03586246980334027 -0.025502030133528569 0 -0.036981153967297675 -0.025115596790227991 0 -0.036290080888817078 -0.024706736166624301 0 -0.03586246980334027 -0.025502030133528569 0 -0.036981153967297675 -0.025115596790227991 0 -0.036290080888817078 -0.024706736166624301 0 -0.036583581616597444 -0.023887927350628956 0 -0.036981153967297675 -0.025115596790227991 0 -0.036583581616597444 -0.023887927350628956 0 -0.037373685553128262 -0.023864264293487234 0 -0.036290080888817078 -0.024706736166624301 0 -0.036583581616597444 -0.023887927350628956 0 -0.03573477506322692 -0.024124523159643488 0 -0.036583581616597444 -0.023887927350628956 0 -0.036934864602660364 -0.023135117132961239 0 -0.035830766474253567 -0.022958379858902481 0 -0.036583581616597444 -0.023887927350628956 0 -0.037373685553128262 -0.023864264293487234 0 -0.036934864602660364 -0.023135117132961239 0 -0.037750675842674317 -0.023590984276694094 0 -0.037373685553128262 -0.023864264293487234 0 -0.037392823449649795 -0.023116442878914744 0 -0.037373685553128262 -0.023864264293487234 0 -0.037392823449649795 -0.023116442878914744 0 -0.036934864602660364 -0.023135117132961239 0 -0.037392823449649795 -0.023116442878914744 0 -0.037159775951753404 -0.022617218325397426 0 -0.036934864602660364 -0.023135117132961239 0 -0.037392823449649795 -0.023116442878914744 0 -0.03741818446257475 -0.022641561280476463 0 -0.037159775951753404 -0.022617218325397426 0 -0.036812559499888882 -0.022751057339464743 0 -0.03717952479811213 -0.022350202700739705 0 -0.035830766474253567 -0.022958379858902481 0 -0.036812559499888882 -0.022751057339464743 0 -0.036934864602660364 -0.023135117132961239 0 -0.035830766474253567 -0.022958379858902481 0 -0.037144334567215317 -0.022411986380613282 0 -0.036560085996152986 -0.022501269940755724 0 -0.037159775951753404 -0.022617218325397426 0 -0.036812559499888882 -0.022751057339464743 0 -0.036934864602660364 -0.023135117132961239 0 -0.037758724953439841 -0.021534313889271621 0 -0.037845655457386086 -0.021526744419363236 0 -0.037606385685995128 -0.021538734338845806 0 -0.03717952479811213 -0.022350202700739705 0 -0.03723744203103601 -0.02244075568570799 0 -0.037577401005788755 -0.022279647630838392 0 -0.037559356062027913 -0.021996598982453701 0 -0.037440597199485087 -0.021875641994311322 0 -0.03717952479811213 -0.022350202700739705 0 -0.03723744203103601 -0.02244075568570799 0 -0.037175247547302753 -0.022211349579279401 0 -0.037758724953439841 -0.021534313889271621 0 -0.037845655457386086 -0.021526744419363236 0 -0.037856739244904423 -0.021555485854975315 0 -0.037159775951753404 -0.022617218325397426 0 -0.036812559499888882 -0.022751057339464743 0 -0.03717952479811213 -0.022350202700739705 0 -0.037159775951753404 -0.022617218325397426 0 -0.03717952479811213 -0.022350202700739705 0 -0.037175247547302753 -0.022211349579279401 0 -0.03741818446257475 -0.022641561280476463 0 -0.037159775951753404 -0.022617218325397426 0 -0.037175247547302753 -0.022211349579279401 0 -0.037606385685995128 -0.021538734338845806 0 -0.037621662565233062 -0.021500209934701645 0 -0.037734215435947988 -0.021525873848475419 0 -0.037758724953439841 -0.021534313889271621 0 -0.037606385685995128 -0.021538734338845806 0 -0.037734215435947988 -0.021525873848475419 0 -0.037606385685995128 -0.021538734338845806 0 -0.037621662565233062 -0.021500209934701645 0 -0.037632996062291112 -0.021486151443501376 0 -0.037621662565233062 -0.021500209934701645 0 -0.037734215435947988 -0.021525873848475419 0 -0.037748862231371361 -0.021512065011002668 0 -0.037734215435947988 -0.021525873848475419 0 -0.037856739244904423 -0.021555485854975315 0 -0.037748862231371361 -0.021512065011002668 0 -0.037758724953439841 -0.021534313889271621 0 -0.037734215435947988 -0.021525873848475419 0 -0.037856739244904423 -0.021555485854975315 0 -0.037856739244904423 -0.021555485854975315 0 -0.037748862231371361 -0.021512065011002668 0 -0.037897552202310739 -0.021511686199939248 0 -0.037748862231371361 -0.021512065011002668 0 -0.037778455174515183 -0.021677359419526337 0 -0.037612083500930718 -0.021482661109413329 0 -0.037748862231371361 -0.021512065011002668 0 -0.037778455174515183 -0.021677359419526337 0 -0.037897552202310739 -0.021511686199939248 0 -0.037778455174515183 -0.021677359419526337 0 -0.037897552202310739 -0.021511686199939248 0 -0.037917235600704077 -0.021689937543128236 0 -0.036932077457938486 -0.020710182901572973 0 -0.034744185829632374 -0.014733135045801501 0 -0.036932077457938486 -0.020710182901572973 0 -0.037109050123967646 -0.020064106066054171 0 -0.034701193406347891 -0.020621422328547721 0 -0.03533073909137651 -0.019989689475945191 0 -0.033879980698581641 -0.019794440285197609 0 -0.03754575852353164 -0.019226146601562501 0 -0.035738070745519129 -0.017475083101753754 0 -0.035535018061837655 -0.01892039601730091 0 -0.034701193406347891 -0.020621422328547721 0 -0.03533073909137651 -0.019989689475945191 0 -0.036040008497783181 -0.020867429281454197 0 -0.036932077457938486 -0.020710182901572973 0 -0.036693300277400864 -0.021106885474140701 0 -0.03533073909137651 -0.019989689475945191 0 -0.036040008497783181 -0.020867429281454197 0 -0.03658637314379859 -0.019756849574668889 0 -0.037606764318544067 -0.021404923086997155 0 -0.037612083500930718 -0.021482661109413329 0 -0.037584726797930353 -0.021395310299630897 0 -0.037499692767061242 -0.021385730833922444 0 -0.037606764318544067 -0.021404923086997155 0 -0.037612083500930718 -0.021482661109413329 0 -0.036932077457938486 -0.020710182901572973 0 -0.037885964761727127 -0.021758660818343347 0 -0.037621662565233062 -0.021500209934701645 0 -0.037748862231371361 -0.021512065011002668 0 -0.037612083500930718 -0.021482661109413329 0 -0.037621662565233062 -0.021500209934701645 0 -0.037612083500930718 -0.021482661109413329 0 -0.037584726797930353 -0.021395310299630897 0 -0.036693300277400864 -0.021106885474140701 0 -0.037512487561462991 -0.021134269750305999 0 -0.037606764318544067 -0.021404923086997155 0 -0.037584726797930353 -0.021395310299630897 0 -0.037503295641992195 -0.02109121918275051 0 -0.037584726797930353 -0.021395310299630897 0 -0.037503295641992195 -0.02109121918275051 0 -0.037632996062291112 -0.021486151443501376 0 -0.036040008497783181 -0.020867429281454197 0 -0.03658637314379859 -0.019756849574668889 0 -0.037503295641992195 -0.02109121918275051 0 -0.037503295641992195 -0.02109121918275051 0 -0.038367850369151205 -0.02104440857055611 0 -0.037983068760999515 -0.019708551028968693 0 -0.03658637314379859 -0.019756849574668889 0 -0.037503295641992195 -0.02109121918275051 0 -0.037983068760999515 -0.019708551028968693 0 -0.037503295641992195 -0.02109121918275051 0 -0.037851205692634012 -0.021465145448104395 0 -0.038367850369151205 -0.02104440857055611 0 -0.037503295641992195 -0.02109121918275051 0 -0.037851205692634012 -0.021465145448104395 0 -0.037632996062291112 -0.021486151443501376 0 -0.037851205692634012 -0.021465145448104395 0 -0.037632996062291112 -0.021486151443501376 0 -0.037861978230012992 -0.021761902779594243 0 -0.037851205692634012 -0.021465145448104395 0 -0.037861978230012992 -0.021761902779594243 0 -0.038123756842850062 -0.021730807635846092 0 -0.037606385685995128 -0.021538734338845806 0 -0.037632996062291112 -0.021486151443501376 0 -0.037861978230012992 -0.021761902779594243 0 -0.037621662565233062 -0.021500209934701645 0 -0.037584726797930353 -0.021395310299630897 0 -0.037632996062291112 -0.021486151443501376 0 -0.037440597199485087 -0.021875641994311322 0 -0.037856873385372906 -0.021769564024043082 0 -0.037175247547302753 -0.022211349579279401 0 -0.037653185477520251 -0.022379626268478888 0 -0.037861978230012992 -0.021761902779594243 0 -0.03741818446257475 -0.022641561280476463 0 -0.037175247547302753 -0.022211349579279401 0 -0.037653185477520251 -0.022379626268478888 0 -0.037653185477520251 -0.022379626268478888 0 -0.037992893460754761 -0.022217406250429745 0 -0.037861978230012992 -0.021761902779594243 0 -0.037992893460754761 -0.022217406250429745 0 -0.037861978230012992 -0.021761902779594243 0 -0.038308635638476307 -0.022018623974209572 0 -0.037861978230012992 -0.021761902779594243 0 -0.038308635638476307 -0.022018623974209572 0 -0.038123756842850062 -0.021730807635846092 0 -0.038308635638476307 -0.022018623974209572 0 -0.037813809548760881 -0.021834224920280223 0 -0.038123756842850062 -0.021730807635846092 0 -0.037813809548760881 -0.021834224920280223 0 -0.038272548049783667 -0.021600581852016632 0 -0.038123756842850062 -0.021730807635846092 0 -0.033630435441379385 -0.023143802717542124 0 -0.035261892206741474 -0.023369126823503755 0 -0.033458013570361607 -0.026255187083871173 0 -0.036902692925502509 -0.024016011151760473 0 -0.027514238057170542 -0.01306802223054465 0 -0.038272548049783667 -0.021600581852016632 0 -0.038123756842850062 -0.021730807635846092 0 -0.038367850369151205 -0.02104440857055611 0 -0.037851205692634012 -0.021465145448104395 0 -0.038123756842850062 -0.021730807635846092 0 -0.038367850369151205 -0.02104440857055611 0 -0.029736083358207436 -0.012342938412573135 0 -0.029778102670267433 -0.01318235312745992 0 -0.020746334992795736 -0.0040787478337728222 0 -0.021679753766206067 -0.0051779841532661689 0 -0.020751951729555653 -0.005528599150669479 0 -0.020746334992795736 -0.0040787478337728222 0 -0.019798546552614413 -0.0049001299108358274 0 -0.019305247556768032 -0.004022159471256545 0 -0.020746334992795736 -0.0040787478337728222 0 -0.019798546552614413 -0.0049001299108358274 0 -0.020751951729555653 -0.005528599150669479 0 -0.027514238057170542 -0.01306802223054465 0 -0.029736083358207436 -0.012342938412573135 0 -0.019996102510723771 -0.0031302879991266645 0 -0.020746334992795736 -0.0040787478337728222 0 -0.019305247556768032 -0.004022159471256545 0 -0.027514238057170542 -0.01306802223054465 0 -0.018235732423013424 -0.0022946878170489902 0 -0.018235732423013424 -0.0022946878170489902 0 -0.018005737927999709 -0.0052247897596601192 0 -0.019798546552614413 -0.0049001299108358274 0 -0.019305247556768032 -0.004022159471256545 0 -0.018460738421895096 -0.0050269227074843485 0 -0.018245568321604271 -0.0036972548582274675 0 -0.017086397603346196 -0.0038264152635004746 0 -0.01756715841063055 -0.0048523981703387335 0 -0.017086397603346196 -0.0038264152635004746 0 -0.01756715841063055 -0.0048523981703387335 0 -0.016301410229270209 -0.0047702842169282632 0 -0.018245568321604271 -0.0036972548582274675 0 -0.017086397603346196 -0.0038264152635004746 0 -0.017468335936466801 -0.0026791168558115129 0 -0.019056950283088212 -0.0024661035155640388 0 -0.018245568321604271 -0.0036972548582274675 0 -0.017468335936466801 -0.0026791168558115129 0 -0.019056950283088212 -0.0024661035155640388 0 -0.017468335936466801 -0.0026791168558115129 0 -0.018239489395585173 -0.0012757763352624508 0 -0.033630435441379385 -0.023143802717542124 0 -0.033458013570361607 -0.026255187083871173 0 -0.031448889998150049 -0.023599390339948043 0 -0.027514238057170542 -0.01306802223054465 0 -0.024450514107784111 -0.011887428925693883 0 -0.017468335936466801 -0.0026791168558115129 0 -0.018239489395585173 -0.0012757763352624508 0 -0.016639359111769652 -0.0016063149350143296 0 -0.016991114139519869 -0.00081538262369019478 0 -0.018239489395585173 -0.0012757763352624508 0 -0.016639359111769652 -0.0016063149350143296 0 -0.036012435391965594 -0.024363103089976579 0 -0.036636451980556886 -0.023454116349207157 0 -0.035939941305810415 -0.022965377633370181 0 -0.036012435391965594 -0.024363103089976579 0 -0.036636451980556886 -0.023454116349207157 0 -0.036677395765841489 -0.02527294166704978 0 -0.036636451980556886 -0.023454116349207157 0 -0.036677395765841489 -0.02527294166704978 0 -0.037323136958698135 -0.023980628199330594 0 -0.036636451980556886 -0.023454116349207157 0 -0.037355634352290605 -0.023166543303822347 0 -0.037041417678090577 -0.022722154092888986 0 -0.036636451980556886 -0.023454116349207157 0 -0.035939941305810415 -0.022965377633370181 0 -0.036173843435191665 -0.022325067233209081 0 -0.035939941305810415 -0.022965377633370181 0 -0.035493119196935784 -0.023330559009644564 0 -0.035593478928303321 -0.022174423128802006 0 -0.035939941305810415 -0.022965377633370181 0 -0.035593478928303321 -0.022174423128802006 0 -0.035786613198001804 -0.022355963471159951 0 -0.034999725719414482 -0.022274747045319995 0 -0.035493119196935784 -0.023330559009644564 0 -0.035593478928303321 -0.022174423128802006 0 -0.035493119196935784 -0.023330559009644564 0 -0.035448050137007241 -0.025120607249050041 0 -0.034999475626771401 -0.024093922738105737 0 -0.034999725719414482 -0.022274747045319995 0 -0.035493119196935784 -0.023330559009644564 0 -0.034999475626771401 -0.024093922738105737 0 -0.036012435391965594 -0.024363103089976579 0 -0.035939941305810415 -0.022965377633370181 0 -0.035493119196935784 -0.023330559009644564 0 -0.036012435391965594 -0.024363103089976579 0 -0.035493119196935784 -0.023330559009644564 0 -0.035448050137007241 -0.025120607249050041 0 -0.036012435391965594 -0.024363103089976579 0 -0.035448050137007241 -0.025120607249050041 0 -0.035879352953953711 -0.026141573721986132 0 -0.035448050137007241 -0.025120607249050041 0 -0.034999475626771401 -0.024093922738105737 0 -0.034999300054829117 -0.025913813603565695 0 -0.035276169654444384 -0.026919109500699319 0 -0.035448050137007241 -0.025120607249050041 0 -0.034999300054829117 -0.025913813603565695 0 -0.035276169654444384 -0.026919109500699319 0 -0.035448050137007241 -0.025120607249050041 0 -0.035879352953953711 -0.026141573721986132 0 -0.036012435391965594 -0.024363103089976579 0 -0.035879352953953711 -0.026141573721986132 0 -0.036677395765841489 -0.02527294166704978 0 -0.036303536112224942 -0.026979433861654578 0 -0.035879352953953711 -0.026141573721986132 0 -0.036677395765841489 -0.02527294166704978 0 -0.036303536112224942 -0.026979433861654578 0 -0.036677395765841489 -0.02527294166704978 0 -0.037046860756570654 -0.026887496375711771 0 -0.036677395765841489 -0.02527294166704978 0 -0.037046860756570654 -0.026887496375711771 0 -0.038159301806684622 -0.025413954517978711 0 -0.03706696704407593 -0.026816988006297796 0 -0.037820175185273509 -0.026112841174244329 0 -0.037046860756570654 -0.026887496375711771 0 -0.03740162618165014 -0.02727166497102089 0 -0.037372865205729001 -0.026656950530226868 0 -0.03740162618165014 -0.02727166497102089 0 -0.037372865205729001 -0.026656950530226868 0 -0.038188723747787139 -0.027238969017523873 0 -0.037820175185273509 -0.026112841174244329 0 -0.037381551151568659 -0.024227868779909446 0 -0.036677395765841489 -0.02527294166704978 0 -0.038159301806684622 -0.025413954517978711 0 -0.037323136958698135 -0.023980628199330594 0 -0.035995576257509015 -0.026994668420224521 0 -0.03586246980334027 -0.025502030133528569 0 -0.03471498378276678 -0.026239496321383667 0 -0.036294241990054404 -0.026928385992991181 0 -0.037381551151568659 -0.024227868779909446 0 -0.03586246980334027 -0.025502030133528569 0 -0.03471498378276678 -0.026239496321383667 0 -0.034458261976881746 -0.024119808352669636 0 -0.037372865205729001 -0.026656950530226868 0 -0.038188723747787139 -0.027238969017523873 0 -0.037982826794017509 -0.026019763620982676 0 -0.036290080888817078 -0.024706736166624301 0 -0.03586246980334027 -0.025502030133528569 0 -0.03573477506322692 -0.024124523159643488 0 -0.03586246980334027 -0.025502030133528569 0 -0.03573477506322692 -0.024124523159643488 0 -0.034458261976881746 -0.024119808352669636 0 -0.036583581616597444 -0.023887927350628956 0 -0.03573477506322692 -0.024124523159643488 0 -0.035830766474253567 -0.022958379858902481 0 -0.03573477506322692 -0.024124523159643488 0 -0.034458261976881746 -0.024119808352669636 0 -0.035830766474253567 -0.022958379858902481 0 -0.037381551151568659 -0.024227868779909446 0 -0.036560085996152986 -0.022501269940755724 0 -0.038029291252019017 -0.022005407310643894 0 -0.037912291173492534 -0.022368216986059862 0 -0.037577401005788755 -0.022279647630838392 0 -0.038935278782578908 -0.024340343693628225 0 -0.038006990427063299 -0.022583886347512887 0 -0.038045118726652158 -0.023667179449763803 0 -0.037381551151568659 -0.024227868779909446 0 -0.038351605344734627 -0.02220521971706375 0 -0.038029291252019017 -0.022005407310643894 0 -0.038006990427063299 -0.022583886347512887 0 -0.037912291173492534 -0.022368216986059862 0 -0.038006990427063299 -0.022583886347512887 0 -0.037912291173492534 -0.022368216986059862 0 -0.038040633795598328 -0.022567068628287789 0 -0.037912291173492534 -0.022368216986059862 0 -0.037577401005788755 -0.022279647630838392 0 -0.038040633795598328 -0.022567068628287789 0 -0.038159301806684622 -0.025413954517978711 0 -0.038935278782578908 -0.024340343693628225 0 -0.038045118726652158 -0.023667179449763803 0 -0.037323136958698135 -0.023980628199330594 0 -0.038045118726652158 -0.023667179449763803 0 -0.037683388620369053 -0.023345246156974111 0 -0.038159301806684622 -0.025413954517978711 0 -0.037323136958698135 -0.023980628199330594 0 -0.038045118726652158 -0.023667179449763803 0 -0.038045118726652158 -0.023667179449763803 0 -0.037683388620369053 -0.023345246156974111 0 -0.037864825019266274 -0.022747582382770221 0 -0.038006990427063299 -0.022583886347512887 0 -0.038045118726652158 -0.023667179449763803 0 -0.037864825019266274 -0.022747582382770221 0 -0.038006990427063299 -0.022583886347512887 0 -0.037864825019266274 -0.022747582382770221 0 -0.037720451493637938 -0.022507820022573701 0 -0.037683388620369053 -0.023345246156974111 0 -0.037864825019266274 -0.022747582382770221 0 -0.037355634352290605 -0.023166543303822347 0 -0.037864825019266274 -0.022747582382770221 0 -0.037355634352290605 -0.023166543303822347 0 -0.037041417678090577 -0.022722154092888986 0 -0.036636451980556886 -0.023454116349207157 0 -0.037323136958698135 -0.023980628199330594 0 -0.037355634352290605 -0.023166543303822347 0 -0.037323136958698135 -0.023980628199330594 0 -0.037683388620369053 -0.023345246156974111 0 -0.037355634352290605 -0.023166543303822347 0 -0.036761916761711026 -0.022354159863109097 0 -0.037720451493637938 -0.022507820022573701 0 -0.037399358310472565 -0.021972242022816793 0 -0.036761916761711026 -0.022354159863109097 0 -0.037064342272934162 -0.021710848243684518 0 -0.036631239129657302 -0.02168174422919528 0 -0.037816915607122102 -0.022747650634153838 0 -0.036932515980868552 -0.022527103337716518 0 -0.037864825019266274 -0.022747582382770221 0 -0.036761916761711026 -0.022354159863109097 0 -0.037720451493637938 -0.022507820022573701 0 -0.036761916761711026 -0.022354159863109097 0 -0.037399358310472565 -0.021972242022816793 0 -0.037064342272934162 -0.021710848243684518 0 -0.037720451493637938 -0.022507820022573701 0 -0.037399358310472565 -0.021972242022816793 0 -0.037645710316037979 -0.022092642618820879 0 -0.037720451493637938 -0.022507820022573701 0 -0.037788706002505411 -0.02193129288369676 0 -0.037645710316037979 -0.022092642618820879 0 -0.037788706002505411 -0.02193129288369676 0 -0.037645710316037979 -0.022092642618820879 0 -0.037626060012282685 -0.021797631401175688 0 -0.037399358310472565 -0.021972242022816793 0 -0.037645710316037979 -0.022092642618820879 0 -0.037626060012282685 -0.021797631401175688 0 -0.037405123827154545 -0.021618274902848955 0 -0.037626060012282685 -0.021797631401175688 0 -0.037595616311175979 -0.021555323841234948 0 -0.037399358310472565 -0.021972242022816793 0 -0.037405123827154545 -0.021618274902848955 0 -0.037626060012282685 -0.021797631401175688 0 -0.037626060012282685 -0.021797631401175688 0 -0.037595616311175979 -0.021555323841234948 0 -0.03777625367509619 -0.021666832959627593 0 -0.037788706002505411 -0.02193129288369676 0 -0.037626060012282685 -0.021797631401175688 0 -0.03777625367509619 -0.021666832959627593 0 -0.037595616311175979 -0.021555323841234948 0 -0.037753375620579142 -0.021476397870209562 0 -0.037614500717716749 -0.02137855934491574 0 -0.037405123827154545 -0.021618274902848955 0 -0.037191229946458432 -0.021426624551236711 0 -0.037415392803712137 -0.021344574752681891 0 -0.037405123827154545 -0.021618274902848955 0 -0.037595616311175979 -0.021555323841234948 0 -0.037415392803712137 -0.021344574752681891 0 -0.037405123827154545 -0.021618274902848955 0 -0.037191229946458432 -0.021426624551236711 0 -0.037064342272934162 -0.021710848243684518 0 -0.037191229946458432 -0.021426624551236711 0 -0.036903669055410461 -0.021363828206246833 0 -0.037064342272934162 -0.021710848243684518 0 -0.036903669055410461 -0.021363828206246833 0 -0.037064342272934162 -0.021710848243684518 0 -0.036631239129657302 -0.02168174422919528 0 -0.037399358310472565 -0.021972242022816793 0 -0.037405123827154545 -0.021618274902848955 0 -0.037064342272934162 -0.021710848243684518 0 -0.037559356062027913 -0.021996598982453701 0 -0.037925234713649877 -0.022208041145884847 0 -0.037845655457386086 -0.021526744419363236 0 -0.037915387554716462 -0.021827856512367232 0 -0.037897336387944125 -0.021648236510909923 0 -0.03723744203103601 -0.02244075568570799 0 -0.037577401005788755 -0.022279647630838392 0 -0.038040633795598328 -0.022567068628287789 0 -0.037845655457386086 -0.021526744419363236 0 -0.037856739244904423 -0.021555485854975315 0 -0.037897336387944125 -0.021648236510909923 0 -0.037695932459987029 -0.022452103696676568 0 -0.037925234713649877 -0.022208041145884847 0 -0.037720451493637938 -0.022507820022573701 0 -0.037788706002505411 -0.02193129288369676 0 -0.037915387554716462 -0.021827856512367232 0 -0.038006990427063299 -0.022583886347512887 0 -0.037720451493637938 -0.022507820022573701 0 -0.038040633795598328 -0.022567068628287789 0 -0.037864660975565727 -0.021735154176277454 0 -0.037915387554716462 -0.021827856512367232 0 -0.037897336387944125 -0.021648236510909923 0 -0.037788706002505411 -0.02193129288369676 0 -0.037864660975565727 -0.021735154176277454 0 -0.037915387554716462 -0.021827856512367232 0 -0.037788706002505411 -0.02193129288369676 0 -0.037864660975565727 -0.021735154176277454 0 -0.03777625367509619 -0.021666832959627593 0 -0.03777625367509619 -0.021666832959627593 0 -0.037753375620579142 -0.021476397870209562 0 -0.037860009695651509 -0.021577832988988705 0 -0.037595616311175979 -0.021555323841234948 0 -0.03777625367509619 -0.021666832959627593 0 -0.037753375620579142 -0.021476397870209562 0 -0.037753375620579142 -0.021476397870209562 0 -0.037860009695651509 -0.021577832988988705 0 -0.037863608067718248 -0.021421867529888967 0 -0.037864660975565727 -0.021735154176277454 0 -0.03777625367509619 -0.021666832959627593 0 -0.037860009695651509 -0.021577832988988705 0 -0.037864660975565727 -0.021735154176277454 0 -0.037860009695651509 -0.021577832988988705 0 -0.037897336387944125 -0.021648236510909923 0 -0.037860009695651509 -0.021577832988988705 0 -0.037897336387944125 -0.021648236510909923 0 -0.037891886510761863 -0.021564183094521239 0 -0.037860009695651509 -0.021577832988988705 0 -0.037891886510761863 -0.021564183094521239 0 -0.037863608067718248 -0.021421867529888967 0 -0.037891886510761863 -0.021564183094521239 0 -0.037897552202310739 -0.021511686199939248 0 -0.037863608067718248 -0.021421867529888967 0 -0.037856739244904423 -0.021555485854975315 0 -0.037891886510761863 -0.021564183094521239 0 -0.037897552202310739 -0.021511686199939248 0 -0.037856739244904423 -0.021555485854975315 0 -0.037897336387944125 -0.021648236510909923 0 -0.037891886510761863 -0.021564183094521239 0 -0.038053971069325086 -0.022024991764799686 0 -0.037109050123967646 -0.020064106066054171 0 -0.037897552202310739 -0.021511686199939248 0 -0.037863608067718248 -0.021421867529888967 0 -0.037948322917975355 -0.021238056394728783 0 -0.037863608067718248 -0.021421867529888967 0 -0.037832768760457332 -0.021260731324795584 0 -0.037948322917975355 -0.021238056394728783 0 -0.037863608067718248 -0.021421867529888967 0 -0.037832768760457332 -0.021260731324795584 0 -0.037711576316414246 -0.02127280295125859 0 -0.037832768760457332 -0.021260731324795584 0 -0.037711576316414246 -0.02127280295125859 0 -0.03776646369951072 -0.021161757547535853 0 -0.037753375620579142 -0.021476397870209562 0 -0.037863608067718248 -0.021421867529888967 0 -0.037711576316414246 -0.02127280295125859 0 -0.037753375620579142 -0.021476397870209562 0 -0.037711576316414246 -0.02127280295125859 0 -0.037614500717716749 -0.02137855934491574 0 -0.037711576316414246 -0.02127280295125859 0 -0.03776646369951072 -0.021161757547535853 0 -0.037615634853343259 -0.021161235146373691 0 -0.037101675199875603 -0.01904412523674015 0 -0.03815025884172811 -0.018512158273748348 0 -0.03815025884172811 -0.018512158273748348 0 -0.036200703581678567 -0.012153640829526913 0 -0.03776646369951072 -0.021161757547535853 0 -0.037899563843134455 -0.021085886851331226 0 -0.037594738720601109 -0.020974068183102143 0 -0.036713181655353894 -0.015855244163644321 0 -0.036962476918141571 -0.015909210073091293 0 -0.036632180307059621 -0.016036897161251607 0 -0.03776646369951072 -0.021161757547535853 0 -0.037615634853343259 -0.021161235146373691 0 -0.037594738720601109 -0.020974068183102143 0 -0.037239399872137952 -0.020152654896566254 0 -0.037101675199875603 -0.01904412523674015 0 -0.037832768760457332 -0.021260731324795584 0 -0.03776646369951072 -0.021161757547535853 0 -0.037835902422477113 -0.021180471313156316 0 -0.03654191038721144 -0.018446250716153176 0 -0.036430746491659907 -0.01850155316813451 0 -0.036414751469338549 -0.018428835929781028 0 -0.037832768760457332 -0.021260731324795584 0 -0.037835902422477113 -0.021180471313156316 0 -0.037948322917975355 -0.021238056394728783 0 -0.037101675199875603 -0.01904412523674015 0 -0.037109050123967646 -0.020064106066054171 0 -0.036713181655353894 -0.015855244163644321 0 -0.036564719638999141 -0.015918526952021384 0 -0.03658213224835332 -0.015991651212468427 0 -0.036713181655353894 -0.015855244163644321 0 -0.036632180307059621 -0.016036897161251607 0 -0.03658213224835332 -0.015991651212468427 0 -0.037101675199875603 -0.01904412523674015 0 -0.035731085929706127 -0.016007930820099079 0 -0.035268825210039031 -0.017741733234295367 0 -0.035738070745519129 -0.017475083101753754 0 -0.035535018061837655 -0.01892039601730091 0 -0.035731085929706127 -0.016007930820099079 0 -0.034757238657675021 -0.011291455321112439 0 -0.035445719314218221 -0.014499395423783463 0 -0.036163706273082762 -0.014091861154704786 0 -0.035128953625534198 -0.01309355296746661 0 -0.034744185829632374 -0.014733135045801501 0 -0.034757238657675021 -0.011291455321112439 0 -0.035731085929706127 -0.016007930820099079 0 -0.034744185829632374 -0.014733135045801501 0 -0.035731085929706127 -0.016007930820099079 0 -0.037109050123967646 -0.020064106066054171 0 -0.037043906230003344 -0.021024317377946106 0 -0.03720137077980918 -0.021233707110905217 0 -0.037414671302881689 -0.021153432492204555 0 -0.036903669055410461 -0.021363828206246833 0 -0.037043906230003344 -0.021024317377946106 0 -0.03720137077980918 -0.021233707110905217 0 -0.037191229946458432 -0.021426624551236711 0 -0.036903669055410461 -0.021363828206246833 0 -0.03720137077980918 -0.021233707110905217 0 -0.037191229946458432 -0.021426624551236711 0 -0.03720137077980918 -0.021233707110905217 0 -0.037415392803712137 -0.021344574752681891 0 -0.037043906230003344 -0.021024317377946106 0 -0.037414671302881689 -0.021153432492204555 0 -0.037594738720601109 -0.020974068183102143 0 -0.037415392803712137 -0.021344574752681891 0 -0.037551868527733512 -0.021254877544060708 0 -0.037414671302881689 -0.021153432492204555 0 -0.03720137077980918 -0.021233707110905217 0 -0.037415392803712137 -0.021344574752681891 0 -0.037414671302881689 -0.021153432492204555 0 -0.037595616311175979 -0.021555323841234948 0 -0.037415392803712137 -0.021344574752681891 0 -0.037614500717716749 -0.02137855934491574 0 -0.037415392803712137 -0.021344574752681891 0 -0.037614500717716749 -0.02137855934491574 0 -0.037551868527733512 -0.021254877544060708 0 -0.037711576316414246 -0.02127280295125859 0 -0.037614500717716749 -0.02137855934491574 0 -0.037551868527733512 -0.021254877544060708 0 -0.037711576316414246 -0.02127280295125859 0 -0.037551868527733512 -0.021254877544060708 0 -0.037615634853343259 -0.021161235146373691 0 -0.037551868527733512 -0.021254877544060708 0 -0.037615634853343259 -0.021161235146373691 0 -0.037414671302881689 -0.021153432492204555 0 -0.037325139825336077 -0.020401934550038272 0 -0.03815025884172811 -0.018512158273748348 0 -0.038722787676655816 -0.018187974035329301 0 -0.037357310029907845 -0.018205648462365959 0 -0.038351153630879917 -0.017592424375750707 0 -0.037615634853343259 -0.021161235146373691 0 -0.037414671302881689 -0.021153432492204555 0 -0.037594738720601109 -0.020974068183102143 0 -0.037630432214099126 -0.019456119715980148 0 -0.039312299020150862 -0.018506497637134453 0 -0.037357310029907845 -0.018205648462365959 0 -0.03815025884172811 -0.018512158273748348 0 -0.037788003833042469 -0.018183202080989731 0 -0.037630432214099126 -0.019456119715980148 0 -0.037357310029907845 -0.018205648462365959 0 -0.036850302071418616 -0.019422673375689158 0 -0.036998878791304632 -0.019949972481122041 0 -0.035682973959706182 -0.016148979464971191 0 -0.037357310029907845 -0.018205648462365959 0 -0.036850302071418616 -0.019422673375689158 0 -0.035919796008227395 -0.01748944950476404 0 -0.035512983818056489 -0.019087725378884878 0 -0.034249242036444839 -0.018244635539327508 0 -0.03602856949771624 -0.017741931274923784 0 -0.035512983818056489 -0.019087725378884878 0 -0.036850302071418616 -0.019422673375689158 0 -0.03602856949771624 -0.017741931274923784 0 -0.035512983818056489 -0.019087725378884878 0 -0.035904047815066807 -0.019822817224928669 0 -0.035085634710232801 -0.020371450747632833 0 -0.035512983818056489 -0.019087725378884878 0 -0.035904047815066807 -0.019822817224928669 0 -0.036850302071418616 -0.019422673375689158 0 -0.035904047815066807 -0.019822817224928669 0 -0.036144669466996328 -0.020420097255218171 0 -0.035085634710232801 -0.020371450747632833 0 -0.037325139825336077 -0.020401934550038272 0 -0.036061427133932421 -0.020804532944513763 0 -0.037630432214099126 -0.019456119715980148 0 -0.036850302071418616 -0.019422673375689158 0 -0.036144669466996328 -0.020420097255218171 0 -0.036903669055410461 -0.021363828206246833 0 -0.037043906230003344 -0.021024317377946106 0 -0.036059932998864536 -0.02117398830549477 0 -0.035904047815066807 -0.019822817224928669 0 -0.036850302071418616 -0.019422673375689158 0 -0.036144669466996328 -0.020420097255218171 0 -0.036903669055410461 -0.021363828206246833 0 -0.036631239129657302 -0.02168174422919528 0 -0.036059932998864536 -0.02117398830549477 0 -0.036631239129657302 -0.02168174422919528 0 -0.036095842947307576 -0.021732000648521439 0 -0.036059932998864536 -0.02117398830549477 0 -0.036144669466996328 -0.020420097255218171 0 -0.034644826335646972 -0.021520817916767309 0 -0.035085634710232801 -0.020371450747632833 0 -0.036095842947307576 -0.021732000648521439 0 -0.036059932998864536 -0.02117398830549477 0 -0.034644826335646972 -0.021520817916767309 0 -0.036061427133932421 -0.020804532944513763 0 -0.034706680744137651 -0.021505433647105214 0 -0.036095842947307576 -0.021732000648521439 0 -0.035605072802322835 -0.022116140208406947 0 -0.034644826335646972 -0.021520817916767309 0 -0.036636451980556886 -0.023454116349207157 0 -0.037041417678090577 -0.022722154092888986 0 -0.036173843435191665 -0.022325067233209081 0 -0.036761916761711026 -0.022354159863109097 0 -0.036095842947307576 -0.021732000648521439 0 -0.035605072802322835 -0.022116140208406947 0 -0.036761916761711026 -0.022354159863109097 0 -0.036631239129657302 -0.02168174422919528 0 -0.036095842947307576 -0.021732000648521439 0 -0.036932515980868552 -0.022527103337716518 0 -0.035787961125776278 -0.022275963458790373 0 -0.034999725719414482 -0.022274747045319995 0 -0.035593478928303321 -0.022174423128802006 0 -0.034999794657362693 -0.020454289339324732 0 -0.035596274626369162 -0.022128884812003605 0 -0.035285153101858535 -0.021188034390568846 0 -0.035593478928303321 -0.022174423128802006 0 -0.035909427136022541 -0.020847491292916905 0 -0.034999794657362693 -0.020454289339324732 0 -0.036173843435191665 -0.022325067233209081 0 -0.035786613198001804 -0.022355963471159951 0 -0.035589701259026475 -0.022083732854102811 0 -0.035939941305810415 -0.022965377633370181 0 -0.036173843435191665 -0.022325067233209081 0 -0.035786613198001804 -0.022355963471159951 0 -0.035593478928303321 -0.022174423128802006 0 -0.035786613198001804 -0.022355963471159951 0 -0.035589701259026475 -0.022083732854102811 0 -0.035787961125776278 -0.022275963458790373 0 -0.035285153101858535 -0.021188034390568846 0 -0.035605072802322835 -0.022116140208406947 0 -0.034644826335646972 -0.021520817916767309 0 -0.033967463874604552 -0.021597579367953004 0 -0.034644826335646972 -0.021520817916767309 0 -0.035085634710232801 -0.020371450747632833 0 -0.034061627146092906 -0.019854681698102287 0 -0.034644826335646972 -0.021520817916767309 0 -0.033967463874604552 -0.021597579367953004 0 -0.034061627146092906 -0.019854681698102287 0 -0.035285153101858535 -0.021188034390568846 0 -0.035050101496775184 -0.019604359956383891 0 -0.035516736242126659 -0.019962543161912531 0 -0.035912070252394734 -0.020671670530464922 0 -0.036042874312997283 -0.019210552002094743 0 -0.035516736242126659 -0.019962543161912531 0 -0.035912070252394734 -0.020671670530464922 0 -0.034999980979216486 -0.02045394530766945 0 -0.035285153101858535 -0.021188034390568846 0 -0.035000532448750905 -0.020454395809357435 0 -0.035516736242126659 -0.019962543161912531 0 -0.034999980979216486 -0.02045394530766945 0 -0.034999991171300024 -0.019771181339616004 0 -0.035516736242126659 -0.019962543161912531 0 -0.034999991171300024 -0.019771181339616004 0 -0.035499301523677078 -0.019443208256551683 0 -0.034999998952948357 -0.019771021234092252 0 -0.035472283417527527 -0.018725148029119447 0 -0.034999994062638581 -0.017960881377909597 0 -0.034999991171300024 -0.019771181339616004 0 -0.035499301523677078 -0.019443208256551683 0 -0.035438055063855209 -0.018837041456996512 0 -0.035000139564018193 -0.019770729089215545 0 -0.035445460673784394 -0.018782393236479743 0 -0.035516736242126659 -0.019962543161912531 0 -0.035499301523677078 -0.019443208256551683 0 -0.036042874312997283 -0.019210552002094743 0 -0.035499301523677078 -0.019443208256551683 0 -0.035438055063855209 -0.018837041456996512 0 -0.036042874312997283 -0.019210552002094743 0 -0.035512983818056489 -0.019087725378884878 0 -0.035085634710232801 -0.020371450747632833 0 -0.034061627146092906 -0.019854681698102287 0 -0.036042874312997283 -0.019210552002094743 0 -0.036172549232034772 -0.01780736366330786 0 -0.035852035415738275 -0.017903117798469228 0 -0.035512983818056489 -0.019087725378884878 0 -0.034061627146092906 -0.019854681698102287 0 -0.034249242036444839 -0.018244635539327508 0 -0.035050101496775184 -0.019604359956383891 0 -0.034914412819536694 -0.017624882243992824 0 -0.034914412819536694 -0.017624882243992824 0 -0.035603735472328105 -0.017631665800916935 0 -0.035438055063855209 -0.018837041456996512 0 -0.036042874312997283 -0.019210552002094743 0 -0.035852035415738275 -0.017903117798469228 0 -0.035472283417527527 -0.018725148029119447 0 -0.035940901299912245 -0.017683770305930619 0 -0.034999994062638581 -0.017960881377909597 0 -0.035445460673784394 -0.018782393236479743 0 -0.035603735472328105 -0.017631665800916935 0 -0.035603735472328105 -0.017631665800916935 0 -0.035000495569223869 -0.017960688916892703 0 -0.035941961549733135 -0.017676494176535575 0 -0.034999994040431248 -0.017960859994290271 0 -0.03556446089147175 -0.017037802313173967 0 -0.03556446089147175 -0.017037802313173967 0 -0.036398810883792862 -0.016663284283926261 0 -0.034999994532097761 -0.016116296023001284 0 -0.034999994040431248 -0.017960859994290271 0 -0.03556446089147175 -0.017037802313173967 0 -0.034999994532097761 -0.016116296023001284 0 -0.035941961549733135 -0.017676494176535575 0 -0.03556446089147175 -0.017037802313173967 0 -0.036398810883792862 -0.016663284283926261 0 -0.035603735472328105 -0.017631665800916935 0 -0.035453469187288762 -0.016081840070501219 0 -0.034266913031383878 -0.016459007345856539 0 -0.035203743113108574 -0.015586378194841845 0 -0.036370776735887525 -0.015826935794454457 0 -0.035458707906846382 -0.017462782111785698 0 -0.035014369569734319 -0.017595057756709546 0 -0.035574097284797351 -0.016348989969091576 0 -0.035203743113108574 -0.015586378194841845 0 -0.034376721765643999 -0.015393662712950318 0 -0.035800996926527669 -0.014663620788502923 0 -0.034266913031383878 -0.016459007345856539 0 -0.035203743113108574 -0.015586378194841845 0 -0.034376721765643999 -0.015393662712950318 0 -0.034914412819536694 -0.017624882243992824 0 -0.035453469187288762 -0.016081840070501219 0 -0.034376721765643999 -0.015393662712950318 0 -0.035800996926527669 -0.014663620788502923 0 -0.035228289274542135 -0.013498103641705738 0 -0.035453469187288762 -0.016081840070501219 0 -0.035413912953452989 -0.013069090587833841 0 -0.035490143436853902 -0.015807604759429973 0 -0.035616433272806475 -0.014634752047054294 0 -0.036285797791930793 -0.014053293332448291 0 -0.035453469187288762 -0.016081840070501219 0 -0.036051392101776623 -0.015125929000143448 0 -0.036512115213013979 -0.015591350930200251 0 -0.034999994532097761 -0.016116296023001284 0 -0.035755776474642544 -0.015048380362652753 0 -0.036398810883792862 -0.016663284283926261 0 -0.036512115213013979 -0.015591350930200251 0 -0.034999994532097761 -0.016116296023001284 0 -0.037357310029907845 -0.018205648462365959 0 -0.035919796008227395 -0.01748944950476404 0 -0.037668271728516917 -0.017047919286695974 0 -0.035682973959706182 -0.016148979464971191 0 -0.037128489056133931 -0.015003532771278201 0 -0.03517151771834913 -0.012667725238170202 0 -0.035489410716644805 -0.012040752912944451 0 -0.036154493000847159 -0.012348170011609596 0 -0.034914412819536694 -0.017624882243992824 0 -0.035682973959706182 -0.016148979464971191 0 -0.035682973959706182 -0.016148979464971191 0 -0.035176139327284861 -0.013084666689122646 0 -0.035203743113108574 -0.015586378194841845 0 -0.036370776735887525 -0.015826935794454457 0 -0.035800996926527669 -0.014663620788502923 0 -0.03517151771834913 -0.012667725238170202 0 -0.034909012926166216 -0.012118780814519314 0 -0.035489410716644805 -0.012040752912944451 0 -0.035176139327284861 -0.013084666689122646 0 -0.035413912953452989 -0.013069090587833841 0 -0.034909012926166216 -0.012118780814519314 0 -0.035111572463162745 -0.011678084896716163 0 -0.03465749632409993 -0.011594511458472574 0 -0.034909012926166216 -0.012118780814519314 0 -0.035489410716644805 -0.012040752912944451 0 -0.035111572463162745 -0.011678084896716163 0 -0.035489410716644805 -0.012040752912944451 0 -0.03555901405519233 -0.011464421120250626 0 -0.035111572463162745 -0.011678084896716163 0 -0.035489410716644805 -0.012040752912944451 0 -0.03555901405519233 -0.011464421120250626 0 -0.035971817542826051 -0.011864953477061397 0 -0.03547658414887888 -0.011358588515093162 0 -0.03532429796241085 -0.010851098160221118 0 -0.035965344133063633 -0.0111872161847201 0 -0.03547658414887888 -0.011358588515093162 0 -0.035062926831480747 -0.011012371749449003 0 -0.03532429796241085 -0.010851098160221118 0 -0.035359340941276497 -0.011326800720436755 0 -0.03542614776846225 -0.012234156275624757 0 -0.03547658414887888 -0.011358588515093162 0 -0.035062926831480747 -0.011012371749449003 0 -0.034591903183767633 -0.01122207454406767 0 -0.03555901405519233 -0.011464421120250626 0 -0.035111572463162745 -0.011678084896716163 0 -0.034761414871200845 -0.011366438029889497 0 -0.035111572463162745 -0.011678084896716163 0 -0.034761414871200845 -0.011366438029889497 0 -0.03465749632409993 -0.011594511458472574 0 -0.03542614776846225 -0.012234156275624757 0 -0.035413912953452989 -0.013069090587833841 0 -0.034860310191779799 -0.010619195706737328 0 -0.03532429796241085 -0.010851098160221118 0 -0.035136532296588058 -0.010008825507206394 0 -0.037030935019891832 -0.013809704359505594 0 -0.037417127671212289 -0.012992547054462776 0 -0.036835860241943352 -0.013395365907856964 0 -0.03542614776846225 -0.012234156275624757 0 -0.036016055597167349 -0.011986836531653684 0 -0.037417127671212289 -0.012992547054462776 0 -0.036835860241943352 -0.013395365907856964 0 -0.036552821590192928 -0.01299690584515991 0 -0.037417127671212289 -0.012992547054462776 0 -0.036552821590192928 -0.01299690584515991 0 -0.037110862432147194 -0.012313099807734753 0 -0.035062926831480747 -0.011012371749449003 0 -0.034860310191779799 -0.010619195706737328 0 -0.03532429796241085 -0.010851098160221118 0 -0.035062926831480747 -0.011012371749449003 0 -0.034591903183767633 -0.01122207454406767 0 -0.034860310191779799 -0.010619195706737328 0 -0.03532429796241085 -0.010851098160221118 0 -0.035136532296588058 -0.010008825507206394 0 -0.035819428753355663 -0.010667608266821933 0 -0.036275754300087552 -0.0095405533501214321 0 -0.035216677052726818 -0.0077814410456397516 0 -0.03532429796241085 -0.010851098160221118 0 -0.035819428753355663 -0.010667608266821933 0 -0.035965344133063633 -0.0111872161847201 0 -0.035000714792059934 -0.014272007158824691 0 -0.036398130269710754 -0.014026462231590254 0 -0.034999995225166079 -0.014271742584383025 0 -0.035755776474642544 -0.015048380362652753 0 -0.036624656568398972 -0.014523024366653191 0 -0.034999994532097761 -0.016116296023001284 0 -0.034999995225166079 -0.014271742584383025 0 -0.035755776474642544 -0.015048380362652753 0 -0.036512115213013979 -0.015591350930200251 0 -0.035755776474642544 -0.015048380362652753 0 -0.036624656568398972 -0.014523024366653191 0 -0.036051392101776623 -0.015125929000143448 0 -0.036398130269710754 -0.014026462231590254 0 -0.035616433272806475 -0.014634752047054294 0 -0.036285797791930793 -0.014053293332448291 0 -0.03574490491939486 -0.013465709419662139 0 -0.035413912953452989 -0.013069090587833841 0 -0.036195707177502076 -0.013491383162528221 0 -0.03542614776846225 -0.012234156275624757 0 -0.036195707177502076 -0.013491383162528221 0 -0.035518737185975223 -0.012894620534681467 0 -0.035561763763332782 -0.012799559804560087 0 -0.035619133437739717 -0.012911418511104288 0 -0.036285797791930793 -0.014053293332448291 0 -0.036016270001813386 -0.013506956100509603 0 -0.03574490491939486 -0.013465709419662139 0 -0.036195707177502076 -0.013491383162528221 0 -0.036398130269710754 -0.014026462231590254 0 -0.036398130269710754 -0.014026462231590254 0 -0.036472097075449593 -0.013683788879650322 0 -0.036461985945608073 -0.013738941080982883 0 -0.036462722084188805 -0.013739297766150006 0 -0.036463268132892739 -0.013739510068534534 0 -0.036675018233478802 -0.013755068659020769 0 -0.036835860241943352 -0.013395365907856964 0 -0.036509487026374104 -0.013418623518400896 0 -0.036195707177502076 -0.013491383162528221 0 -0.036472097075449593 -0.013683788879650322 0 -0.037030935019891832 -0.013809704359505594 0 -0.036675018233478802 -0.013755068659020769 0 -0.036835860241943352 -0.013395365907856964 0 -0.036663680073648182 -0.014130123735443001 0 -0.035825328056942315 -0.01357641257636049 0 -0.035834660501198531 -0.012449095459502669 0 -0.036511447102160158 -0.013431129801024679 0 -0.036552821590192928 -0.01299690584515991 0 -0.035798641919075863 -0.012057439234182442 0 -0.036623621042093185 -0.014510402634451157 0 -0.036663680073648182 -0.014130123735443001 0 -0.035825328056942315 -0.01357641257636049 0 -0.036472097075449593 -0.013683788879650322 0 -0.035829582958524661 -0.012273383975647539 0 -0.036835860241943352 -0.013395365907856964 0 -0.036509487026374104 -0.013418623518400896 0 -0.036552821590192928 -0.01299690584515991 0 -0.036472097075449593 -0.013683788879650322 0 -0.036528496411166192 -0.013187075826785601 0 -0.034999996198358127 -0.014271705694133807 0 -0.036623621042093185 -0.014510402634451157 0 -0.035825328056942315 -0.01357641257636049 0 -0.034999996198358127 -0.014271705694133807 0 -0.035825328056942315 -0.01357641257636049 0 -0.034999996384687954 -0.012514877594090233 0 -0.035825328056942315 -0.01357641257636049 0 -0.034999996384687954 -0.012514877594090233 0 -0.035834660501198531 -0.012449095459502669 0 -0.035829582958524661 -0.012273383975647539 0 -0.035000127942433894 -0.010758210618419811 0 -0.035798641919075863 -0.012057439234182442 0 -0.036235506321447626 -0.011139043227578999 0 -0.03499999405417175 -0.010757386213703006 0 -0.034999996384687954 -0.012514877594090233 0 -0.035834660501198531 -0.012449095459502669 0 -0.034999999064062551 -0.010758005243876798 0 -0.036235506321447626 -0.011139043227578999 0 -0.036562197642356041 -0.011924658095157768 0 -0.037232274689286853 -0.01157770389756921 0 -0.035798641919075863 -0.012057439234182442 0 -0.036235506321447626 -0.011139043227578999 0 -0.036562197642356041 -0.011924658095157768 0 -0.036235506321447626 -0.011139043227578999 0 -0.037232274689286853 -0.01157770389756921 0 -0.036914663434253002 -0.010344696371596454 0 -0.036552821590192928 -0.01299690584515991 0 -0.036562197642356041 -0.011924658095157768 0 -0.037110862432147194 -0.012313099807734753 0 -0.036552821590192928 -0.01299690584515991 0 -0.035798641919075863 -0.012057439234182442 0 -0.036562197642356041 -0.011924658095157768 0 -0.036016055597167349 -0.011986836531653684 0 -0.036275754300087552 -0.0095405533501214321 0 -0.037417127671212289 -0.012992547054462776 0 -0.037110862432147194 -0.012313099807734753 0 -0.037806454293844716 -0.012155280674079163 0 -0.036275754300087552 -0.0095405533501214321 0 -0.03797855082416407 -0.012158026122376698 0 -0.036562197642356041 -0.011924658095157768 0 -0.037110862432147194 -0.012313099807734753 0 -0.037232274689286853 -0.01157770389756921 0 -0.037110862432147194 -0.012313099807734753 0 -0.037806454293844716 -0.012155280674079163 0 -0.037232274689286853 -0.01157770389756921 0 -0.035381617162019409 -0.0057213030428695669 0 -0.034976797235149903 -0.0057875448534942912 0 -0.03501368785640268 -0.0053690218079720216 0 -0.037899574147070687 -0.012197610466578992 0 -0.038554814542854456 -0.010801654276672491 0 -0.037677901255871879 -0.010804829036364977 0 -0.036275754300087552 -0.0095405533501214321 0 -0.036899717586520775 -0.0083813620903784216 0 -0.035381617162019409 -0.0057213030428695669 0 -0.035173654940864503 -0.0061618905829415767 0 -0.034976797235149903 -0.0057875448534942912 0 -0.037677901255871879 -0.010804829036364977 0 -0.037232274689286853 -0.01157770389756921 0 -0.036914663434253002 -0.010344696371596454 0 -0.037899574147070687 -0.012197610466578992 0 -0.037677901255871879 -0.010804829036364977 0 -0.037232274689286853 -0.01157770389756921 0 -0.037677901255871879 -0.010804829036364977 0 -0.037832544772128905 -0.0092251860369761268 0 -0.036914663434253002 -0.010344696371596454 0 -0.038554814542854456 -0.010801654276672491 0 -0.037677901255871879 -0.010804829036364977 0 -0.037832544772128905 -0.0092251860369761268 0 -0.038554814542854456 -0.010801654276672491 0 -0.037832544772128905 -0.0092251860369761268 0 -0.039183258895148315 -0.0093932289457895665 0 -0.036899717586520775 -0.0083813620903784216 0 -0.037305419303202844 -0.007930585176422077 0 -0.037916125292736282 -0.0090365669508797371 0 -0.037305419303202844 -0.007930585176422077 0 -0.037533036899907994 -0.0086794706705984586 0 -0.038071169800512387 -0.0083397036206933738 0 -0.037960867152600282 -0.0081302748871860085 0 -0.037832544772128905 -0.0092251860369761268 0 -0.036449778331377275 -0.0089704389901807628 0 -0.036914663434253002 -0.010344696371596454 0 -0.037916125292736282 -0.0090365669508797371 0 -0.036409715016046007 -0.0089165480037062539 0 -0.03499999405417175 -0.010757386213703006 0 -0.035918053585529734 -0.0099916526731842099 0 -0.034999906266868878 -0.0086790853812981107 0 -0.036449778331377275 -0.0089704389901807628 0 -0.035918053585529734 -0.0099916526731842099 0 -0.034999906266868878 -0.0086790853812981107 0 -0.036235506321447626 -0.011139043227578999 0 -0.03499999405417175 -0.010757386213703006 0 -0.035918053585529734 -0.0099916526731842099 0 -0.036449778331377275 -0.0089704389901807628 0 -0.035918053585529734 -0.0099916526731842099 0 -0.036914663434253002 -0.010344696371596454 0 -0.036235506321447626 -0.011139043227578999 0 -0.035918053585529734 -0.0099916526731842099 0 -0.036914663434253002 -0.010344696371596454 0 -0.034305175246200977 -0.0062747424148964981 0 -0.034114038513192134 -0.0063643033334263637 0 -0.034466786382686208 -0.0065182088209095506 0 -0.034305175246200977 -0.0062747424148964981 0 -0.033872298753027837 -0.0062103928768157809 0 -0.034114038513192134 -0.0063643033334263637 0 -0.033872298753027837 -0.0062103928768157809 0 -0.033658330106325574 -0.0063928375672632591 0 -0.033439345572297503 -0.0061952010208997368 0 -0.033872298753027837 -0.0062103928768157809 0 -0.033658330106325574 -0.0063928375672632591 0 -0.034114038513192134 -0.0063643033334263637 0 -0.034114038513192134 -0.0063643033334263637 0 -0.034079939740157543 -0.0069664918644223445 0 -0.034840660133096286 -0.0072727379058206663 0 -0.034114038513192134 -0.0063643033334263637 0 -0.033592579894920094 -0.0068254900711287054 0 -0.034079939740157543 -0.0069664918644223445 0 -0.033658330106325574 -0.0063928375672632591 0 -0.034114038513192134 -0.0063643033334263637 0 -0.033592579894920094 -0.0068254900711287054 0 -0.033592579894920094 -0.0068254900711287054 0 -0.033316980908472585 -0.007246207932778503 0 -0.033828282893565854 -0.0074499116376202735 0 -0.033592579894920094 -0.0068254900711287054 0 -0.034079939740157543 -0.0069664918644223445 0 -0.033828282893565854 -0.0074499116376202735 0 -0.034114038513192134 -0.0063643033334263637 0 -0.035984628294916804 -0.0062011089537497184 0 -0.034840660133096286 -0.0072727379058206663 0 -0.035984628294916804 -0.0062011089537497184 0 -0.036115277517234277 -0.0075133923586665737 0 -0.034840660133096286 -0.0072727379058206663 0 -0.034329686187552597 -0.0063740321225115113 0 -0.034982395229281697 -0.0062380106620809218 0 -0.035984628294916804 -0.0062011089537497184 0 -0.037184395731035685 -0.0073657960562613055 0 -0.036115277517234277 -0.0075133923586665737 0 -0.038071169800512387 -0.0083397036206933738 0 -0.037960867152600282 -0.0081302748871860085 0 -0.037930425217206701 -0.0078723405569392085 0 -0.034982395229281697 -0.0062380106620809218 0 -0.037305419303202844 -0.007930585176422077 0 -0.035984628294916804 -0.0062011089537497184 0 -0.03762400110561169 -0.0063564461323316612 0 -0.037184395731035685 -0.0073657960562613055 0 -0.037305419303202844 -0.007930585176422077 0 -0.037554193161338199 -0.007584417213979221 0 -0.034466786382686208 -0.0065182088209095506 0 -0.034969954216995246 -0.0066177863708510301 0 -0.034733528309303381 -0.0063625948894150347 0 -0.035173654940864503 -0.0061618905829415767 0 -0.034969954216995246 -0.0066177863708510301 0 -0.034733528309303381 -0.0063625948894150347 0 -0.035173654940864503 -0.0061618905829415767 0 -0.034733528309303381 -0.0063625948894150347 0 -0.034658370385785377 -0.0060434529709728381 0 -0.034305175246200977 -0.0062747424148964981 0 -0.034733528309303381 -0.0063625948894150347 0 -0.034658370385785377 -0.0060434529709728381 0 -0.034305175246200977 -0.0062747424148964981 0 -0.034466786382686208 -0.0065182088209095506 0 -0.034733528309303381 -0.0063625948894150347 0 -0.034305175246200977 -0.0062747424148964981 0 -0.034658370385785377 -0.0060434529709728381 0 -0.034270266099765419 -0.0059971890226716579 0 -0.034658370385785377 -0.0060434529709728381 0 -0.034554855513103652 -0.0056396969759894304 0 -0.034270266099765419 -0.0059971890226716579 0 -0.035173654940864503 -0.0061618905829415767 0 -0.034658370385785377 -0.0060434529709728381 0 -0.034976797235149903 -0.0057875448534942912 0 -0.034976797235149903 -0.0057875448534942912 0 -0.034554855513103652 -0.0056396969759894304 0 -0.03501368785640268 -0.0053690218079720216 0 -0.034658370385785377 -0.0060434529709728381 0 -0.034976797235149903 -0.0057875448534942912 0 -0.034554855513103652 -0.0056396969759894304 0 -0.034232859924017707 -0.0057102969022683548 0 -0.03388048288684517 -0.0058972102405147192 0 -0.034174821497841942 -0.0053634939475657711 0 -0.034554855513103652 -0.0056396969759894304 0 -0.034232859924017707 -0.0057102969022683548 0 -0.034270266099765419 -0.0059971890226716579 0 -0.034554855513103652 -0.0056396969759894304 0 -0.034232859924017707 -0.0057102969022683548 0 -0.034174821497841942 -0.0053634939475657711 0 -0.034305175246200977 -0.0062747424148964981 0 -0.033872298753027837 -0.0062103928768157809 0 -0.034270266099765419 -0.0059971890226716579 0 -0.033872298753027837 -0.0062103928768157809 0 -0.034270266099765419 -0.0059971890226716579 0 -0.03388048288684517 -0.0058972102405147192 0 -0.034232859924017707 -0.0057102969022683548 0 -0.034270266099765419 -0.0059971890226716579 0 -0.03388048288684517 -0.0058972102405147192 0 -0.033872298753027837 -0.0062103928768157809 0 -0.033508336337959729 -0.006141519775167169 0 -0.03388048288684517 -0.0058972102405147192 0 -0.033872298753027837 -0.0062103928768157809 0 -0.033508336337959729 -0.006141519775167169 0 -0.033439345572297503 -0.0061952010208997368 0 -0.033508336337959729 -0.006141519775167169 0 -0.03388048288684517 -0.0058972102405147192 0 -0.033518415188811747 -0.0059176094679379634 0 -0.03388048288684517 -0.0058972102405147192 0 -0.033472382032189663 -0.0056034062098909952 0 -0.034174821497841942 -0.0053634939475657711 0 -0.03388048288684517 -0.0058972102405147192 0 -0.033518415188811747 -0.0059176094679379634 0 -0.033472382032189663 -0.0056034062098909952 0 -0.033472382032189663 -0.0056034062098909952 0 -0.033691986856383117 -0.005195317483973852 0 -0.034174821497841942 -0.0053634939475657711 0 -0.033691986856383117 -0.005195317483973852 0 -0.034033469981940352 -0.0046150939461520862 0 -0.033296780684299261 -0.004844187788552036 0 -0.033691986856383117 -0.005195317483973852 0 -0.034174821497841942 -0.0053634939475657711 0 -0.034033469981940352 -0.0046150939461520862 0 -0.033472382032189663 -0.0056034062098909952 0 -0.033691986856383117 -0.005195317483973852 0 -0.033296780684299261 -0.004844187788552036 0 -0.034191155103710069 -0.0053598764514434403 0 -0.034080005216877471 -0.0047434851378989245 0 -0.034174821497841942 -0.0053634939475657711 0 -0.034202797066588207 -0.00515452139538342 0 -0.034454911580079559 -0.0052478457703588333 0 -0.034202797066588207 -0.00515452139538342 0 -0.03436909788890502 -0.0050583593689147235 0 -0.034182239850064466 -0.0049412566574176045 0 -0.034202797066588207 -0.00515452139538342 0 -0.03436909788890502 -0.0050583593689147235 0 -0.034454911580079559 -0.0052478457703588333 0 -0.035118149633101267 -0.0051494647599445182 0 -0.03314544043989192 -0.0044146283075589517 0 -0.034080005216877471 -0.0047434851378989245 0 -0.035118149633101267 -0.0051494647599445182 0 -0.034033469981940352 -0.0046150939461520862 0 -0.03389603867758835 -0.0039783877435089531 0 -0.033296780684299261 -0.004844187788552036 0 -0.033646932084428559 -0.0031888952577432666 0 -0.034122730330118534 -0.0030496897090856591 0 -0.033231109317057299 -0.0045257049384053857 0 -0.03501368785640268 -0.0053690218079720216 0 -0.034454911580079559 -0.0052478457703588333 0 -0.034653216187483286 -0.0050743177763144269 0 -0.034554855513103652 -0.0056396969759894304 0 -0.034174821497841942 -0.0053634939475657711 0 -0.034454911580079559 -0.0052478457703588333 0 -0.034554855513103652 -0.0056396969759894304 0 -0.03501368785640268 -0.0053690218079720216 0 -0.034454911580079559 -0.0052478457703588333 0 -0.03436909788890502 -0.0050583593689147235 0 -0.034653216187483286 -0.0050743177763144269 0 -0.034390568165800273 -0.0048897768820911052 0 -0.03651662787310074 -0.011370410697542823 0 -0.036381953535692159 -0.011528322752970884 0 -0.037180277167708629 -0.01202063194965977 0 -0.03436909788890502 -0.0050583593689147235 0 -0.034454911580079559 -0.0052478457703588333 0 -0.034653216187483286 -0.0050743177763144269 0 -0.035359340941276497 -0.011326800720436755 0 -0.036390494853996556 -0.011542025202143516 0 -0.03555901405519233 -0.011464421120250626 0 -0.036381953535692159 -0.011528322752970884 0 -0.035971817542826051 -0.011864953477061397 0 -0.035819428753355663 -0.010667608266821933 0 -0.03651662787310074 -0.011370410697542823 0 -0.035965344133063633 -0.0111872161847201 0 -0.035216677052726818 -0.0077814410456397516 0 -0.035392044662193166 -0.0079151429455466531 0 -0.03547658414887888 -0.011358588515093162 0 -0.036381953535692159 -0.011528322752970884 0 -0.035965344133063633 -0.0111872161847201 0 -0.03651662787310074 -0.011370410697542823 0 -0.036381953535692159 -0.011528322752970884 0 -0.035965344133063633 -0.0111872161847201 0 -0.035489410716644805 -0.012040752912944451 0 -0.035971817542826051 -0.011864953477061397 0 -0.036154493000847159 -0.012348170011609596 0 -0.036381953535692159 -0.011528322752970884 0 -0.035971817542826051 -0.011864953477061397 0 -0.036419723158564558 -0.011939924674210196 0 -0.035971817542826051 -0.011864953477061397 0 -0.036419723158564558 -0.011939924674210196 0 -0.036154493000847159 -0.012348170011609596 0 -0.035392044662193166 -0.0079151429455466531 0 -0.036551766094998855 -0.010654037838486946 0 -0.038717465594304834 -0.01715195660760431 0 -0.037668271728516917 -0.017047919286695974 0 -0.038999133024064297 -0.016637290177855004 0 -0.036419723158564558 -0.011939924674210196 0 -0.036154493000847159 -0.012348170011609596 0 -0.037180277167708629 -0.01202063194965977 0 -0.037128489056133931 -0.015003532771278201 0 -0.036551766094998855 -0.010654037838486946 0 -0.036381953535692159 -0.011528322752970884 0 -0.036419723158564558 -0.011939924674210196 0 -0.037180277167708629 -0.01202063194965977 0 -0.038722787676655816 -0.018187974035329301 0 -0.038351153630879917 -0.017592424375750707 0 -0.03913948647751686 -0.017437165177862441 0 -0.038351153630879917 -0.017592424375750707 0 -0.038717465594304834 -0.01715195660760431 0 -0.03913948647751686 -0.017437165177862441 0 -0.038351153630879917 -0.017592424375750707 0 -0.038717465594304834 -0.01715195660760431 0 -0.037668271728516917 -0.017047919286695974 0 -0.037357310029907845 -0.018205648462365959 0 -0.038351153630879917 -0.017592424375750707 0 -0.037668271728516917 -0.017047919286695974 0 -0.033603820558472504 -0.0026413193837766407 0 -0.034083967685558055 -0.003070241658326197 0 -0.0338226516097122 -0.0019327664119488642 0 -0.036335400977579285 -0.0076083762813709465 0 -0.035415359026500032 -0.00910164331172654 0 -0.03687596481693315 -0.010032501752044573 0 -0.035118149633101267 -0.0051494647599445182 0 -0.035238173936501201 -0.0077673594151735689 0 -0.033603820558472504 -0.0026413193837766407 0 -0.033646932084428559 -0.0031888952577432666 0 -0.033284135706977178 -0.0028006372320010667 0 -0.033603820558472504 -0.0026413193837766407 0 -0.033646932084428559 -0.0031888952577432666 0 -0.034083967685558055 -0.003070241658326197 0 -0.034196475733360612 -0.0043483817945901421 0 -0.035118149633101267 -0.0051494647599445182 0 -0.035118149633101267 -0.0051494647599445182 0 -0.036551766094998855 -0.010654037838486946 0 -0.03436909788890502 -0.0050583593689147235 0 -0.034182239850064466 -0.0049412566574176045 0 -0.034390568165800273 -0.0048897768820911052 0 -0.038717465594304834 -0.01715195660760431 0 -0.038999133024064297 -0.016637290177855004 0 -0.039388862246353434 -0.017020260683111757 0 -0.036551766094998855 -0.010654037838486946 0 -0.037762063091307869 -0.013157032850311987 0 -0.035118149633101267 -0.0051494647599445182 0 -0.037762063091307869 -0.013157032850311987 0 -0.037078042984301215 -0.0088244240781855509 0 -0.03573140745783937 -0.0092440170654639383 0 -0.036422540768608264 -0.0099075556021042902 0 -0.037762063091307869 -0.013157032850311987 0 -0.037847754742625986 -0.016595336615216137 0 -0.039373856332101768 -0.017013464953910682 0 -0.03913948647751686 -0.017437165177862441 0 -0.03983579037091229 -0.017451020695925967 0 -0.038722787676655816 -0.018187974035329301 0 -0.03913948647751686 -0.017437165177862441 0 -0.03983579037091229 -0.017451020695925967 0 -0.037762063091307869 -0.013157032850311987 0 -0.036200703581678567 -0.012153640829526913 0 -0.038717465594304834 -0.01715195660760431 0 -0.039388862246353434 -0.017020260683111757 0 -0.03913948647751686 -0.017437165177862441 0 -0.033400010035538018 -0.001654483528022272 0 -0.033599927318574849 -0.0018529118328272085 0 -0.03297830889813741 -0.0023465393757066888 0 -0.036200703581678567 -0.012153640829526913 0 -0.034757238657675021 -0.011291455321112439 0 -0.034660841864174272 -0.011322044165389967 0 -0.034381961005921571 -0.011473609626766437 0 -0.034257528047919948 -0.010941476406591323 0 -0.035238173936501201 -0.0077673594151735689 0 -0.034757238657675021 -0.011291455321112439 0 -0.036200703581678567 -0.012153640829526913 0 -0.035238173936501201 -0.0077673594151735689 0 -0.035415359026500032 -0.00910164331172654 0 -0.036568680622759919 -0.010205992089252 0 -0.03687596481693315 -0.010032501752044573 0 -0.035238173936501201 -0.0077673594151735689 0 -0.033679574951657874 -0.0024625952437913263 0 -0.033603820558472504 -0.0026413193837766407 0 -0.0338226516097122 -0.0019327664119488642 0 -0.03297830889813741 -0.0023465393757066888 0 -0.033646352396570753 -0.0020714781158864726 0 -0.033599927318574849 -0.0018529118328272085 0 -0.03297830889813741 -0.0023465393757066888 0 -0.033400010035538018 -0.001654483528022272 0 -0.03297830889813741 -0.0023465393757066888 0 -0.032138006600841922 -0.0020859125651886854 0 -0.034744185829632374 -0.014733135045801501 0 -0.034127417814356277 -0.010200938776188025 0 -0.03533073909137651 -0.019989689475945191 0 -0.033879980698581641 -0.019794440285197609 0 -0.035456458288730737 -0.018914142377129323 0 -0.03297830889813741 -0.0023465393757066888 0 -0.033284135706977178 -0.0028006372320010667 0 -0.032909731668642084 -0.0030268677527058724 0 -0.033603820558472504 -0.0026413193837766407 0 -0.03297830889813741 -0.0023465393757066888 0 -0.033284135706977178 -0.0028006372320010667 0 -0.03297830889813741 -0.0023465393757066888 0 -0.032909731668642084 -0.0030268677527058724 0 -0.032323237024631538 -0.0027103033801402 0 -0.03297830889813741 -0.0023465393757066888 0 -0.032323237024631538 -0.0027103033801402 0 -0.032138006600841922 -0.0020859125651886854 0 -0.032909731668642084 -0.0030268677527058724 0 -0.032323237024631538 -0.0027103033801402 0 -0.032138595090092321 -0.0033090306934262536 0 -0.033646932084428559 -0.0031888952577432666 0 -0.032909731668642084 -0.0030268677527058724 0 -0.032854728505493307 -0.0036852254685383569 0 -0.033646932084428559 -0.0031888952577432666 0 -0.033284135706977178 -0.0028006372320010667 0 -0.032909731668642084 -0.0030268677527058724 0 -0.031535123792667805 -0.002747861898589183 0 -0.032138006600841922 -0.0020859125651886854 0 -0.030510364376496679 -0.0025305944676292601 0 -0.031535123792667805 -0.002747861898589183 0 -0.032138595090092321 -0.0033090306934262536 0 -0.031361885437106767 -0.0031731209144225925 0 -0.031535123792667805 -0.002747861898589183 0 -0.032323237024631538 -0.0027103033801402 0 -0.032138595090092321 -0.0033090306934262536 0 -0.031535123792667805 -0.002747861898589183 0 -0.032323237024631538 -0.0027103033801402 0 -0.032138006600841922 -0.0020859125651886854 0 -0.03533073909137651 -0.019989689475945191 0 -0.03658637314379859 -0.019756849574668889 0 -0.035456458288730737 -0.018914142377129323 0 -0.03658637314379859 -0.019756849574668889 0 -0.037983068760999515 -0.019708551028968693 0 -0.036976695883484997 -0.018016192620019834 0 -0.03658637314379859 -0.019756849574668889 0 -0.035456458288730737 -0.018914142377129323 0 -0.036976695883484997 -0.018016192620019834 0 -0.029778102670267433 -0.01318235312745992 0 -0.031116854121503626 -0.0079868889858649567 0 -0.021679753766206067 -0.0051779841532661689 0 -0.021602743446936398 -0.0061401920324569165 0 -0.022683208401312892 -0.0064068083497737169 0 -0.021602743446936398 -0.0061401920324569165 0 -0.022683208401312892 -0.0064068083497737169 0 -0.021278097574481191 -0.0070876727835252713 0 -0.031116854121503626 -0.0079868889858649567 0 -0.023278159757122274 -0.0048010380447507904 0 -0.034127417814356277 -0.010200938776188025 0 -0.031116854121503626 -0.0079868889858649567 0 -0.031116854121503626 -0.0079868889858649567 0 -0.029651281367581338 -0.0043540165594822188 0 -0.030202837442141462 -0.0019581348005553857 0 -0.030701219962112832 -0.0027605925143004578 0 -0.029555175300899562 -0.0036788212914708632 0 -0.031535123792667805 -0.002747861898589183 0 -0.030701219962112832 -0.0027605925143004578 0 -0.031361885437106767 -0.0031731209144225925 0 -0.031535123792667805 -0.002747861898589183 0 -0.030510364376496679 -0.0025305944676292601 0 -0.030701219962112832 -0.0027605925143004578 0 -0.030701219962112832 -0.0027605925143004578 0 -0.030652250376744114 -0.0037083549356035387 0 -0.031361885437106767 -0.0031731209144225925 0 -0.030652250376744114 -0.0037083549356035387 0 -0.031361885437106767 -0.0031731209144225925 0 -0.031466054092263086 -0.0038402438989269929 0 -0.030701219962112832 -0.0027605925143004578 0 -0.030652250376744114 -0.0037083549356035387 0 -0.029555175300899562 -0.0036788212914708632 0 -0.030652250376744114 -0.0037083549356035387 0 -0.029555175300899562 -0.0036788212914708632 0 -0.03070681263637846 -0.0048223441445276738 0 -0.030652250376744114 -0.0037083549356035387 0 -0.03070681263637846 -0.0048223441445276738 0 -0.031466054092263086 -0.0038402438989269929 0 -0.029555175300899562 -0.0036788212914708632 0 -0.028599415507789758 -0.0055788431796061702 0 -0.026810924899775698 -0.0030845948889134866 0 -0.030202837442141462 -0.0019581348005553857 0 -0.029555175300899562 -0.0036788212914708632 0 -0.026810924899775698 -0.0030845948889134866 0 -0.028599415507789758 -0.0055788431796061702 0 -0.025946332203102326 -0.0060868284530947213 0 -0.027979101704583384 -0.0090611355625071829 0 -0.029555175300899562 -0.0036788212914708632 0 -0.028599415507789758 -0.0055788431796061702 0 -0.03070681263637846 -0.0048223441445276738 0 -0.03070681263637846 -0.0048223441445276738 0 -0.032083300637754407 -0.0048592794726156846 0 -0.031067455870577257 -0.0054679732564975455 0 -0.028599415507789758 -0.0055788431796061702 0 -0.03070681263637846 -0.0048223441445276738 0 -0.031067617109549705 -0.007373391407777226 0 -0.030785461588667851 -0.0050075442862682019 0 -0.03102789223441095 -0.0064465127283534936 0 -0.03070681263637846 -0.0048223441445276738 0 -0.032083300637754407 -0.0048592794726156846 0 -0.031466054092263086 -0.0038402438989269929 0 -0.032083300637754407 -0.0048592794726156846 0 -0.031842217413825077 -0.0054757506302614677 0 -0.031067455870577257 -0.0054679732564975455 0 -0.032083300637754407 -0.0048592794726156846 0 -0.033231109317057299 -0.0045257049384053857 0 -0.032480015429063071 -0.0058374652428418751 0 -0.03314544043989192 -0.0044146283075589517 0 -0.032528564209848711 -0.0058932509981022849 0 -0.032083300637754407 -0.0048592794726156846 0 -0.033231109317057299 -0.0045257049384053857 0 -0.03231399438152284 -0.0040723157133600368 0 -0.033646932084428559 -0.0031888952577432666 0 -0.033231109317057299 -0.0045257049384053857 0 -0.032854728505493307 -0.0036852254685383569 0 -0.033231109317057299 -0.0045257049384053857 0 -0.032854728505493307 -0.0036852254685383569 0 -0.03231399438152284 -0.0040723157133600368 0 -0.032909731668642084 -0.0030268677527058724 0 -0.032854728505493307 -0.0036852254685383569 0 -0.032138595090092321 -0.0033090306934262536 0 -0.032854728505493307 -0.0036852254685383569 0 -0.032138595090092321 -0.0033090306934262536 0 -0.03231399438152284 -0.0040723157133600368 0 -0.032138595090092321 -0.0033090306934262536 0 -0.031466054092263086 -0.0038402438989269929 0 -0.03231399438152284 -0.0040723157133600368 0 -0.032138595090092321 -0.0033090306934262536 0 -0.031361885437106767 -0.0031731209144225925 0 -0.031466054092263086 -0.0038402438989269929 0 -0.032083300637754407 -0.0048592794726156846 0 -0.031466054092263086 -0.0038402438989269929 0 -0.03231399438152284 -0.0040723157133600368 0 -0.018676933749133588 -0.0060933928831681094 0 -0.018471083438257971 -0.0069142365567997962 0 -0.017528892199618892 -0.0061275346272543487 0 -0.018460738421895096 -0.0050269227074843485 0 -0.018676933749133588 -0.0060933928831681094 0 -0.017528892199618892 -0.0061275346272543487 0 -0.018005737927999709 -0.0052247897596601192 0 -0.017258719825863827 -0.0060609330004608546 0 -0.019798546552614413 -0.0049001299108358274 0 -0.018460738421895096 -0.0050269227074843485 0 -0.01975261193209369 -0.0059429773731505533 0 -0.018460738421895096 -0.0050269227074843485 0 -0.018676933749133588 -0.0060933928831681094 0 -0.01975261193209369 -0.0059429773731505533 0 -0.018676933749133588 -0.0060933928831681094 0 -0.019502297761596007 -0.0068912608016604843 0 -0.018471083438257971 -0.0069142365567997962 0 -0.018676933749133588 -0.0060933928831681094 0 -0.01975261193209369 -0.0059429773731505533 0 -0.019502297761596007 -0.0068912608016604843 0 -0.01975261193209369 -0.0059429773731505533 0 -0.021278097574481191 -0.0070876727835252713 0 -0.019502297761596007 -0.0068912608016604843 0 -0.019798546552614413 -0.0049001299108358274 0 -0.01975261193209369 -0.0059429773731505533 0 -0.020751951729555653 -0.005528599150669479 0 -0.021679753766206067 -0.0051779841532661689 0 -0.021602743446936398 -0.0061401920324569165 0 -0.020751951729555653 -0.005528599150669479 0 -0.01975261193209369 -0.0059429773731505533 0 -0.020751951729555653 -0.005528599150669479 0 -0.021278097574481191 -0.0070876727835252713 0 -0.021602743446936398 -0.0061401920324569165 0 -0.020751951729555653 -0.005528599150669479 0 -0.021278097574481191 -0.0070876727835252713 0 -0.023278159757122274 -0.0048010380447507904 0 -0.021448783063392974 -0.0063394483773773483 0 -0.026810924899775698 -0.0030845948889134866 0 -0.025946332203102326 -0.0060868284530947213 0 -0.022774593915102715 -0.0048565751560956964 0 -0.028599415507789758 -0.0055788431796061702 0 -0.026810924899775698 -0.0030845948889134866 0 -0.025946332203102326 -0.0060868284530947213 0 -0.025946332203102326 -0.0060868284530947213 0 -0.022774593915102715 -0.0048565751560956964 0 -0.024425859215451692 -0.0083613467355596154 0 -0.022774593915102715 -0.0048565751560956964 0 -0.020596140129059526 -0.0074248553919380776 0 -0.024425859215451692 -0.0083613467355596154 0 -0.021278097574481191 -0.0070876727835252713 0 -0.019856842773182726 -0.0077747843043763521 0 -0.019502297761596007 -0.0068912608016604843 0 -0.019502297761596007 -0.0068912608016604843 0 -0.018781251085112086 -0.0074955617276529409 0 -0.018471083438257971 -0.0069142365567997962 0 -0.019856842773182726 -0.0077747843043763521 0 -0.019502297761596007 -0.0068912608016604843 0 -0.018781251085112086 -0.0074955617276529409 0 -0.019856842773182726 -0.0077747843043763521 0 -0.018781251085112086 -0.0074955617276529409 0 -0.018274419198064214 -0.008474463922743954 0 -0.021448783063392974 -0.0063394483773773483 0 -0.018625512954424359 -0.0077203745379940229 0 -0.022774593915102715 -0.0048565751560956964 0 -0.018993447334748472 -0.0069626856032587612 0 -0.020596140129059526 -0.0074248553919380776 0 -0.018781251085112086 -0.0074955617276529409 0 -0.018274419198064214 -0.008474463922743954 0 -0.017774441590849326 -0.0074529572489780939 0 -0.018274419198064214 -0.008474463922743954 0 -0.017774441590849326 -0.0074529572489780939 0 -0.017149086544419812 -0.00820239005987357 0 -0.017774441590849326 -0.0074529572489780939 0 -0.018471083438257971 -0.0069142365567997962 0 -0.017528892199618892 -0.0061275346272543487 0 -0.018781251085112086 -0.0074955617276529409 0 -0.017774441590849326 -0.0074529572489780939 0 -0.018471083438257971 -0.0069142365567997962 0 -0.018088663504104707 -0.0097760227878530975 0 -0.018398755090188627 -0.011395454320982776 0 -0.016508672393260742 -0.0094869449368649682 0 -0.016889709855736464 -0.009897296488133837 0 -0.016540710607952189 -0.0095582857651694813 0 -0.019076283264200425 -0.010627789415214259 0 -0.01904665614205741 -0.0095461605952702477 0 -0.018088663504104707 -0.0097760227878530975 0 -0.019076283264200425 -0.010627789415214259 0 -0.018088663504104707 -0.0097760227878530975 0 -0.018398755090188627 -0.011395454320982776 0 -0.01904665614205741 -0.0095461605952702477 0 -0.018088663504104707 -0.0097760227878530975 0 -0.018232618863152219 -0.0087380005692119962 0 -0.018088663504104707 -0.0097760227878530975 0 -0.017314006313556684 -0.0091758042514220959 0 -0.016508672393260742 -0.0094869449368649682 0 -0.018088663504104707 -0.0097760227878530975 0 -0.018232618863152219 -0.0087380005692119962 0 -0.017314006313556684 -0.0091758042514220959 0 -0.018625512954424359 -0.0077203745379940229 0 -0.016721086018139503 -0.0087843252541238565 0 -0.018274419198064214 -0.008474463922743954 0 -0.016547338240339458 -0.0088781041870146533 0 -0.017149086544419812 -0.00820239005987357 0 -0.018993447334748472 -0.0069626856032587612 0 -0.018232618863152219 -0.0087380005692119962 0 -0.016547338240339458 -0.0088781041870146533 0 -0.018993447334748472 -0.0069626856032587612 0 -0.018232618863152219 -0.0087380005692119962 0 -0.019399251035520582 -0.0083791814026813443 0 -0.01904665614205741 -0.0095461605952702477 0 -0.018232618863152219 -0.0087380005692119962 0 -0.019399251035520582 -0.0083791814026813443 0 -0.019399251035520582 -0.0083791814026813443 0 -0.020596140129059526 -0.0074248553919380776 0 -0.020222472679611209 -0.0090480335776732587 0 -0.018993447334748472 -0.0069626856032587612 0 -0.019399251035520582 -0.0083791814026813443 0 -0.020596140129059526 -0.0074248553919380776 0 -0.020596140129059526 -0.0074248553919380776 0 -0.020222472679611209 -0.0090480335776732587 0 -0.021434935320529109 -0.0084935991034387898 0 -0.020222472679611209 -0.0090480335776732587 0 -0.021961572822752625 -0.009643936938670411 0 -0.020173153024282565 -0.010761789724223064 0 -0.01904665614205741 -0.0095461605952702477 0 -0.020222472679611209 -0.0090480335776732587 0 -0.020173153024282565 -0.010761789724223064 0 -0.01904665614205741 -0.0095461605952702477 0 -0.019399251035520582 -0.0083791814026813443 0 -0.020222472679611209 -0.0090480335776732587 0 -0.019076283264200425 -0.010627789415214259 0 -0.01904665614205741 -0.0095461605952702477 0 -0.020173153024282565 -0.010761789724223064 0 -0.021961572822752625 -0.009643936938670411 0 -0.02292038343296806 -0.0079158900875446938 0 -0.023980980083479882 -0.010450763594507249 0 -0.020222472679611209 -0.0090480335776732587 0 -0.021961572822752625 -0.009643936938670411 0 -0.021434935320529109 -0.0084935991034387898 0 -0.020596140129059526 -0.0074248553919380776 0 -0.021434935320529109 -0.0084935991034387898 0 -0.02292038343296806 -0.0079158900875446938 0 -0.020835479809579508 -0.0074839977701022884 0 -0.023652441527660949 -0.0081115804323159436 0 -0.021961572822752625 -0.009643936938670411 0 -0.021434935320529109 -0.0084935991034387898 0 -0.02292038343296806 -0.0079158900875446938 0 -0.023652441527660949 -0.0081115804323159436 0 -0.02659584180261023 -0.0088692551988045817 0 -0.025946332203102326 -0.0060868284530947213 0 -0.024425859215451692 -0.0083613467355596154 0 -0.027979101704583384 -0.0090611355625071829 0 -0.02292038343296806 -0.0079158900875446938 0 -0.023980980083479882 -0.010450763594507249 0 -0.025493802564767448 -0.0084459770884149649 0 -0.023980980083479882 -0.010450763594507249 0 -0.024627128915970971 -0.012300202584359122 0 -0.022244017649188045 -0.012479224185652591 0 -0.024349230043341923 -0.0084908452115758266 0 -0.022017061404138172 -0.012841110029642118 0 -0.024627128915970971 -0.012300202584359122 0 -0.024209373934462895 -0.01415507678688748 0 -0.022244017649188045 -0.012479224185652591 0 -0.021216261350372145 -0.012886602770230897 0 -0.02142378259710298 -0.012013088181561882 0 -0.019836696965456504 -0.012657615710481058 0 -0.022638921312394342 -0.013076282848674382 0 -0.021216261350372145 -0.012886602770230897 0 -0.02142378259710298 -0.012013088181561882 0 -0.021961572822752625 -0.009643936938670411 0 -0.023980980083479882 -0.010450763594507249 0 -0.022244017649188045 -0.012479224185652591 0 -0.022017061404138172 -0.012841110029642118 0 -0.02015596324321834 -0.010683723685219092 0 -0.021961572822752625 -0.009643936938670411 0 -0.022244017649188045 -0.012479224185652591 0 -0.020173153024282565 -0.010761789724223064 0 -0.02142378259710298 -0.012013088181561882 0 -0.020173153024282565 -0.010761789724223064 0 -0.019659776497774301 -0.011665167616835314 0 -0.019659776497774301 -0.011665167616835314 0 -0.019836696965456504 -0.012657615710481058 0 -0.018398755090188627 -0.011395454320982776 0 -0.019076283264200425 -0.010627789415214259 0 -0.020173153024282565 -0.010761789724223064 0 -0.019659776497774301 -0.011665167616835314 0 -0.02142378259710298 -0.012013088181561882 0 -0.019659776497774301 -0.011665167616835314 0 -0.019836696965456504 -0.012657615710481058 0 -0.021216261350372145 -0.012886602770230897 0 -0.019836696965456504 -0.012657615710481058 0 -0.020911838847767494 -0.01379029065795661 0 -0.017865111494084727 -0.011134924784076962 0 -0.020308447635695306 -0.0053162034973047324 0 -0.01549921812764388 -0.0080201031944874338 0 -0.015351689293640568 -0.00793855286428451 0 -0.015482969396246828 -0.0087744440545012709 0 -0.01549921812764388 -0.0080201031944874338 0 -0.015351689293640568 -0.00793855286428451 0 -0.015422361908804348 -0.0085990370554224361 0 -0.015351689293640568 -0.00793855286428451 0 -0.015422361908804348 -0.0085990370554224361 0 -0.014058467896612874 -0.0086132749659400907 0 -0.015274475012573107 -0.0066329288853572178 0 -0.013014951564624979 -0.0065958304867521434 0 -0.015351689293640568 -0.00793855286428451 0 -0.015482969396246828 -0.0087744440545012709 0 -0.016367980777420521 -0.0090139084119347998 0 -0.017865111494084727 -0.011134924784076962 0 -0.016889709855736464 -0.009897296488133837 0 -0.019076283264200425 -0.010627789415214259 0 -0.019659776497774301 -0.011665167616835314 0 -0.018398755090188627 -0.011395454320982776 0 -0.032899399773049863 -0.0061241786536370283 0 -0.030696154430540044 -0.0076511325927906305 0 -0.033056164138901445 -0.0059395841329559764 0 -0.032869925503925299 -0.0062069583488202455 0 -0.032480535617148171 -0.005810122796246874 0 -0.032454194317607273 -0.0063889089824112474 0 -0.031834427551262152 -0.0059310704886220769 0 -0.031274368914217039 -0.006276190513104519 0 -0.033056164138901445 -0.0059395841329559764 0 -0.032869925503925299 -0.0062069583488202455 0 -0.033197593680808317 -0.0061833288541733433 0 -0.033508336337959729 -0.006141519775167169 0 -0.032454194317607273 -0.0063889089824112474 0 -0.033114544947500858 -0.0059806677637150437 0 -0.033508336337959729 -0.006141519775167169 0 -0.033056164138901445 -0.0059395841329559764 0 -0.033197593680808317 -0.0061833288541733433 0 -0.033331630859544312 -0.0061629182075923876 0 -0.032899399773049863 -0.0061241786536370283 0 -0.033508336337959729 -0.006141519775167169 0 -0.033197593680808317 -0.0061833288541733433 0 -0.033439345572297503 -0.0061952010208997368 0 -0.033508336337959729 -0.006141519775167169 0 -0.033518415188811747 -0.0059176094679379634 0 -0.033114544947500858 -0.0059806677637150437 0 -0.032454194317607273 -0.0063889089824112474 0 -0.033114544947500858 -0.0059806677637150437 0 -0.032480015429063071 -0.0058374652428418751 0 -0.033472382032189663 -0.0056034062098909952 0 -0.033296780684299261 -0.004844187788552036 0 -0.032480015429063071 -0.0058374652428418751 0 -0.033472382032189663 -0.0056034062098909952 0 -0.033114544947500858 -0.0059806677637150437 0 -0.032480015429063071 -0.0058374652428418751 0 -0.033518415188811747 -0.0059176094679379634 0 -0.033472382032189663 -0.0056034062098909952 0 -0.033114544947500858 -0.0059806677637150437 0 -0.032083300637754407 -0.0048592794726156846 0 -0.032480015429063071 -0.0058374652428418751 0 -0.031842217413825077 -0.0054757506302614677 0 -0.032454194317607273 -0.0063889089824112474 0 -0.032480015429063071 -0.0058374652428418751 0 -0.031834427551262152 -0.0059310704886220769 0 -0.032480015429063071 -0.0058374652428418751 0 -0.031834427551262152 -0.0059310704886220769 0 -0.031842217413825077 -0.0054757506302614677 0 -0.031834427551262152 -0.0059310704886220769 0 -0.031842217413825077 -0.0054757506302614677 0 -0.031067455870577257 -0.0054679732564975455 0 -0.02659584180261023 -0.0088692551988045817 0 -0.030696154430540044 -0.0076511325927906305 0 -0.031067617109549705 -0.007373391407777226 0 -0.027979101704583384 -0.0090611355625071829 0 -0.031383689447198784 -0.0097904416641446824 0 -0.03102789223441095 -0.0064465127283534936 0 -0.030696154430540044 -0.0076511325927906305 0 -0.031834427551262152 -0.0059310704886220769 0 -0.031067455870577257 -0.0054679732564975455 0 -0.031274368914217039 -0.006276190513104519 0 -0.028599415507789758 -0.0055788431796061702 0 -0.031067617109549705 -0.007373391407777226 0 -0.027979101704583384 -0.0090611355625071829 0 -0.025493802564767448 -0.0084459770884149649 0 -0.028045965339439302 -0.0090006919805660744 0 -0.026192650847821419 -0.011012591970010966 0 -0.023980980083479882 -0.010450763594507249 0 -0.025493802564767448 -0.0084459770884149649 0 -0.026192650847821419 -0.011012591970010966 0 -0.030696154430540044 -0.0076511325927906305 0 -0.03065105740530372 -0.0082959031721270005 0 -0.028045965339439302 -0.0090006919805660744 0 -0.028503930561888366 -0.012385449982032826 0 -0.026192650847821419 -0.011012591970010966 0 -0.028503930561888366 -0.012385449982032826 0 -0.026192650847821419 -0.011012591970010966 0 -0.02635766364128737 -0.013278605337683434 0 -0.023980980083479882 -0.010450763594507249 0 -0.024627128915970971 -0.012300202584359122 0 -0.026192650847821419 -0.011012591970010966 0 -0.024627128915970971 -0.012300202584359122 0 -0.026192650847821419 -0.011012591970010966 0 -0.02635766364128737 -0.013278605337683434 0 -0.024349230043341923 -0.0084908452115758266 0 -0.028007535045080724 -0.0096657978276509567 0 -0.024627128915970971 -0.012300202584359122 0 -0.024209373934462895 -0.01415507678688748 0 -0.02635766364128737 -0.013278605337683434 0 -0.029605580996097041 -0.005870691651401921 0 -0.031384194891551455 -0.0066375356172757643 0 -0.030642036680773036 -0.0071811692773088584 0 -0.031177374975315298 -0.0052509792918148494 0 -0.029605580996097041 -0.005870691651401921 0 -0.031384194891551455 -0.0066375356172757643 0 -0.03065105740530372 -0.0082959031721270005 0 -0.028007535045080724 -0.0096657978276509567 0 -0.03267735739781194 -0.0064476776222164803 0 -0.033088492744887177 -0.0086071080013452716 0 -0.031783024836218011 -0.0065158743217351798 0 -0.031815812922727331 -0.0072621859509752621 0 -0.032166938266506281 -0.0068670290529724851 0 -0.032166938266506281 -0.0068670290529724851 0 -0.032753875558329607 -0.0067344579127892141 0 -0.032209358123507385 -0.0078221173314928748 0 -0.03065105740530372 -0.0082959031721270005 0 -0.031516148488180414 -0.0066177200557919792 0 -0.032166938266506281 -0.0068670290529724851 0 -0.032624717768942935 -0.0062282410130089921 0 -0.032753875558329607 -0.0067344579127892141 0 -0.031783024836218011 -0.0065158743217351798 0 -0.032166938266506281 -0.0068670290529724851 0 -0.032624717768942935 -0.0062282410130089921 0 -0.032869925503925299 -0.0062069583488202455 0 -0.032480535617148171 -0.005810122796246874 0 -0.032595375495354531 -0.006677308305844596 0 -0.03065105740530372 -0.0082959031721270005 0 -0.03315580528884228 -0.006259610936859502 0 -0.032869925503925299 -0.0062069583488202455 0 -0.033197593680808317 -0.0061833288541733433 0 -0.033058377910468124 -0.0064676711253249157 0 -0.032869925503925299 -0.0062069583488202455 0 -0.032595375495354531 -0.006677308305844596 0 -0.033058377910468124 -0.0064676711253249157 0 -0.033197593680808317 -0.0061833288541733433 0 -0.033058377910468124 -0.0064676711253249157 0 -0.033439345572297503 -0.0061952010208997368 0 -0.03315580528884228 -0.006259610936859502 0 -0.033226938408166012 -0.0062504035843424172 0 -0.032624717768942935 -0.0062282410130089921 0 -0.033439345572297503 -0.0061952010208997368 0 -0.033195539683679907 -0.0064955538197894094 0 -0.032624717768942935 -0.0062282410130089921 0 -0.033195539683679907 -0.0064955538197894094 0 -0.032753875558329607 -0.0067344579127892141 0 -0.033658330106325574 -0.0063928375672632591 0 -0.033439345572297503 -0.0061952010208997368 0 -0.033195539683679907 -0.0064955538197894094 0 -0.033592579894920094 -0.0068254900711287054 0 -0.033195539683679907 -0.0064955538197894094 0 -0.033161879285959581 -0.0069320758064991229 0 -0.033658330106325574 -0.0063928375672632591 0 -0.033592579894920094 -0.0068254900711287054 0 -0.033195539683679907 -0.0064955538197894094 0 -0.033195539683679907 -0.0064955538197894094 0 -0.032753875558329607 -0.0067344579127892141 0 -0.033161879285959581 -0.0069320758064991229 0 -0.032753875558329607 -0.0067344579127892141 0 -0.033161879285959581 -0.0069320758064991229 0 -0.032954539945408652 -0.0073281253190029955 0 -0.033316980908472585 -0.007246207932778503 0 -0.033161879285959581 -0.0069320758064991229 0 -0.032954539945408652 -0.0073281253190029955 0 -0.033592579894920094 -0.0068254900711287054 0 -0.033316980908472585 -0.007246207932778503 0 -0.033161879285959581 -0.0069320758064991229 0 -0.033316980908472585 -0.007246207932778503 0 -0.033226024421197917 -0.0076124782006557938 0 -0.033828282893565854 -0.0074499116376202735 0 -0.033316980908472585 -0.007246207932778503 0 -0.032954539945408652 -0.0073281253190029955 0 -0.033226024421197917 -0.0076124782006557938 0 -0.032753875558329607 -0.0067344579127892141 0 -0.032954539945408652 -0.0073281253190029955 0 -0.032942635783232567 -0.0078280236220208167 0 -0.032954539945408652 -0.0073281253190029955 0 -0.032899626259867643 -0.0076459265108206375 0 -0.032942635783232567 -0.0078280236220208167 0 -0.032954539945408652 -0.0073281253190029955 0 -0.032899626259867643 -0.0076459265108206375 0 -0.033226024421197917 -0.0076124782006557938 0 -0.032899626259867643 -0.0076459265108206375 0 -0.032704566426750598 -0.0077639022645421898 0 -0.033226024421197917 -0.0076124782006557938 0 -0.032899626259867643 -0.0076459265108206375 0 -0.032704566426750598 -0.0077639022645421898 0 -0.032942635783232567 -0.0078280236220208167 0 -0.033226024421197917 -0.0076124782006557938 0 -0.033414516600075168 -0.0080705759199371646 0 -0.033706175041691787 -0.0080039726676350859 0 -0.032704566426750598 -0.0077639022645421898 0 -0.033226024421197917 -0.0076124782006557938 0 -0.033414516600075168 -0.0080705759199371646 0 -0.032704566426750598 -0.0077639022645421898 0 -0.033414516600075168 -0.0080705759199371646 0 -0.034042100409226103 -0.0090242135094029154 0 -0.032893151657155159 -0.0078176301135645387 0 -0.031876624262155775 -0.0078701290913160086 0 -0.032704566426750598 -0.0077639022645421898 0 -0.032024185267948362 -0.0065474251694318227 0 -0.03254734201906747 -0.0062192716118797467 0 -0.032704566426750598 -0.0077639022645421898 0 -0.032024185267948362 -0.0065474251694318227 0 -0.030818681023093198 -0.0065270590523556016 0 -0.032704566426750598 -0.0077639022645421898 0 -0.032942635783232567 -0.0078280236220208167 0 -0.033516889052709914 -0.0058811878131404521 0 -0.032704566426750598 -0.0077639022645421898 0 -0.03254734201906747 -0.0062192716118797467 0 -0.033516889052709914 -0.0058811878131404521 0 -0.031614408274451201 -0.0080472908394957389 0 -0.032209358123507385 -0.0078221173314928748 0 -0.031818694683340761 -0.0096065824442130264 0 -0.033088492744887177 -0.0086071080013452716 0 -0.027504609083307843 -0.003382257758281334 0 -0.031815812922727331 -0.0072621859509752621 0 -0.032166938266506281 -0.0068670290529724851 0 -0.032209358123507385 -0.0078221173314928748 0 -0.031516148488180414 -0.0066177200557919792 0 -0.031660686141324695 -0.008050652885635879 0 -0.031815812922727331 -0.0072621859509752621 0 -0.031614408274451201 -0.0080472908394957389 0 -0.032209358123507385 -0.0078221173314928748 0 -0.031384194891551455 -0.0066375356172757643 0 -0.031614408274451201 -0.0080472908394957389 0 -0.030642036680773036 -0.0071811692773088584 0 -0.029605580996097041 -0.005870691651401921 0 -0.030642036680773036 -0.0071811692773088584 0 -0.029973242257101601 -0.0081781962022844969 0 -0.031614408274451201 -0.0080472908394957389 0 -0.030642036680773036 -0.0071811692773088584 0 -0.029973242257101601 -0.0081781962022844969 0 -0.027973559479545194 -0.0065175317015471563 0 -0.029605580996097041 -0.005870691651401921 0 -0.029973242257101601 -0.0081781962022844969 0 -0.022747811822688164 -0.0007547242947427761 0 -0.021087183928223792 0.000848707508296716 0 -0.02264679743023781 0.0010577512824013833 0 -0.024349230043341923 -0.0084908452115758266 0 -0.025200624902200455 -0.0027702678778569463 0 -0.01854444122142207 0.0037015044628908706 0 -0.017995895603953212 0.003270258132137353 0 -0.017411354776827464 0.0041517180840337873 0 -0.019744140656249885 0.0028161083334878249 0 -0.020369490363955977 0.0026171422472415105 0 -0.021087183928223792 0.000848707508296716 0 -0.021135439430808756 0.0018920407179092945 0 -0.02264679743023781 0.0010577512824013833 0 -0.021087183928223792 0.000848707508296716 0 -0.019529464664974624 0.0029453416198749497 0 -0.019613376210843497 0.0029222106307330905 0 -0.025200624902200455 -0.0027702678778569463 0 -0.027504609083307843 -0.003382257758281334 0 -0.031614408274451201 -0.0080472908394957389 0 -0.029973242257101601 -0.0081781962022844969 0 -0.031818694683340761 -0.0096065824442130264 0 -0.021087183928223792 0.000848707508296716 0 -0.021135439430808756 0.0018920407179092945 0 -0.019613376210843497 0.0029222106307330905 0 -0.01854444122142207 0.0037015044628908706 0 -0.019015186374402665 0.0030282356420841946 0 -0.019613376210843497 0.0029222106307330905 0 -0.019744140656249885 0.0028161083334878249 0 -0.01961249258214438 0.0029174265589037465 0 -0.01854444122142207 0.0037015044628908706 0 -0.018580470174214946 0.0031048725025364914 0 -0.019015186374402665 0.0030282356420841946 0 -0.018580470174214946 0.0031048725025364914 0 -0.01893510185978348 0.0027160748609197987 0 -0.019015186374402665 0.0030282356420841946 0 -0.018580470174214946 0.0031048725025364914 0 -0.01893510185978348 0.0027160748609197987 0 -0.018102533417720834 0.0025016458946101636 0 -0.01893510185978348 0.0027160748609197987 0 -0.019015186374402665 0.0030282356420841946 0 -0.019358805971977852 0.0027382589286403711 0 -0.01893510185978348 0.0027160748609197987 0 -0.019358805971977852 0.0027382589286403711 0 -0.01921303557075401 0.002477442547627013 0 -0.019015186374402665 0.0030282356420841946 0 -0.019358805971977852 0.0027382589286403711 0 -0.019613376210843497 0.0029222106307330905 0 -0.01854444122142207 0.0037015044628908706 0 -0.018580470174214946 0.0031048725025364914 0 -0.017995895603953212 0.003270258132137353 0 -0.018580470174214946 0.0031048725025364914 0 -0.017995895603953212 0.003270258132137353 0 -0.018102533417720834 0.0025016458946101636 0 -0.017995895603953212 0.003270258132137353 0 -0.018102533417720834 0.0025016458946101636 0 -0.017287931264605171 0.0035354784000166677 0 -0.016937500390915194 0.0035410796284770208 0 -0.016974641464806272 0.0035001943910736863 0 -0.016935467451490514 0.0034933262496648215 0 -0.018102533417720834 0.0025016458946101636 0 -0.019037866965379315 0.0023552167592270599 0 -0.019362394381132391 0.0019339540703722301 0 -0.01893510185978348 0.0027160748609197987 0 -0.018102533417720834 0.0025016458946101636 0 -0.019037866965379315 0.0023552167592270599 0 -0.017166376773962159 0.0030455223868154162 0 -0.020137666178006358 0.0033669236845407929 0 -0.016937500390915194 0.0035410796284770208 0 -0.017064370264658509 0.003513695394602093 0 -0.016974641464806272 0.0035001943910736863 0 -0.019358805971977852 0.0027382589286403711 0 -0.01921303557075401 0.002477442547627013 0 -0.019504933807252826 0.0021183215863471525 0 -0.019037866965379315 0.0023552167592270599 0 -0.01921303557075401 0.002477442547627013 0 -0.019504933807252826 0.0021183215863471525 0 -0.01893510185978348 0.0027160748609197987 0 -0.019037866965379315 0.0023552167592270599 0 -0.01921303557075401 0.002477442547627013 0 -0.019037866965379315 0.0023552167592270599 0 -0.019362394381132391 0.0019339540703722301 0 -0.019504933807252826 0.0021183215863471525 0 -0.026623653002081152 4.49475341481235e-05 0 -0.026198856606317374 -0.0021424698362913553 0 -0.025324791830685155 -0.0013578753774728283 0 -0.020137666178006358 0.0033669236845407929 0 -0.022024838621373395 0.0033552801570760184 0 -0.02260177936856066 0.0025150124985840435 0 -0.022024838621373395 0.0033552801570760184 0 -0.02260177936856066 0.0025150124985840435 0 -0.027504609083307843 -0.003382257758281334 0 -0.022847586702746295 0.0034432236919082425 0 -0.021954164053075501 0.0025127772604633084 0 -0.022215631031839433 0.0037563314434684017 0 -0.025599723348973785 0.0017453208490546131 0 -0.025476604062820731 0.0017588935190817575 0 -0.025604248829432835 0.0017890273073282847 0 -0.020137666178006358 0.0033669236845407929 0 -0.02260177936856066 0.0025150124985840435 0 -0.02260177936856066 0.0025150124985840435 0 -0.029179406456383391 -0.0028447673174185131 0 -0.025599723348973785 0.0017453208490546131 0 -0.025476604062820731 0.0017588935190817575 0 -0.025486825062373337 0.0015747373822185317 0 -0.032124733820542692 -0.0049397086689699334 0 -0.031676392100208436 -0.005032911415451505 0 -0.031162473867396734 -0.0034978574005547587 0 -0.029179406456383391 -0.0028447673174185131 0 -0.026581786986560003 0.0027847688325495952 0 -0.025476604062820731 0.0017588935190817575 0 -0.025486825062373337 0.0015747373822185317 0 -0.025273952828831041 0.0017852302912065151 0 -0.032124733820542692 -0.0049397086689699334 0 -0.032885462214055618 -0.0051531588216361746 0 -0.031162473867396734 -0.0034978574005547587 0 -0.032124733820542692 -0.0049397086689699334 0 -0.032670809808477752 -0.0053772109713950828 0 -0.032885462214055618 -0.0051531588216361746 0 -0.029646857934706641 -0.0029733363123553174 0 -0.029179406456383391 -0.0028447673174185131 0 -0.032124733820542692 -0.0049397086689699334 0 -0.032219950697720996 -0.0056116480012468545 0 -0.032670809808477752 -0.0053772109713950828 0 -0.032124733820542692 -0.0049397086689699334 0 -0.032219950697720996 -0.0056116480012468545 0 -0.031676392100208436 -0.005032911415451505 0 -0.032219950697720996 -0.0056116480012468545 0 -0.031676392100208436 -0.005032911415451505 0 -0.031828555586804044 -0.0057167575753591547 0 -0.031676392100208436 -0.005032911415451505 0 -0.031828555586804044 -0.0057167575753591547 0 -0.031413190735470643 -0.0053586193227879728 0 -0.031828555586804044 -0.0057167575753591547 0 -0.032047673690580196 -0.0060890884877308838 0 -0.031542659664906755 -0.0061631783814834716 0 -0.032219950697720996 -0.0056116480012468545 0 -0.031828555586804044 -0.0057167575753591547 0 -0.032047673690580196 -0.0060890884877308838 0 -0.032024185267948362 -0.0065474251694318227 0 -0.032047673690580196 -0.0060890884877308838 0 -0.031542659664906755 -0.0061631783814834716 0 -0.032219950697720996 -0.0056116480012468545 0 -0.032670809808477752 -0.0053772109713950828 0 -0.03254734201906747 -0.0062192716118797467 0 -0.032219950697720996 -0.0056116480012468545 0 -0.032047673690580196 -0.0060890884877308838 0 -0.03254734201906747 -0.0062192716118797467 0 -0.032024185267948362 -0.0065474251694318227 0 -0.032047673690580196 -0.0060890884877308838 0 -0.03254734201906747 -0.0062192716118797467 0 -0.032670809808477752 -0.0053772109713950828 0 -0.03254734201906747 -0.0062192716118797467 0 -0.033516889052709914 -0.0058811878131404521 0 -0.019358805971977852 0.0027382589286403711 0 -0.019504933807252826 0.0021183215863471525 0 -0.019529464664974624 0.0029453416198749497 0 -0.019358805971977852 0.0027382589286403711 0 -0.019529464664974624 0.0029453416198749497 0 -0.019613376210843497 0.0029222106307330905 0 -0.032670809808477752 -0.0053772109713950828 0 -0.033516889052709914 -0.0058811878131404521 0 -0.032844669364186084 -0.0051897993468830225 0 -0.027504609083307843 -0.003382257758281334 0 -0.029179406456383391 -0.0028447673174185131 0 -0.015039860683901271 -0.001250552885560039 0 -0.01419890001738879 -0.0019521791990621778 0 -0.016449070123678532 0.0037471340650798092 0 -0.01651650456759543 0.0039156357369805692 0 -0.016251513251855421 0.0038043703544324448 0 -0.015039860683901271 -0.001250552885560039 0 -0.013014951564624979 -0.0065958304867521434 0 -0.014884057196806534 -0.0045578174313959602 0 -0.015174199564712536 -0.0049027322066518501 0 -0.01426851823290988 -0.0043550925050439724 0 -0.012326867595456979 -0.0066310721917768531 0 -0.011396032712568281 -0.0070354423826577729 0 -0.011381751323477896 -0.0060883705645948501 0 -0.014884057196806534 -0.0045578174313959602 0 -0.015174199564712536 -0.0049027322066518501 0 -0.015498423789031992 -0.004765347032670438 0 -0.016199846554376958 0.0040294774332242655 0 -0.016425558254703293 0.0041341069092979757 0 -0.016654890733860166 0.0040747067768559858 0 -0.01549921812764388 -0.0080201031944874338 0 -0.016040325161363837 -0.008824606672297914 0 -0.016252750879051339 -0.0087366135914401077 0 -0.01549921812764388 -0.0080201031944874338 0 -0.015422361908804348 -0.0085990370554224361 0 -0.016040325161363837 -0.008824606672297914 0 -0.015274475012573107 -0.0066329288853572178 0 -0.017119058907217329 -0.0033454837869180388 0 -0.015039860683901271 -0.001250552885560039 0 -0.017119058907217329 -0.0033454837869180388 0 -0.016449070123678532 0.0037471340650798092 0 -0.01651650456759543 0.0039156357369805692 0 -0.016652915400086385 0.0037258050019445743 0 -0.015039860683901271 -0.001250552885560039 0 -0.017026487657563288 0.0053436594396249351 0 -0.016652915400086385 0.0037258050019445743 0 -0.01691776514858629 0.0036553786291298922 0 -0.016794613102536764 0.0036091133388523621 0 -0.016199846554376958 0.0040294774332242655 0 -0.01691776514858629 0.0036553786291298922 0 -0.016654890733860166 0.0040747067768559858 0 -0.01651650456759543 0.0039156357369805692 0 -0.016652915400086385 0.0037258050019445743 0 -0.01691776514858629 0.0036553786291298922 0 -0.024349230043341923 -0.0084908452115758266 0 -0.020308447635695306 -0.0053162034973047324 0 -0.019522331977834765 -0.0019237399631610169 0 -0.018502059214926054 -0.0014826666837522758 0 -0.019014120294187392 -0.0021297209123039423 0 -0.017119058907217329 -0.0033454837869180388 0 -0.018206826721431309 0.0011717344972529231 0 -0.022638921312394342 -0.013076282848674382 0 -0.021216261350372145 -0.012886602770230897 0 -0.020911838847767494 -0.01379029065795661 0 -0.022747811822688164 -0.0007547242947427761 0 -0.024092278380126939 0.00035910171236800466 0 -0.024393033240279107 -3.8817763573829021e-05 0 -0.018206826721431309 0.0011717344972529231 0 -0.020308447635695306 -0.0053162034973047324 0 -0.017119058907217329 -0.0033454837869180388 0 -0.020308447635695306 -0.0053162034973047324 0 -0.022747811822688164 -0.0007547242947427761 0 -0.024092278380126939 0.00035910171236800466 0 -0.02264679743023781 0.0010577512824013833 0 -0.018206826721431309 0.0011717344972529231 0 -0.016490919515577213 0.0048208444012031492 0 -0.018206826721431309 0.0011717344972529231 0 -0.020369490363955977 0.0026171422472415105 0 -0.016633233860564686 0.0044485641890105549 0 -0.017411354776827464 0.0041517180840337873 0 -0.017287931264605171 0.0035354784000166677 0 -0.01691776514858629 0.0036553786291298922 0 -0.016654890733860166 0.0040747067768559858 0 -0.017287931264605171 0.0035354784000166677 0 -0.018102533417720834 0.0025016458946101636 0 -0.017287931264605171 0.0035354784000166677 0 -0.016892066951259301 0.0034550219543152921 0 -0.017166376773962159 0.0030455223868154162 0 -0.017081747564013781 0.0033687391352064159 0 -0.017995895603953212 0.003270258132137353 0 -0.017411354776827464 0.0041517180840337873 0 -0.017287931264605171 0.0035354784000166677 0 -0.01691776514858629 0.0036553786291298922 0 -0.017287931264605171 0.0035354784000166677 0 -0.016892066951259301 0.0034550219543152921 0 -0.016937500390915194 0.0035410796284770208 0 -0.016878881529521945 0.0035222969020605303 0 -0.016935467451490514 0.0034933262496648215 0 -0.016937500390915194 0.0035410796284770208 0 -0.016892066951259301 0.0034550219543152921 0 -0.016878881529521945 0.0035222969020605303 0 -0.016892066951259301 0.0034550219543152921 0 -0.016878881529521945 0.0035222969020605303 0 -0.016811907086790975 0.0035176825969667346 0 -0.016878881529521945 0.0035222969020605303 0 -0.016811907086790975 0.0035176825969667346 0 -0.01678124798920512 0.0035213010682799088 0 -0.01678124798920512 0.0035213010682799088 0 -0.016680656070786611 0.0035449922519882977 0 -0.016628859452370182 0.0035208444948418936 0 -0.016811907086790975 0.0035176825969667346 0 -0.01678124798920512 0.0035213010682799088 0 -0.016680656070786611 0.0035449922519882977 0 -0.016811907086790975 0.0035176825969667346 0 -0.016680656070786611 0.0035449922519882977 0 -0.016723801459762079 0.0035842030718133033 0 -0.016892066951259301 0.0034550219543152921 0 -0.016811907086790975 0.0035176825969667346 0 -0.016723801459762079 0.0035842030718133033 0 -0.016892066951259301 0.0034550219543152921 0 -0.016723801459762079 0.0035842030718133033 0 -0.016794613102536764 0.0036091133388523621 0 -0.01691776514858629 0.0036553786291298922 0 -0.016892066951259301 0.0034550219543152921 0 -0.016794613102536764 0.0036091133388523621 0 -0.016652915400086385 0.0037258050019445743 0 -0.016723801459762079 0.0035842030718133033 0 -0.016794613102536764 0.0036091133388523621 0 -0.016652915400086385 0.0037258050019445743 0 -0.016723801459762079 0.0035842030718133033 0 -0.016553867665625891 0.0036205648237014809 0 -0.016449070123678532 0.0037471340650798092 0 -0.016652915400086385 0.0037258050019445743 0 -0.016553867665625891 0.0036205648237014809 0 -0.016680656070786611 0.0035449922519882977 0 -0.016723801459762079 0.0035842030718133033 0 -0.016553867665625891 0.0036205648237014809 0 -0.016680656070786611 0.0035449922519882977 0 -0.016553867665625891 0.0036205648237014809 0 -0.016489224683168706 0.0035511492616317419 0 -0.016680656070786611 0.0035449922519882977 0 -0.016489224683168706 0.0035511492616317419 0 -0.016628859452370182 0.0035208444948418936 0 -0.016553867665625891 0.0036205648237014809 0 -0.016489224683168706 0.0035511492616317419 0 -0.016313706450342809 0.0036451521654295473 0 -0.016489224683168706 0.0035511492616317419 0 -0.016313706450342809 0.0036451521654295473 0 -0.016335254044375056 0.0035378511730635343 0 -0.016449070123678532 0.0037471340650798092 0 -0.016553867665625891 0.0036205648237014809 0 -0.016313706450342809 0.0036451521654295473 0 -0.016449070123678532 0.0037471340650798092 0 -0.016313706450342809 0.0036451521654295473 0 -0.016251513251855421 0.0038043703544324448 0 -0.016461593570887115 0.0034721024413837385 0 -0.016395479623465568 0.0033180539791866142 0 -0.016250172194831509 0.0034502915907329706 0 -0.016489224683168706 0.0035511492616317419 0 -0.016335254044375056 0.0035378511730635343 0 -0.016461593570887115 0.0034721024413837385 0 -0.016335254044375056 0.0035378511730635343 0 -0.016461593570887115 0.0034721024413837385 0 -0.016250172194831509 0.0034502915907329706 0 -0.016489224683168706 0.0035511492616317419 0 -0.016461593570887115 0.0034721024413837385 0 -0.016628859452370182 0.0035208444948418936 0 -0.016461593570887115 0.0034721024413837385 0 -0.016628859452370182 0.0035208444948418936 0 -0.016618643606498774 0.0034791845646042633 0 -0.016461593570887115 0.0034721024413837385 0 -0.016530392985183287 0.0034086999913595464 0 -0.016395479623465568 0.0033180539791866142 0 -0.016618643606498774 0.0034791845646042633 0 -0.016530392985183287 0.0034086999913595464 0 -0.016706978842537162 0.00346398885635339 0 -0.016461593570887115 0.0034721024413837385 0 -0.016618643606498774 0.0034791845646042633 0 -0.016530392985183287 0.0034086999913595464 0 -0.016530392985183287 0.0034086999913595464 0 -0.016737408770835106 0.0034135068009994189 0 -0.016554963492691012 0.0033426907935993318 0 -0.016530392985183287 0.0034086999913595464 0 -0.016737408770835106 0.0034135068009994189 0 -0.016706978842537162 0.00346398885635339 0 -0.016737408770835106 0.0034135068009994189 0 -0.016840396196047967 0.0034732628904817217 0 -0.016939124484849463 0.0034413535297310493 0 -0.016737408770835106 0.0034135068009994189 0 -0.016840396196047967 0.0034732628904817217 0 -0.016706978842537162 0.00346398885635339 0 -0.016840396196047967 0.0034732628904817217 0 -0.016706978842537162 0.00346398885635339 0 -0.01676214758846379 0.0034996985294706625 0 -0.016618643606498774 0.0034791845646042633 0 -0.016706978842537162 0.00346398885635339 0 -0.01676214758846379 0.0034996985294706625 0 -0.016628859452370182 0.0035208444948418936 0 -0.016618643606498774 0.0034791845646042633 0 -0.01676214758846379 0.0034996985294706625 0 -0.01678124798920512 0.0035213010682799088 0 -0.016628859452370182 0.0035208444948418936 0 -0.01676214758846379 0.0034996985294706625 0 -0.01678124798920512 0.0035213010682799088 0 -0.01676214758846379 0.0034996985294706625 0 -0.016867159818900648 0.0035003506953530062 0 -0.016840396196047967 0.0034732628904817217 0 -0.01676214758846379 0.0034996985294706625 0 -0.016867159818900648 0.0035003506953530062 0 -0.016878881529521945 0.0035222969020605303 0 -0.01678124798920512 0.0035213010682799088 0 -0.016867159818900648 0.0035003506953530062 0 -0.016878881529521945 0.0035222969020605303 0 -0.016867159818900648 0.0035003506953530062 0 -0.016935467451490514 0.0034933262496648215 0 -0.016867159818900648 0.0035003506953530062 0 -0.016962660982635238 0.0034624546142810893 0 -0.016935467451490514 0.0034933262496648215 0 -0.016962660982635238 0.0034624546142810893 0 -0.017152628404621451 0.0034033437109580052 0 -0.016970964912157892 0.0034613492819390457 0 -0.016962660982635238 0.0034624546142810893 0 -0.016939124484849463 0.0034413535297310493 0 -0.017152628404621451 0.0034033437109580052 0 -0.016840396196047967 0.0034732628904817217 0 -0.016867159818900648 0.0035003506953530062 0 -0.016962660982635238 0.0034624546142810893 0 -0.016840396196047967 0.0034732628904817217 0 -0.016962660982635238 0.0034624546142810893 0 -0.016939124484849463 0.0034413535297310493 0 -0.017152628404621451 0.0034033437109580052 0 -0.016535884213890989 0.0028497429749618133 0 -0.017278660253036527 0.0019532477918092228 0 -0.017152628404621451 0.0034033437109580052 0 -0.017945916682772498 0.0027038831899430702 0 -0.017278660253036527 0.0019532477918092228 0 -0.013911422857402515 0.012529364172877356 0 -0.015017816222974932 0.01113313082013313 0 -0.017152628404621451 0.0034033437109580052 0 -0.016535884213890989 0.0028497429749618133 0 -0.016586155619376874 0.0032206961590085345 0 -0.016737408770835106 0.0034135068009994189 0 -0.017152628404621451 0.0034033437109580052 0 -0.016586155619376874 0.0032206961590085345 0 -0.016737408770835106 0.0034135068009994189 0 -0.016939124484849463 0.0034413535297310493 0 -0.017152628404621451 0.0034033437109580052 0 -0.016737408770835106 0.0034135068009994189 0 -0.016586155619376874 0.0032206961590085345 0 -0.016554963492691012 0.0033426907935993318 0 -0.016586155619376874 0.0032206961590085345 0 -0.016424269803280572 0.0033277550295625919 0 -0.016354201589954202 0.0033169907100485557 0 -0.016535884213890989 0.0028497429749618133 0 -0.016586155619376874 0.0032206961590085345 0 -0.016354201589954202 0.0033169907100485557 0 -0.013911422857402515 0.012529364172877356 0 -0.014098772598789352 0.0097965078140094791 0 -0.016530392985183287 0.0034086999913595464 0 -0.016554963492691012 0.0033426907935993318 0 -0.016424269803280572 0.0033277550295625919 0 -0.016586155619376874 0.0032206961590085345 0 -0.016554963492691012 0.0033426907935993318 0 -0.016424269803280572 0.0033277550295625919 0 -0.016530392985183287 0.0034086999913595464 0 -0.016424269803280572 0.0033277550295625919 0 -0.016395479623465568 0.0033180539791866142 0 -0.01409205107028305 0.0086286937439933719 0 -0.014098772598789352 0.0097965078140094791 0 -0.011708814255471664 0.021391361285656128 0 -0.011358527961812656 0.021226129134269904 0 -0.01166022321478042 0.021072712188824783 0 -0.011708814255471664 0.021391361285656128 0 -0.011358527961812656 0.021226129134269904 0 -0.011259209071576005 0.021385339028685717 0 -0.011708814255471664 0.021391361285656128 0 -0.011273201491778405 0.02156334071955112 0 -0.011259209071576005 0.021385339028685717 0 -0.011358527961812656 0.021226129134269904 0 -0.011259209071576005 0.021385339028685717 0 -0.011186070441690121 0.021272371307374582 0 -0.011259209071576005 0.021385339028685717 0 -0.011040498383512896 0.021342904043561244 0 -0.011005596228002268 0.021445479053653172 0 -0.011259209071576005 0.021385339028685717 0 -0.011040498383512896 0.021342904043561244 0 -0.011186070441690121 0.021272371307374582 0 -0.011358527961812656 0.021226129134269904 0 -0.011186070441690121 0.021272371307374582 0 -0.011081662713437437 0.021131811208248984 0 -0.011040498383512896 0.021342904043561244 0 -0.011186070441690121 0.021272371307374582 0 -0.011081662713437437 0.021131811208248984 0 -0.011040498383512896 0.021342904043561244 0 -0.010880114511142455 0.021205533563541608 0 -0.011081662713437437 0.021131811208248984 0 -0.011040498383512896 0.021342904043561244 0 -0.010880114511142455 0.021205533563541608 0 -0.01097112805777764 0.021471920612974298 0 -0.0094226219252692821 0.019869971788777811 0 -0.0094787964132796703 0.017441919200224826 0 -0.010593732262427076 0.012237980135006939 0 -0.011143522439499374 0.012584539263310891 0 -0.011569551341131894 0.011447252630493088 0 -0.014098772598789352 0.0097965078140094791 0 -0.010172417915284416 0.0097874536281996518 0 -0.0094787964132796703 0.017441919200224826 0 -0.010172417915284416 0.0097874536281996518 0 -0.011273201491778405 0.02156334071955112 0 -0.011259209071576005 0.021385339028685717 0 -0.011005596228002268 0.021445479053653172 0 -0.014098772598789352 0.0097965078140094791 0 -0.0094787964132796703 0.017441919200224826 0 -0.020954776263827378 0.0055010743073340565 0 -0.019874920748573881 0.0047856073490470828 0 -0.021261072768251239 0.0044568005538827846 0 -0.021895015969322577 0.0037955311100426755 0 -0.021681358355371404 0.0044064493188553169 0 -0.021471112962614957 0.003495573911596567 0 -0.021426524844268258 0.0046082387140158106 0 -0.020032339691106741 0.0043354786569795413 0 -0.020954776263827378 0.0055010743073340565 0 -0.022034893735981272 0.0050254099946358335 0 -0.021261072768251239 0.0044568005538827846 0 -0.022034893735981272 0.0050254099946358335 0 -0.021261072768251239 0.0044568005538827846 0 -0.021987373886286684 0.0044034145615983126 0 -0.022034893735981272 0.0050254099946358335 0 -0.022693260514441704 0.0044341582660018227 0 -0.021987373886286684 0.0044034145615983126 0 -0.022034893735981272 0.0050254099946358335 0 -0.022693260514441704 0.0044341582660018227 0 -0.023114826163763473 0.0052039350180014743 0 -0.022034893735981272 0.0050254099946358335 0 -0.022578114576065469 0.0056214022461594645 0 -0.023114826163763473 0.0052039350180014743 0 -0.022578114576065469 0.0056214022461594645 0 -0.022034928152347338 0.0057272329522072441 0 -0.022390339970806604 0.0058928657083047913 0 -0.022034893735981272 0.0050254099946358335 0 -0.022578114576065469 0.0056214022461594645 0 -0.022034928152347338 0.0057272329522072441 0 -0.020954776263827378 0.0055010743073340565 0 -0.022034893735981272 0.0050254099946358335 0 -0.022034928152347338 0.0057272329522072441 0 -0.020954776263827378 0.0055010743073340565 0 -0.022034928152347338 0.0057272329522072441 0 -0.02204086701020757 0.0062111088071342699 0 -0.025476604062820731 0.0017588935190817575 0 -0.025407981560912091 0.0018980740085370945 0 -0.025273952828831041 0.0017852302912065151 0 -0.022034928152347338 0.0057272329522072441 0 -0.022197324763417965 0.0061304324602287465 0 -0.022390339970806604 0.0058928657083047913 0 -0.022034928152347338 0.0057272329522072441 0 -0.02204086701020757 0.0062111088071342699 0 -0.022197324763417965 0.0061304324602287465 0 -0.023563791929419091 0.0041318540901333217 0 -0.023271987091336804 0.0043343644996177502 0 -0.022578114576065469 0.0056214022461594645 0 -0.022722134328967355 0.0061246079594348135 0 -0.023185596895531374 0.0059674486175723684 0 -0.022578114576065469 0.0056214022461594645 0 -0.022390339970806604 0.0058928657083047913 0 -0.022722134328967355 0.0061246079594348135 0 -0.022197324763417965 0.0061304324602287465 0 -0.022390339970806604 0.0058928657083047913 0 -0.022722134328967355 0.0061246079594348135 0 -0.023563791929419091 0.0041318540901333217 0 -0.026581786986560003 0.0027847688325495952 0 -0.022034072875371628 0.006209854172643501 0 -0.022197324763417965 0.0061304324602287465 0 -0.023244175597047351 0.0070782846560128064 0 -0.022197324763417965 0.0061304324602287465 0 -0.022722134328967355 0.0061246079594348135 0 -0.023244175597047351 0.0070782846560128064 0 -0.021895015969322577 0.0037955311100426755 0 -0.022319612891508321 0.0040984482188078687 0 -0.021681358355371404 0.0044064493188553169 0 -0.025476604062820731 0.0017588935190817575 0 -0.025407981560912091 0.0018980740085370945 0 -0.025604248829432835 0.0017890273073282847 0 -0.023563791929419091 0.0041318540901333217 0 -0.022024838621373395 0.0033552801570760184 0 -0.021426524844268258 0.0046082387140158106 0 -0.023563791929419091 0.0041318540901333217 0 -0.022024838621373395 0.0033552801570760184 0 -0.020032339691106741 0.0043354786569795413 0 -0.019629993957727729 0.005829923530665638 0 -0.019742208999846349 0.0057756013215854059 0 -0.018499702983014052 0.004742606759258138 0 -0.017064370264658509 0.003513695394602093 0 -0.016974641464806272 0.0035001943910736863 0 -0.016970964912157892 0.0034613492819390457 0 -0.020137666178006358 0.0033669236845407929 0 -0.01746599872708041 0.0042377968118554659 0 -0.016962660982635238 0.0034624546142810893 0 -0.016935467451490514 0.0034933262496648215 0 -0.016970964912157892 0.0034613492819390457 0 -0.016974641464806272 0.0035001943910736863 0 -0.016935467451490514 0.0034933262496648215 0 -0.016970964912157892 0.0034613492819390457 0 -0.017245450793748007 0.0034055243535663833 0 -0.01746599872708041 0.0042377968118554659 0 -0.019742208999846349 0.0057756013215854059 0 -0.018499702983014052 0.004742606759258138 0 -0.019404491826086903 0.0041998067833521431 0 -0.018499702983014052 0.004742606759258138 0 -0.019404491826086903 0.0041998067833521431 0 -0.018608169147965876 0.003583747501169918 0 -0.019438776047774862 0.0042016446423401256 0 -0.018608169147965876 0.003583747501169918 0 -0.019216310931686714 0.0024890098616232063 0 -0.019874920748573881 0.0047856073490470828 0 -0.019216310931686714 0.0024890098616232063 0 -0.020712725129721471 0.0034150572386044053 0 -0.020032339691106741 0.0043354786569795413 0 -0.019130973125423795 0.0026100526491463646 0 -0.020032339691106741 0.0043354786569795413 0 -0.018547515449878552 0.0035423469885924835 0 -0.017152628404621451 0.0034033437109580052 0 -0.018499702983014052 0.004742606759258138 0 -0.018608169147965876 0.003583747501169918 0 -0.017152628404621451 0.0034033437109580052 0 -0.018608169147965876 0.003583747501169918 0 -0.017945916682772498 0.0027038831899430702 0 -0.018608169147965876 0.003583747501169918 0 -0.017945916682772498 0.0027038831899430702 0 -0.019216310931686714 0.0024890098616232063 0 -0.019216310931686714 0.0024890098616232063 0 -0.021156104340426848 0.0021467121063851336 0 -0.020712725129721471 0.0034150572386044053 0 -0.021156104340426848 0.0021467121063851336 0 -0.020712725129721471 0.0034150572386044053 0 -0.021842369420519848 0.0028690016743297595 0 -0.020712725129721471 0.0034150572386044053 0 -0.021960917300632949 0.0036980923866936199 0 -0.021842369420519848 0.0028690016743297595 0 -0.019874920748573881 0.0047856073490470828 0 -0.020712725129721471 0.0034150572386044053 0 -0.021261072768251239 0.0044568005538827846 0 -0.020712725129721471 0.0034150572386044053 0 -0.021261072768251239 0.0044568005538827846 0 -0.021960917300632949 0.0036980923866936199 0 -0.022693260514441704 0.0044341582660018227 0 -0.021960917300632949 0.0036980923866936199 0 -0.022930563814253312 0.003735120384683069 0 -0.022693260514441704 0.0044341582660018227 0 -0.021987373886286684 0.0044034145615983126 0 -0.021960917300632949 0.0036980923866936199 0 -0.021261072768251239 0.0044568005538827846 0 -0.021987373886286684 0.0044034145615983126 0 -0.021960917300632949 0.0036980923866936199 0 -0.021960917300632949 0.0036980923866936199 0 -0.022820219954341997 0.0029923936675314827 0 -0.022930563814253312 0.003735120384683069 0 -0.021960917300632949 0.0036980923866936199 0 -0.022820219954341997 0.0029923936675314827 0 -0.021842369420519848 0.0028690016743297595 0 -0.021156104340426848 0.0021467121063851336 0 -0.021842369420519848 0.0028690016743297595 0 -0.022698332348007496 0.0021895065393666424 0 -0.022820219954341997 0.0029923936675314827 0 -0.021842369420519848 0.0028690016743297595 0 -0.022698332348007496 0.0021895065393666424 0 -0.022820219954341997 0.0029923936675314827 0 -0.022698332348007496 0.0021895065393666424 0 -0.023669603856910623 0.0025107204886853662 0 -0.02403202324563531 0.0022762907035335004 0 -0.026107337791367247 0.0029442432413171226 0 -0.023669603856910623 0.0025107204886853662 0 -0.02426758382772003 0.0028284001395094305 0 -0.02358785139589498 0.003524438911418795 0 -0.022820219954341997 0.0029923936675314827 0 -0.023669603856910623 0.0025107204886853662 0 -0.02358785139589498 0.003524438911418795 0 -0.023669603856910623 0.0025107204886853662 0 -0.024311821952829001 0.0028595138776264062 0 -0.024359199186043137 0.0014941238641904915 0 -0.03189428834089543 0.0050669746774588548 0 -0.031594711743499482 0.0051568272848352692 0 -0.032083345725396138 0.0053449239982962639 0 -0.026107337791367247 0.0029442432413171226 0 -0.034604248692867629 0.00038200223953330638 0 -0.026107337791367247 0.0029442432413171226 0 -0.027129151202758325 0.0059605953384182352 0 -0.03189428834089543 0.0050669746774588548 0 -0.031594711743499482 0.0051568272848352692 0 -0.031593257589591292 0.0047735144190667982 0 -0.02492821146905887 0.00029885716481368584 0 -0.025796916174531302 0.001882602068762848 0 -0.027653090024717684 0.0017306044238978699 0 -0.026107337791367247 0.0029442432413171226 0 -0.024390587483796855 0.0037666042074412528 0 -0.025796916174531302 0.001882602068762848 0 -0.025910342277770365 0.0050089734510691568 0 -0.027653090024717684 0.0017306044238978699 0 -0.02492821146905887 0.00029885716481368584 0 -0.025796916174531302 0.001882602068762848 0 -0.024779358186510291 0.0034102238739372554 0 -0.02426758382772003 0.0028284001395094305 0 -0.02358785139589498 0.003524438911418795 0 -0.02426029663502886 0.0046296838852163255 0 -0.022930563814253312 0.003735120384683069 0 -0.02358785139589498 0.003524438911418795 0 -0.02339683351987033 0.0044561412689803435 0 -0.022820219954341997 0.0029923936675314827 0 -0.022930563814253312 0.003735120384683069 0 -0.02358785139589498 0.003524438911418795 0 -0.02358785139589498 0.003524438911418795 0 -0.02339683351987033 0.0044561412689803435 0 -0.02426029663502886 0.0046296838852163255 0 -0.022693260514441704 0.0044341582660018227 0 -0.022930563814253312 0.003735120384683069 0 -0.02339683351987033 0.0044561412689803435 0 -0.02339683351987033 0.0044561412689803435 0 -0.023114826163763473 0.0052039350180014743 0 -0.023761544137144448 0.0052146613241602097 0 -0.022693260514441704 0.0044341582660018227 0 -0.02339683351987033 0.0044561412689803435 0 -0.023114826163763473 0.0052039350180014743 0 -0.023761544137144448 0.0052146613241602097 0 -0.02426029663502886 0.0046296838852163255 0 -0.024275428063732101 0.006134613130354424 0 -0.022578114576065469 0.0056214022461594645 0 -0.023114826163763473 0.0052039350180014743 0 -0.023185596895531374 0.0059674486175723684 0 -0.023114826163763473 0.0052039350180014743 0 -0.023185596895531374 0.0059674486175723684 0 -0.023626302530607365 0.005711971604210617 0 -0.023114826163763473 0.0052039350180014743 0 -0.023761544137144448 0.0052146613241602097 0 -0.023626302530607365 0.005711971604210617 0 -0.02339683351987033 0.0044561412689803435 0 -0.023761544137144448 0.0052146613241602097 0 -0.02426029663502886 0.0046296838852163255 0 -0.024779358186510291 0.0034102238739372554 0 -0.025910342277770365 0.0050089734510691568 0 -0.024550505813158124 0.0064561043045518541 0 -0.024390587483796855 0.0037666042074412528 0 -0.024554002393999824 0.0064446612409563616 0 -0.025796916174531302 0.001882602068762848 0 -0.024779358186510291 0.0034102238739372554 0 -0.025910342277770365 0.0050089734510691568 0 -0.025910342277770365 0.0050089734510691568 0 -0.024550505813158124 0.0064561043045518541 0 -0.024244181433906279 0.0080978540313967999 0 -0.02426029663502886 0.0046296838852163255 0 -0.024550505813158124 0.0064561043045518541 0 -0.024275428063732101 0.006134613130354424 0 -0.037134668373725262 -0.0034513458426149841 0 -0.03727612539465975 -0.0032066034771033856 0 -0.03682524936944493 -0.0030307385504861439 0 -0.031309084186254665 0.0012202355452932303 0 -0.029431005029204045 -0.00094680747251344073 0 -0.022897241242716297 0.0072039490964024419 0 -0.026581786986560003 0.0027847688325495952 0 -0.024550505813158124 0.0064561043045518541 0 -0.024275428063732101 0.006134613130354424 0 -0.023057563545227113 0.0070977386637332959 0 -0.023615559760471361 0.0062093674381216392 0 -0.024275428063732101 0.006134613130354424 0 -0.023244175597047351 0.0070782846560128064 0 -0.022722134328967355 0.0061246079594348135 0 -0.023185596895531374 0.0059674486175723684 0 -0.023244175597047351 0.0070782846560128064 0 -0.023615559760471361 0.0062093674381216392 0 -0.023185596895531374 0.0059674486175723684 0 -0.023244175597047351 0.0070782846560128064 0 -0.023615559760471361 0.0062093674381216392 0 -0.023185596895531374 0.0059674486175723684 0 -0.023626302530607365 0.005711971604210617 0 -0.023761544137144448 0.0052146613241602097 0 -0.023626302530607365 0.005711971604210617 0 -0.024275428063732101 0.006134613130354424 0 -0.023615559760471361 0.0062093674381216392 0 -0.023626302530607365 0.005711971604210617 0 -0.024275428063732101 0.006134613130354424 0 -0.037730053476810146 -0.0034783055638906162 0 -0.03727612539465975 -0.0032066034771033856 0 -0.037641153896621121 -0.0031422055827375834 0 -0.037730053476810146 -0.0034783055638906162 0 -0.037885768170918765 -0.003657166078116975 0 -0.037641153896621121 -0.0031422055827375834 0 -0.037134668373725262 -0.0034513458426149841 0 -0.03727612539465975 -0.0032066034771033856 0 -0.037455562874615753 -0.0035686234641756627 0 -0.037730053476810146 -0.0034783055638906162 0 -0.03727612539465975 -0.0032066034771033856 0 -0.037455562874615753 -0.0035686234641756627 0 -0.037134668373725262 -0.0034513458426149841 0 -0.037455562874615753 -0.0035686234641756627 0 -0.037383420859962352 -0.0037913621777448904 0 -0.031309084186254665 0.0012202355452932303 0 -0.034604248692867629 0.00038200223953330638 0 -0.037730053476810146 -0.0034783055638906162 0 -0.037455562874615753 -0.0035686234641756627 0 -0.03770852481495366 -0.0035921731321047947 0 -0.039365971795391502 -0.0022904226504804367 0 -0.040783540998073832 -0.0014417504737745004 0 -0.039011893261812224 -0.00093897044692195877 0 -0.037455562874615753 -0.0035686234641756627 0 -0.03770852481495366 -0.0035921731321047947 0 -0.037383420859962352 -0.0037913621777448904 0 -0.039214300222590891 -0.0030801420163525123 0 -0.034604248692867629 0.00038200223953330638 0 -0.032083345725396138 0.0053449239982962639 0 -0.032370499447120983 0.0049158798902086557 0 -0.032279074823368788 0.0049573785812116467 0 -0.03189428834089543 0.0050669746774588548 0 -0.032083345725396138 0.0053449239982962639 0 -0.032279074823368788 0.0049573785812116467 0 -0.034604248692867629 0.00038200223953330638 0 -0.03640130320852053 0.0029311145402209976 0 -0.040783540998073832 -0.0014417504737745004 0 -0.039011893261812224 -0.00093897044692195877 0 -0.039902270284766679 0.00043367647987322723 0 -0.039011893261812224 -0.00093897044692195877 0 -0.039902270284766679 0.00043367647987322723 0 -0.037908966932973243 0.0001517155369983137 0 -0.039011893261812224 -0.00093897044692195877 0 -0.037656221348694577 -0.00098201415323655866 0 -0.037908966932973243 0.0001517155369983137 0 -0.037656221348694577 -0.00098201415323655866 0 -0.036363572210665419 -0.00071784150650610029 0 -0.037908966932973243 0.0001517155369983137 0 -0.037656221348694577 -0.00098201415323655866 0 -0.037968865364767186 -0.0020452026038910377 0 -0.036623097873871691 -0.0020970863336906365 0 -0.039365971795391502 -0.0022904226504804367 0 -0.039011893261812224 -0.00093897044692195877 0 -0.037968865364767186 -0.0020452026038910377 0 -0.039011893261812224 -0.00093897044692195877 0 -0.037656221348694577 -0.00098201415323655866 0 -0.037968865364767186 -0.0020452026038910377 0 -0.034999923158186702 -0.00036386480493013658 0 -0.036363572210665419 -0.00071784150650610029 0 -0.036219570211826806 0.00067350104034679715 0 -0.037656221348694577 -0.00098201415323655866 0 -0.036363572210665419 -0.00071784150650610029 0 -0.036623097873871691 -0.0020970863336906365 0 -0.036363572210665419 -0.00071784150650610029 0 -0.036623097873871691 -0.0020970863336906365 0 -0.034999871512734683 -0.0024428308966199415 0 -0.034999923158186702 -0.00036386480493013658 0 -0.036363572210665419 -0.00071784150650610029 0 -0.034999871512734683 -0.0024428308966199415 0 -0.036623097873871691 -0.0020970863336906365 0 -0.034999871512734683 -0.0024428308966199415 0 -0.036010874956071179 -0.0033414503206138204 0 -0.036623097873871691 -0.0020970863336906365 0 -0.036010874956071179 -0.0033414503206138204 0 -0.036907424132492019 -0.0030923226031371628 0 -0.036010874956071179 -0.0033414503206138204 0 -0.036907424132492019 -0.0030923226031371628 0 -0.03651847492098504 -0.0044826598394746078 0 -0.036907424132492019 -0.0030923226031371628 0 -0.03727351143578593 -0.0038256348299121785 0 -0.03651847492098504 -0.0044826598394746078 0 -0.034999871512734683 -0.0024428308966199415 0 -0.036010874956071179 -0.0033414503206138204 0 -0.034999866282903663 -0.0045216071732972936 0 -0.036010874956071179 -0.0033414503206138204 0 -0.034999866282903663 -0.0045216071732972936 0 -0.03651847492098504 -0.0044826598394746078 0 -0.039214300222590891 -0.0030801420163525123 0 -0.037596076871885757 -0.0032980978742397481 0 -0.037730053476810146 -0.0034783055638906162 0 -0.03770852481495366 -0.0035921731321047947 0 -0.037798596749454891 -0.0032682095781165436 0 -0.039365971795391502 -0.0022904226504804367 0 -0.037968865364767186 -0.0020452026038910377 0 -0.037798596749454891 -0.0032682095781165436 0 -0.037968865364767186 -0.0020452026038910377 0 -0.036623097873871691 -0.0020970863336906365 0 -0.036907424132492019 -0.0030923226031371628 0 -0.037968865364767186 -0.0020452026038910377 0 -0.036907424132492019 -0.0030923226031371628 0 -0.037798596749454891 -0.0032682095781165436 0 -0.036907424132492019 -0.0030923226031371628 0 -0.037798596749454891 -0.0032682095781165436 0 -0.03727351143578593 -0.0038256348299121785 0 -0.037798596749454891 -0.0032682095781165436 0 -0.03727351143578593 -0.0038256348299121785 0 -0.037885768170918765 -0.003657166078116975 0 -0.03727351143578593 -0.0038256348299121785 0 -0.037885768170918765 -0.003657166078116975 0 -0.037675231631229704 -0.0050930371723192681 0 -0.037723633141172698 -0.0036400899562305106 0 -0.038991093174591603 -0.0039034327378325529 0 -0.037730053476810146 -0.0034783055638906162 0 -0.037798596749454891 -0.0032682095781165436 0 -0.037885768170918765 -0.003657166078116975 0 -0.037675231631229704 -0.0050930371723192681 0 -0.038398142858897359 -0.006098776012347088 0 -0.039382294288271509 -0.0048698670065674479 0 -0.037885768170918765 -0.003657166078116975 0 -0.037675231631229704 -0.0050930371723192681 0 -0.039382294288271509 -0.0048698670065674479 0 -0.03727351143578593 -0.0038256348299121785 0 -0.037675231631229704 -0.0050930371723192681 0 -0.03651847492098504 -0.0044826598394746078 0 -0.037675231631229704 -0.0050930371723192681 0 -0.037017435681613697 -0.0061758389841041986 0 -0.03651847492098504 -0.0044826598394746078 0 -0.037675231631229704 -0.0050930371723192681 0 -0.037017435681613697 -0.0061758389841041986 0 -0.038398142858897359 -0.006098776012347088 0 -0.037017435681613697 -0.0061758389841041986 0 -0.038398142858897359 -0.006098776012347088 0 -0.037717881333875367 -0.0070130647091735639 0 -0.034999866282903663 -0.0045216071732972936 0 -0.03651847492098504 -0.0044826598394746078 0 -0.03591353790414293 -0.0055875861799744844 0 -0.037017435681613697 -0.0061758389841041986 0 -0.03651847492098504 -0.0044826598394746078 0 -0.03591353790414293 -0.0055875861799744844 0 -0.037017435681613697 -0.0061758389841041986 0 -0.03591353790414293 -0.0055875861799744844 0 -0.036077438749797033 -0.0074810003950329541 0 -0.034999866282903663 -0.0045216071732972936 0 -0.03591353790414293 -0.0055875861799744844 0 -0.034999864781276258 -0.0066003683874871445 0 -0.03591353790414293 -0.0055875861799744844 0 -0.034999864781276258 -0.0066003683874871445 0 -0.036077438749797033 -0.0074810003950329541 0 -0.034999864781276258 -0.0066003683874871445 0 -0.036077438749797033 -0.0074810003950329541 0 -0.034999906266868878 -0.0086790853812981107 0 -0.037017435681613697 -0.0061758389841041986 0 -0.036077438749797033 -0.0074810003950329541 0 -0.037288259973942223 -0.0077334747195286924 0 -0.036449778331377275 -0.0089704389901807628 0 -0.036077438749797033 -0.0074810003950329541 0 -0.037288259973942223 -0.0077334747195286924 0 -0.036449778331377275 -0.0089704389901807628 0 -0.036077438749797033 -0.0074810003950329541 0 -0.034999906266868878 -0.0086790853812981107 0 -0.038294999373529662 -0.0078365831554399207 0 -0.037717881333875367 -0.0070130647091735639 0 -0.037288259973942223 -0.0077334747195286924 0 -0.038398142858897359 -0.006098776012347088 0 -0.038294999373529662 -0.0078365831554399207 0 -0.037717881333875367 -0.0070130647091735639 0 -0.037017435681613697 -0.0061758389841041986 0 -0.037717881333875367 -0.0070130647091735639 0 -0.037288259973942223 -0.0077334747195286924 0 -0.037533036899907994 -0.0086794706705984586 0 -0.036449778331377275 -0.0089704389901807628 0 -0.037288259973942223 -0.0077334747195286924 0 -0.038294999373529662 -0.0078365831554399207 0 -0.037288259973942223 -0.0077334747195286924 0 -0.037960867152600282 -0.0081302748871860085 0 -0.037533036899907994 -0.0086794706705984586 0 -0.037288259973942223 -0.0077334747195286924 0 -0.037960867152600282 -0.0081302748871860085 0 -0.038294999373529662 -0.0078365831554399207 0 -0.037930425217206701 -0.0078723405569392085 0 -0.037010406739474887 -0.0082656700032280421 0 -0.038294999373529662 -0.0078365831554399207 0 -0.037960867152600282 -0.0081302748871860085 0 -0.037930425217206701 -0.0078723405569392085 0 -0.037554193161338199 -0.007584417213979221 0 -0.037085509266227841 -0.0082986671150520643 0 -0.038398142858897359 -0.006098776012347088 0 -0.038294999373529662 -0.0078365831554399207 0 -0.039767084050522532 -0.0068106169713568615 0 -0.038294999373529662 -0.0078365831554399207 0 -0.037108512474567701 -0.0091946886028244652 0 -0.037010406739474887 -0.0082656700032280421 0 -0.03827337651093863 -0.0079138299690296385 0 -0.038574889492349662 -0.0080299918808243928 0 -0.036020614947383449 -0.0088449485197018424 0 -0.037108512474567701 -0.0091946886028244652 0 -0.037010406739474887 -0.0082656700032280421 0 -0.036020614947383449 -0.0088449485197018424 0 -0.036096899961796103 -0.0082008684650421455 0 -0.035280880986888176 -0.0082280871328434136 0 -0.036020614947383449 -0.0088449485197018424 0 -0.037010406739474887 -0.0082656700032280421 0 -0.036096899961796103 -0.0082008684650421455 0 -0.036096899961796103 -0.0082008684650421455 0 -0.036115277517234277 -0.0075133923586665737 0 -0.035280880986888176 -0.0082280871328434136 0 -0.037010406739474887 -0.0082656700032280421 0 -0.036096899961796103 -0.0082008684650421455 0 -0.036115277517234277 -0.0075133923586665737 0 -0.037184395731035685 -0.0073657960562613055 0 -0.037010406739474887 -0.0082656700032280421 0 -0.036115277517234277 -0.0075133923586665737 0 -0.034840660133096286 -0.0072727379058206663 0 -0.034348995163210057 -0.0082002855672442133 0 -0.035280880986888176 -0.0082280871328434136 0 -0.036115277517234277 -0.0075133923586665737 0 -0.034840660133096286 -0.0072727379058206663 0 -0.035280880986888176 -0.0082280871328434136 0 -0.034079939740157543 -0.0069664918644223445 0 -0.034840660133096286 -0.0072727379058206663 0 -0.033828282893565854 -0.0074499116376202735 0 -0.034840660133096286 -0.0072727379058206663 0 -0.033828282893565854 -0.0074499116376202735 0 -0.034348995163210057 -0.0082002855672442133 0 -0.033226024421197917 -0.0076124782006557938 0 -0.033828282893565854 -0.0074499116376202735 0 -0.033706175041691787 -0.0080039726676350859 0 -0.033828282893565854 -0.0074499116376202735 0 -0.033706175041691787 -0.0080039726676350859 0 -0.034348995163210057 -0.0082002855672442133 0 -0.033414516600075168 -0.0080705759199371646 0 -0.033706175041691787 -0.0080039726676350859 0 -0.034042100409226103 -0.0090242135094029154 0 -0.034348995163210057 -0.0082002855672442133 0 -0.034042100409226103 -0.0090242135094029154 0 -0.034691600386530318 -0.0086160593720355002 0 -0.033706175041691787 -0.0080039726676350859 0 -0.034348995163210057 -0.0082002855672442133 0 -0.034042100409226103 -0.0090242135094029154 0 -0.032024185267948362 -0.0065474251694318227 0 -0.031542659664906755 -0.0061631783814834716 0 -0.030818681023093198 -0.0065270590523556016 0 -0.036020614947383449 -0.0088449485197018424 0 -0.035280880986888176 -0.0082280871328434136 0 -0.035088686197455206 -0.0090171836833731443 0 -0.034348995163210057 -0.0082002855672442133 0 -0.035280880986888176 -0.0082280871328434136 0 -0.034691600386530318 -0.0086160593720355002 0 -0.035280880986888176 -0.0082280871328434136 0 -0.034691600386530318 -0.0086160593720355002 0 -0.035088686197455206 -0.0090171836833731443 0 -0.034042100409226103 -0.0090242135094029154 0 -0.034691600386530318 -0.0086160593720355002 0 -0.035088686197455206 -0.0090171836833731443 0 -0.034042100409226103 -0.0090242135094029154 0 -0.035088686197455206 -0.0090171836833731443 0 -0.035729497111549213 -0.010156551872985304 0 -0.029507036604862185 -0.0055333852239947637 0 -0.030407266171141326 -0.0056424462962564471 0 -0.030495430252487032 -0.0047947646315174182 0 -0.036020614947383449 -0.0088449485197018424 0 -0.035088686197455206 -0.0090171836833731443 0 -0.035729497111549213 -0.010156551872985304 0 -0.031876624262155775 -0.0078701290913160086 0 -0.036108242936240577 -0.0059714717387193503 0 -0.030818681023093198 -0.0065270590523556016 0 -0.029507036604862185 -0.0055333852239947637 0 -0.030407266171141326 -0.0056424462962564471 0 -0.030407266171141326 -0.0056424462962564471 0 -0.03101127096047071 -0.0058750861519320744 0 -0.030495430252487032 -0.0047947646315174182 0 -0.031463044274303548 -0.0069285843311418134 0 -0.029431005029204045 -0.00094680747251344073 0 -0.03101127096047071 -0.0058750861519320744 0 -0.031125771124692305 -0.004800369121189218 0 -0.030138317968073404 -0.0042527131166624644 0 -0.031828555586804044 -0.0057167575753591547 0 -0.031542659664906755 -0.0061631783814834716 0 -0.03101127096047071 -0.0058750861519320744 0 -0.031542659664906755 -0.0061631783814834716 0 -0.030818681023093198 -0.0065270590523556016 0 -0.03101127096047071 -0.0058750861519320744 0 -0.030818681023093198 -0.0065270590523556016 0 -0.030407266171141326 -0.0056424462962564471 0 -0.03101127096047071 -0.0058750861519320744 0 -0.03101127096047071 -0.0058750861519320744 0 -0.031413190735470643 -0.0053586193227879728 0 -0.031125771124692305 -0.004800369121189218 0 -0.031828555586804044 -0.0057167575753591547 0 -0.03101127096047071 -0.0058750861519320744 0 -0.031413190735470643 -0.0053586193227879728 0 -0.031676392100208436 -0.005032911415451505 0 -0.031413190735470643 -0.0053586193227879728 0 -0.031125771124692305 -0.004800369121189218 0 -0.031676392100208436 -0.005032911415451505 0 -0.031125771124692305 -0.004800369121189218 0 -0.031162473867396734 -0.0034978574005547587 0 -0.024550505813158124 0.0064561043045518541 0 -0.024244181433906279 0.0080978540313967999 0 -0.023057563545227113 0.0070977386637332959 0 -0.029431005029204045 -0.00094680747251344073 0 -0.026581786986560003 0.0027847688325495952 0 -0.031125771124692305 -0.004800369121189218 0 -0.030138317968073404 -0.0042527131166624644 0 -0.031162473867396734 -0.0034978574005547587 0 -0.03727612539465975 -0.0032066034771033856 0 -0.037170919259555811 -0.002813674611204776 0 -0.03682524936944493 -0.0030307385504861439 0 -0.036108242936240577 -0.0059714717387193503 0 -0.029431005029204045 -0.00094680747251344073 0 -0.03727612539465975 -0.0032066034771033856 0 -0.037170919259555811 -0.002813674611204776 0 -0.037641153896621121 -0.0031422055827375834 0 -0.036108242936240577 -0.0059714717387193503 0 -0.038991093174591603 -0.0039034327378325529 0 -0.038398142858897359 -0.006098776012347088 0 -0.039767084050522532 -0.0068106169713568615 0 -0.039382294288271509 -0.0048698670065674479 0 -0.036020614947383449 -0.0088449485197018424 0 -0.037108512474567701 -0.0091946886028244652 0 -0.035729497111549213 -0.010156551872985304 0 -0.039767084050522532 -0.0068106169713568615 0 -0.040905927210056245 -0.0059359141595633812 0 -0.039382294288271509 -0.0048698670065674479 0 -0.038574889492349662 -0.0080299918808243928 0 -0.036108242936240577 -0.0059714717387193503 0 -0.0029260980557772125 -0.006533261352499045 0 -0.0028908906058820677 -0.0066556905617257741 0 -0.001589324042160537 -0.0087730780059527488 0 -0.0018213742420368313 -0.0093716923220252511 0 -0.0029114921763315699 -0.0087132709814345313 0 -0.001589324042160537 -0.0087730780059527488 0 -0.0029114921763315699 -0.0087132709814345313 0 -0.0018225760571726588 -0.0081492425917665794 0 -0.001589324042160537 -0.0087730780059527488 0 -0.001112978227075528 -0.0092318502698636035 0 -0.00076770747564641035 -0.0085164539021194748 0 -0.001589324042160537 -0.0087730780059527488 0 -0.0018225760571726588 -0.0081492425917665794 0 -0.00076770747564641035 -0.0085164539021194748 0 -0.001589324042160537 -0.0087730780059527488 0 -0.001112978227075528 -0.0092318502698636035 0 -0.0018213742420368313 -0.0093716923220252511 0 -0.0029260980557772125 -0.006533261352499045 0 -0.003495894920602365 -0.0059320175640906079 0 -0.001112978227075528 -0.0092318502698636035 0 -0.0018213742420368313 -0.0093716923220252511 0 -0.0009768553756360856 -0.0098596111807036438 0 -0.0041561691272749288 -0.003583025185380403 0 -0.0031883788460746816 -0.0044783457255592098 0 -0.003279638020763372 -0.003068838227580444 0 -0.0024373992633841776 -0.0037496441781911562 0 -0.0031883788460746816 -0.0044783457255592098 0 -0.003279638020763372 -0.003068838227580444 0 -0.0024373992633841776 -0.0037496441781911562 0 -0.0031883788460746816 -0.0044783457255592098 0 -0.0021656306508664892 -0.0053740587768457537 0 -0.0039540750801174505 -0.0071697733094833842 0 -0.0041694310664702455 -0.0064698120918302397 0 -0.0062668096046922606 -0.0076807538847172225 0 -0.0059349399077831344 -0.0071468628206110387 0 -0.0062992398867211443 -0.0073815079000637846 0 -0.0029114921763315699 -0.0087132709814345313 0 -0.0041173426764064781 -0.0079379819013129273 0 -0.0026102951484129619 -0.0077826030053861029 0 -0.0041173426764064781 -0.0079379819013129273 0 -0.0031474718297519592 -0.007277500812898627 0 -0.0026102951484129619 -0.0077826030053861029 0 -0.0028908906058820677 -0.0066556905617257741 0 -0.0041694310664702455 -0.0064698120918302397 0 -0.0059349399077831344 -0.0071468628206110387 0 -0.0058932695037548881 -0.00702415703805371 0 -0.0062992398867211443 -0.0073815079000637846 0 -0.0041694310664702455 -0.0064698120918302397 0 -0.0053051140232413955 -0.0064441145492642425 0 -0.0041173426764064781 -0.0079379819013129273 0 -0.0038578758561552168 -0.0071896603244133361 0 -0.0044357847756035752 -0.0070467860141456094 0 -0.0041694310664702455 -0.0064698120918302397 0 -0.0049357915124092853 -0.0069064883337427987 0 -0.0041173426764064781 -0.0079379819013129273 0 -0.0038578758561552168 -0.0071896603244133361 0 -0.0031474718297519592 -0.007277500812898627 0 -0.0056858121835847465 -0.0072217685728261285 0 -0.0058932695037548881 -0.00702415703805371 0 -0.0055139657408191664 -0.0066112472117346348 0 -0.0038578758561552168 -0.0071896603244133361 0 -0.0044357847756035752 -0.0070467860141456094 0 -0.0037208817194580501 -0.006452294411138486 0 -0.0031474718297519592 -0.007277500812898627 0 -0.0025683266217514386 -0.0064440511557957237 0 -0.0037208817194580501 -0.006452294411138486 0 -0.0038578758561552168 -0.0071896603244133361 0 -0.0031474718297519592 -0.007277500812898627 0 -0.0037208817194580501 -0.006452294411138486 0 -0.0031474718297519592 -0.007277500812898627 0 -0.0020778850581273894 -0.0070643344011041042 0 -0.0025683266217514386 -0.0064440511557957237 0 -0.0020778850581273894 -0.0070643344011041042 0 -0.0016080205267930789 -0.0064451167291384968 0 -0.0025683266217514386 -0.0064440511557957237 0 -0.0031474718297519592 -0.007277500812898627 0 -0.0020778850581273894 -0.0070643344011041042 0 -0.0026102951484129619 -0.0077826030053861029 0 -0.0020778850581273894 -0.0070643344011041042 0 -0.0026102951484129619 -0.0077826030053861029 0 -0.0016076308313540714 -0.0075368599973122258 0 -0.0018225760571726588 -0.0081492425917665794 0 -0.0026102951484129619 -0.0077826030053861029 0 -0.0016076308313540714 -0.0075368599973122258 0 -0.0029114921763315699 -0.0087132709814345313 0 -0.0018225760571726588 -0.0081492425917665794 0 -0.0026102951484129619 -0.0077826030053861029 0 -0.0018225760571726588 -0.0081492425917665794 0 -0.0016076308313540714 -0.0075368599973122258 0 -0.00076770747564641035 -0.0085164539021194748 0 -0.0016076308313540714 -0.0075368599973122258 0 -0.00096901734240541313 -0.0069789300065147743 0 -0.00076770747564641035 -0.0085164539021194748 0 -0.0020778850581273894 -0.0070643344011041042 0 -0.00096901734240541313 -0.0069789300065147743 0 -0.0016080205267930789 -0.0064451167291384968 0 -0.0020778850581273894 -0.0070643344011041042 0 -0.0016076308313540714 -0.0075368599973122258 0 -0.00096901734240541313 -0.0069789300065147743 0 -0.00096901734240541313 -0.0069789300065147743 0 -0.0016080205267930789 -0.0064451167291384968 0 -0.00076060906146387032 -0.0065285514863357274 0 -0.00011752268851926698 -0.0071041354983303545 0 -7.5132062943740672e-05 -0.0066223382328769818 0 -0.00076060906146387032 -0.0065285514863357274 0 -0.00096901734240541313 -0.0069789300065147743 0 -0.00011752268851926698 -0.0071041354983303545 0 -0.00076060906146387032 -0.0065285514863357274 0 0.00026056660113587594 -0.007108205033244816 0 -0.00011752268851926698 -0.0071041354983303545 0 -7.5132062943740672e-05 -0.0066223382328769818 0 0.0012045910984426463 -0.0065857494392448359 0 4.4482308403643083e-05 -0.0069837797672502545 0 0.00026056660113587594 -0.007108205033244816 0 0.00074141171574658676 -0.0066870372603971421 0 -7.5132062943740672e-05 -0.0066223382328769818 0 0.0021196166287788263 -0.0059790352446840878 0 0.0013075157886758878 -0.0074210402643295247 0 -0.00011752268851926698 -0.0071041354983303545 0 0.0021196166287788263 -0.0059790352446840878 0 0.0013075157886758878 -0.0074210402643295247 0 0.0030134842506350677 -0.0071247124262365539 0 0.0013075157886758878 -0.0074210402643295247 0 0.0030134842506350677 -0.0071247124262365539 0 0.0020168879936900085 -0.008617574376448214 0 -0.00096901734240541313 -0.0069789300065147743 0 -0.00011752268851926698 -0.0071041354983303545 0 -8.8867220616851612e-05 -0.0081161361896760053 0 0.0013075157886758878 -0.0074210402643295247 0 -0.00011752268851926698 -0.0071041354983303545 0 -8.8867220616851612e-05 -0.0081161361896760053 0 -0.00091165067062516766 -0.0070912170659563536 0 -0.00051651003437874733 -0.0080881268066806868 0 0.0017989562791013197 -0.0077674126232400139 0 0.0037763188066667602 -0.0074802061901730063 0 0.0036998829815515629 -0.0083732115877847273 0 0.0026796232847784169 -0.0061875971008762748 0 0.004157169010881168 -0.0069571093465524035 0 0.00099307051063642526 -0.0072489877959745052 0 0.004157169010881168 -0.0069571093465524035 0 0.00096587508301889768 -0.0070728510465162897 0 0.00074141171574658676 -0.0066870372603971421 0 0.0018269065381921583 -0.0069101771372780032 0 0.0043283999851767225 -0.005405792402450758 0 0.0055715427311765825 -0.0061101868573932329 0 0.0064457425730324565 -0.0050016778337150522 0 0.00026056660113587594 -0.007108205033244816 0 0.00096587508301889768 -0.0070728510465162897 0 0.00074141171574658676 -0.0066870372603971421 0 0.0012045910984426463 -0.0065857494392448359 0 0.0026796232847784169 -0.0061875971008762748 0 0.0021196166287788263 -0.0059790352446840878 0 0.0043283999851767225 -0.005405792402450758 0 0.0030134842506350677 -0.0071247124262365539 0 0.0030134842506350677 -0.0071247124262365539 0 0.0046114293755169086 -0.0069918568850766043 0 0.0037307455831322479 -0.0080727798513200756 0 0.0043283999851767225 -0.005405792402450758 0 0.0030134842506350677 -0.0071247124262365539 0 0.0046114293755169086 -0.0069918568850766043 0 0.0043283999851767225 -0.005405792402450758 0 0.0046114293755169086 -0.0069918568850766043 0 0.0055715427311765825 -0.0061101868573932329 0 0.0046114293755169086 -0.0069918568850766043 0 0.0057651472348555803 -0.0070313134179481006 0 0.0052545047964500094 -0.0080517849220271311 0 0.0046114293755169086 -0.0069918568850766043 0 0.0057651472348555803 -0.0070313134179481006 0 0.0055715427311765825 -0.0061101868573932329 0 0.0052545047964500094 -0.0080517849220271311 0 0.0045866473480933433 -0.0091514317747908476 0 0.0061754123389400157 -0.0090855053070651205 0 0.0057651472348555803 -0.0070313134179481006 0 0.0052545047964500094 -0.0080517849220271311 0 0.0066384683034690223 -0.0079414388469561184 0 0.0046114293755169086 -0.0069918568850766043 0 0.0052545047964500094 -0.0080517849220271311 0 0.0037307455831322479 -0.0080727798513200756 0 0.0052545047964500094 -0.0080517849220271311 0 0.0037307455831322479 -0.0080727798513200756 0 0.0045866473480933433 -0.0091514317747908476 0 0.0030134842506350677 -0.0071247124262365539 0 0.0037307455831322479 -0.0080727798513200756 0 0.0020168879936900085 -0.008617574376448214 0 0.0037307455831322479 -0.0080727798513200756 0 0.0032877476947338162 -0.0091375366493687705 0 0.0020168879936900085 -0.008617574376448214 0 0.0037307455831322479 -0.0080727798513200756 0 0.0032877476947338162 -0.0091375366493687705 0 0.0045866473480933433 -0.0091514317747908476 0 0.0032877476947338162 -0.0091375366493687705 0 0.003676132192398211 -0.010456136787804797 0 0.0025277910336775466 -0.0099427912973541633 0 0.003676132192398211 -0.010456136787804797 0 0.0025277910336775466 -0.0099427912973541633 0 0.0023843601445032898 -0.011140998193796837 0 0.0032877476947338162 -0.0091375366493687705 0 0.003676132192398211 -0.010456136787804797 0 0.0045866473480933433 -0.0091514317747908476 0 0.003676132192398211 -0.010456136787804797 0 0.0045866473480933433 -0.0091514317747908476 0 0.0053408599279565153 -0.010203455177514103 0 0.0045866473480933433 -0.0091514317747908476 0 0.0053408599279565153 -0.010203455177514103 0 0.0061754123389400157 -0.0090855053070651205 0 -8.8867220616851612e-05 -0.0081161361896760053 0 0.0020168879936900085 -0.008617574376448214 0 0.00089971710146473111 -0.010359996414200922 0 0.0013075157886758878 -0.0074210402643295247 0 -8.8867220616851612e-05 -0.0081161361896760053 0 0.0020168879936900085 -0.008617574376448214 0 0.0020168879936900085 -0.008617574376448214 0 0.0025277910336775466 -0.0099427912973541633 0 0.00089971710146473111 -0.010359996414200922 0 0.0025277910336775466 -0.0099427912973541633 0 0.00089971710146473111 -0.010359996414200922 0 0.0023843601445032898 -0.011140998193796837 0 0.0032877476947338162 -0.0091375366493687705 0 0.0020168879936900085 -0.008617574376448214 0 0.0025277910336775466 -0.0099427912973541633 0 -0.001112978227075528 -0.0092318502698636035 0 -0.00061590922029415292 -0.0095612922124792329 0 -0.0009768553756360856 -0.0098596111807036438 0 -0.001112978227075528 -0.0092318502698636035 0 -0.00076770747564641035 -0.0085164539021194748 0 -0.00061590922029415292 -0.0095612922124792329 0 -0.00051651003437874733 -0.0080881268066806868 0 0.00044723609848166184 -0.010781133910102741 0 -0.00061590922029415292 -0.0095612922124792329 0 -0.0009768553756360856 -0.0098596111807036438 0 -0.00041502228785946519 -0.010260971192031017 0 -0.0050361123142633347 -0.0027404361756008912 0 -0.0058730009944821327 -0.0019734550091678503 0 -0.0051419883294469585 -0.0011955671971232121 0 -0.003495894920602365 -0.0059320175640906079 0 -0.00081441842752396569 -0.0077775639884049928 0 0.00044723609848166184 -0.010781133910102741 0 -0.00081441842752396569 -0.0077775639884049928 0 0.00089971710146473111 -0.010359996414200922 0 0.0023843601445032898 -0.011140998193796837 0 0.0017674292989651207 -0.012689480965133247 0 0.0023843601445032898 -0.011140998193796837 0 0.0017674292989651207 -0.012689480965133247 0 0.0031860996736308932 -0.012156325713920909 0 0.0017674292989651207 -0.012689480965133247 0 0.0031860996736308932 -0.012156325713920909 0 0.003052896977271537 -0.013727389381311126 0 -0.00081441842752396569 -0.0077775639884049928 0 0.0023638235763599794 -0.0092955362468679498 0 0.003676132192398211 -0.010456136787804797 0 0.0053408599279565153 -0.010203455177514103 0 0.0047291358347623935 -0.011342215962144379 0 0.0047291358347623935 -0.011342215962144379 0 0.0058100913645371477 -0.012290705254974235 0 0.0060304386841377585 -0.011110008363217627 0 0.0053408599279565153 -0.010203455177514103 0 0.0047291358347623935 -0.011342215962144379 0 0.0060304386841377585 -0.011110008363217627 0 0.003676132192398211 -0.010456136787804797 0 0.0023843601445032898 -0.011140998193796837 0 0.0031860996736308932 -0.012156325713920909 0 0.003676132192398211 -0.010456136787804797 0 0.0047291358347623935 -0.011342215962144379 0 0.0031860996736308932 -0.012156325713920909 0 0.0047291358347623935 -0.011342215962144379 0 0.0031860996736308932 -0.012156325713920909 0 0.004537720699749722 -0.012436632598393555 0 0.0031860996736308932 -0.012156325713920909 0 0.004537720699749722 -0.012436632598393555 0 0.003052896977271537 -0.013727389381311126 0 0.004537720699749722 -0.012436632598393555 0 0.005217817309286131 -0.013465643395556823 0 0.003052896977271537 -0.013727389381311126 0 0.0047291358347623935 -0.011342215962144379 0 0.004537720699749722 -0.012436632598393555 0 0.0058100913645371477 -0.012290705254974235 0 0.005217817309286131 -0.013465643395556823 0 0.0058100913645371477 -0.012290705254974235 0 0.0067843835848437357 -0.013813967698483247 0 0.004537720699749722 -0.012436632598393555 0 0.005217817309286131 -0.013465643395556823 0 0.0058100913645371477 -0.012290705254974235 0 0.0060309887360741948 -0.0069719700697382335 0 0.010213321388199722 -0.011740681059178391 0 0.013432945611997576 -0.0083009151825163569 0 0.013110643219839077 -0.0079468999442840523 0 0.012866199998929271 -0.0087578782847482738 0 0.005217817309286131 -0.013465643395556823 0 0.0043861509821729221 -0.014789853066817153 0 0.0067843835848437357 -0.013813967698483247 0 0.00096347256545594796 -0.004354236812142173 0 0.0012166232822586125 -0.0046049571030284857 0 0.0012521027280459542 -0.0041870104500799322 0 0.005217817309286131 -0.013465643395556823 0 0.0043861509821729221 -0.014789853066817153 0 0.003052896977271537 -0.013727389381311126 0 0.0012166232822586125 -0.0046049571030284857 0 0.0012521027280459542 -0.0041870104500799322 0 0.0013163823861950029 -0.0042121255972299128 0 0.0060309887360741948 -0.0069719700697382335 0 0.00032487860964020292 0.0023677702143418632 0 0.0060309887360741948 -0.0069719700697382335 0 0.0023638235763599794 -0.0092955362468679498 0 0.0055568999639732629 -0.0021882526436101933 0 0.0058894817712176386 -0.0019928794597217094 0 0.0053470579109582278 -0.0017289524214154387 0 -0.002366575115382573 0.0144985439491131 0 0.0029784986765728173 0.0045298699855045423 0 0.0014767891318594778 0.012919756607109808 0 -1.6732051557501847e-05 0.012862627853383992 0 0.0001472178701530184 0.013127459655798507 0 0.00032487860964020292 0.0023677702143418632 0 0.0029784986765728173 0.0045298699855045423 0 -0.0010217625488128301 0.007822599620395632 0 -0.00093784571840069546 0.0064158881219419971 0 0.0022575730285658915 0.0064774707497247961 0 -0.0010217625488128301 0.007822599620395632 0 -0.00093784571840069546 0.0064158881219419971 0 -0.0013601924701291928 0.0076811687822538142 0 0.00032487860964020292 0.0023677702143418632 0 -0.0026902594479144312 0.0028822958985118452 0 0.00032487860964020292 0.0023677702143418632 0 -0.0018235908554839525 0.0055021747274731471 0 -0.002366575115382573 0.0144985439491131 0 -0.0018235908554839525 0.0055021747274731471 0 0.0055568999639732629 -0.0021882526436101933 0 0.0053470579109582278 -0.0017289524214154387 0 0.0051442460117185453 -0.0018356425789832619 0 0.0060309887360741948 -0.0069719700697382335 0 0.010271363375755441 -0.0057987947456581215 0 0.0029784986765728173 0.0045298699855045423 0 0.0047888346867713495 0.0022852059995253091 0 0.0053470579109582278 -0.0017289524214154387 0 0.0051214145876894365 -0.0016680772444461775 0 0.0051442460117185453 -0.0018356425789832619 0 -0.0056850335088099203 0.012991439905450599 0 -0.004947854435685883 0.012406945251086607 0 -0.0057345678232224142 0.012356533287216673 0 -0.0056850335088099203 0.012991439905450599 0 -0.0057345678232224142 0.012356533287216673 0 -0.0063863227368276343 0.012328453074117365 0 0.0014929618848407633 -0.0048788910792406945 0 0.0012166232822586125 -0.0046049571030284857 0 0.0013163823861950029 -0.0042121255972299128 0 -0.00081441842752396569 -0.0077775639884049928 0 -0.0026902594479144312 0.0028822958985118452 0 -0.0056850335088099203 0.012991439905450599 0 -0.004947854435685883 0.012406945251086607 0 -0.0040156731916879424 0.012308231772468878 0 -0.0060280589923930525 0.0063208650318776639 0 -0.0026902594479144312 0.0028822958985118452 0 -0.0058730009944821327 -0.0019734550091678503 0 -0.0051419883294469585 -0.0011955671971232121 0 -0.0062379585440776953 -0.00070423720725038767 0 -0.0045568016074412554 0.011959837752698019 0 -0.004947854435685883 0.012406945251086607 0 -0.0048346468318993469 0.011651023117140528 0 -0.002366575115382573 0.0144985439491131 0 -0.0050970832288069591 0.017540608624368546 0 -0.0037698596893854654 0.011648203196872485 0 -0.0045568016074412554 0.011959837752698019 0 -0.0048346468318993469 0.011651023117140528 0 -0.0045568016074412554 0.011959837752698019 0 -0.004947854435685883 0.012406945251086607 0 -0.0040156731916879424 0.012308231772468878 0 -0.0031728914869040815 0.0092817299908767997 0 -0.0018235908554839525 0.0055021747274731471 0 -0.0045568016074412554 0.011959837752698019 0 -0.0040156731916879424 0.012308231772468878 0 -0.003967615147731517 0.012165349154957528 0 -0.0026902594479144312 0.0028822958985118452 0 -0.0018235908554839525 0.0055021747274731471 0 -0.0018934061228078074 0.0021951563323478261 0 -0.0032079091206255197 0.0027333637527335091 0 -0.0028888337250529456 0.0017760267023730475 0 -0.0037698596893854654 0.011648203196872485 0 -0.0045568016074412554 0.011959837752698019 0 -0.0039537702994502091 0.012198360883921393 0 -0.004947854435685883 0.012406945251086607 0 -0.0048346468318993469 0.011651023117140528 0 -0.0058112104132954706 0.011671245197264849 0 -0.0050970832288069591 0.017540608624368546 0 -0.0058344945288201838 0.016447752206655418 0 -0.0057421105813313224 0.011432899667420506 0 -0.0058344945288201838 0.016447752206655418 0 -0.004947854435685883 0.012406945251086607 0 -0.0057345678232224142 0.012356533287216673 0 -0.0058982027841665528 0.011705580485345436 0 -0.0058982027841665528 0.011705580485345436 0 -0.0068242024008359084 0.01173468997333559 0 -0.0063863227368276343 0.012328453074117365 0 -0.0058344945288201838 0.016447752206655418 0 -0.0074663940464606005 0.01499596974899473 0 -0.0068242024008359084 0.01173468997333559 0 -0.0063863227368276343 0.012328453074117365 0 -0.00722394570046196 0.012305503779183319 0 -0.0063863227368276343 0.012328453074117365 0 -0.00722394570046196 0.012305503779183319 0 -0.0069953903730636318 0.012800654082718976 0 -0.0057345678232224142 0.012356533287216673 0 -0.0058982027841665528 0.011705580485345436 0 -0.0063863227368276343 0.012328453074117365 0 -0.0068242024008359084 0.01173468997333559 0 -0.0077188261809737271 0.011754559306870194 0 -0.00722394570046196 0.012305503779183319 0 -0.0074663940464606005 0.01499596974899473 0 -0.0098747756732310548 0.016348678813901729 0 -0.00722394570046196 0.012305503779183319 0 -0.0077798866864833074 0.012450426203170682 0 -0.0075353620893089546 0.012679823868130588 0 -0.0077188261809737271 0.011754559306870194 0 -0.00722394570046196 0.012305503779183319 0 -0.0077798866864833074 0.012450426203170682 0 -0.0076935119807462204 0.013056053684839133 0 -0.0072312657156585027 0.013515058571824178 0 -0.0080185093234817727 0.013336051313618582 0 -0.0075353620893089546 0.012679823868130588 0 -0.0069953903730636318 0.012800654082718976 0 -0.0076935119807462204 0.013056053684839133 0 -0.0077798866864833074 0.012450426203170682 0 -0.0075353620893089546 0.012679823868130588 0 -0.0079748304804084687 0.012780606384883812 0 -0.0075353620893089546 0.012679823868130588 0 -0.0076935119807462204 0.013056053684839133 0 -0.0079748304804084687 0.012780606384883812 0 -0.00722394570046196 0.012305503779183319 0 -0.0075353620893089546 0.012679823868130588 0 -0.0069953903730636318 0.012800654082718976 0 -0.0069953903730636318 0.012800654082718976 0 -0.0076935119807462204 0.013056053684839133 0 -0.0072312657156585027 0.013515058571824178 0 -0.0056850335088099203 0.012991439905450599 0 -0.0069953903730636318 0.012800654082718976 0 -0.0072312657156585027 0.013515058571824178 0 -0.0060280589923930525 0.0063208650318776639 0 -0.005374757610787503 0.0063090840547131832 0 -0.0056850335088099203 0.012991439905450599 0 -0.0063863227368276343 0.012328453074117365 0 -0.0069953903730636318 0.012800654082718976 0 -0.0050361123142633347 -0.0027404361756008912 0 -0.0051419883294469585 -0.0011955671971232121 0 -0.0040111194134357184 -0.0016650380858158149 0 -0.0040111194134357184 -0.0016650380858158149 0 -0.0039527397889093504 -0.0026305428908696225 0 -0.0027601761768974407 -0.0021562143836424065 0 -0.0041561691272749288 -0.003583025185380403 0 -0.0039527397889093504 -0.0026305428908696225 0 -0.003279638020763372 -0.003068838227580444 0 -0.0050361123142633347 -0.0027404361756008912 0 -0.0040111194134357184 -0.0016650380858158149 0 -0.0039527397889093504 -0.0026305428908696225 0 -0.0041561691272749288 -0.003583025185380403 0 -0.0050361123142633347 -0.0027404361756008912 0 -0.0039527397889093504 -0.0026305428908696225 0 -0.0039540750801174505 -0.0071697733094833842 0 -0.0066594444259163565 0.0019921907891570947 0 -0.0062668096046922606 -0.0076807538847172225 0 -0.0064964462831448057 -0.0076638836395645079 0 -0.006554700312669655 -0.0078120504417793389 0 -0.0066594444259163565 0.0019921907891570947 0 -0.007876498850694677 0.0030004816863365971 0 -0.0039527397889093504 -0.0026305428908696225 0 -0.003279638020763372 -0.003068838227580444 0 -0.0027601761768974407 -0.0021562143836424065 0 -0.0024373992633841776 -0.0037496441781911562 0 -0.003279638020763372 -0.003068838227580444 0 -0.0027601761768974407 -0.0021562143836424065 0 -0.005374757610787503 0.0063090840547131832 0 -0.0066594444259163565 0.0019921907891570947 0 -0.0072312657156585027 0.013515058571824178 0 -0.0083929602676428971 0.013713592333174865 0 -0.0080185093234817727 0.013336051313618582 0 -0.0066594444259163565 0.0019921907891570947 0 -0.00783699178493414 0.0090706353681735564 0 -0.0083471751464110136 0.013545316321191334 0 -0.0080185093234817727 0.013336051313618582 0 -0.0083777071791323095 0.013355542884923018 0 -0.0083929602676428971 0.013713592333174865 0 -0.0083471751464110136 0.013545316321191334 0 -0.0080185093234817727 0.013336051313618582 0 -0.0083777071791323095 0.013355542884923018 0 -0.0085691219266051562 0.013514672077768871 0 -0.0086145077142040661 0.013403641184214353 0 -0.0083471751464110136 0.013545316321191334 0 -0.0083777071791323095 0.013355542884923018 0 -0.0085691219266051562 0.013514672077768871 0 -0.0083697322376491377 0.013571675464954481 0 -0.0085691219266051562 0.013514672077768871 0 -0.0087888750042130724 0.01353781793504256 0 -0.0083697322376491377 0.013571675464954481 0 -0.0083471751464110136 0.013545316321191334 0 -0.0085691219266051562 0.013514672077768871 0 -0.0085691219266051562 0.013514672077768871 0 -0.0086145077142040661 0.013403641184214353 0 -0.008777109414187946 0.013525698590914096 0 -0.0086145077142040661 0.013403641184214353 0 -0.0083644663689189502 0.013101365007725999 0 -0.0088300950176412422 0.01344598737706478 0 -0.0083644663689189502 0.013101365007725999 0 -0.0083247478361646431 0.013016727709028791 0 -0.0088300950176412422 0.01344598737706478 0 -0.010496454396964307 0.014406274984345288 0 -0.010774885500145529 0.015470005716487312 0 -0.0083777071791323095 0.013355542884923018 0 -0.0086145077142040661 0.013403641184214353 0 -0.0083644663689189502 0.013101365007725999 0 -0.0080185093234817727 0.013336051313618582 0 -0.0081098985272670832 0.013058366416834945 0 -0.0082247698952059006 0.013211214546743353 0 -0.0076935119807462204 0.013056053684839133 0 -0.0080185093234817727 0.013336051313618582 0 -0.0081098985272670832 0.013058366416834945 0 -0.0083777071791323095 0.013355542884923018 0 -0.0082247698952059006 0.013211214546743353 0 -0.0083644663689189502 0.013101365007725999 0 -0.0080185093234817727 0.013336051313618582 0 -0.0083777071791323095 0.013355542884923018 0 -0.0082247698952059006 0.013211214546743353 0 -0.0081098985272670832 0.013058366416834945 0 -0.0082247698952059006 0.013211214546743353 0 -0.0083644663689189502 0.013101365007725999 0 -0.0081098985272670832 0.013058366416834945 0 -0.0083644663689189502 0.013101365007725999 0 -0.0082666559505806606 0.012876689785417839 0 -0.0097462781723927101 0.013585098235448251 0 -0.010496454396964307 0.014406274984345288 0 -0.0076935119807462204 0.013056053684839133 0 -0.0081098985272670832 0.013058366416834945 0 -0.0079748304804084687 0.012780606384883812 0 -0.0077798866864833074 0.012450426203170682 0 -0.0083907952211540356 0.012784157147797084 0 -0.0079748304804084687 0.012780606384883812 0 -0.0081098985272670832 0.013058366416834945 0 -0.0082666559505806606 0.012876689785417839 0 -0.0079748304804084687 0.012780606384883812 0 -0.010496454396964307 0.014406274984345288 0 -0.008472606059502133 0.01381815074956637 0 -0.0077188261809737271 0.011754559306870194 0 -0.0077798866864833074 0.012450426203170682 0 -0.0083907952211540356 0.012784157147797084 0 -0.0098747756732310548 0.016348678813901729 0 -0.010496454396964307 0.014406274984345288 0 -0.014330906825054328 0.018191079780491365 0 -0.013744400746838742 0.01734635854368265 0 -0.013987734859944732 0.018058554307572239 0 -0.013744400746838742 0.01734635854368265 0 -0.013987734859944732 0.018058554307572239 0 -0.013447723187637945 0.017895592950932016 0 -0.013987734859944732 0.018058554307572239 0 -0.013447723187637945 0.017895592950932016 0 -0.013784649462024328 0.018391242063585476 0 -0.014330906825054328 0.018191079780491365 0 -0.013987734859944732 0.018058554307572239 0 -0.013784649462024328 0.018391242063585476 0 -0.013447723187637945 0.017895592950932016 0 -0.012543965535096053 0.017312300359569734 0 -0.013096435461646225 0.018391979687214337 0 -0.013744400746838742 0.01734635854368265 0 -0.013447723187637945 0.017895592950932016 0 -0.012543965535096053 0.017312300359569734 0 -0.013447723187637945 0.017895592950932016 0 -0.013096435461646225 0.018391979687214337 0 -0.013784649462024328 0.018391242063585476 0 -0.012543965535096053 0.017312300359569734 0 -0.012143796403282009 0.018290832614610533 0 -0.013096435461646225 0.018391979687214337 0 -0.0086145077142040661 0.013403641184214353 0 -0.0088300950176412422 0.01344598737706478 0 -0.008777109414187946 0.013525698590914096 0 -0.010774885500145529 0.015470005716487312 0 -0.010090539030254317 0.015502405471823152 0 -0.0088300950176412422 0.01344598737706478 0 -0.0088935379286394309 0.013942564571228428 0 -0.0089001518634696762 0.01362867371003039 0 -0.012543965535096053 0.017312300359569734 0 -0.011426054038611261 0.017099768978316537 0 -0.012143796403282009 0.018290832614610533 0 -0.011426054038611261 0.017099768978316537 0 -0.010809872921150218 0.018388302837705289 0 -0.012143796403282009 0.018290832614610533 0 -0.010028353889061295 0.016528368529929935 0 -0.011426054038611261 0.017099768978316537 0 -0.010809872921150218 0.018388302837705289 0 -0.010028353889061295 0.016528368529929935 0 -0.0093107161839505338 0.017815098275649598 0 -0.010809872921150218 0.018388302837705289 0 -0.0084989667455213861 0.014623571550385496 0 -0.0088935379286394309 0.013942564571228428 0 -0.0087338233229447854 0.013725356833249184 0 -0.0091553367102516648 0.015574199391106186 0 -0.010090539030254317 0.015502405471823152 0 -0.0088935379286394309 0.013942564571228428 0 -0.0087338233229447854 0.013725356833249184 0 -0.0089001518634696762 0.01362867371003039 0 -0.0084989667455213861 0.014623571550385496 0 -0.0087338233229447854 0.013725356833249184 0 -0.0080617115155385364 0.013816962471507991 0 -0.0087338233229447854 0.013725356833249184 0 -0.0080617115155385364 0.013816962471507991 0 -0.0085691990804754592 0.012756392480222539 0 -0.0087338233229447854 0.013725356833249184 0 -0.0089127063992887195 0.013272883348072195 0 -0.0085691990804754592 0.012756392480222539 0 -0.0087338233229447854 0.013725356833249184 0 -0.0089001518634696762 0.01362867371003039 0 -0.0089127063992887195 0.013272883348072195 0 -0.0087888750042130724 0.01353781793504256 0 -0.0089001518634696762 0.01362867371003039 0 -0.0089127063992887195 0.013272883348072195 0 -0.007876498850694677 0.0030004816863365971 0 -0.0079368133763777458 0.0025925906828821064 0 -0.0087888750042130724 0.01353781793504256 0 -0.008777109414187946 0.013525698590914096 0 -0.0089001518634696762 0.01362867371003039 0 -0.0088300950176412422 0.01344598737706478 0 -0.008777109414187946 0.013525698590914096 0 -0.0089001518634696762 0.01362867371003039 0 -0.0085691219266051562 0.013514672077768871 0 -0.0087888750042130724 0.01353781793504256 0 -0.008777109414187946 0.013525698590914096 0 -0.0041211768499776523 0.01609165191252394 0 -0.0054942850234338206 0.015577015757764972 0 -0.0049167175133899288 0.014252438181474914 0 -0.010880114511142455 0.021205533563541608 0 -0.01097112805777764 0.021471920612974298 0 -0.010479336155084673 0.021124044540011277 0 -0.0094787964132796703 0.017441919200224826 0 -0.0077916329536320038 0.019246223293725724 0 -0.0041211768499776523 0.01609165191252394 0 -0.0054942850234338206 0.015577015757764972 0 -0.0056434109595938425 0.017189779704542246 0 -0.010880114511142455 0.021205533563541608 0 -0.010479336155084673 0.021124044540011277 0 -0.010830632556103061 0.020971845926241173 0 -0.0056434109595938425 0.017189779704542246 0 -0.0076221272603058023 0.015584982053929761 0 -0.0074669510440597059 0.018610546797173579 0 -0.0054942850234338206 0.015577015757764972 0 -0.0056434109595938425 0.017189779704542246 0 -0.0076221272603058023 0.015584982053929761 0 -0.0054942850234338206 0.015577015757764972 0 -0.0076221272603058023 0.015584982053929761 0 -0.0063045954942755542 0.014588386618495101 0 -0.0076221272603058023 0.015584982053929761 0 -0.0093107161839505338 0.017815098275649598 0 -0.0074669510440597059 0.018610546797173579 0 -0.010028353889061295 0.016528368529929935 0 -0.0076221272603058023 0.015584982053929761 0 -0.0093107161839505338 0.017815098275649598 0 -0.0091553367102516648 0.015574199391106186 0 -0.0076244583361066908 0.015579880394147826 0 -0.0084989667455213861 0.014623571550385496 0 -0.0076221272603058023 0.015584982053929761 0 -0.0080617115155385364 0.013816962471507991 0 -0.0080617115155385364 0.013816962471507991 0 -0.0078566310716819687 0.012916135285065957 0 -0.0085691990804754592 0.012756392480222539 0 -0.0080617115155385364 0.013816962471507991 0 -0.0072481612530350967 0.01341381978751746 0 -0.0078566310716819687 0.012916135285065957 0 -0.0076221272603058023 0.015584982053929761 0 -0.0071594041765550617 0.014252954845139264 0 -0.0063045954942755542 0.014588386618495101 0 -0.0080617115155385364 0.013816962471507991 0 -0.0072481612530350967 0.01341381978751746 0 -0.0071594041765550617 0.014252954845139264 0 -0.0076221272603058023 0.015584982053929761 0 -0.0080617115155385364 0.013816962471507991 0 -0.0071594041765550617 0.014252954845139264 0 -0.0071594041765550617 0.014252954845139264 0 -0.0063045954942755542 0.014588386618495101 0 -0.0062995667571461552 0.013389798698417145 0 -0.0072481612530350967 0.01341381978751746 0 -0.0062995667571461552 0.013389798698417145 0 -0.0070351698695614038 0.012738968880797594 0 -0.0062995667571461552 0.013389798698417145 0 -0.0060908640780263923 0.012815703700593241 0 -0.0070351698695614038 0.012738968880797594 0 -0.0072481612530350967 0.01341381978751746 0 -0.0071594041765550617 0.014252954845139264 0 -0.0062995667571461552 0.013389798698417145 0 -0.016335254044375056 0.0035378511730635343 0 -0.016250172194831509 0.0034502915907329706 0 -0.016160574166553119 0.0035873058830056021 0 -0.010172417915284416 0.0097874536281996518 0 -0.011315631542982259 0.0091331697744920261 0 -0.0062995667571461552 0.013389798698417145 0 -0.0058037246982501041 0.01378741027829339 0 -0.0060908640780263923 0.012815703700593241 0 -0.0054942850234338206 0.015577015757764972 0 -0.0063045954942755542 0.014588386618495101 0 -0.0049167175133899288 0.014252438181474914 0 -0.0042933195627406018 0.01498103851688474 0 -0.010172417915284416 0.0097874536281996518 0 -0.0063045954942755542 0.014588386618495101 0 -0.0062995667571461552 0.013389798698417145 0 -0.0049167175133899288 0.014252438181474914 0 -0.016313706450342809 0.0036451521654295473 0 -0.016160574166553119 0.0035873058830056021 0 -0.016013663537686598 0.0037396666234678728 0 -0.016313706450342809 0.0036451521654295473 0 -0.016013663537686598 0.0037396666234678728 0 -0.016251513251855421 0.0038043703544324448 0 -0.016313706450342809 0.0036451521654295473 0 -0.016335254044375056 0.0035378511730635343 0 -0.016160574166553119 0.0035873058830056021 0 -0.0060908640780263923 0.012815703700593241 0 -0.0066298489744668924 0.011437588595334698 0 -0.0070351698695614038 0.012738968880797594 0 -0.011315631542982259 0.0091331697744920261 0 -0.0099836313698615873 0.0015959860059488881 0 -0.0099836313698615873 0.0015959860059488881 0 -0.0081570581039092302 0.0021218764528283425 0 -0.0066298489744668924 0.011437588595334698 0 -0.0070351698695614038 0.012738968880797594 0 -0.0077271425506798379 0.012049643153203171 0 -0.010363796714150485 -0.0074513430499037955 0 -0.0091842547486558346 -0.0078154711735010512 0 -0.0093861239282696136 -0.0071654059414346782 0 -0.0070351698695614038 0.012738968880797594 0 -0.0078566310716819687 0.012916135285065957 0 -0.0077271425506798379 0.012049643153203171 0 -0.0072481612530350967 0.01341381978751746 0 -0.0070351698695614038 0.012738968880797594 0 -0.0078566310716819687 0.012916135285065957 0 -0.0078566310716819687 0.012916135285065957 0 -0.0077271425506798379 0.012049643153203171 0 -0.0085691990804754592 0.012756392480222539 0 -0.0081570581039092302 0.0021218764528283425 0 -0.0083651077833677354 0.0023903694083679356 0 -0.008988602347191366 -0.0065363683167424004 0 -0.0093861239282696136 -0.0071654059414346782 0 -0.0084021025993187629 -0.0069589498620898377 0 -0.0091842547486558346 -0.0078154711735010512 0 -0.0093861239282696136 -0.0071654059414346782 0 -0.0084021025993187629 -0.0069589498620898377 0 -0.008988602347191366 -0.0065363683167424004 0 -0.0084021025993187629 -0.0069589498620898377 0 -0.0083985861815812565 -0.0063962516417764006 0 -0.008988602347191366 -0.0065363683167424004 0 -0.009677301704699293 -0.0065405332576078112 0 -0.0093861239282696136 -0.0071654059414346782 0 -0.008988602347191366 -0.0065363683167424004 0 -0.0083985861815812565 -0.0063962516417764006 0 -0.0087137886487620823 -0.0060091651885726804 0 -0.008988602347191366 -0.0065363683167424004 0 -0.0093867914668438676 -0.0060704599084741937 0 -0.0087137886487620823 -0.0060091651885726804 0 -0.008988602347191366 -0.0065363683167424004 0 -0.009677301704699293 -0.0065405332576078112 0 -0.0093867914668438676 -0.0060704599084741937 0 -0.009677301704699293 -0.0065405332576078112 0 -0.010127867112905619 -0.0061252052581367358 0 -0.0093867914668438676 -0.0060704599084741937 0 -0.009677301704699293 -0.0065405332576078112 0 -0.010133536444354541 -0.0064309418357769016 0 -0.010127867112905619 -0.0061252052581367358 0 -0.009677301704699293 -0.0065405332576078112 0 -0.0098700384934371239 -0.0068713555447986662 0 -0.010187097386004162 -0.0066840041102260604 0 -0.009677301704699293 -0.0065405332576078112 0 -0.010133536444354541 -0.0064309418357769016 0 -0.010187097386004162 -0.0066840041102260604 0 -0.0098700384934371239 -0.0068713555447986662 0 -0.010226862096021132 -0.0070949995447818345 0 -0.010187097386004162 -0.0066840041102260604 0 -0.010363796714150485 -0.0074513430499037955 0 -0.0093861239282696136 -0.0071654059414346782 0 -0.010226862096021132 -0.0070949995447818345 0 -0.0093861239282696136 -0.0071654059414346782 0 -0.0098700384934371239 -0.0068713555447986662 0 -0.010226862096021132 -0.0070949995447818345 0 -0.009677301704699293 -0.0065405332576078112 0 -0.0093861239282696136 -0.0071654059414346782 0 -0.0098700384934371239 -0.0068713555447986662 0 -0.010401909568693076 -0.0074365017507465074 0 -0.010670162904325603 -0.0067991139820643065 0 -0.010226862096021132 -0.0070949995447818345 0 -0.0099836313698615873 0.0015959860059488881 0 -0.011669463739124825 -0.00716044687701316 0 -0.010670162904325603 -0.0067991139820643065 0 -0.010226862096021132 -0.0070949995447818345 0 -0.010187097386004162 -0.0066840041102260604 0 -0.010670162904325603 -0.0067991139820643065 0 -0.010187097386004162 -0.0066840041102260604 0 -0.010533898671421437 -0.006379039894313477 0 -0.010133536444354541 -0.0064309418357769016 0 -0.010187097386004162 -0.0066840041102260604 0 -0.010533898671421437 -0.006379039894313477 0 -0.010133536444354541 -0.0064309418357769016 0 -0.010533898671421437 -0.006379039894313477 0 -0.010127867112905619 -0.0061252052581367358 0 -0.010835966614897745 -0.0064632447341802721 0 -0.010985474257719778 -0.0062326089061751988 0 -0.010783641113381922 -0.0062242061882245812 0 -0.010533898671421437 -0.006379039894313477 0 -0.010835966614897745 -0.0064632447341802721 0 -0.010783641113381922 -0.0062242061882245812 0 -0.010670162904325603 -0.0067991139820643065 0 -0.010533898671421437 -0.006379039894313477 0 -0.010835966614897745 -0.0064632447341802721 0 -0.010670162904325603 -0.0067991139820643065 0 -0.010835966614897745 -0.0064632447341802721 0 -0.011099760006707829 -0.0065608556568110673 0 -0.011099760006707829 -0.0065608556568110673 0 -0.011396032712568281 -0.0070354423826577729 0 -0.011381751323477896 -0.0060883705645948501 0 -0.011099760006707829 -0.0065608556568110673 0 -0.011170000179900679 -0.0062361276530580123 0 -0.010985474257719778 -0.0062326089061751988 0 -0.010835966614897745 -0.0064632447341802721 0 -0.011099760006707829 -0.0065608556568110673 0 -0.010985474257719778 -0.0062326089061751988 0 -0.011099760006707829 -0.0065608556568110673 0 -0.011170000179900679 -0.0062361276530580123 0 -0.011381751323477896 -0.0060883705645948501 0 -0.010401909568693076 -0.0074365017507465074 0 -0.010670162904325603 -0.0067991139820643065 0 -0.011396032712568281 -0.0070354423826577729 0 -0.010670162904325603 -0.0067991139820643065 0 -0.011099760006707829 -0.0065608556568110673 0 -0.011396032712568281 -0.0070354423826577729 0 -0.0099836313698615873 0.0015959860059488881 0 -0.01419890001738879 -0.0019521791990621778 0 -0.0062668096046922606 -0.0076807538847172225 0 -0.0062992398867211443 -0.0073815079000637846 0 -0.0065836189029641924 -0.0077329663395685339 0 -0.0069054073609169609 -0.0074113991162877216 0 -0.0062992398867211443 -0.0073815079000637846 0 -0.0065836189029641924 -0.0077329663395685339 0 -0.0062668096046922606 -0.0076807538847172225 0 -0.006554700312669655 -0.0078120504417793389 0 -0.0065836189029641924 -0.0077329663395685339 0 -0.006554700312669655 -0.0078120504417793389 0 -0.0065836189029641924 -0.0077329663395685339 0 -0.0070684924842778418 -0.0080333325009276715 0 -0.0069054073609169609 -0.0074113991162877216 0 -0.0065836189029641924 -0.0077329663395685339 0 -0.0070684924842778418 -0.0080333325009276715 0 -0.0079368133763777458 0.0025925906828821064 0 -0.0083651077833677354 0.0023903694083679356 0 -0.0070684924842778418 -0.0080333325009276715 0 -0.0080387562019994651 -0.008009873538268179 0 -0.007756034443285497 -0.0074552763896507009 0 -0.0091842547486558346 -0.0078154711735010512 0 -0.007756034443285497 -0.0074552763896507009 0 -0.0084021025993187629 -0.0069589498620898377 0 -0.0091842547486558346 -0.0078154711735010512 0 -0.0080387562019994651 -0.008009873538268179 0 -0.007756034443285497 -0.0074552763896507009 0 -0.0069054073609169609 -0.0074113991162877216 0 -0.0070684924842778418 -0.0080333325009276715 0 -0.007756034443285497 -0.0074552763896507009 0 -0.0069054073609169609 -0.0074113991162877216 0 -0.007756034443285497 -0.0074552763896507009 0 -0.0074881081273208971 -0.0069957678728332466 0 -0.007756034443285497 -0.0074552763896507009 0 -0.0074881081273208971 -0.0069957678728332466 0 -0.0084021025993187629 -0.0069589498620898377 0 -0.0074881081273208971 -0.0069957678728332466 0 -0.0084021025993187629 -0.0069589498620898377 0 -0.0077631292134831657 -0.006476393645784998 0 -0.0084021025993187629 -0.0069589498620898377 0 -0.0083985861815812565 -0.0063962516417764006 0 -0.0077631292134831657 -0.006476393645784998 0 -0.0083985861815812565 -0.0063962516417764006 0 -0.0077631292134831657 -0.006476393645784998 0 -0.0080515559081848626 -0.0059692322870718148 0 -0.0077631292134831657 -0.006476393645784998 0 -0.0068744132043526557 -0.0067803785937717125 0 -0.0073367121788638799 -0.0060162125854664556 0 -0.0074881081273208971 -0.0069957678728332466 0 -0.0077631292134831657 -0.006476393645784998 0 -0.0068744132043526557 -0.0067803785937717125 0 -0.0068744132043526557 -0.0067803785937717125 0 -0.0066912694983342373 -0.0062020557169087959 0 -0.0073367121788638799 -0.0060162125854664556 0 -0.0068744132043526557 -0.0067803785937717125 0 -0.0063418091323856254 -0.0066307268321496721 0 -0.0066912694983342373 -0.0062020557169087959 0 -0.0068744132043526557 -0.0067803785937717125 0 -0.0063534389469199221 -0.0070280255006664001 0 -0.0063418091323856254 -0.0066307268321496721 0 -0.0069054073609169609 -0.0074113991162877216 0 -0.0068744132043526557 -0.0067803785937717125 0 -0.0063534389469199221 -0.0070280255006664001 0 -0.0069054073609169609 -0.0074113991162877216 0 -0.0074881081273208971 -0.0069957678728332466 0 -0.0068744132043526557 -0.0067803785937717125 0 -0.0069054073609169609 -0.0074113991162877216 0 -0.0062992398867211443 -0.0073815079000637846 0 -0.0063534389469199221 -0.0070280255006664001 0 -0.0058932695037548881 -0.00702415703805371 0 -0.0062992398867211443 -0.0073815079000637846 0 -0.0063534389469199221 -0.0070280255006664001 0 -0.0058932695037548881 -0.00702415703805371 0 -0.0055139657408191664 -0.0066112472117346348 0 -0.0059946245155318434 -0.0067105280215846346 0 -0.0058932695037548881 -0.00702415703805371 0 -0.0063534389469199221 -0.0070280255006664001 0 -0.0059946245155318434 -0.0067105280215846346 0 -0.0063534389469199221 -0.0070280255006664001 0 -0.0059946245155318434 -0.0067105280215846346 0 -0.0063418091323856254 -0.0066307268321496721 0 -0.0059946245155318434 -0.0067105280215846346 0 -0.0063418091323856254 -0.0066307268321496721 0 -0.0058494735544716006 -0.0061842623342235987 0 -0.0063418091323856254 -0.0066307268321496721 0 -0.0058494735544716006 -0.0061842623342235987 0 -0.0066912694983342373 -0.0062020557169087959 0 -0.0055139657408191664 -0.0066112472117346348 0 -0.0059946245155318434 -0.0067105280215846346 0 -0.0058494735544716006 -0.0061842623342235987 0 -0.0058494735544716006 -0.0061842623342235987 0 -0.0054982154605699822 -0.0051337297533298239 0 -0.0049799784068023257 -0.0059523020212896242 0 -0.0055139657408191664 -0.0066112472117346348 0 -0.0058494735544716006 -0.0061842623342235987 0 -0.0049799784068023257 -0.0059523020212896242 0 -0.0054982154605699822 -0.0051337297533298239 0 -0.0064863421949563661 -0.0052606565462595548 0 -0.0063424324673884485 -0.0039661700675734596 0 -0.0058494735544716006 -0.0061842623342235987 0 -0.0054982154605699822 -0.0051337297533298239 0 -0.0064863421949563661 -0.0052606565462595548 0 -0.0065355455037850035 -0.0050657028197395055 0 -0.0063037507891762707 -0.0052457666124903646 0 -0.0066015625722616661 -0.0052505143989110678 0 -0.0072842774671234341 -0.0047783178710237755 0 -0.0065021729059680546 -0.004352857976772536 0 -0.0065355455037850035 -0.0050657028197395055 0 -0.0066776879042670691 -0.0061902939445782016 0 -0.0058494735544716006 -0.0061842623342235987 0 -0.0064863421949563661 -0.0052606565462595548 0 -0.0066912694983342373 -0.0062020557169087959 0 -0.0066015625722616661 -0.0052505143989110678 0 -0.0066912694983342373 -0.0062020557169087959 0 -0.0073367121788638799 -0.0060162125854664556 0 -0.0066015625722616661 -0.0052505143989110678 0 -0.0073367121788638799 -0.0060162125854664556 0 -0.0076540667750176405 -0.005401674778577642 0 -0.0077631292134831657 -0.006476393645784998 0 -0.0073367121788638799 -0.0060162125854664556 0 -0.0080515559081848626 -0.0059692322870718148 0 -0.0073367121788638799 -0.0060162125854664556 0 -0.0080515559081848626 -0.0059692322870718148 0 -0.0076540667750176405 -0.005401674778577642 0 -0.0080515559081848626 -0.0059692322870718148 0 -0.0084227091147861272 -0.0054811159571953091 0 -0.0076540667750176405 -0.005401674778577642 0 -0.0083985861815812565 -0.0063962516417764006 0 -0.0080515559081848626 -0.0059692322870718148 0 -0.0087137886487620823 -0.0060091651885726804 0 -0.0080515559081848626 -0.0059692322870718148 0 -0.0084227091147861272 -0.0054811159571953091 0 -0.0087137886487620823 -0.0060091651885726804 0 -0.0084227091147861272 -0.0054811159571953091 0 -0.0081923517931789969 -0.0048904611878539412 0 -0.0076540667750176405 -0.005401674778577642 0 -0.0084227091147861272 -0.0054811159571953091 0 -0.0081923517931789969 -0.0048904611878539412 0 -0.0088433590419868622 -0.0050718328595416072 0 -0.0066015625722616661 -0.0052505143989110678 0 -0.0072842774671234341 -0.0047783178710237755 0 -0.0076540667750176405 -0.005401674778577642 0 -0.0081923517931789969 -0.0048904611878539412 0 -0.0072842774671234341 -0.0047783178710237755 0 -0.0076540667750176405 -0.005401674778577642 0 -0.0081923517931789969 -0.0048904611878539412 0 -0.0072842774671234341 -0.0047783178710237755 0 -0.0078467596690196158 -0.004131690782498444 0 -0.0072842774671234341 -0.0047783178710237755 0 -0.0078467596690196158 -0.004131690782498444 0 -0.0065021729059680546 -0.004352857976772536 0 -0.0090991589600030627 -0.0068969468111840238 0 -0.0081891554446531668 -0.0060706350034118433 0 -0.0072466344641217836 -0.0071682719289588945 0 -0.0082682496562856891 -0.0053300893069027173 0 -0.0063037507891762707 -0.0052457666124903646 0 -0.0082682496562856891 -0.0053300893069027173 0 -0.011733986308517148 -0.0072579136646994261 0 -0.0081923517931789969 -0.0048904611878539412 0 -0.0078467596690196158 -0.004131690782498444 0 -0.0089565039726388022 -0.0045890147344637821 0 -0.0090991589600030627 -0.0068969468111840238 0 -0.009603712120743027 -0.005726967249713332 0 -0.010986040753094693 -0.0066142248666606462 0 -0.0090991589600030627 -0.0068969468111840238 0 -0.009603712120743027 -0.005726967249713332 0 -0.0081891554446531668 -0.0060706350034118433 0 -0.0063037507891762707 -0.0052457666124903646 0 -0.0052869564692150251 -0.0046962260393653621 0 -0.0081891554446531668 -0.0060706350034118433 0 -0.0072466344641217836 -0.0071682719289588945 0 -0.0070701763554504539 -0.0055821910669948951 0 -0.0036002392112420706 -0.0042637931361573693 0 -0.0039270186791439702 -0.0045165636473900421 0 -0.0038438412325696447 -0.0039887699440332904 0 -0.0036002392112420706 -0.0042637931361573693 0 -0.0038438412325696447 -0.0039887699440332904 0 -0.0034149528716633515 -0.003964015120022645 0 -0.0036002392112420706 -0.0042637931361573693 0 -0.0035527787904317543 -0.0045623578958596629 0 -0.0039270186791439702 -0.0045165636473900421 0 -0.0054982154605699822 -0.0051337297533298239 0 -0.0050160949538202706 -0.0041542902050644747 0 -0.0063424324673884485 -0.0039661700675734596 0 -0.0040886165758032087 -0.0044002234971262698 0 -0.0063037507891762707 -0.0052457666124903646 0 -0.015482969396246828 -0.0087744440545012709 0 -0.016367980777420521 -0.0090139084119347998 0 -0.016508672393260742 -0.0094869449368649682 0 -0.015242614413394936 -0.0078229602475569492 0 -0.014222504820694962 -0.0071982293582205205 0 -0.011273893575500009 -0.0060729042327298498 0 -0.011043237776960103 -0.00607737562256598 0 -0.010926304347149352 -0.0058392984164114979 0 -0.011273893575500009 -0.0060729042327298498 0 -0.011319151040089659 -0.0060891534166436848 0 -0.010926304347149352 -0.0058392984164114979 0 -0.013014951564624979 -0.0065958304867521434 0 -0.011015853871893039 -0.0061417765406995405 0 -0.015351689293640568 -0.00793855286428451 0 -0.012171314187123807 -0.0052258606769460996 0 -0.014058467896612874 -0.0086132749659400907 0 -0.012171314187123807 -0.0052258606769460996 0 -0.014058467896612874 -0.0086132749659400907 0 -0.010926304347149352 -0.0058392984164114979 0 -0.011170000179900679 -0.0062361276530580123 0 -0.011273893575500009 -0.0060729042327298498 0 -0.011043237776960103 -0.00607737562256598 0 -0.011170000179900679 -0.0062361276530580123 0 -0.011273893575500009 -0.0060729042327298498 0 -0.011381751323477896 -0.0060883705645948501 0 -0.012679637528591508 -0.0064687602382182546 0 -0.013014951564624979 -0.0065958304867521434 0 -0.010985474257719778 -0.0062326089061751988 0 -0.011043237776960103 -0.00607737562256598 0 -0.010890885282501279 -0.0060744744819530138 0 -0.011170000179900679 -0.0062361276530580123 0 -0.010985474257719778 -0.0062326089061751988 0 -0.011043237776960103 -0.00607737562256598 0 -0.011043237776960103 -0.00607737562256598 0 -0.010890885282501279 -0.0060744744819530138 0 -0.010926304347149352 -0.0058392984164114979 0 -0.010890885282501279 -0.0060744744819530138 0 -0.010632682325229669 -0.0060682526475334181 0 -0.010926304347149352 -0.0058392984164114979 0 -0.010890885282501279 -0.0060744744819530138 0 -0.010632682325229669 -0.0060682526475334181 0 -0.010783641113381922 -0.0062242061882245812 0 -0.010533898671421437 -0.006379039894313477 0 -0.010632682325229669 -0.0060682526475334181 0 -0.010783641113381922 -0.0062242061882245812 0 -0.010985474257719778 -0.0062326089061751988 0 -0.010890885282501279 -0.0060744744819530138 0 -0.010783641113381922 -0.0062242061882245812 0 -0.010533898671421437 -0.006379039894313477 0 -0.010632682325229669 -0.0060682526475334181 0 -0.010127867112905619 -0.0061252052581367358 0 -0.010632682325229669 -0.0060682526475334181 0 -0.010373478653122051 -0.0058519024453101334 0 -0.010127867112905619 -0.0061252052581367358 0 -0.010632682325229669 -0.0060682526475334181 0 -0.010373478653122051 -0.0058519024453101334 0 -0.010926304347149352 -0.0058392984164114979 0 -0.010373478653122051 -0.0058519024453101334 0 -0.010926304347149352 -0.0058392984164114979 0 -0.010136035705840794 -0.0053960325974315212 0 -0.012171314187123807 -0.0052258606769460996 0 -0.010926304347149352 -0.0058392984164114979 0 -0.010196990964679437 -0.0044061855745650145 0 -0.010926304347149352 -0.0058392984164114979 0 -0.010136035705840794 -0.0053960325974315212 0 -0.010196990964679437 -0.0044061855745650145 0 -0.014222504820694962 -0.0071982293582205205 0 -0.012886164848846419 -0.0068671553607775248 0 -0.0095061982905346142 -0.00509001391679489 0 -0.010136035705840794 -0.0053960325974315212 0 -0.010196990964679437 -0.0044061855745650145 0 -0.0095061982905346142 -0.00509001391679489 0 -0.0097668173310476985 -0.0056617466240147943 0 -0.0091006403652905965 -0.0055695932324946731 0 -0.0095061982905346142 -0.00509001391679489 0 -0.010136035705840794 -0.0053960325974315212 0 -0.0097668173310476985 -0.0056617466240147943 0 -0.010373478653122051 -0.0058519024453101334 0 -0.010127867112905619 -0.0061252052581367358 0 -0.0097668173310476985 -0.0056617466240147943 0 -0.010373478653122051 -0.0058519024453101334 0 -0.010136035705840794 -0.0053960325974315212 0 -0.0097668173310476985 -0.0056617466240147943 0 -0.010127867112905619 -0.0061252052581367358 0 -0.0097668173310476985 -0.0056617466240147943 0 -0.0093867914668438676 -0.0060704599084741937 0 -0.0097668173310476985 -0.0056617466240147943 0 -0.0091006403652905965 -0.0055695932324946731 0 -0.0093867914668438676 -0.0060704599084741937 0 -0.0091006403652905965 -0.0055695932324946731 0 -0.0093867914668438676 -0.0060704599084741937 0 -0.0087137886487620823 -0.0060091651885726804 0 -0.0084227091147861272 -0.0054811159571953091 0 -0.0091006403652905965 -0.0055695932324946731 0 -0.0087137886487620823 -0.0060091651885726804 0 -0.0081923517931789969 -0.0048904611878539412 0 -0.0088433590419868622 -0.0050718328595416072 0 -0.0089565039726388022 -0.0045890147344637821 0 -0.0084227091147861272 -0.0054811159571953091 0 -0.0091006403652905965 -0.0055695932324946731 0 -0.0088433590419868622 -0.0050718328595416072 0 -0.0095061982905346142 -0.00509001391679489 0 -0.0091006403652905965 -0.0055695932324946731 0 -0.0088433590419868622 -0.0050718328595416072 0 -0.0095061982905346142 -0.00509001391679489 0 -0.0088433590419868622 -0.0050718328595416072 0 -0.0089565039726388022 -0.0045890147344637821 0 -0.0078467596690196158 -0.004131690782498444 0 -0.0089565039726388022 -0.0045890147344637821 0 -0.0092131372326749641 -0.0038945046153026886 0 -0.010859935686641028 -0.0073580789292344044 0 -0.011733986308517148 -0.0072579136646994261 0 -0.011884791987393487 -0.0087840926727152588 0 -0.01422449909400654 -0.0084596546718120839 0 -0.013947310121974543 -0.0095591890136188153 0 -0.011733986308517148 -0.0072579136646994261 0 -0.014819525863133719 -0.0083549883751513846 0 -0.01422449909400654 -0.0084596546718120839 0 -0.013947310121974543 -0.0095591890136188153 0 -0.014911346269948608 -0.009159340448036745 0 -0.01422449909400654 -0.0084596546718120839 0 -0.014911346269948608 -0.009159340448036745 0 -0.015068979240720691 -0.008275594994278275 0 -0.014911346269948608 -0.009159340448036745 0 -0.015631318854551955 -0.0089795308745926686 0 -0.015068979240720691 -0.008275594994278275 0 -0.014341168907472635 -0.0092768346796938007 0 -0.014911346269948608 -0.009159340448036745 0 -0.015629233416502391 -0.0096043458101714232 0 -0.011733986308517148 -0.0072579136646994261 0 -0.012886164848846419 -0.0068671553607775248 0 -0.0089565039726388022 -0.0045890147344637821 0 -0.0092131372326749641 -0.0038945046153026886 0 -0.010196990964679437 -0.0044061855745650145 0 -0.014911346269948608 -0.009159340448036745 0 -0.015629233416502391 -0.0096043458101714232 0 -0.015631318854551955 -0.0089795308745926686 0 -0.0095061982905346142 -0.00509001391679489 0 -0.0089565039726388022 -0.0045890147344637821 0 -0.010196990964679437 -0.0044061855745650145 0 -0.015629233416502391 -0.0096043458101714232 0 -0.016052361501027203 -0.0092476159266270605 0 -0.015631318854551955 -0.0089795308745926686 0 -0.016367980777420521 -0.0090139084119347998 0 -0.015629233416502391 -0.0096043458101714232 0 -0.016172168255082178 -0.0093411968892931456 0 -0.015629233416502391 -0.0096043458101714232 0 -0.016172168255082178 -0.0093411968892931456 0 -0.016052361501027203 -0.0092476159266270605 0 -0.015631318854551955 -0.0089795308745926686 0 -0.015856819443710181 -0.0082566364659204007 0 -0.015068979240720691 -0.008275594994278275 0 -0.015631318854551955 -0.0089795308745926686 0 -0.016139570735093346 -0.0087990117374615751 0 -0.015856819443710181 -0.0082566364659204007 0 -0.016139570735093346 -0.0087990117374615751 0 -0.016480389439140746 -0.0083761146944765115 0 -0.015856819443710181 -0.0082566364659204007 0 -0.016052361501027203 -0.0092476159266270605 0 -0.015631318854551955 -0.0089795308745926686 0 -0.016139570735093346 -0.0087990117374615751 0 -0.016052361501027203 -0.0092476159266270605 0 -0.016139570735093346 -0.0087990117374615751 0 -0.016547338240339458 -0.0088781041870146533 0 -0.016139570735093346 -0.0087990117374615751 0 -0.016547338240339458 -0.0088781041870146533 0 -0.016480389439140746 -0.0083761146944765115 0 -0.016547338240339458 -0.0088781041870146533 0 -0.016480389439140746 -0.0083761146944765115 0 -0.017149086544419812 -0.00820239005987357 0 -0.018232618863152219 -0.0087380005692119962 0 -0.016547338240339458 -0.0088781041870146533 0 -0.017314006313556684 -0.0091758042514220959 0 -0.016547338240339458 -0.0088781041870146533 0 -0.017314006313556684 -0.0091758042514220959 0 -0.016508672393260742 -0.0094869449368649682 0 -0.016367980777420521 -0.0090139084119347998 0 -0.016172168255082178 -0.0093411968892931456 0 -0.016508672393260742 -0.0094869449368649682 0 -0.016052361501027203 -0.0092476159266270605 0 -0.016547338240339458 -0.0088781041870146533 0 -0.016508672393260742 -0.0094869449368649682 0 -0.016172168255082178 -0.0093411968892931456 0 -0.016052361501027203 -0.0092476159266270605 0 -0.016508672393260742 -0.0094869449368649682 0 -0.016532282093318078 -0.0072743730272352182 0 -0.017258719825863827 -0.0060609330004608546 0 -0.017774441590849326 -0.0074529572489780939 0 -0.016492948817037074 -0.0073024524000010254 0 -0.017528892199618892 -0.0061275346272543487 0 -0.016480389439140746 -0.0083761146944765115 0 -0.016492948817037074 -0.0073024524000010254 0 -0.017149086544419812 -0.00820239005987357 0 -0.017774441590849326 -0.0074529572489780939 0 -0.016492948817037074 -0.0073024524000010254 0 -0.017149086544419812 -0.00820239005987357 0 -0.015856819443710181 -0.0082566364659204007 0 -0.015260436147137355 -0.0072624452436522444 0 -0.015068979240720691 -0.008275594994278275 0 -0.016480389439140746 -0.0083761146944765115 0 -0.016492948817037074 -0.0073024524000010254 0 -0.015856819443710181 -0.0082566364659204007 0 -0.016492948817037074 -0.0073024524000010254 0 -0.015856819443710181 -0.0082566364659204007 0 -0.015260436147137355 -0.0072624452436522444 0 -0.016492948817037074 -0.0073024524000010254 0 -0.015260436147137355 -0.0072624452436522444 0 -0.015512508191667058 -0.0059436763285656219 0 -0.014385584397582042 -0.0065194584497175164 0 -0.015260436147137355 -0.0072624452436522444 0 -0.015512508191667058 -0.0059436763285656219 0 -0.014385584397582042 -0.0065194584497175164 0 -0.015260436147137355 -0.0072624452436522444 0 -0.014229404679405493 -0.0073949985298589812 0 -0.015260436147137355 -0.0072624452436522444 0 -0.015068979240720691 -0.008275594994278275 0 -0.014229404679405493 -0.0073949985298589812 0 -0.01422449909400654 -0.0084596546718120839 0 -0.015068979240720691 -0.008275594994278275 0 -0.014229404679405493 -0.0073949985298589812 0 -0.011884791987393487 -0.0087840926727152588 0 -0.01422449909400654 -0.0084596546718120839 0 -0.012951772213550714 -0.0074584386160783129 0 -0.01422449909400654 -0.0084596546718120839 0 -0.014229404679405493 -0.0073949985298589812 0 -0.012951772213550714 -0.0074584386160783129 0 -0.014257679564658701 -0.0073185351058368351 0 -0.012255558572213734 -0.0066509247387629613 0 -0.014229404679405493 -0.0073949985298589812 0 -0.012951772213550714 -0.0074584386160783129 0 -0.012229013831294523 -0.0060755944622277102 0 -0.014385584397582042 -0.0065194584497175164 0 -0.014229404679405493 -0.0073949985298589812 0 -0.01322424977113415 -0.0067097356442974744 0 -0.013618222950179455 -0.0055094149112134465 0 -0.012255558572213734 -0.0066509247387629613 0 -0.014385584397582042 -0.0065194584497175164 0 -0.014158928581897748 -0.0054843486940457965 0 -0.01322424977113415 -0.0067097356442974744 0 -0.013050867003201783 -0.0053954124053998548 0 -0.011699062351698658 -0.0073436214951032013 0 -0.011532649722010332 -0.0055213790715382847 0 -0.013050867003201783 -0.0053954124053998548 0 -0.011532649722010332 -0.0055213790715382847 0 -0.012106997278923597 -0.0041335984842687514 0 -0.013050867003201783 -0.0053954124053998548 0 -0.014233417274314989 -0.003753904336037357 0 -0.012106997278923597 -0.0041335984842687514 0 -0.013618222950179455 -0.0055094149112134465 0 -0.014654725655522031 -0.0040116674073725133 0 -0.014158928581897748 -0.0054843486940457965 0 -0.015512508191667058 -0.0059436763285656219 0 -0.015079991621622038 -0.0042773293967933723 0 -0.014385584397582042 -0.0065194584497175164 0 -0.014158928581897748 -0.0054843486940457965 0 -0.015512508191667058 -0.0059436763285656219 0 -0.015512508191667058 -0.0059436763285656219 0 -0.016301410229270209 -0.0047702842169282632 0 -0.015079991621622038 -0.0042773293967933723 0 -0.01756715841063055 -0.0048523981703387335 0 -0.016301410229270209 -0.0047702842169282632 0 -0.01700210366234892 -0.0060239079183990012 0 -0.015512508191667058 -0.0059436763285656219 0 -0.016301410229270209 -0.0047702842169282632 0 -0.01700210366234892 -0.0060239079183990012 0 -0.016492948817037074 -0.0073024524000010254 0 -0.015512508191667058 -0.0059436763285656219 0 -0.01700210366234892 -0.0060239079183990012 0 -0.0062430316155650221 -0.0046508957659008449 0 -0.0089993435101077112 -0.0063234905751062978 0 -0.0086702630053916256 -0.0059521209908809372 0 -0.0072041592181607862 -0.0063738522267000487 0 -0.0095030825628977141 -0.007638385198939732 0 -0.0086702630053916256 -0.0059521209908809372 0 -0.0072041592181607862 -0.0063738522267000487 0 -0.0071085788317623976 -0.0057311775080512205 0 -0.0037410572021921605 -0.003411389305663981 0 -0.0033880123690268643 -0.0034630506100735434 0 -0.0031019811942576683 -0.00315143950584852 0 -0.0062430316155650221 -0.0046508957659008449 0 -0.0066042627692375344 -0.0056994888776359231 0 -0.0037410572021921605 -0.003411389305663981 0 -0.0033880123690268643 -0.0034630506100735434 0 -0.0035120917492002185 -0.0036881376006092093 0 -0.0035120917492002185 -0.0036881376006092093 0 -0.0038438412325696447 -0.0039887699440332904 0 -0.0034149528716633515 -0.003964015120022645 0 -0.0062430316155650221 -0.0046508957659008449 0 -0.0052869564692150251 -0.0046962260393653621 0 -0.0037410572021921605 -0.003411389305663981 0 -0.0035120917492002185 -0.0036881376006092093 0 -0.0038438412325696447 -0.0039887699440332904 0 -0.0081891554446531668 -0.0060706350034118433 0 -0.0070701763554504539 -0.0055821910669948951 0 -0.0082363894116580013 -0.0048608133336057744 0 -0.0068854248373214529 -0.0040013991080712803 0 -0.0070701763554504539 -0.0055821910669948951 0 -0.0082363894116580013 -0.0048608133336057744 0 -0.010859935686641028 -0.0073580789292344044 0 -0.0089993435101077112 -0.0063234905751062978 0 -0.011884791987393487 -0.0087840926727152588 0 -0.0095030825628977141 -0.007638385198939732 0 -0.01044527119780626 -0.006393376886210742 0 -0.009603712120743027 -0.005726967249713332 0 -0.0081891554446531668 -0.0060706350034118433 0 -0.0082363894116580013 -0.0048608133336057744 0 -0.011884791987393487 -0.0087840926727152588 0 -0.012951772213550714 -0.0074584386160783129 0 -0.012028599549596709 -0.0063275452448415597 0 -0.011884791987393487 -0.0087840926727152588 0 -0.012028599549596709 -0.0063275452448415597 0 -0.01044527119780626 -0.006393376886210742 0 -0.012028599549596709 -0.0063275452448415597 0 -0.012217717518297972 -0.0060718231442567425 0 -0.01044527119780626 -0.006393376886210742 0 -0.012951772213550714 -0.0074584386160783129 0 -0.012028599549596709 -0.0063275452448415597 0 -0.012229013831294523 -0.0060755944622277102 0 -0.01226908346546487 -0.0065807116452126901 0 -0.012255558572213734 -0.0066509247387629613 0 -0.012217717518297972 -0.0060718231442567425 0 -0.01044527119780626 -0.006393376886210742 0 -0.0099682768867391351 -0.0048100954960425242 0 -0.0086702630053916256 -0.0059521209908809372 0 -0.0095030825628977141 -0.007638385198939732 0 -0.01044527119780626 -0.006393376886210742 0 -0.0086702630053916256 -0.0059521209908809372 0 -0.01044527119780626 -0.006393376886210742 0 -0.0099682768867391351 -0.0048100954960425242 0 -0.011699062351698658 -0.0073436214951032013 0 -0.0099507319838027034 -0.006272462451598718 0 -0.011532649722010332 -0.0055213790715382847 0 -0.012255558572213734 -0.0066509247387629613 0 -0.0099176468269794871 -0.0055476911518747632 0 -0.011532649722010332 -0.0055213790715382847 0 -0.010616528452479533 -0.0045272305084182191 0 -0.012106997278923597 -0.0041335984842687514 0 -0.0099507319838027034 -0.006272462451598718 0 -0.010616528452479533 -0.0045272305084182191 0 -0.0079777642108934243 -0.0050196280996384493 0 -0.0099507319838027034 -0.006272462451598718 0 -0.011532649722010332 -0.0055213790715382847 0 -0.010616528452479533 -0.0045272305084182191 0 -0.010616528452479533 -0.0045272305084182191 0 -0.0079777642108934243 -0.0050196280996384493 0 -0.0092228175885193976 -0.0033532631883893085 0 -0.0086702630053916256 -0.0059521209908809372 0 -0.0099682768867391351 -0.0048100954960425242 0 -0.007940482829181153 -0.0049318053532213767 0 -0.0099682768867391351 -0.0048100954960425242 0 -0.007705910711676988 -0.0037465535597161759 0 -0.007940482829181153 -0.0049318053532213767 0 -0.0099176468269794871 -0.0055476911518747632 0 -0.0078580273388872222 -0.0043686339427959344 0 -0.0086702630053916256 -0.0059521209908809372 0 -0.007940482829181153 -0.0049318053532213767 0 -0.0071085788317623976 -0.0057311775080512205 0 -0.0071085788317623976 -0.0057311775080512205 0 -0.0064131420312050665 -0.0044544311145402228 0 -0.0050620006397211481 -0.0050615529111939618 0 -0.0062430316155650221 -0.0046508957659008449 0 -0.003952428808186235 -0.0040884124352912167 0 -0.0071815518226534996 -0.0063445781139935065 0 -0.0071085788317623976 -0.0057311775080512205 0 -0.0050620006397211481 -0.0050615529111939618 0 -0.007940482829181153 -0.0049318053532213767 0 -0.0071085788317623976 -0.0057311775080512205 0 -0.0064131420312050665 -0.0044544311145402228 0 -0.007705910711676988 -0.0037465535597161759 0 -0.007940482829181153 -0.0049318053532213767 0 -0.0064131420312050665 -0.0044544311145402228 0 -0.007705910711676988 -0.0037465535597161759 0 -0.0064131420312050665 -0.0044544311145402228 0 -0.0057767099065676557 -0.0030486980410085293 0 -0.0078580273388872222 -0.0043686339427959344 0 -0.0059646012840532713 -0.00316899081678513 0 -0.0079777642108934243 -0.0050196280996384493 0 -0.0057767099065676557 -0.0030486980410085293 0 -0.0075020986708870512 -0.00316052624463963 0 -0.0064131420312050665 -0.0044544311145402228 0 -0.0045075432697948316 -0.0033400330732906614 0 -0.0057767099065676557 -0.0030486980410085293 0 -0.0064131420312050665 -0.0044544311145402228 0 -0.0045075432697948316 -0.0033400330732906614 0 -0.0050620006397211481 -0.0050615529111939618 0 -0.0045075432697948316 -0.0033400330732906614 0 -0.0029468316257659122 -0.0033412390611501025 0 -0.0032397241503156764 -0.0026381021716406702 0 -0.0045075432697948316 -0.0033400330732906614 0 -0.0029468316257659122 -0.0033412390611501025 0 -0.0050620006397211481 -0.0050615529111939618 0 -0.0029468316257659122 -0.0033412390611501025 0 -0.0028025123527237765 -0.003235877655927628 0 -0.0025954089463583897 -0.0031929970955197244 0 -0.0030872939969082149 -0.0034238488621377268 0 -0.003952428808186235 -0.0040884124352912167 0 -0.0028025123527237765 -0.003235877655927628 0 -0.0031019811942576683 -0.00315143950584852 0 -0.0028003476915639978 -0.0034708100565542127 0 -0.0029468316257659122 -0.0033412390611501025 0 -0.0028025123527237765 -0.003235877655927628 0 -0.0031019811942576683 -0.00315143950584852 0 -0.00092966788499355079 -0.0053784705413253975 0 0.0003469064452514341 -0.0031500310436342605 0 -0.0022211015385339883 -0.0027515532218981716 0 -0.0021611840684505343 -0.0030454378115661903 0 -0.0014181932488245435 -0.0028758549339399585 0 0.0021504330502535984 -0.004357227391778515 0 0.001915992232072434 -0.0040019600291057687 0 0.0019522951217860044 -0.0044505636136930879 0 -0.0022211015385339883 -0.0027515532218981716 0 -0.0026243905188103782 -0.003062458179073713 0 -0.0021611840684505343 -0.0030454378115661903 0 -0.001945355147065383 -0.0028539617855322902 0 -0.0026243905188103782 -0.003062458179073713 0 -0.0032397241503156764 -0.0026381021716406702 0 -0.0026243905188103782 -0.003062458179073713 0 -0.0025954089463583897 -0.0031929970955197244 0 -0.0021611840684505343 -0.0030454378115661903 0 -0.00092966788499355079 -0.0053784705413253975 0 -0.0023062553708779448 -0.0035250494221251692 0 -0.0029468316257659122 -0.0033412390611501025 0 -0.0026243905188103782 -0.003062458179073713 0 -0.0032397241503156764 -0.0026381021716406702 0 -0.0029468316257659122 -0.0033412390611501025 0 -0.0026243905188103782 -0.003062458179073713 0 -0.0025954089463583897 -0.0031929970955197244 0 -0.0028025123527237765 -0.003235877655927628 0 -0.0025954089463583897 -0.0031929970955197244 0 -0.0023335419858654142 -0.0032363108113411289 0 -0.0025954089463583897 -0.0031929970955197244 0 -0.0023335419858654142 -0.0032363108113411289 0 -0.0021611840684505343 -0.0030454378115661903 0 -0.0023335419858654142 -0.0032363108113411289 0 -0.0021611840684505343 -0.0030454378115661903 0 -0.0016922248381838773 -0.0032077862113145685 0 -0.0021611840684505343 -0.0030454378115661903 0 -0.0016922248381838773 -0.0032077862113145685 0 -0.0014181932488245435 -0.0028758549339399585 0 -0.0023335419858654142 -0.0032363108113411289 0 -0.0016922248381838773 -0.0032077862113145685 0 -0.0020807184446974113 -0.0035185255874237917 0 -0.0016922248381838773 -0.0032077862113145685 0 -0.0020807184446974113 -0.0035185255874237917 0 -0.0012642320216957725 -0.003549254735965159 0 -0.0023335419858654142 -0.0032363108113411289 0 -0.0020807184446974113 -0.0035185255874237917 0 -0.0028003476915639978 -0.0034708100565542127 0 -0.0020807184446974113 -0.0035185255874237917 0 -0.0025114709794593791 -0.0038221312501245087 0 -0.0016191333825435791 -0.0040714867004204179 0 -0.0020807184446974113 -0.0035185255874237917 0 -0.0025114709794593791 -0.0038221312501245087 0 -0.0028003476915639978 -0.0034708100565542127 0 -0.0020807184446974113 -0.0035185255874237917 0 -0.0016191333825435791 -0.0040714867004204179 0 -0.0012642320216957725 -0.003549254735965159 0 -0.0033880123690268643 -0.0034630506100735434 0 -0.0031019811942576683 -0.00315143950584852 0 -0.0031987996148159946 -0.0036337590701646574 0 -0.0031019811942576683 -0.00315143950584852 0 -0.0028003476915639978 -0.0034708100565542127 0 -0.0031987996148159946 -0.0036337590701646574 0 -0.0033880123690268643 -0.0034630506100735434 0 -0.0035120917492002185 -0.0036881376006092093 0 -0.0031987996148159946 -0.0036337590701646574 0 -0.0028025123527237765 -0.003235877655927628 0 -0.0023335419858654142 -0.0032363108113411289 0 -0.0028003476915639978 -0.0034708100565542127 0 -0.0028003476915639978 -0.0034708100565542127 0 -0.0029863513314864602 -0.0038905225391671085 0 -0.0031987996148159946 -0.0036337590701646574 0 -0.0025114709794593791 -0.0038221312501245087 0 -0.0028003476915639978 -0.0034708100565542127 0 -0.0029863513314864602 -0.0038905225391671085 0 -0.0029863513314864602 -0.0038905225391671085 0 -0.0031987996148159946 -0.0036337590701646574 0 -0.0034149528716633515 -0.003964015120022645 0 -0.0035120917492002185 -0.0036881376006092093 0 -0.0031987996148159946 -0.0036337590701646574 0 -0.0034149528716633515 -0.003964015120022645 0 -0.0029863513314864602 -0.0038905225391671085 0 -0.0034149528716633515 -0.003964015120022645 0 -0.0033010988329286429 -0.0042841120303735774 0 -0.0036002392112420706 -0.0042637931361573693 0 -0.0034149528716633515 -0.003964015120022645 0 -0.0033010988329286429 -0.0042841120303735774 0 -0.0036002392112420706 -0.0042637931361573693 0 -0.0035527787904317543 -0.0045623578958596629 0 -0.0033010988329286429 -0.0042841120303735774 0 -0.0040886165758032087 -0.0044002234971262698 0 -0.00354549535710969 -0.0045726304012067582 0 -0.0035527787904317543 -0.0045623578958596629 0 -0.0033010988329286429 -0.0042841120303735774 0 -0.0033720446281267414 -0.004644921983915226 0 -0.0033010988329286429 -0.0042841120303735774 0 -0.0033720446281267414 -0.004644921983915226 0 -0.0026303634910782338 -0.0043356692962073194 0 -0.0033720446281267414 -0.004644921983915226 0 -0.0026303634910782338 -0.0043356692962073194 0 -0.002321844649360737 -0.0051807329631526006 0 -0.0025114709794593791 -0.0038221312501245087 0 -0.0029863513314864602 -0.0038905225391671085 0 -0.0026303634910782338 -0.0043356692962073194 0 -0.0029863513314864602 -0.0038905225391671085 0 -0.0033010988329286429 -0.0042841120303735774 0 -0.0026303634910782338 -0.0043356692962073194 0 -0.0025114709794593791 -0.0038221312501245087 0 -0.0026303634910782338 -0.0043356692962073194 0 -0.0016191333825435791 -0.0040714867004204179 0 -0.0026303634910782338 -0.0043356692962073194 0 -0.0016191333825435791 -0.0040714867004204179 0 -0.0015359196002867898 -0.0049122944994779262 0 -0.0016191333825435791 -0.0040714867004204179 0 -0.0015359196002867898 -0.0049122944994779262 0 -0.00076507911242018546 -0.0047200905296300054 0 -0.0026303634910782338 -0.0043356692962073194 0 -0.0015359196002867898 -0.0049122944994779262 0 -0.002321844649360737 -0.0051807329631526006 0 -0.002321844649360737 -0.0051807329631526006 0 -0.001446594211819081 -0.0057660985456439813 0 -0.002183930031884418 -0.0058798246545407259 0 -0.002321844649360737 -0.0051807329631526006 0 -0.002183930031884418 -0.0058798246545407259 0 -0.0030331718729529581 -0.0055938040211788156 0 -0.0015359196002867898 -0.0049122944994779262 0 -0.001446594211819081 -0.0057660985456439813 0 -0.00057982237918111036 -0.0056917057880155756 0 -0.0015359196002867898 -0.0049122944994779262 0 -0.002321844649360737 -0.0051807329631526006 0 -0.001446594211819081 -0.0057660985456439813 0 -0.001446594211819081 -0.0057660985456439813 0 -0.0016080205267930789 -0.0064451167291384968 0 -0.00076060906146387032 -0.0065285514863357274 0 -0.001446594211819081 -0.0057660985456439813 0 -0.0016080205267930789 -0.0064451167291384968 0 -0.002183930031884418 -0.0058798246545407259 0 -0.0016080205267930789 -0.0064451167291384968 0 -0.002183930031884418 -0.0058798246545407259 0 -0.0025683266217514386 -0.0064440511557957237 0 -0.002183930031884418 -0.0058798246545407259 0 -0.0025683266217514386 -0.0064440511557957237 0 -0.0030331718729529581 -0.0055938040211788156 0 -0.0037208817194580501 -0.006452294411138486 0 -0.0041729294690644562 -0.0052746120404857551 0 -0.0030331718729529581 -0.0055938040211788156 0 -0.0025683266217514386 -0.0064440511557957237 0 -0.0037208817194580501 -0.006452294411138486 0 -0.0030331718729529581 -0.0055938040211788156 0 -0.0044357847756035752 -0.0070467860141456094 0 -0.0037208817194580501 -0.006452294411138486 0 -0.0049799784068023257 -0.0059523020212896242 0 -0.0049357915124092853 -0.0069064883337427987 0 -0.0050341311214932476 -0.0059391406418718646 0 -0.0037208817194580501 -0.006452294411138486 0 -0.0049799784068023257 -0.0059523020212896242 0 -0.0041729294690644562 -0.0052746120404857551 0 -0.0050160949538202706 -0.0041542902050644747 0 -0.0033720446281267414 -0.004644921983915226 0 -0.0041729294690644562 -0.0052746120404857551 0 -0.0054982154605699822 -0.0051337297533298239 0 -0.0049799784068023257 -0.0059523020212896242 0 -0.0041729294690644562 -0.0052746120404857551 0 -0.0054982154605699822 -0.0051337297533298239 0 -0.0050160949538202706 -0.0041542902050644747 0 -0.0041729294690644562 -0.0052746120404857551 0 -0.0033720446281267414 -0.004644921983915226 0 -0.0041729294690644562 -0.0052746120404857551 0 -0.0030331718729529581 -0.0055938040211788156 0 -0.0033720446281267414 -0.004644921983915226 0 -0.002321844649360737 -0.0051807329631526006 0 -0.0030331718729529581 -0.0055938040211788156 0 0.0012018848338924679 -0.0063039149232354463 0 0.0021486272662109935 -0.0054265696561926532 0 0.0027932225018252542 -0.0068844782471268453 0 0.0012018848338924679 -0.0063039149232354463 0 0.00096125601426993285 -0.0054650188022897775 0 0.0021486272662109935 -0.0054265696561926532 0 0.0021486272662109935 -0.0054265696561926532 0 0.0032708028548558816 -0.0059153242979485907 0 0.0027932225018252542 -0.0068844782471268453 0 0.0032708028548558816 -0.0059153242979485907 0 0.0027932225018252542 -0.0068844782471268453 0 0.0045647427497424904 -0.0064778051007077378 0 0.0027932225018252542 -0.0068844782471268453 0 0.0017989562791013197 -0.0077674126232400139 0 0.0037763188066667602 -0.0074802061901730063 0 0.003005905334218642 -0.0070674168031334686 0 0.0040418884995841878 -0.0078027135315621365 0 0.0012018848338924679 -0.0063039149232354463 0 0.0017989562791013197 -0.0077674126232400139 0 -7.5132062943740672e-05 -0.0066223382328769818 0 0.0012018848338924679 -0.0063039149232354463 0 0.0027932225018252542 -0.0068844782471268453 0 0.0017989562791013197 -0.0077674126232400139 0 0.0012018848338924679 -0.0063039149232354463 0 -7.5132062943740672e-05 -0.0066223382328769818 0 0.00020325263253234235 -0.0059501263955224022 0 0.00099307051063642526 -0.0072489877959745052 0 0.00015066726827045433 -0.0067055113569922803 0 -7.5132062943740672e-05 -0.0066223382328769818 0 -0.00076060906146387032 -0.0065285514863357274 0 -0.00057982237918111036 -0.0056917057880155756 0 -0.001446594211819081 -0.0057660985456439813 0 -0.00076060906146387032 -0.0065285514863357274 0 -0.00057982237918111036 -0.0056917057880155756 0 -7.5132062943740672e-05 -0.0066223382328769818 0 -0.00057982237918111036 -0.0056917057880155756 0 0.00020325263253234235 -0.0059501263955224022 0 0.0012018848338924679 -0.0063039149232354463 0 0.00096125601426993285 -0.0054650188022897775 0 0.00020325263253234235 -0.0059501263955224022 0 -0.00057982237918111036 -0.0056917057880155756 0 0.00020325263253234235 -0.0059501263955224022 0 0.00026986753272053188 -0.0050690270525230712 0 0.00096125601426993285 -0.0054650188022897775 0 0.00020325263253234235 -0.0059501263955224022 0 0.00026986753272053188 -0.0050690270525230712 0 0.00026986753272053188 -0.0050690270525230712 0 -0.0002243102813982513 -0.0039946160349798284 0 0.0011521145293072802 -0.004515488961939788 0 0.00096125601426993285 -0.0054650188022897775 0 0.00026986753272053188 -0.0050690270525230712 0 0.0011521145293072802 -0.004515488961939788 0 0.00026986753272053188 -0.0050690270525230712 0 -0.00076507911242018546 -0.0047200905296300054 0 -0.0002243102813982513 -0.0039946160349798284 0 -0.0015359196002867898 -0.0049122944994779262 0 -0.00057982237918111036 -0.0056917057880155756 0 -0.00076507911242018546 -0.0047200905296300054 0 -0.00057982237918111036 -0.0056917057880155756 0 0.00026986753272053188 -0.0050690270525230712 0 -0.00076507911242018546 -0.0047200905296300054 0 -0.0016191333825435791 -0.0040714867004204179 0 -0.00076507911242018546 -0.0047200905296300054 0 -0.0002243102813982513 -0.0039946160349798284 0 -0.0016191333825435791 -0.0040714867004204179 0 -0.0002243102813982513 -0.0039946160349798284 0 -0.0012642320216957725 -0.003549254735965159 0 -0.0002243102813982513 -0.0039946160349798284 0 0.0015370012783107875 -0.0037274673550554112 0 0.0011521145293072802 -0.004515488961939788 0 0.0015370012783107875 -0.0037274673550554112 0 0.0011521145293072802 -0.004515488961939788 0 0.0022448896208401162 -0.0039233233921289164 0 0.0021486272662109935 -0.0054265696561926532 0 0.0011521145293072802 -0.004515488961939788 0 0.0022448896208401162 -0.0039233233921289164 0 0.00096125601426993285 -0.0054650188022897775 0 0.0021486272662109935 -0.0054265696561926532 0 0.0011521145293072802 -0.004515488961939788 0 0.0021486272662109935 -0.0054265696561926532 0 0.0036690099335536176 -0.0048789146151845455 0 0.0022448896208401162 -0.0039233233921289164 0 0.0021486272662109935 -0.0054265696561926532 0 0.0032708028548558816 -0.0059153242979485907 0 0.0036690099335536176 -0.0048789146151845455 0 0.0036690099335536176 -0.0048789146151845455 0 0.0022448896208401162 -0.0039233233921289164 0 0.0038842394879294645 -0.0037208286324546284 0 0.0022448896208401162 -0.0039233233921289164 0 0.0036665494378268974 -0.0024407032470658012 0 0.0026581376548671376 -0.0005385211522815175 0 0.0022448896208401162 -0.0039233233921289164 0 0.0036665494378268974 -0.0024407032470658012 0 0.0038842394879294645 -0.0037208286324546284 0 0.0022943228002599908 -0.0042909647289100837 0 0.001818358516281678 -0.0012186150966210692 0 0.0015370012783107875 -0.0037274673550554112 0 0.0022448896208401162 -0.0039233233921289164 0 0.0014802060758242923 -0.003594673744115707 0 0.0036665494378268974 -0.0024407032470658012 0 0.0026581376548671376 -0.0005385211522815175 0 0.0045220547991533747 -0.0013462170911746417 0 0.0026581376548671376 -0.0005385211522815175 0 0.0045220547991533747 -0.0013462170911746417 0 0.0046291763302188675 0.00040543829167161448 0 0.0015370012783107875 -0.0037274673550554112 0 0.0014802060758242923 -0.003594673744115707 0 0.0016512909023486532 -0.0036876748748085881 0 0.0014837139350131058 -0.0037498167082900776 0 0.00076965810271883148 -0.0034769264617329535 0 0.0014802060758242923 -0.003594673744115707 0 0.0016512909023486532 -0.0036876748748085881 0 0.0016240031190160856 -0.0039644342293452296 0 0.0026581376548671376 -0.0005385211522815175 0 0.0027698354025641656 0.0020078043839552809 0 0.0046291763302188675 0.00040543829167161448 0 0.001818358516281678 -0.0012186150966210692 0 0.0039219406647730505 -0.0048129961615270764 0 -0.0002243102813982513 -0.0039946160349798284 0 -0.0012642320216957725 -0.003549254735965159 0 -0.00020782325974203798 -0.003064825817393172 0 -0.0002243102813982513 -0.0039946160349798284 0 0.0015370012783107875 -0.0037274673550554112 0 -0.00020782325974203798 -0.003064825817393172 0 0.00076965810271883148 -0.0034769264617329535 0 0.0003469064452514341 -0.0031500310436342605 0 -0.0016922248381838773 -0.0032077862113145685 0 -0.00020782325974203798 -0.003064825817393172 0 -0.0014181932488245435 -0.0028758549339399585 0 -0.0016922248381838773 -0.0032077862113145685 0 -0.0012642320216957725 -0.003549254735965159 0 -0.00020782325974203798 -0.003064825817393172 0 0.001915992232072434 -0.0040019600291057687 0 0.0016240031190160856 -0.0039644342293452296 0 0.001761527252217548 -0.0042509153568192166 0 0.0016512909023486532 -0.0036876748748085881 0 0.001915992232072434 -0.0040019600291057687 0 0.0016240031190160856 -0.0039644342293452296 0 0.0016240031190160856 -0.0039644342293452296 0 0.001761527252217548 -0.0042509153568192166 0 0.0015487287969607893 -0.0042885292679175416 0 0.001915992232072434 -0.0040019600291057687 0 0.001761527252217548 -0.0042509153568192166 0 0.0019522951217860044 -0.0044505636136930879 0 0.0076642582890471701 -0.007525284711951327 0 0.0087439988807749471 -0.0066001338745815116 0 0.0093193404167664605 -0.0076805675732603221 0 0.0039219406647730505 -0.0048129961615270764 0 0.0070721768021027752 -0.0040116828557741086 0 0.0014802060758242923 -0.003594673744115707 0 0.0016240031190160856 -0.0039644342293452296 0 0.0013821829548220613 -0.004030745038514639 0 0.0016240031190160856 -0.0039644342293452296 0 0.0013821829548220613 -0.004030745038514639 0 0.0015487287969607893 -0.0042885292679175416 0 0.0034193328849740578 -0.0098062508240658094 0 0.0038043498476885915 -0.010295169058283954 0 0.003610818275328072 -0.010506519828752274 0 0.0039219406647730505 -0.0048129961615270764 0 0.0025212637412409832 -0.0068721709646761093 0 0.0034193328849740578 -0.0098062508240658094 0 0.0034561922316769926 -0.010519518467799896 0 0.003610818275328072 -0.010506519828752274 0 0.0076642582890471701 -0.007525284711951327 0 0.0087439988807749471 -0.0066001338745815116 0 0.0076534718839898564 -0.0056768709995195978 0 0.0039219406647730505 -0.0048129961615270764 0 0.0053532963862821829 -0.0091882693673029803 0 0.0087439988807749471 -0.0066001338745815116 0 0.0076534718839898564 -0.0056768709995195978 0 0.009466260891436382 -0.0054696972281765401 0 0.0038284047242992847 -0.011005388147587182 0 0.0038152750276165704 -0.010591824468754925 0 0.0051433704263164999 -0.01061418292640077 0 0.0032044626673550522 -0.015344180202927981 0 0.0061777867683767166 -0.019054818719706806 0 0.0053532963862821829 -0.0091882693673029803 0 0.0084693829448684397 -0.012674242424930118 0 0.0038152750276165704 -0.010591824468754925 0 0.0036049982403210355 -0.010542389704520523 0 0.0051433704263164999 -0.01061418292640077 0 0.0053532963862821829 -0.0091882693673029803 0 0.0048595499508268247 -0.010321831487345039 0 0.0037165670554334621 -0.01059990999159406 0 0.0038152750276165704 -0.010591824468754925 0 0.0036049982403210355 -0.010542389704520523 0 0.0037792603852751733 -0.010523025948989849 0 0.0036049982403210355 -0.010542389704520523 0 0.0039144321606635344 -0.010637685879755639 0 0.0032044626673550522 -0.015344180202927981 0 0.0010940558970429519 -0.017681589023174835 0 0.0038043498476885915 -0.010295169058283954 0 0.0037792603852751733 -0.010523025948989849 0 0.003610818275328072 -0.010506519828752274 0 0.0037165670554334621 -0.01059990999159406 0 0.003610818275328072 -0.010506519828752274 0 0.0036049982403210355 -0.010542389704520523 0 0.0053532963862821829 -0.0091882693673029803 0 0.0041531137017618196 -0.0096122516196185948 0 0.0037792603852751733 -0.010523025948989849 0 0.003610818275328072 -0.010506519828752274 0 0.0036049982403210355 -0.010542389704520523 0 0.0027636145507933915 -0.021102016663942978 0 0.0025254993173208138 -0.020719921905898588 0 0.0016630476785616437 -0.021014088397791682 0 -0.00040753217090273527 -0.027731042276943483 0 -0.0006172477926272797 -0.027631176716602757 0 -0.00083407031957759379 -0.027807319292063332 0 0.0027636145507933915 -0.021102016663942978 0 0.0033909393506372175 -0.020402989795398063 0 0.0038670855014401309 -0.021148306456394525 0 0.00032733137852389191 -0.024616091745570435 0 0.0035531909940181984 -0.027439351028208964 0 -0.00040753217090273527 -0.027731042276943483 0 -0.00088982992286405728 -0.027409582615093978 0 -0.00034239030567276974 -0.027918590950970001 0 0.0027636145507933915 -0.021102016663942978 0 0.0025254993173208138 -0.020719921905898588 0 0.0033909393506372175 -0.020402989795398063 0 0.0042135578924434418 -0.035122473615144936 0 0.0038116486850316511 -0.034626986880757743 0 0.004378349873943606 -0.034634522093555789 0 -0.00088982992286405728 -0.027409582615093978 0 -0.00034239030567276974 -0.027918590950970001 0 -0.00031006335750376153 -0.029046273058966919 0 0.0035531909940181984 -0.027439351028208964 0 0.0017028677893315117 -0.032474739059437853 0 -0.00040753217090273527 -0.027731042276943483 0 -0.00034239030567276974 -0.027918590950970001 0 -0.0006172477926272797 -0.027631176716602757 0 -0.00034239030567276974 -0.027918590950970001 0 -0.0006172477926272797 -0.027631176716602757 0 -0.00074461277616699848 -0.026876363993071545 0 -0.00030866858241010062 -0.027888440394655087 0 0.00029965645858544298 -0.02821568971004304 0 0.0038116486850316511 -0.034626986880757743 0 0.0038719637910235544 -0.03421195765154008 0 0.0031625588846966213 -0.034000443008320655 0 0.0017028677893315117 -0.032474739059437853 0 0.0020495746156903778 -0.032471898209244947 0 -0.00031006335750376153 -0.029046273058966919 0 0.0014909005744075099 -0.029561323155383117 0 0.00094979157629352556 -0.031297896485262516 0 -0.00034239030567276974 -0.027918590950970001 0 -0.00031006335750376153 -0.029046273058966919 0 0.0014909005744075099 -0.029561323155383117 0 0.0038116486850316511 -0.034626986880757743 0 0.0041125031075137809 -0.034429247013327439 0 0.0038719637910235544 -0.03421195765154008 0 0.0038116486850316511 -0.034626986880757743 0 0.0041125031075137809 -0.034429247013327439 0 0.004378349873943606 -0.034634522093555789 0 0.0041125031075137809 -0.034429247013327439 0 0.0043360792687001876 -0.034144625159537215 0 0.004378349873943606 -0.034634522093555789 0 -0.0015373397037753576 -0.026917934925924602 0 -0.0021803071154294037 -0.02665045704309256 0 -0.00156525708573767 -0.02608957648585087 0 -0.0015373397037753576 -0.026917934925924602 0 -0.00074461277616699848 -0.026876363993071545 0 -0.00156525708573767 -0.02608957648585087 0 0.00029965645858544298 -0.02821568971004304 0 0.00055310875635093898 -0.028669659935186682 0 -0.0006172477926272797 -0.027631176716602757 0 -0.00074461277616699848 -0.026876363993071545 0 -0.0011244828121146448 -0.027461491329583247 0 -0.0015373397037753576 -0.026917934925924602 0 -0.00074461277616699848 -0.026876363993071545 0 -0.0011244828121146448 -0.027461491329583247 0 -0.0015373397037753576 -0.026917934925924602 0 -0.0011244828121146448 -0.027461491329583247 0 -0.0020782720692926371 -0.027491775821767393 0 0.00061938366958398292 -0.016250699948299734 0 -0.0019530929305358463 -0.020674952505018995 0 -0.0013222530841265935 -0.013212981637086542 0 -0.00082453943534079087 -0.013248247163953918 0 -0.0016593988358615775 -0.012495459725276993 0 -0.0011244828121146448 -0.027461491329583247 0 -0.0012054298249386784 -0.028126950368215296 0 -0.0020782720692926371 -0.027491775821767393 0 -0.0011244828121146448 -0.027461491329583247 0 -0.00083407031957759379 -0.027807319292063332 0 -0.0012054298249386784 -0.028126950368215296 0 -0.00040753217090273527 -0.027731042276943483 0 -0.00083407031957759379 -0.027807319292063332 0 -0.00097047167699588642 -0.028122318398497905 0 0.00032733137852389191 -0.024616091745570435 0 0.0010940558970429519 -0.017681589023174835 0 -0.0006172477926272797 -0.027631176716602757 0 -0.0011244828121146448 -0.027461491329583247 0 -0.00083407031957759379 -0.027807319292063332 0 -0.00083407031957759379 -0.027807319292063332 0 -0.00097047167699588642 -0.028122318398497905 0 -0.0012054298249386784 -0.028126950368215296 0 0.0038043498476885915 -0.010295169058283954 0 0.0037792603852751733 -0.010523025948989849 0 0.0039720420380441185 -0.010617440447280534 0 0.001761527252217548 -0.0042509153568192166 0 0.0015487287969607893 -0.0042885292679175416 0 0.0017492347035638325 -0.0045622922290744494 0 0.0025212637412409832 -0.0068721709646761093 0 0.00097971099130389938 -0.012979498295815113 0 0.0037792603852751733 -0.010523025948989849 0 0.0039144321606635344 -0.010637685879755639 0 0.0039720420380441185 -0.010617440447280534 0 0.0010940558970429519 -0.017681589023174835 0 0.00061938366958398292 -0.016250699948299734 0 0.001515781569077507 -0.016868217626054411 0 0.00047706948357394629 -0.017299530811352163 0 -3.1089068662489743e-05 -0.016816928907336638 0 0.0010940558970429519 -0.017681589023174835 0 0.00097971099130389938 -0.012979498295815113 0 0.00097971099130389938 -0.012979498295815113 0 0.00061938366958398292 -0.016250699948299734 0 0.001761527252217548 -0.0042509153568192166 0 0.0017492347035638325 -0.0045622922290744494 0 0.0019522951217860044 -0.0044505636136930879 0 -0.0013222530841265935 -0.013212981637086542 0 -0.00079933844546539636 -0.013224666317345297 0 -0.0013694874944646077 -0.013548401100136385 0 -0.0015262227002844951 -0.014003322904637775 0 0.00061938366958398292 -0.016250699948299734 0 -0.00070939957034483103 -0.013306645586546473 0 -0.00079933844546539636 -0.013224666317345297 0 -0.0013694874944646077 -0.013548401100136385 0 0.00097971099130389938 -0.012979498295815113 0 0.00038902164200600709 -0.0089612646141424175 0 -0.0019992510403885706 -0.013762198707546152 0 -0.0013694874944646077 -0.013548401100136385 0 -0.0018911818764374092 -0.013282098486445045 0 -0.00092966788499355079 -0.0053784705413253975 0 0.00038902164200600709 -0.0089612646141424175 0 -0.0013222530841265935 -0.013212981637086542 0 -0.0013694874944646077 -0.013548401100136385 0 -0.0018911818764374092 -0.013282098486445045 0 -0.0019992510403885706 -0.013762198707546152 0 -0.0018911818764374092 -0.013282098486445045 0 -0.002639369027652245 -0.013068856485596603 0 -0.001945355147065383 -0.0028539617855322902 0 -0.0028445537693085675 -0.0018359698709371022 0 -0.0032397241503156764 -0.0026381021716406702 0 -0.00092966788499355079 -0.0053784705413253975 0 -0.0028362777862440212 -0.007413051101289197 0 -0.0018911818764374092 -0.013282098486445045 0 -0.002639369027652245 -0.013068856485596603 0 -0.0021271602657132898 -0.012815589279824265 0 -0.002639369027652245 -0.013068856485596603 0 -0.0021271602657132898 -0.012815589279824265 0 -0.002516935445698061 -0.012326090135511236 0 -0.0013222530841265935 -0.013212981637086542 0 -0.0021271602657132898 -0.012815589279824265 0 -0.0016593988358615775 -0.012495459725276993 0 -0.0021271602657132898 -0.012815589279824265 0 -0.0016593988358615775 -0.012495459725276993 0 -0.002516935445698061 -0.012326090135511236 0 -0.0013222530841265935 -0.013212981637086542 0 -0.0018911818764374092 -0.013282098486445045 0 -0.0021271602657132898 -0.012815589279824265 0 -0.0057767099065676557 -0.0030486980410085293 0 -0.0045596495215236175 -0.0018806887011411704 0 -0.0065506775990326728 -0.0021017463388639458 0 -0.0045075432697948316 -0.0033400330732906614 0 -0.0057767099065676557 -0.0030486980410085293 0 -0.0045596495215236175 -0.0018806887011411704 0 -0.0028445537693085675 -0.0018359698709371022 0 -0.0032397241503156764 -0.0026381021716406702 0 -0.0045596495215236175 -0.0018806887011411704 0 -0.0045075432697948316 -0.0033400330732906614 0 -0.0032397241503156764 -0.0026381021716406702 0 -0.0045596495215236175 -0.0018806887011411704 0 -0.0028362777862440212 -0.007413051101289197 0 -0.0039830708025270561 -0.0092592322860204149 0 -0.002639369027652245 -0.013068856485596603 0 -0.0032673386446896223 -0.012333029093919647 0 -0.002516935445698061 -0.012326090135511236 0 -0.0028445537693085675 -0.0018359698709371022 0 -0.0045596495215236175 -0.0018806887011411704 0 -0.0040481641184855225 -0.00044335802949902739 0 -0.0045596495215236175 -0.0018806887011411704 0 -0.005780209386001686 -0.00051433938106180358 0 -0.0040481641184855225 -0.00044335802949902739 0 -0.0045596495215236175 -0.0018806887011411704 0 -0.005780209386001686 -0.00051433938106180358 0 -0.0065506775990326728 -0.0021017463388639458 0 -0.0043672986350485757 -0.0060548985398409024 0 -0.0039830708025270561 -0.0092592322860204149 0 -0.0033792186324354246 -0.011725040055880152 0 -0.0033245605315011706 -0.01186886872887166 0 -0.0033485278365823746 -0.011829149790939072 0 -0.0033760997181606005 -0.011752592436083517 0 -0.0033792186324354246 -0.011725040055880152 0 -0.0033245605315011706 -0.01186886872887166 0 -0.0033760997181606005 -0.011752592436083517 0 -0.0033245605315011706 -0.01186886872887166 0 -0.0033326367309478868 -0.011743285285592151 0 -0.0039830708025270561 -0.0092592322860204149 0 -0.002362162616982421 -0.01240930699184394 0 -0.003146206390052521 -0.012223244002339283 0 -0.0030669591259334119 -0.011838123973414175 0 -0.002516935445698061 -0.012326090135511236 0 -0.0033245605315011706 -0.01186886872887166 0 -0.003146206390052521 -0.012223244002339283 0 -0.0030669591259334119 -0.011838123973414175 0 -0.0027760804496147892 -0.011861381250621609 0 -0.0039830708025270561 -0.0092592322860204149 0 -0.0030669591259334119 -0.011838123973414175 0 -0.0025983454735431194 -0.011793601783326866 0 -0.0033081760321678044 -0.011620061994386909 0 -0.0030669591259334119 -0.011838123973414175 0 -0.0033326367309478868 -0.011743285285592151 0 -0.0033081760321678044 -0.011620061994386909 0 -0.0027736966393023953 -0.019153955386231106 0 -0.0036489041164878447 -0.018722983897130081 0 -0.0033326367309478868 -0.011743285285592151 0 -0.0033828810377424844 -0.011679716448695893 0 -0.0033081760321678044 -0.011620061994386909 0 -0.0033245605315011706 -0.01186886872887166 0 -0.0030669591259334119 -0.011838123973414175 0 -0.0033326367309478868 -0.011743285285592151 0 -0.0033760997181606005 -0.011752592436083517 0 -0.0033326367309478868 -0.011743285285592151 0 -0.0033985373623266557 -0.011695604291982848 0 -0.0033326367309478868 -0.011743285285592151 0 -0.0033828810377424844 -0.011679716448695893 0 -0.0033985373623266557 -0.011695604291982848 0 -0.0020782720692926371 -0.027491775821767393 0 -0.0029795876175506644 -0.026672685442959556 0 -0.0021803071154294037 -0.02665045704309256 0 -0.0015373397037753576 -0.026917934925924602 0 -0.0020782720692926371 -0.027491775821767393 0 -0.0021803071154294037 -0.02665045704309256 0 -0.0019530929305358463 -0.020674952505018995 0 -0.0027736966393023953 -0.019153955386231106 0 -0.0016593988358615775 -0.012495459725276993 0 -0.002516935445698061 -0.012326090135511236 0 -0.0025983454735431194 -0.011793601783326866 0 -0.0030669591259334119 -0.011838123973414175 0 -0.002516935445698061 -0.012326090135511236 0 -0.0025983454735431194 -0.011793601783326866 0 -0.0029795876175506644 -0.026672685442959556 0 -0.0021803071154294037 -0.02665045704309256 0 -0.00272529497288228 -0.026049168103566018 0 0.00023952602135876577 -0.028486257564051942 0 0.00055310875635093898 -0.028669659935186682 0 -0.0021803071154294037 -0.02665045704309256 0 -0.00272529497288228 -0.026049168103566018 0 -0.00156525708573767 -0.02608957648585087 0 -0.00272529497288228 -0.026049168103566018 0 -0.0024482833701658965 -0.025443459696153258 0 -0.00156525708573767 -0.02608957648585087 0 -0.00272529497288228 -0.026049168103566018 0 -0.0031114630122217367 -0.025497260142634429 0 -0.0037813095955998703 -0.025885328820325751 0 -0.00272529497288228 -0.026049168103566018 0 -0.0031114630122217367 -0.025497260142634429 0 -0.0024482833701658965 -0.025443459696153258 0 -0.0029795876175506644 -0.026672685442959556 0 -0.00272529497288228 -0.026049168103566018 0 -0.0037813095955998703 -0.025885328820325751 0 0.00023952602135876577 -0.028486257564051942 0 -0.0010542025113515455 -0.030672394723723403 0 0.0028506733309488332 -0.032094208802620497 0 0.0028388114549952924 -0.032273220999401268 0 0.0027583257160759948 -0.0322691292949423 0 -0.0031114630122217367 -0.025497260142634429 0 -0.0024482833701658965 -0.025443459696153258 0 -0.0032375233503199687 -0.024933507257730539 0 0.0028506733309488332 -0.032094208802620497 0 0.0026989130066685891 -0.032269158166899903 0 0.0026359783687391596 -0.032158996586732262 0 0.0028506733309488332 -0.032094208802620497 0 0.0027521734259720277 -0.031232293172163694 0 0.0026359783687391596 -0.032158996586732262 0 0.0028506733309488332 -0.032094208802620497 0 0.0026989130066685891 -0.032269158166899903 0 0.0027583257160759948 -0.0322691292949423 0 -0.0033081760321678044 -0.011620061994386909 0 -0.0034071487746055069 -0.011736094156142022 0 -0.0034544335242084959 -0.011881333659305585 0 -0.0033828810377424844 -0.011679716448695893 0 -0.0033081760321678044 -0.011620061994386909 0 -0.0034203193681158345 -0.011671782455205896 0 -0.0033081760321678044 -0.011620061994386909 0 -0.0034071487746055069 -0.011736094156142022 0 -0.0034203193681158345 -0.011671782455205896 0 -0.0031114630122217367 -0.025497260142634429 0 -0.0033965444449225498 -0.025106261832809351 0 -0.0032375233503199687 -0.024933507257730539 0 -0.0037813095955998703 -0.025885328820325751 0 -0.0035769111349999681 -0.025132140449193249 0 -0.0039725707646763881 -0.025044879118196823 0 -0.0031114630122217367 -0.025497260142634429 0 -0.0037813095955998703 -0.025885328820325751 0 -0.0035769111349999681 -0.025132140449193249 0 -0.0031114630122217367 -0.025497260142634429 0 -0.0034897176527218625 -0.025039668909983291 0 -0.0035769111349999681 -0.025132140449193249 0 -0.003384187137754761 -0.025133333110643939 0 -0.002575332023609466 -0.0261987483293575 0 -0.002575332023609466 -0.0261987483293575 0 -0.0026381993310222408 -0.026086169591606839 0 -0.003510791513082148 -0.025055436957727373 0 -0.0035769111349999681 -0.025132140449193249 0 -0.0039725707646763881 -0.025044879118196823 0 -0.0037813095955998703 -0.025885328820325751 0 -0.0039725707646763881 -0.025044879118196823 0 -0.0045169711429057981 -0.02514855558732695 0 -0.0036489041164878447 -0.018722983897130081 0 -0.003272600219963658 -0.018695491047155875 0 -0.0039725707646763881 -0.025044879118196823 0 -0.0042971987058400846 -0.024661368718293716 0 -0.0040545893695283766 -0.024485687056409199 0 -0.0039725707646763881 -0.025044879118196823 0 -0.0042971987058400846 -0.024661368718293716 0 -0.0045169711429057981 -0.02514855558732695 0 -0.002575332023609466 -0.0261987483293575 0 -0.0028011087848253315 -0.02864762033622158 0 -0.0010542025113515455 -0.030672394723723403 0 -0.0028011087848253315 -0.02864762033622158 0 -0.0022039537531455436 -0.028968206852666746 0 -0.0020820549185679711 -0.028842471091182136 0 -0.0025738266155920686 -0.028491097954222448 0 -0.00088564048549928014 -0.034865214704970941 0 -0.001187066178287705 -0.03434772445716823 0 -0.0017786760122583095 -0.03424073406294742 0 -0.003510791513082148 -0.025055436957727373 0 -0.0039725707646763881 -0.025044879118196823 0 -0.0040545893695283766 -0.024485687056409199 0 -0.002575332023609466 -0.0261987483293575 0 -0.0010542025113515455 -0.030672394723723403 0 -0.00088564048549928014 -0.034865214704970941 0 -0.001187066178287705 -0.03434772445716823 0 -0.00090290707540552752 -0.034470979284399357 0 -0.001187066178287705 -0.03434772445716823 0 -0.00090290707540552752 -0.034470979284399357 0 -0.00087656723379539165 -0.034097988472359425 0 -0.00087656723379539165 -0.034097988472359425 0 -0.00096482107569561388 -0.033768244630331547 0 -0.0013066084584740713 -0.034003407298201754 0 -0.001187066178287705 -0.03434772445716823 0 -0.00087656723379539165 -0.034097988472359425 0 -0.0013066084584740713 -0.034003407298201754 0 -0.00096482107569561388 -0.033768244630331547 0 -0.0013066084584740713 -0.034003407298201754 0 -0.0012175696902414761 -0.033537524536379391 0 -0.00087656723379539165 -0.034097988472359425 0 -0.00096482107569561388 -0.033768244630331547 0 -0.00067277286234245978 -0.033734183797634772 0 -0.00096482107569561388 -0.033768244630331547 0 -0.00067277286234245978 -0.033734183797634772 0 -0.00086242751076156664 -0.033413368434418174 0 -0.0015508979288699064 -0.033720012722507832 0 -0.0013066084584740713 -0.034003407298201754 0 -0.0012175696902414761 -0.033537524536379391 0 -0.0015508979288699064 -0.033720012722507832 0 -0.0013066084584740713 -0.034003407298201754 0 -0.0017786760122583095 -0.03424073406294742 0 -0.001187066178287705 -0.03434772445716823 0 -0.0013066084584740713 -0.034003407298201754 0 -0.0017786760122583095 -0.03424073406294742 0 -0.0042971987058400846 -0.024661368718293716 0 -0.0040545893695283766 -0.024485687056409199 0 -0.0041436156788354026 -0.02444080213007126 0 -0.0028011087848253315 -0.02864762033622158 0 -0.0035333334692885005 -0.027816429552623059 0 -0.0015508979288699064 -0.033720012722507832 0 -0.0017786760122583095 -0.03424073406294742 0 -0.0023478480369854156 -0.033536019685442599 0 -0.0041436156788354026 -0.02444080213007126 0 -0.0044587224974448909 -0.024370086064295745 0 -0.0044485262379274949 -0.024097718543369596 0 -0.0028011087848253315 -0.02864762033622158 0 -0.0032213887725764247 -0.028991348929261435 0 -0.0040580479928306054 -0.024490717186620093 0 -0.0041436156788354026 -0.02444080213007126 0 -0.0044485262379274949 -0.024097718543369596 0 -0.0042971987058400846 -0.024661368718293716 0 -0.0041436156788354026 -0.02444080213007126 0 -0.0044587224974448909 -0.024370086064295745 0 0.0026001868685811618 -0.032387761609592225 0 0.0026681610107994282 -0.032331417242245968 0 0.0026892879811863963 -0.03236103864146004 0 0.0026001868685811618 -0.032387761609592225 0 0.0026892879811863963 -0.03236103864146004 0 0.0026275459153267291 -0.032397914567068732 0 0.0026001868685811618 -0.032387761609592225 0 0.0025938181108908702 -0.032371605908958469 0 0.002531263546845062 -0.03241667745587163 0 0.0026001868685811618 -0.032387761609592225 0 0.0025938181108908702 -0.032371605908958469 0 0.0026681610107994282 -0.032331417242245968 0 0.0025938181108908702 -0.032371605908958469 0 0.0026989130066685891 -0.032269158166899903 0 0.0025466623177455567 -0.032387021400831342 0 0.0025938181108908702 -0.032371605908958469 0 0.0026989130066685891 -0.032269158166899903 0 0.0026681610107994282 -0.032331417242245968 0 0.0026681610107994282 -0.032331417242245968 0 0.0027583257160759948 -0.0322691292949423 0 0.0026892879811863963 -0.03236103864146004 0 0.0026989130066685891 -0.032269158166899903 0 0.0026681610107994282 -0.032331417242245968 0 0.0027583257160759948 -0.0322691292949423 0 -0.00088564048549928014 -0.034865214704970941 0 -8.6313813987232678e-05 -0.034082062628948258 0 -0.0006260348788639749 -0.034315829095484737 0 -0.0010542025113515455 -0.030672394723723403 0 0.0014226912270645631 -0.033598854430447467 0 0.0028388114549952924 -0.032273220999401268 0 0.0027583257160759948 -0.0322691292949423 0 0.0026892879811863963 -0.03236103864146004 0 0.0028388114549952924 -0.032273220999401268 0 0.0026892879811863963 -0.03236103864146004 0 0.002669276909244549 -0.03244539661083385 0 -0.00088564048549928014 -0.034865214704970941 0 -0.00090290707540552752 -0.034470979284399357 0 -0.0006260348788639749 -0.034315829095484737 0 -8.6313813987232678e-05 -0.034082062628948258 0 -0.0006260348788639749 -0.034315829095484737 0 -0.00046899583371949523 -0.033972752362084593 0 -0.00090290707540552752 -0.034470979284399357 0 -0.00087656723379539165 -0.034097988472359425 0 -0.0006260348788639749 -0.034315829095484737 0 -0.00087656723379539165 -0.034097988472359425 0 -0.0006260348788639749 -0.034315829095484737 0 -0.00046899583371949523 -0.033972752362084593 0 -0.00087656723379539165 -0.034097988472359425 0 -0.00046899583371949523 -0.033972752362084593 0 -0.00067277286234245978 -0.033734183797634772 0 -0.00046899583371949523 -0.033972752362084593 0 -0.00067277286234245978 -0.033734183797634772 0 -0.00040958787126200177 -0.033636656601520334 0 -8.6313813987232678e-05 -0.034082062628948258 0 -0.00023487081201679742 -0.033827027071740456 0 2.5739576212870473e-05 -0.033612141655517305 0 -8.6313813987232678e-05 -0.034082062628948258 0 -0.00046899583371949523 -0.033972752362084593 0 -0.00023487081201679742 -0.033827027071740456 0 -0.00023487081201679742 -0.033827027071740456 0 -0.00040958787126200177 -0.033636656601520334 0 2.5739576212870473e-05 -0.033612141655517305 0 -0.00046899583371949523 -0.033972752362084593 0 -0.00023487081201679742 -0.033827027071740456 0 -0.00040958787126200177 -0.033636656601520334 0 0.002669276909244549 -0.03244539661083385 0 0.0025594863553958613 -0.032417667279171447 0 0.0021650738601700558 -0.032654157652486873 0 -8.6313813987232678e-05 -0.034082062628948258 0 0.00079382461539304245 -0.033313403103992702 0 2.5739576212870473e-05 -0.033612141655517305 0 0.0014226912270645631 -0.033598854430447467 0 0.001499959064914756 -0.03289307936972681 0 0.0026892879811863963 -0.03236103864146004 0 0.002669276909244549 -0.03244539661083385 0 0.0026275459153267291 -0.032397914567068732 0 0.002669276909244549 -0.03244539661083385 0 0.0025594863553958613 -0.032417667279171447 0 0.0026275459153267291 -0.032397914567068732 0 0.0026001868685811618 -0.032387761609592225 0 0.0025594863553958613 -0.032417667279171447 0 0.0026275459153267291 -0.032397914567068732 0 0.0026001868685811618 -0.032387761609592225 0 0.0025594863553958613 -0.032417667279171447 0 0.002531263546845062 -0.03241667745587163 0 0.0025594863553958613 -0.032417667279171447 0 0.002531263546845062 -0.03241667745587163 0 0.0024786497586520113 -0.032410685417197702 0 0.0025594863553958613 -0.032417667279171447 0 0.0019809121462439081 -0.032506636315922273 0 0.0021650738601700558 -0.032654157652486873 0 0.0025129815189102083 -0.032420806664801946 0 0.0022991151020147183 -0.032454370785020288 0 0.002531263546845062 -0.03241667745587163 0 0.0024786497586520113 -0.032410685417197702 0 0.0024548299295192111 -0.032419855134809945 0 0.0024548299295192111 -0.032419855134809945 0 0.0025466623177455567 -0.032387021400831342 0 0.0023754091477012529 -0.032682129281803272 0 0.0025938181108908702 -0.032371605908958469 0 0.002531263546845062 -0.03241667745587163 0 0.0024548299295192111 -0.032419855134809945 0 0.0025938181108908702 -0.032371605908958469 0 0.0024548299295192111 -0.032419855134809945 0 0.0025466623177455567 -0.032387021400831342 0 0.0024548299295192111 -0.032419855134809945 0 0.0027629274873863922 -0.032358613347690739 0 0.0023754091477012529 -0.032682129281803272 0 0.0027629274873863922 -0.032358613347690739 0 0.0031698884569164388 -0.032611487373607952 0 0.0023754091477012529 -0.032682129281803272 0 0.0024786497586520113 -0.032410685417197702 0 0.0024548299295192111 -0.032419855134809945 0 0.0025990378291362373 -0.0324181172266753 0 0.0024786497586520113 -0.032410685417197702 0 0.0025990378291362373 -0.0324181172266753 0 0.002622859594593469 -0.032371091868302809 0 0.0019809121462439081 -0.032506636315922273 0 0.0021809879462109391 -0.032671136835569936 0 0.0020281340347986345 -0.032554526706640753 0 0.0024548299295192111 -0.032419855134809945 0 0.0027629274873863922 -0.032358613347690739 0 0.0031020525568196664 -0.032065378072504605 0 0.0024591803606172085 -0.032413158697232033 0 0.0028953089170391435 -0.032226212268433981 0 0.0022991151020147183 -0.032454370785020288 0 0.0022248250410158636 -0.032577426553195211 0 0.0025990378291362373 -0.0324181172266753 0 0.002622859594593469 -0.032371091868302809 0 0.002898622515232398 -0.032335717067007573 0 0.0031020525568196664 -0.032065378072504605 0 0.0039934721928301057 -0.032359239729604132 0 0.0033992914105740149 -0.032413575403481547 0 0.0031020525568196664 -0.032065378072504605 0 0.0030995715203026471 -0.032366532182841377 0 0.0033992914105740149 -0.032413575403481547 0 0.0027629274873863922 -0.032358613347690739 0 0.0031020525568196664 -0.032065378072504605 0 0.0030995715203026471 -0.032366532182841377 0 0.0031020525568196664 -0.032065378072504605 0 0.0039934721928301057 -0.032359239729604132 0 0.0045396505499083733 -0.031607215319195511 0 0.0028953089170391435 -0.032226212268433981 0 0.0035806002672506107 -0.03206263590119781 0 0.0039934721928301057 -0.032359239729604132 0 0.0045396505499083733 -0.031607215319195511 0 0.0046308842976854735 -0.03237906006260588 0 0.0037236500746464863 -0.033042129298222242 0 0.0043459802866095115 -0.032897481211600077 0 0.004731971874161591 -0.033393005836648677 0 0.0039934721928301057 -0.032359239729604132 0 0.0043459802866095115 -0.032897481211600077 0 0.0046308842976854735 -0.03237906006260588 0 0.0039934721928301057 -0.032359239729604132 0 0.0037181724681480707 -0.032669544268762882 0 0.0043459802866095115 -0.032897481211600077 0 0.0039934721928301057 -0.032359239729604132 0 0.0037181724681480707 -0.032669544268762882 0 0.0033992914105740149 -0.032413575403481547 0 0.0037181724681480707 -0.032669544268762882 0 0.0037236500746464863 -0.033042129298222242 0 0.0043459802866095115 -0.032897481211600077 0 0.0031698884569164388 -0.032611487373607952 0 0.0032828386233140446 -0.033203658801117843 0 0.0023754091477012529 -0.032682129281803272 0 0.0027629274873863922 -0.032358613347690739 0 0.0030995715203026471 -0.032366532182841377 0 0.0031698884569164388 -0.032611487373607952 0 0.0030995715203026471 -0.032366532182841377 0 0.0033992914105740149 -0.032413575403481547 0 0.0031698884569164388 -0.032611487373607952 0 0.0037181724681480707 -0.032669544268762882 0 0.0033992914105740149 -0.032413575403481547 0 0.0031698884569164388 -0.032611487373607952 0 0.0037181724681480707 -0.032669544268762882 0 0.0037236500746464863 -0.033042129298222242 0 0.0031698884569164388 -0.032611487373607952 0 0.0037236500746464863 -0.033042129298222242 0 0.0031698884569164388 -0.032611487373607952 0 0.0032828386233140446 -0.033203658801117843 0 0.0032828386233140446 -0.033203658801117843 0 0.0038443809889930794 -0.03372764266753249 0 0.0031625588846966213 -0.034000443008320655 0 0.0037236500746464863 -0.033042129298222242 0 0.0032828386233140446 -0.033203658801117843 0 0.0038443809889930794 -0.03372764266753249 0 0.0037236500746464863 -0.033042129298222242 0 0.0038443809889930794 -0.03372764266753249 0 0.004731971874161591 -0.033393005836648677 0 0.0038443809889930794 -0.03372764266753249 0 0.0043360792687001876 -0.034144625159537215 0 0.004731971874161591 -0.033393005836648677 0 0.0038443809889930794 -0.03372764266753249 0 0.0038719637910235544 -0.03421195765154008 0 0.0043360792687001876 -0.034144625159537215 0 0.0041125031075137809 -0.034429247013327439 0 0.0038719637910235544 -0.03421195765154008 0 0.0043360792687001876 -0.034144625159537215 0 0.0038443809889930794 -0.03372764266753249 0 0.0038719637910235544 -0.03421195765154008 0 0.0031625588846966213 -0.034000443008320655 0 0.0014909005744075099 -0.029561323155383117 0 0.00094979157629352556 -0.031297896485262516 0 0.0021392078361082089 -0.03177193121199038 0 0.0014909005744075099 -0.029561323155383117 0 0.0021392078361082089 -0.03177193121199038 0 0.0027521734259720277 -0.031232293172163694 0 0.0021392078361082089 -0.03177193121199038 0 0.0027521734259720277 -0.031232293172163694 0 0.0026359783687391596 -0.032158996586732262 0 0.0021392078361082089 -0.03177193121199038 0 0.0026359783687391596 -0.032158996586732262 0 0.0023754091477012529 -0.032682129281803272 0 0.0025466623177455567 -0.032387021400831342 0 0.0026359783687391596 -0.032158996586732262 0 0.0023754091477012529 -0.032682129281803272 0 0.0026989130066685891 -0.032269158166899903 0 0.0025466623177455567 -0.032387021400831342 0 0.0026359783687391596 -0.032158996586732262 0 0.00094979157629352556 -0.031297896485262516 0 0.0021392078361082089 -0.03177193121199038 0 0.0023754091477012529 -0.032682129281803272 0 0.0032828386233140446 -0.033203658801117843 0 0.0031625588846966213 -0.034000443008320655 0 0.0023754091477012529 -0.032682129281803272 0 0.0020495746156903778 -0.032471898209244947 0 0.0023247186558316688 -0.032730359208110758 0 -0.016639359111769652 -0.0016063149350143296 0 -0.015559843780914774 -0.00096723770770474921 0 -0.015329399525138157 -0.0025508825253380378 0 -0.016639359111769652 -0.0016063149350143296 0 -0.015559843780914774 -0.00096723770770474921 0 -0.016398914488041986 -0.0009040796222898798 0 -0.016991114139519869 -0.00081538262369019478 0 -0.016639359111769652 -0.0016063149350143296 0 -0.016398914488041986 -0.0009040796222898798 0 -0.015559843780914774 -0.00096723770770474921 0 -0.015329399525138157 -0.0025508825253380378 0 -0.014460166666785115 -0.0012643693994178133 0 -0.015329399525138157 -0.0025508825253380378 0 -0.013620466126875204 -0.0016827282937536799 0 -0.014460166666785115 -0.0012643693994178133 0 -0.017468335936466801 -0.0026791168558115129 0 -0.016639359111769652 -0.0016063149350143296 0 -0.015882999232503494 -0.0030653011832847041 0 -0.016597259659725212 -0.0016286090500322085 0 -0.015638282088877877 -0.0027798257748401114 0 -0.017086397603346196 -0.0038264152635004746 0 -0.017468335936466801 -0.0026791168558115129 0 -0.015882999232503494 -0.0030653011832847041 0 -0.017086397603346196 -0.0038264152635004746 0 -0.016301410229270209 -0.0047702842169282632 0 -0.015882999232503494 -0.0030653011832847041 0 -0.016301410229270209 -0.0047702842169282632 0 -0.015882999232503494 -0.0030653011832847041 0 -0.015079991621622038 -0.0042773293967933723 0 -0.015638282088877877 -0.0027798257748401114 0 -0.014654725655522031 -0.0040116674073725133 0 -0.013562375540409287 -0.0025033323232144778 0 -0.014233417274314989 -0.003753904336037357 0 -0.012392007768971293 -0.0028148669981254365 0 -0.015329399525138157 -0.0025508825253380378 0 -0.013562375540409287 -0.0025033323232144778 0 -0.014233417274314989 -0.003753904336037357 0 -0.014233417274314989 -0.003753904336037357 0 -0.012106997278923597 -0.0041335984842687514 0 -0.012392007768971293 -0.0028148669981254365 0 -0.013562375540409287 -0.0025033323232144778 0 -0.012392007768971293 -0.0028148669981254365 0 -0.01227094436566765 -0.0017643504362319525 0 -0.013562375540409287 -0.0025033323232144778 0 -0.01227094436566765 -0.0017643504362319525 0 -0.013620466126875204 -0.0016827282937536799 0 -0.01227094436566765 -0.0017643504362319525 0 -0.013620466126875204 -0.0016827282937536799 0 -0.012609311014066234 -0.00091084349648964426 0 -0.015329399525138157 -0.0025508825253380378 0 -0.013562375540409287 -0.0025033323232144778 0 -0.013620466126875204 -0.0016827282937536799 0 -0.013620466126875204 -0.0016827282937536799 0 -0.014460166666785115 -0.0012643693994178133 0 -0.012609311014066234 -0.00091084349648964426 0 -0.014358494299911788 -0.0012404191877909735 0 -0.012770865255924855 -0.0013883556806021245 0 -0.014460166666785115 -0.0012643693994178133 0 -0.013185364386111327 -0.0017227759495627016 0 -0.013344026850875264 -0.00063379307941490229 0 -0.013185364386111327 -0.0017227759495627016 0 -0.011702602989359214 -0.0021282545870777393 0 -0.01182530353015792 -0.00096207618738558239 0 -0.012770865255924855 -0.0013883556806021245 0 -0.011794832754747723 -0.0011894505725928448 0 -0.011794832754747723 -0.0011894505725928448 0 -0.0076160001749396257 -0.0054690760544657893 0 -0.010923347650524665 -0.0017442016935205931 0 -0.011702602989359214 -0.0021282545870777393 0 -0.01182530353015792 -0.00096207618738558239 0 -0.010923347650524665 -0.0017442016935205931 0 -0.011702602989359214 -0.0021282545870777393 0 -0.010099567872298286 -0.0024678312889745901 0 -0.010900394494649428 -0.0010286311387565678 0 -0.01035517981548688 -0.0021072773232050927 0 -0.010004136238735205 -0.0016669539696706063 0 -0.010900394494649428 -0.0010286311387565678 0 -0.011291070713582964 -0.0019923714029375017 0 -0.01035517981548688 -0.0021072773232050927 0 -0.01227094436566765 -0.0017643504362319525 0 -0.010900394494649428 -0.0010286311387565678 0 -0.011291070713582964 -0.0019923714029375017 0 -0.01227094436566765 -0.0017643504362319525 0 -0.012609311014066234 -0.00091084349648964426 0 -0.010900394494649428 -0.0010286311387565678 0 -0.012392007768971293 -0.0028148669981254365 0 -0.011291070713582964 -0.0019923714029375017 0 -0.010611155425613144 -0.0027634753868713774 0 -0.012392007768971293 -0.0028148669981254365 0 -0.01227094436566765 -0.0017643504362319525 0 -0.011291070713582964 -0.0019923714029375017 0 -0.010616528452479533 -0.0045272305084182191 0 -0.012106997278923597 -0.0041335984842687514 0 -0.010611155425613144 -0.0027634753868713774 0 -0.012106997278923597 -0.0041335984842687514 0 -0.012392007768971293 -0.0028148669981254365 0 -0.010611155425613144 -0.0027634753868713774 0 -0.010616528452479533 -0.0045272305084182191 0 -0.010611155425613144 -0.0027634753868713774 0 -0.0092228175885193976 -0.0033532631883893085 0 -0.010611155425613144 -0.0027634753868713774 0 -0.0090889729767321594 -0.0022519166812976781 0 -0.0092228175885193976 -0.0033532631883893085 0 -0.011291070713582964 -0.0019923714029375017 0 -0.010611155425613144 -0.0027634753868713774 0 -0.0096319993549902339 -0.0012602571060179308 0 -0.010611155425613144 -0.0027634753868713774 0 -0.0096319993549902339 -0.0012602571060179308 0 -0.0090889729767321594 -0.0022519166812976781 0 -0.010957854032821299 -0.0018929886104840235 0 -0.010282997678381265 -0.0018037329636296558 0 -0.0096319993549902339 -0.0012602571060179308 0 -0.0078305359320329972 -0.0015286914246440638 0 -0.0090889729767321594 -0.0022519166812976781 0 -0.0096319993549902339 -0.0012602571060179308 0 -0.0078305359320329972 -0.0015286914246440638 0 -0.0078851955446750197 -0.00086015883249936911 0 -0.0070707923374688049 -0.0016112596093647931 0 -0.0064331866480238685 -0.004575689356613709 0 -0.0078305359320329972 -0.0015286914246440638 0 -0.0090889729767321594 -0.0022519166812976781 0 -0.0080978411698931548 -0.0024578460251390519 0 -0.0080978411698931548 -0.0024578460251390519 0 -0.0092228175885193976 -0.0033532631883893085 0 -0.0075020986708870512 -0.00316052624463963 0 -0.0090889729767321594 -0.0022519166812976781 0 -0.0080978411698931548 -0.0024578460251390519 0 -0.0092228175885193976 -0.0033532631883893085 0 -0.0079777642108934243 -0.0050196280996384493 0 -0.0092228175885193976 -0.0033532631883893085 0 -0.0075020986708870512 -0.00316052624463963 0 -0.0057767099065676557 -0.0030486980410085293 0 -0.0075020986708870512 -0.00316052624463963 0 -0.0065506775990326728 -0.0021017463388639458 0 -0.0080978411698931548 -0.0024578460251390519 0 -0.0075020986708870512 -0.00316052624463963 0 -0.0065506775990326728 -0.0021017463388639458 0 -0.005780209386001686 -0.00051433938106180358 0 -0.0078305359320329972 -0.0015286914246440638 0 -0.0078617151393370367 -0.00072200059769315353 0 -0.005780209386001686 -0.00051433938106180358 0 -0.0078305359320329972 -0.0015286914246440638 0 -0.0065506775990326728 -0.0021017463388639458 0 -0.0078305359320329972 -0.0015286914246440638 0 -0.0080978411698931548 -0.0024578460251390519 0 -0.0065506775990326728 -0.0021017463388639458 0 -0.0033792186324354246 -0.011725040055880152 0 -0.0034337248451462694 -0.011597987539528986 0 -0.0034553006439296476 -0.011529726582157817 0 -0.0033792186324354246 -0.011725040055880152 0 -0.003417484445807981 -0.011658636199292109 0 -0.0034337248451462694 -0.011597987539528986 0 -0.0043672986350485757 -0.0060548985398409024 0 -0.0064331866480238685 -0.004575689356613709 0 -0.0033760997181606005 -0.011752592436083517 0 -0.003417484445807981 -0.011658636199292109 0 -0.0033985373623266557 -0.011695604291982848 0 -0.0033760997181606005 -0.011752592436083517 0 -0.0033792186324354246 -0.011725040055880152 0 -0.003417484445807981 -0.011658636199292109 0 -0.0034312914274190602 -0.011615837857347492 0 -0.0034382443801271776 -0.01158308684308821 0 -0.0034328326256383751 -0.01162426391442278 0 -0.003417484445807981 -0.011658636199292109 0 -0.0034312914274190602 -0.011615837857347492 0 -0.0034328326256383751 -0.01162426391442278 0 -0.003417484445807981 -0.011658636199292109 0 -0.0034312914274190602 -0.011615837857347492 0 -0.0034337248451462694 -0.011597987539528986 0 -0.0034312914274190602 -0.011615837857347492 0 -0.0034337248451462694 -0.011597987539528986 0 -0.0034382443801271776 -0.01158308684308821 0 -0.010900394494649428 -0.0010286311387565678 0 -0.010004136238735205 -0.0016669539696706063 0 -0.0093904179056195081 -0.0013398716872692314 0 -0.0064331866480238685 -0.004575689356613709 0 -0.0076160001749396257 -0.0054690760544657893 0 -0.010282997678381265 -0.0018037329636296558 0 -0.0064331866480238685 -0.004575689356613709 0 -0.01035517981548688 -0.0021072773232050927 0 -0.0093480455167719665 -0.0022107721684471861 0 -0.010004136238735205 -0.0016669539696706063 0 -0.0034337248451462694 -0.011597987539528986 0 -0.0034553006439296476 -0.011529726582157817 0 -0.0034393850798854304 -0.011549941328740225 0 -0.0093480455167719665 -0.0022107721684471861 0 -0.010004136238735205 -0.0016669539696706063 0 -0.0093904179056195081 -0.0013398716872692314 0 -0.0076160001749396257 -0.0054690760544657893 0 -0.0063804217424861982 -0.0060421776803754219 0 -0.0034337248451462694 -0.011597987539528986 0 -0.0034393850798854304 -0.011549941328740225 0 -0.0034382443801271776 -0.01158308684308821 0 -0.010923347650524665 -0.0017442016935205931 0 -0.010099567872298286 -0.0024678312889745901 0 -0.010159056775154033 -0.0012819012276063036 0 -0.0034325558166277853 -0.011580441098370996 0 -0.0034382443801271776 -0.01158308684308821 0 -0.0034349847744131459 -0.011622163581302851 0 -0.0076160001749396257 -0.0054690760544657893 0 -0.0097109501220251655 -0.010933965112340327 0 -0.0034325558166277853 -0.011580441098370996 0 -0.0034349847744131459 -0.011622163581302851 0 -0.0034499200855878406 -0.011635177716861452 0 -0.0034328689096996936 -0.011644809637861957 0 -0.0034349847744131459 -0.011622163581302851 0 -0.0034499200855878406 -0.011635177716861452 0 -0.0034328689096996936 -0.011644809637861957 0 -0.0034269081041158572 -0.011650447613928723 0 -0.0034203193681158345 -0.011671782455205896 0 -0.0034328689096996936 -0.011644809637861957 0 -0.0034203193681158345 -0.011671782455205896 0 -0.0034499200855878406 -0.011635177716861452 0 -0.0034328689096996936 -0.011644809637861957 0 -0.0034349847744131459 -0.011622163581302851 0 -0.0034269081041158572 -0.011650447613928723 0 -0.0033828810377424844 -0.011679716448695893 0 -0.0034269081041158572 -0.011650447613928723 0 -0.0034203193681158345 -0.011671782455205896 0 -0.0033828810377424844 -0.011679716448695893 0 -0.0033985373623266557 -0.011695604291982848 0 -0.0034269081041158572 -0.011650447613928723 0 -0.003417484445807981 -0.011658636199292109 0 -0.0033985373623266557 -0.011695604291982848 0 -0.0034269081041158572 -0.011650447613928723 0 -0.003417484445807981 -0.011658636199292109 0 -0.0034328326256383751 -0.01162426391442278 0 -0.0034269081041158572 -0.011650447613928723 0 -0.0034382443801271776 -0.01158308684308821 0 -0.0034328326256383751 -0.01162426391442278 0 -0.0034349847744131459 -0.011622163581302851 0 -0.0034328326256383751 -0.01162426391442278 0 -0.0034349847744131459 -0.011622163581302851 0 -0.0034269081041158572 -0.011650447613928723 0 -0.0034071487746055069 -0.011736094156142022 0 -0.0034203193681158345 -0.011671782455205896 0 -0.0033552238217816653 -0.01167028044110255 0 -0.0027283231606367339 -0.011757906202226075 0 -0.0097109501220251655 -0.010933965112340327 0 -0.0034071487746055069 -0.011736094156142022 0 -0.0033552238217816653 -0.01167028044110255 0 -0.0032940656985262131 -0.011882352700387967 0 -0.015006707589614044 -0.01721635770377666 0 -0.015085659589029368 -0.016999440788487495 0 -0.015251420368669982 -0.017090525202854104 0 -0.0097109501220251655 -0.010933965112340327 0 -0.0092307010822001902 -0.014366906121037977 0 -0.015085659589029368 -0.016999440788487495 0 -0.015229262068541756 -0.016914879806252656 0 -0.015274868188795636 -0.016989518238413773 0 -0.0034071487746055069 -0.011736094156142022 0 -0.0032940656985262131 -0.011882352700387967 0 -0.0034544335242084959 -0.011881333659305585 0 -0.003272600219963658 -0.018695491047155875 0 -0.0081710704162594027 -0.018497412961528521 0 -0.0042971987058400846 -0.024661368718293716 0 -0.0045169711429057981 -0.02514855558732695 0 -0.0046620790886826979 -0.024559966296383514 0 -0.0032940656985262131 -0.011882352700387967 0 -0.0034544335242084959 -0.011881333659305585 0 -0.0033155665978885042 -0.01225051623555683 0 -0.0045169711429057981 -0.02514855558732695 0 -0.0046620790886826979 -0.024559966296383514 0 -0.0051295077888016101 -0.024544424379063158 0 -0.0042971987058400846 -0.024661368718293716 0 -0.0046620790886826979 -0.024559966296383514 0 -0.0044587224974448909 -0.024370086064295745 0 -0.0046620790886826979 -0.024559966296383514 0 -0.0044587224974448909 -0.024370086064295745 0 -0.0047946948179109772 -0.024175160141939062 0 -0.0046620790886826979 -0.024559966296383514 0 -0.0047946948179109772 -0.024175160141939062 0 -0.0051295077888016101 -0.024544424379063158 0 -0.0044587224974448909 -0.024370086064295745 0 -0.0047946948179109772 -0.024175160141939062 0 -0.0044485262379274949 -0.024097718543369596 0 -0.0081710704162594027 -0.018497412961528521 0 -0.010344894906225548 -0.026129473595180586 0 -0.0081710704162594027 -0.018497412961528521 0 -0.01556055408669884 -0.022881375375294912 0 -0.011690407945048064 -0.021466007579050678 0 -0.010566636191382617 -0.022590218549444676 0 -0.011638031308933993 -0.023217485066928289 0 -0.0047946948179109772 -0.024175160141939062 0 -0.0051295077888016101 -0.024544424379063158 0 -0.0051525385192015974 -0.023906499783593473 0 -0.015085659589029368 -0.016999440788487495 0 -0.015119469612116979 -0.016894983858731536 0 -0.015229262068541756 -0.016914879806252656 0 -0.0092307010822001902 -0.014366906121037977 0 -0.0081710704162594027 -0.018497412961528521 0 -0.015319767950964258 -0.016945573350659368 0 -0.015229262068541756 -0.016914879806252656 0 -0.015274868188795636 -0.016989518238413773 0 -0.015319767950964258 -0.016945573350659368 0 -0.015229262068541756 -0.016914879806252656 0 -0.015304493744753808 -0.016881784436637043 0 -0.015119469612116979 -0.016894983858731536 0 -0.015229262068541756 -0.016914879806252656 0 -0.015264456343940507 -0.016834215655664054 0 -0.015229262068541756 -0.016914879806252656 0 -0.015304493744753808 -0.016881784436637043 0 -0.015264456343940507 -0.016834215655664054 0 -0.01556055408669884 -0.022881375375294912 0 -0.015559095723155336 -0.019016953187688101 0 -0.015304493744753808 -0.016881784436637043 0 -0.015264456343940507 -0.016834215655664054 0 -0.015335266811646079 -0.016868138170624051 0 -0.015559095723155336 -0.019016953187688101 0 -0.016115013493128313 -0.022307302369156807 0 -0.015304493744753808 -0.016881784436637043 0 -0.015369157767715145 -0.016838079427026514 0 -0.015404286817385406 -0.016937612026261428 0 -0.01588866298557496 -0.017500559721710281 0 -0.015559095723155336 -0.019016953187688101 0 -0.015369157767715145 -0.016838079427026514 0 -0.015404286817385406 -0.016937612026261428 0 -0.015554951860819536 -0.016931135049473616 0 -0.015319767950964258 -0.016945573350659368 0 -0.015304493744753808 -0.016881784436637043 0 -0.015404286817385406 -0.016937612026261428 0 -0.015319767950964258 -0.016945573350659368 0 -0.015404286817385406 -0.016937612026261428 0 -0.015385250148879162 -0.017018026334822578 0 -0.015404286817385406 -0.016937612026261428 0 -0.015447239585654854 -0.017015139232561344 0 -0.015385250148879162 -0.017018026334822578 0 -0.016005627445282222 -0.01686809888845648 0 -0.01543666221751651 -0.017120790598675013 0 -0.015895132160498916 -0.017106023823644151 0 -0.015447239585654854 -0.017015139232561344 0 -0.015385250148879162 -0.017018026334822578 0 -0.01543666221751651 -0.017120790598675013 0 -0.015678755467682385 -0.016962642441760212 0 -0.015466195941075277 -0.017118805644329549 0 -0.015319767950964258 -0.016945573350659368 0 -0.015385250148879162 -0.017018026334822578 0 -0.015274868188795636 -0.016989518238413773 0 -0.015085659589029368 -0.016999440788487495 0 -0.015274868188795636 -0.016989518238413773 0 -0.015251420368669982 -0.017090525202854104 0 -0.015385250148879162 -0.017018026334822578 0 -0.015274868188795636 -0.016989518238413773 0 -0.015338848668599725 -0.017049578388782127 0 -0.015274868188795636 -0.016989518238413773 0 -0.015338848668599725 -0.017049578388782127 0 -0.015251420368669982 -0.017090525202854104 0 -0.015338848668599725 -0.017049578388782127 0 -0.01543666221751651 -0.017120790598675013 0 -0.015251420368669982 -0.017090525202854104 0 -0.015385250148879162 -0.017018026334822578 0 -0.015338848668599725 -0.017049578388782127 0 -0.01543666221751651 -0.017120790598675013 0 -0.010923347650524665 -0.0017442016935205931 0 -0.010159056775154033 -0.0012819012276063036 0 -0.01182530353015792 -0.00096207618738558239 0 -0.01543666221751651 -0.017120790598675013 0 -0.015251420368669982 -0.017090525202854104 0 -0.015432080743784882 -0.017276293052099233 0 -0.015006707589614044 -0.01721635770377666 0 -0.015251420368669982 -0.017090525202854104 0 -0.015432080743784882 -0.017276293052099233 0 -0.0097109501220251655 -0.010933965112340327 0 -0.01426920139488129 -0.0088833616326936416 0 -0.01426920139488129 -0.0088833616326936416 0 -0.014772213094697166 -0.0090016919192861655 0 -0.015432080743784882 -0.017276293052099233 0 -0.015895132160498916 -0.017106023823644151 0 -0.016251005893066304 -0.017228245488161369 0 -0.013185364386111327 -0.0017227759495627016 0 -0.01182530353015792 -0.00096207618738558239 0 -0.013344026850875264 -0.00063379307941490229 0 -0.01543666221751651 -0.017120790598675013 0 -0.015432080743784882 -0.017276293052099233 0 -0.015895132160498916 -0.017106023823644151 0 -0.015895132160498916 -0.017106023823644151 0 -0.016251005893066304 -0.017228245488161369 0 -0.016333492537595515 -0.016960785690365455 0 -0.014772213094697166 -0.0090016919192861655 0 -0.015059194154661113 -0.0081693899679504828 0 -0.014460166666785115 -0.0012643693994178133 0 -0.013344026850875264 -0.00063379307941490229 0 -0.014702379991596652 -0.00031093373658852135 0 -0.016251005893066304 -0.017228245488161369 0 -0.016525847317038468 -0.017007895871083985 0 -0.016573386134178743 -0.017009044357141418 0 -0.016525847317038468 -0.017007895871083985 0 -0.016607647100033401 -0.016989655444319973 0 -0.016534245470719799 -0.017043995667813963 0 -0.016525847317038468 -0.017007895871083985 0 -0.016333492537595515 -0.016960785690365455 0 -0.016607647100033401 -0.016989655444319973 0 -0.016251005893066304 -0.017228245488161369 0 -0.016525847317038468 -0.017007895871083985 0 -0.016333492537595515 -0.016960785690365455 0 -0.016005627445282222 -0.01686809888845648 0 -0.016333492537595515 -0.016960785690365455 0 -0.016388928470227836 -0.016763721604687025 0 -0.016005627445282222 -0.01686809888845648 0 -0.015895132160498916 -0.017106023823644151 0 -0.016333492537595515 -0.016960785690365455 0 -0.015678755467682385 -0.016962642441760212 0 -0.016300924394120581 -0.017026171071486872 0 -0.015404286817385406 -0.016937612026261428 0 -0.015447239585654854 -0.017015139232561344 0 -0.015554951860819536 -0.016931135049473616 0 -0.016603664741695452 -0.017945460887343195 0 -0.016603349655404061 -0.017931644164103248 0 -0.016613155259967712 -0.017958375271395668 0 -0.015559095723155336 -0.019016953187688101 0 -0.016300924394120581 -0.017026171071486872 0 -0.016603664741695452 -0.017945460887343195 0 -0.016599453074054644 -0.017917313430986511 0 -0.016603349655404061 -0.017931644164103248 0 -0.016599453074054644 -0.017917313430986511 0 -0.016603349655404061 -0.017931644164103248 0 -0.016583146022195228 -0.017908138596608624 0 -0.016300924394120581 -0.017026171071486872 0 -0.016642918090863035 -0.017719037992882315 0 -0.016603349655404061 -0.017931644164103248 0 -0.016583146022195228 -0.017908138596608624 0 -0.016613155259967712 -0.017958375271395668 0 -0.016792976999561254 -0.017105070131199343 0 -0.016607647100033401 -0.016989655444319973 0 -0.016583450625964849 -0.017174772432853785 0 -0.016792976999561254 -0.017105070131199343 0 -0.016672570719351392 -0.017413400640785261 0 -0.016583450625964849 -0.017174772432853785 0 -0.016300924394120581 -0.017026171071486872 0 -0.016609540757594628 -0.017030704669415576 0 -0.016333492537595515 -0.016960785690365455 0 -0.016388928470227836 -0.016763721604687025 0 -0.016607647100033401 -0.016989655444319973 0 -0.016607647100033401 -0.016989655444319973 0 -0.016583450625964849 -0.017174772432853785 0 -0.016534245470719799 -0.017043995667813963 0 -0.016583450625964849 -0.017174772432853785 0 -0.01647873825910938 -0.017266854803546068 0 -0.016534245470719799 -0.017043995667813963 0 -0.016672570719351392 -0.017413400640785261 0 -0.016417671990916798 -0.01757108162063168 0 -0.016484450940640862 -0.017843365397887074 0 -0.016672570719351392 -0.017413400640785261 0 -0.016583450625964849 -0.017174772432853785 0 -0.01647873825910938 -0.017266854803546068 0 -0.016672570719351392 -0.017413400640785261 0 -0.016417671990916798 -0.01757108162063168 0 -0.01647873825910938 -0.017266854803546068 0 -0.016417671990916798 -0.01757108162063168 0 -0.016366864718228222 -0.017373064263736738 0 -0.01647873825910938 -0.017266854803546068 0 -0.016268786578753035 -0.017510447217726054 0 -0.016417671990916798 -0.01757108162063168 0 -0.016366864718228222 -0.017373064263736738 0 -0.016302135048173277 -0.017148477512458501 0 -0.016366864718228222 -0.017373064263736738 0 -0.01647873825910938 -0.017266854803546068 0 -0.016302135048173277 -0.017148477512458501 0 -0.01647873825910938 -0.017266854803546068 0 -0.016534245470719799 -0.017043995667813963 0 -0.022196681668102351 -0.018059393402491342 0 -0.019489880070043621 -0.013296616494299283 0 -0.016302135048173277 -0.017148477512458501 0 -0.016534245470719799 -0.017043995667813963 0 -0.016423331179405112 -0.016924835459756205 0 -0.016534245470719799 -0.017043995667813963 0 -0.016573386134178743 -0.017009044357141418 0 -0.016423331179405112 -0.016924835459756205 0 -0.016525847317038468 -0.017007895871083985 0 -0.016534245470719799 -0.017043995667813963 0 -0.016573386134178743 -0.017009044357141418 0 -0.015559843780914774 -0.00096723770770474921 0 -0.014702379991596652 -0.00031093373658852135 0 -0.016405687916851219 -0.00023493078726900216 0 -0.015559843780914774 -0.00096723770770474921 0 -0.014460166666785115 -0.0012643693994178133 0 -0.014702379991596652 -0.00031093373658852135 0 -0.015059194154661113 -0.0081693899679504828 0 -0.019489880070043621 -0.013296616494299283 0 -0.014702379991596652 -0.00031093373658852135 0 -0.016405687916851219 -0.00023493078726900216 0 -0.016440009876485636 -0.00012654046910877013 0 -0.015559843780914774 -0.00096723770770474921 0 -0.016398914488041986 -0.0009040796222898798 0 -0.016405687916851219 -0.00023493078726900216 0 -0.016991114139519869 -0.00081538262369019478 0 -0.016398914488041986 -0.0009040796222898798 0 -0.016405687916851219 -0.00023493078726900216 0 -0.019668445574024331 -0.011890725937101443 0 -0.019489880070043621 -0.013296616494299283 0 -0.014335921451185063 -0.027087448882503643 0 -0.014645960509917134 -0.027169787790386108 0 -0.014551948951368368 -0.027390363140980426 0 -0.016240897340116744 -0.025785562899849443 0 -0.016232399088213785 -0.025732515053865264 0 -0.015934384929151828 -0.025917777708555904 0 -0.019158282625492899 -0.02727157967686776 0 -0.014517441887008846 -0.026424759787256231 0 -0.022704605588253931 -0.026364156847295379 0 -0.020776568999245071 -0.027956902703962713 0 -0.02067273996241353 -0.027023364987550064 0 -0.023997796580251203 -0.026256103173038316 0 -0.020459439918587938 -0.026625607309581144 0 -0.023997796580251203 -0.026256103173038316 0 -0.019158282625492899 -0.02727157967686776 0 -0.020459439918587938 -0.026625607309581144 0 -0.019158282625492899 -0.02727157967686776 0 -0.016232399088213785 -0.025732515053865264 0 -0.015934384929151828 -0.025917777708555904 0 -0.015804026143379429 -0.02590510096187006 0 -0.014335921451185063 -0.027087448882503643 0 -0.014645960509917134 -0.027169787790386108 0 -0.014771628154953774 -0.026905040539041088 0 -0.014645960509917134 -0.027169787790386108 0 -0.014843475710486444 -0.027167527888428817 0 -0.014742256663533055 -0.027354918858145984 0 -0.014645960509917134 -0.027169787790386108 0 -0.014843475710486444 -0.027167527888428817 0 -0.014771628154953774 -0.026905040539041088 0 -0.015934384929151828 -0.025917777708555904 0 -0.015963651620161431 -0.025955606031995992 0 -0.015804026143379429 -0.02590510096187006 0 -0.015963651620161431 -0.025955606031995992 0 -0.015804026143379429 -0.02590510096187006 0 -0.015710960801948361 -0.026054790272933479 0 -0.016452207007564602 -0.023151847931669307 0 -0.016202182032447207 -0.021843732774648104 0 -0.016779532335419716 -0.02419340258230511 0 -0.016452207007564602 -0.023151847931669307 0 -0.01909489818513593 -0.021031519782493978 0 -0.020459439918587938 -0.026625607309581144 0 -0.016240897340116744 -0.025785562899849443 0 -0.015934384929151828 -0.025917777708555904 0 -0.015994927825658842 -0.025980918218166386 0 -0.018202082944535455 -0.021985664721341978 0 -0.018522565621689784 -0.024867375532537803 0 -0.019754932184049064 -0.02382260716331689 0 -0.020459439918587938 -0.026625607309581144 0 -0.016452207007564602 -0.023151847931669307 0 -0.016263073734402181 -0.018033541385833504 0 -0.016484450940640862 -0.017843365397887074 0 -0.016487647526126366 -0.018040643134820934 0 -0.016263073734402181 -0.018033541385833504 0 -0.016478395782173687 -0.018276499007568153 0 -0.016487647526126366 -0.018040643134820934 0 -0.01909489818513593 -0.021031519782493978 0 -0.016452207007564602 -0.023151847931669307 0 -0.016263073734402181 -0.018033541385833504 0 -0.016268786578753035 -0.017510447217726054 0 -0.016417671990916798 -0.01757108162063168 0 -0.016263073734402181 -0.018033541385833504 0 -0.016417671990916798 -0.01757108162063168 0 -0.016484450940640862 -0.017843365397887074 0 -0.016642918090863035 -0.017719037992882315 0 -0.016475235275642663 -0.017828304557099793 0 -0.016583146022195228 -0.017908138596608624 0 -0.016484450940640862 -0.017843365397887074 0 -0.016580307482845304 -0.017930838792946217 0 -0.016484450940640862 -0.017843365397887074 0 -0.016580307482845304 -0.017930838792946217 0 -0.016487647526126366 -0.018040643134820934 0 -0.016580307482845304 -0.017930838792946217 0 -0.016487647526126366 -0.018040643134820934 0 -0.016614068012836963 -0.018041662247770925 0 -0.016478395782173687 -0.018276499007568153 0 -0.016487647526126366 -0.018040643134820934 0 -0.016614068012836963 -0.018041662247770925 0 -0.016202182032447207 -0.021843732774648104 0 -0.016115013493128313 -0.022307302369156807 0 -0.015710960801948361 -0.026054790272933479 0 -0.015691598873135613 -0.026035349449871823 0 -0.015678408602748776 -0.026061721747477753 0 -0.016580307482845304 -0.017930838792946217 0 -0.016614068012836963 -0.018041662247770925 0 -0.016613155259967712 -0.017958375271395668 0 -0.016583146022195228 -0.017908138596608624 0 -0.016580307482845304 -0.017930838792946217 0 -0.016613155259967712 -0.017958375271395668 0 -0.015691598873135613 -0.026035349449871823 0 -0.015678408602748776 -0.026061721747477753 0 -0.015874642928284964 -0.026262456213859687 0 -0.015710960801948361 -0.026054790272933479 0 -0.015661058571753938 -0.025875614835520894 0 -0.015691598873135613 -0.026035349449871823 0 -0.015661058571753938 -0.025875614835520894 0 -0.015691598873135613 -0.026035349449871823 0 -0.01580171748482441 -0.026022074268617579 0 -0.015243355389852494 -0.026634613226255814 0 -0.015373885625675624 -0.026988571462768243 0 -0.015634200486933387 -0.026763527186145546 0 -0.014517441887008846 -0.026424759787256231 0 -0.015659062380184077 -0.026314855923991264 0 -0.014771628154953774 -0.026905040539041088 0 -0.015243355389852494 -0.026634613226255814 0 -0.015080878976055881 -0.027062095615888619 0 -0.015804026143379429 -0.02590510096187006 0 -0.015710960801948361 -0.026054790272933479 0 -0.015678408602748776 -0.026061721747477753 0 -0.014843475710486444 -0.027167527888428817 0 -0.014771628154953774 -0.026905040539041088 0 -0.015080878976055881 -0.027062095615888619 0 -0.014843475710486444 -0.027167527888428817 0 -0.015080878976055881 -0.027062095615888619 0 -0.014972950330022562 -0.027393616765613769 0 -0.015080878976055881 -0.027062095615888619 0 -0.015373885625675624 -0.026988571462768243 0 -0.01527195015285248 -0.027336798885095315 0 -0.015243355389852494 -0.026634613226255814 0 -0.015080878976055881 -0.027062095615888619 0 -0.015373885625675624 -0.026988571462768243 0 -0.015373885625675624 -0.026988571462768243 0 -0.015578143879811027 -0.027211741925918059 0 -0.01527195015285248 -0.027336798885095315 0 -0.015578143879811027 -0.027211741925918059 0 -0.015871100680055733 -0.027045487859424119 0 -0.015634200486933387 -0.026763527186145546 0 -0.015373885625675624 -0.026988571462768243 0 -0.015578143879811027 -0.027211741925918059 0 -0.015634200486933387 -0.026763527186145546 0 -0.015871100680055733 -0.027045487859424119 0 -0.016104666020066945 -0.026707809722348735 0 -0.015634200486933387 -0.026763527186145546 0 -0.015578143879811027 -0.027211741925918059 0 -0.015871100680055733 -0.027045487859424119 0 -0.015847953795535254 -0.027397541774946479 0 -0.015871100680055733 -0.027045487859424119 0 -0.016127896520252656 -0.027159371456046019 0 -0.016104666020066945 -0.026707809722348735 0 -0.016127896520252656 -0.027159371456046019 0 -0.016104666020066945 -0.026707809722348735 0 -0.016475175156141334 -0.027109035418376268 0 -0.015871100680055733 -0.027045487859424119 0 -0.016127896520252656 -0.027159371456046019 0 -0.015847953795535254 -0.027397541774946479 0 -0.016104666020066945 -0.026707809722348735 0 -0.015874642928284964 -0.026262456213859687 0 -0.016165360102911999 -0.026226070996831125 0 -0.016104666020066945 -0.026707809722348735 0 -0.016165360102911999 -0.026226070996831125 0 -0.016469464641063324 -0.026395164199877235 0 -0.016104666020066945 -0.026707809722348735 0 -0.015634200486933387 -0.026763527186145546 0 -0.015874642928284964 -0.026262456213859687 0 -0.015659062380184077 -0.026314855923991264 0 -0.015796260596156003 -0.026271906193027241 0 -0.015243355389852494 -0.026634613226255814 0 -0.015634200486933387 -0.026763527186145546 0 -0.015874642928284964 -0.026262456213859687 0 -0.015874642928284964 -0.026262456213859687 0 -0.01580171748482441 -0.026022074268617579 0 -0.016047052422144985 -0.025969017847011635 0 -0.015691598873135613 -0.026035349449871823 0 -0.015874642928284964 -0.026262456213859687 0 -0.01580171748482441 -0.026022074268617579 0 -0.015949718920834334 -0.025499147419000268 0 -0.015661058571753938 -0.025875614835520894 0 -0.01580171748482441 -0.026022074268617579 0 -0.016187622119138323 -0.025625365370775387 0 -0.015949718920834334 -0.025499147419000268 0 -0.01580171748482441 -0.026022074268617579 0 -0.01556055408669884 -0.022881375375294912 0 -0.015768633306493415 -0.026867653664937031 0 -0.016099514650643111 -0.025659724917275507 0 -0.016047052422144985 -0.025969017847011635 0 -0.016413722715049688 -0.025818189659806916 0 -0.016099514650643111 -0.025659724917275507 0 -0.01580171748482441 -0.026022074268617579 0 -0.016047052422144985 -0.025969017847011635 0 -0.016047052422144985 -0.025969017847011635 0 -0.016165360102911999 -0.026226070996831125 0 -0.016413722715049688 -0.025818189659806916 0 -0.015874642928284964 -0.026262456213859687 0 -0.016047052422144985 -0.025969017847011635 0 -0.016165360102911999 -0.026226070996831125 0 -0.0093871009411569464 -0.028845673444697663 0 -0.0095330006513411336 -0.029481792122323942 0 -0.0096088224385499181 -0.028605535571253358 0 -0.0093871009411569464 -0.028845673444697663 0 -0.0095330006513411336 -0.029481792122323942 0 -0.0090839459151259364 -0.029231810654234833 0 -0.010344894906225548 -0.026129473595180586 0 -0.013360454160842864 -0.027560957133154693 0 -0.016165360102911999 -0.026226070996831125 0 -0.016413722715049688 -0.025818189659806916 0 -0.016469464641063324 -0.026395164199877235 0 -0.01556055408669884 -0.022881375375294912 0 -0.010344894906225548 -0.026129473595180586 0 -0.010344894906225548 -0.026129473595180586 0 -0.0064921997130687834 -0.029101067814078067 0 -0.0047946948179109772 -0.024175160141939062 0 -0.0047914307778508924 -0.023727377068640337 0 -0.0044485262379274949 -0.024097718543369596 0 -0.0047946948179109772 -0.024175160141939062 0 -0.0051525385192015974 -0.023906499783593473 0 -0.0047914307778508924 -0.023727377068640337 0 -0.0064921997130687834 -0.029101067814078067 0 -0.0032213887725764247 -0.028991348929261435 0 -0.0029421306085252973 -0.03278533656413795 0 -0.0022721791621560655 -0.032844993496533283 0 -0.0023478480369854156 -0.033536019685442599 0 -0.0089337111497688679 -0.028879082639659149 0 -0.0090305700724398769 -0.028274519519209243 0 -0.0083349888200891717 -0.029028477411683327 0 -0.0029421306085252973 -0.03278533656413795 0 -0.0022721791621560655 -0.032844993496533283 0 -0.0021899783613434946 -0.032397554574713071 0 -0.0064921997130687834 -0.029101067814078067 0 -0.0059189816341754103 -0.031184119650250305 0 -0.0089855421045937755 -0.029395652892532265 0 -0.0089337111497688679 -0.028879082639659149 0 -0.0083349888200891717 -0.029028477411683327 0 -0.0093871009411569464 -0.028845673444697663 0 -0.0089855421045937755 -0.029395652892532265 0 -0.0089337111497688679 -0.028879082639659149 0 -0.0093067772526930388 -0.028455391750186541 0 -0.0064921997130687834 -0.029101067814078067 0 -0.0093871009411569464 -0.028845673444697663 0 -0.0089337111497688679 -0.028879082639659149 0 -0.0090305700724398769 -0.028274519519209243 0 -0.0090090863154001152 -0.032405574302053555 0 -0.0080548583876829012 -0.033494848798910945 0 -0.0081618688380279709 -0.032614054399367112 0 -0.0088838237825328743 -0.030527074470895095 0 -0.0059189816341754103 -0.031184119650250305 0 -0.0090090863154001152 -0.032405574302053555 0 -0.0081618688380279709 -0.032614054399367112 0 -0.0081366277601914849 -0.03140156816914192 0 -0.013360454160842864 -0.027560957133154693 0 -0.01267414197029813 -0.028494483158905681 0 -0.0093871009411569464 -0.028845673444697663 0 -0.0090305700724398769 -0.028274519519209243 0 -0.0096088224385499181 -0.028605535571253358 0 -0.016104666020066945 -0.026707809722348735 0 -0.016469464641063324 -0.026395164199877235 0 -0.016475175156141334 -0.027109035418376268 0 -0.0090305700724398769 -0.028274519519209243 0 -0.0096088224385499181 -0.028605535571253358 0 -0.0097002225646977899 -0.02754209451759506 0 -0.0088838237825328743 -0.030527074470895095 0 -0.01267414197029813 -0.028494483158905681 0 -0.0090090863154001152 -0.032405574302053555 0 -0.0099471466975300672 -0.031316328025642902 0 -0.0090437803006716069 -0.0312850101817631 0 -0.0090090863154001152 -0.032405574302053555 0 -0.0090437803006716069 -0.0312850101817631 0 -0.0081366277601914849 -0.03140156816914192 0 -0.0099248011258204899 -0.036238192595585264 0 -0.0099529579970219408 -0.036258324143208322 0 -0.0099623393643345059 -0.03609201555477573 0 -0.0090437803006716069 -0.0312850101817631 0 -0.009104482689865398 -0.030411409673071446 0 -0.0081366277601914849 -0.03140156816914192 0 -0.0093445588584966342 -0.033535043244560928 0 -0.0078720838599819955 -0.033840287878807822 0 -0.0083129467684943722 -0.035780444991985419 0 -0.0078720838599819955 -0.033840287878807822 0 -0.0099248011258204899 -0.036238192595585264 0 -0.0099684451825346829 -0.03626058580651223 0 -0.0099529579970219408 -0.036258324143208322 0 -0.0099471466975300672 -0.031316328025642902 0 -0.0090437803006716069 -0.0312850101817631 0 -0.009104482689865398 -0.030411409673071446 0 -0.015869144984234786 -0.027878678388079801 0 -0.01590472156464352 -0.027869792314327825 0 -0.0158946226056794 -0.027860975499219155 0 -0.01267414197029813 -0.028494483158905681 0 -0.012924800075335705 -0.028851475677314338 0 -0.0099471466975300672 -0.031316328025642902 0 -0.009104482689865398 -0.030411409673071446 0 -0.0099889358291038646 -0.03037694250587088 0 -0.01267414197029813 -0.028494483158905681 0 -0.016360923884296989 -0.02726476751804802 0 -0.0093445588584966342 -0.033535043244560928 0 -0.012087087942928093 -0.031621155445091184 0 -0.01590472156464352 -0.027869792314327825 0 -0.015964776147759728 -0.027962914357871953 0 -0.01590383714116338 -0.027904063384196879 0 -0.0099248011258204899 -0.036238192595585264 0 -0.010094871965216936 -0.036284649601096605 0 -0.0099684451825346829 -0.03626058580651223 0 -0.012924800075335705 -0.028851475677314338 0 -0.012087087942928093 -0.031621155445091184 0 -0.009104482689865398 -0.030411409673071446 0 -0.0099889358291038646 -0.03037694250587088 0 -0.010047292137355841 -0.029459165088395054 0 -0.010094871965216936 -0.036284649601096605 0 -0.0099983476372022002 -0.036248866180771958 0 -0.0099684451825346829 -0.03626058580651223 0 -0.010094871965216936 -0.036284649601096605 0 -0.0099983476372022002 -0.036248866180771958 0 -0.010019111806361117 -0.036196377887253384 0 -0.0099983476372022002 -0.036248866180771958 0 -0.0099241472299958413 -0.036237737690588495 0 -0.0099684451825346829 -0.03626058580651223 0 -0.0099983476372022002 -0.036248866180771958 0 -0.0099241472299958413 -0.036237737690588495 0 -0.010019111806361117 -0.036196377887253384 0 -0.01000767314330612 -0.035878608715755711 0 -0.0083129467684943722 -0.035780444991985419 0 -0.0099241472299958413 -0.036237737690588495 0 -0.0099684451825346829 -0.03626058580651223 0 -0.0099226578068298613 -0.036271526569282335 0 -0.0093841154144224306 -0.037016397025475073 0 -0.0090051494600817492 -0.037926259020862448 0 -0.0085506858294798534 -0.036965802752133577 0 -0.0095495224535526464 -0.036689630234561663 0 -0.0083129467684943722 -0.035780444991985419 0 -0.0090125300996962664 -0.036328883912561311 0 -0.0093927035531083669 -0.035643502695554753 0 -0.008147949167729868 -0.036020997070866846 0 -0.0093841154144224306 -0.037016397025475073 0 -0.0090125300996962664 -0.036328883912561311 0 -0.0085506858294798534 -0.036965802752133577 0 -0.0099241472299958413 -0.036237737690588495 0 -0.0098232873622207048 -0.036007714164169459 0 -0.010019111806361117 -0.036196377887253384 0 -0.0093841154144224306 -0.037016397025475073 0 -0.0098232873622207048 -0.036007714164169459 0 -0.0090125300996962664 -0.036328883912561311 0 -0.0095495224535526464 -0.036689630234561663 0 -0.0098247997796396883 -0.036045087638412736 0 -0.0098232873622207048 -0.036007714164169459 0 -0.0090125300996962664 -0.036328883912561311 0 -0.0093927035531083669 -0.035643502695554753 0 -0.0087692688350233042 -0.034999988100578541 0 -0.0093927035531083669 -0.035643502695554753 0 -0.008147949167729868 -0.036020997070866846 0 -0.0087692688350233042 -0.034999988100578541 0 -0.0093927035531083669 -0.035643502695554753 0 -0.010317053152240543 -0.034999510078537792 0 -0.0098232873622207048 -0.036007714164169459 0 -0.0093927035531083669 -0.035643502695554753 0 -0.010185084509334688 -0.035551461732346731 0 -0.013296640379123429 -0.03247759277918616 0 -0.013301762108933097 -0.032418978524677296 0 -0.013274634827753129 -0.03243766724288865 0 -0.012113670192013358 -0.033540359292010581 0 -0.011811621173091078 -0.034645830925359257 0 -0.010690955031850503 -0.034919496979656253 0 -0.010185084509334688 -0.035551461732346731 0 -0.01034844000133448 -0.036018423157002273 0 -0.010690955031850503 -0.034919496979656253 0 -0.010317053152240543 -0.034999510078537792 0 -0.010185084509334688 -0.035551461732346731 0 -0.0093927035531083669 -0.035643502695554753 0 -0.010317053152240543 -0.034999510078537792 0 -0.010185084509334688 -0.035551461732346731 0 -0.0098232873622207048 -0.036007714164169459 0 -0.010185084509334688 -0.035551461732346731 0 -0.01034844000133448 -0.036018423157002273 0 -0.012087087942928093 -0.031621155445091184 0 -0.011811621173091078 -0.034645830925359257 0 -0.010094871965216936 -0.036284649601096605 0 -0.01034844000133448 -0.036018423157002273 0 -0.010019111806361117 -0.036196377887253384 0 -0.013295209689798972 -0.032347165241446131 0 -0.013301762108933097 -0.032418978524677296 0 -0.013267559185781947 -0.03240161307603142 0 -0.0098232873622207048 -0.036007714164169459 0 -0.01034844000133448 -0.036018423157002273 0 -0.010019111806361117 -0.036196377887253384 0 -0.012087087942928093 -0.031621155445091184 0 -0.015186439187777991 -0.029614973886252661 0 -0.013301762108933097 -0.032418978524677296 0 -0.013267559185781947 -0.03240161307603142 0 -0.013274634827753129 -0.03243766724288865 0 -0.012113670192013358 -0.033540359292010581 0 -0.013713266824767275 -0.032744923475571147 0 -0.013296640379123429 -0.03247759277918616 0 -0.013274634827753129 -0.03243766724288865 0 -0.013232059579889629 -0.032451807421884818 0 -0.013267559185781947 -0.03240161307603142 0 -0.013274634827753129 -0.03243766724288865 0 -0.013232059579889629 -0.032451807421884818 0 -0.010691178722445701 -0.034918760868699321 0 -0.012694230669618563 -0.034999919639921238 0 -0.01247024065091258 -0.035441098739768077 0 -0.015186439187777991 -0.029614973886252661 0 -0.013713266824767275 -0.032744923475571147 0 -0.012694230669618563 -0.034999919639921238 0 -0.012723465112239117 -0.035183391329582807 0 -0.013930120056395599 -0.035763765342714506 0 -0.012723465112239117 -0.035183391329582807 0 -0.012473519101685019 -0.035449109811924721 0 -0.013930120056395599 -0.035763765342714506 0 -0.015663416671701257 -0.028485458729110461 0 -0.015632008240976259 -0.028174784731631337 0 -0.015267968309683756 -0.028403334291311467 0 -0.012735995465324388 -0.034131232361264911 0 -0.013713266824767275 -0.032744923475571147 0 -0.012694230669618563 -0.034999919639921238 0 -0.012723465112239117 -0.035183391329582807 0 -0.01247024065091258 -0.035441098739768077 0 -0.015887085734096685 -0.028170980618882891 0 -0.015663416671701257 -0.028485458729110461 0 -0.015632008240976259 -0.028174784731631337 0 -0.015887085734096685 -0.028170980618882891 0 -0.015632008240976259 -0.028174784731631337 0 -0.015822608783252177 -0.027855566323446875 0 -0.015632008240976259 -0.028174784731631337 0 -0.015822608783252177 -0.027855566323446875 0 -0.01540306350773233 -0.027962241182173306 0 -0.015822608783252177 -0.027855566323446875 0 -0.015496533228850726 -0.027603521222920358 0 -0.01540306350773233 -0.027962241182173306 0 -0.015964776147759728 -0.027962914357871953 0 -0.015887085734096685 -0.028170980618882891 0 -0.01590383714116338 -0.027904063384196879 0 -0.015887085734096685 -0.028170980618882891 0 -0.015822608783252177 -0.027855566323446875 0 -0.01590383714116338 -0.027904063384196879 0 -0.015822608783252177 -0.027855566323446875 0 -0.01590383714116338 -0.027904063384196879 0 -0.0158946226056794 -0.027860975499219155 0 -0.015742319830189373 -0.027974735728228804 0 -0.016360923884296989 -0.02726476751804802 0 -0.015822608783252177 -0.027855566323446875 0 -0.016180898948166125 -0.027480659456834887 0 -0.015847953795535254 -0.027397541774946479 0 -0.01590472156464352 -0.027869792314327825 0 -0.01590383714116338 -0.027904063384196879 0 -0.0158946226056794 -0.027860975499219155 0 -0.016127896520252656 -0.027159371456046019 0 -0.016475175156141334 -0.027109035418376268 0 -0.016180898948166125 -0.027480659456834887 0 -0.016127896520252656 -0.027159371456046019 0 -0.016180898948166125 -0.027480659456834887 0 -0.015847953795535254 -0.027397541774946479 0 -0.015822608783252177 -0.027855566323446875 0 -0.015847953795535254 -0.027397541774946479 0 -0.015496533228850726 -0.027603521222920358 0 -0.015578143879811027 -0.027211741925918059 0 -0.015847953795535254 -0.027397541774946479 0 -0.015496533228850726 -0.027603521222920358 0 -0.015496533228850726 -0.027603521222920358 0 -0.01527195015285248 -0.027336798885095315 0 -0.015152804031110939 -0.027687986888588933 0 -0.015578143879811027 -0.027211741925918059 0 -0.015496533228850726 -0.027603521222920358 0 -0.01527195015285248 -0.027336798885095315 0 -0.014972950330022562 -0.027393616765613769 0 -0.015152804031110939 -0.027687986888588933 0 -0.014766131894194552 -0.027739397317426827 0 -0.015080878976055881 -0.027062095615888619 0 -0.01527195015285248 -0.027336798885095315 0 -0.014972950330022562 -0.027393616765613769 0 -0.01527195015285248 -0.027336798885095315 0 -0.014972950330022562 -0.027393616765613769 0 -0.015152804031110939 -0.027687986888588933 0 -0.015152804031110939 -0.027687986888588933 0 -0.015071082671412437 -0.027986158074410152 0 -0.014766131894194552 -0.027739397317426827 0 -0.015152804031110939 -0.027687986888588933 0 -0.01540306350773233 -0.027962241182173306 0 -0.015071082671412437 -0.027986158074410152 0 -0.015496533228850726 -0.027603521222920358 0 -0.015152804031110939 -0.027687986888588933 0 -0.01540306350773233 -0.027962241182173306 0 -0.015632008240976259 -0.028174784731631337 0 -0.01540306350773233 -0.027962241182173306 0 -0.015267968309683756 -0.028403334291311467 0 -0.01540306350773233 -0.027962241182173306 0 -0.015267968309683756 -0.028403334291311467 0 -0.015071082671412437 -0.027986158074410152 0 -0.013713266824767275 -0.032744923475571147 0 -0.01473973782612166 -0.032047145004666662 0 -0.012694230669618563 -0.034999919639921238 0 -0.013930120056395599 -0.035763765342714506 0 -0.01469389344127702 -0.034999988260886142 0 -0.01473973782612166 -0.032047145004666662 0 -0.014607233881795849 -0.032232187760128449 0 -0.013930120056395599 -0.035763765342714506 0 -0.01469389344127702 -0.034999988260886142 0 -0.015393747603460696 -0.036063398017840483 0 -0.015267968309683756 -0.028403334291311467 0 -0.015071082671412437 -0.027986158074410152 0 -0.014855337878804144 -0.028306815503385999 0 -0.015071082671412437 -0.027986158074410152 0 -0.014855337878804144 -0.028306815503385999 0 -0.014766131894194552 -0.027739397317426827 0 -0.014607233881795849 -0.032232187760128449 0 -0.018526718852141813 -0.030470333999286843 0 -0.014855337878804144 -0.028306815503385999 0 -0.01444641863433305 -0.028207121475619046 0 -0.014766131894194552 -0.027739397317426827 0 -0.015393747603460696 -0.036063398017840483 0 -0.016749665455843697 -0.035473254156441904 0 -0.016850329513000365 -0.036344530932893165 0 -0.01469389344127702 -0.034999988260886142 0 -0.015393747603460696 -0.036063398017840483 0 -0.016693602370795525 -0.034999942476237979 0 -0.015393747603460696 -0.036063398017840483 0 -0.016693602370795525 -0.034999942476237979 0 -0.016749665455843697 -0.035473254156441904 0 -0.017915889151546727 -0.035739570660367218 0 -0.016749665455843697 -0.035473254156441904 0 -0.016875390710008972 -0.036354327239083169 0 -0.017915889151546727 -0.035739570660367218 0 -0.016693602370795525 -0.034999942476237979 0 -0.016749665455843697 -0.035473254156441904 0 -0.017356759135729455 -0.036908536358715521 0 -0.018526718852141813 -0.030470333999286843 0 -0.018526718852141813 -0.030470333999286843 0 -0.019468628051146013 -0.026148839576821209 0 -0.01444641863433305 -0.028207121475619046 0 -0.01437554767879312 -0.027630928546131962 0 -0.014766131894194552 -0.027739397317426827 0 -0.024876663062763066 -0.02616776420306368 0 -0.02429512622102455 -0.025638558456768483 0 -0.024403697670371507 -0.026236379626497705 0 -0.014766131894194552 -0.027739397317426827 0 -0.014742256663533055 -0.027354918858145984 0 -0.014551948951368368 -0.027390363140980426 0 -0.014972950330022562 -0.027393616765613769 0 -0.014766131894194552 -0.027739397317426827 0 -0.014742256663533055 -0.027354918858145984 0 -0.01437554767879312 -0.027630928546131962 0 -0.014766131894194552 -0.027739397317426827 0 -0.014551948951368368 -0.027390363140980426 0 -0.014843475710486444 -0.027167527888428817 0 -0.014972950330022562 -0.027393616765613769 0 -0.014742256663533055 -0.027354918858145984 0 -0.014645960509917134 -0.027169787790386108 0 -0.014742256663533055 -0.027354918858145984 0 -0.014551948951368368 -0.027390363140980426 0 -0.024687025310188439 -0.026542287882204689 0 -0.024453753945403469 -0.026903557891412747 0 -0.024403697670371507 -0.026236379626497705 0 -0.014335921451185063 -0.027087448882503643 0 -0.01437554767879312 -0.027630928546131962 0 -0.014551948951368368 -0.027390363140980426 0 -0.019158282625492899 -0.02727157967686776 0 -0.019468628051146013 -0.026148839576821209 0 0.0003390595127237523 -0.031880037732983105 0 0.00039444997980781816 -0.031993088287832157 0 0.00019621272126739913 -0.03190557959044045 0 0.0003390595127237523 -0.031880037732983105 0 0.00039444997980781816 -0.031993088287832157 0 0.00052706880750169258 -0.031895005425004459 0 0.0019144944595112213 -0.031886156422190323 0 0.0021628627659910494 -0.032161524737840314 0 0.0019902627695798196 -0.032222504938984306 0 0.0019144944595112213 -0.031886156422190323 0 0.0017810015395961702 -0.032413424591458136 0 0.0019902627695798196 -0.032222504938984306 0 0.001177980395043809 -0.031781429895801169 0 0.0002740166357759695 -0.031909877058037515 0 0.0019144944595112213 -0.031886156422190323 0 0.0017810015395961702 -0.032413424591458136 0 0.0012220335003839343 -0.032129213207385134 0 0.0019144944595112213 -0.031886156422190323 0 0.0012220335003839343 -0.032129213207385134 0 0.00066258847172734195 -0.031769029464168042 0 0.00039444997980781816 -0.031993088287832157 0 0.00019621272126739913 -0.03190557959044045 0 -5.3251161958694342e-05 -0.031973030065926292 0 0.00019621272126739913 -0.03190557959044045 0 0.00022340471869763969 -0.031737204984076131 0 -5.7067752820782151e-06 -0.031934225613912626 0 0.0012220335003839343 -0.032129213207385134 0 0.00081501104025493798 -0.032133135817147385 0 0.00066258847172734195 -0.031769029464168042 0 0.00019621272126739913 -0.03190557959044045 0 -5.7067752820782151e-06 -0.031934225613912626 0 -5.3251161958694342e-05 -0.031973030065926292 0 -0.0016299631925292424 -0.033856163527218985 0 -0.00024740327484028621 -0.035048971698656964 0 4.4314331841718502e-05 -0.032263904018055685 0 0.00013750036444037407 -0.031728020274189354 0 -0.00045758104828695655 -0.033923565607743393 0 -0.00052987963137045367 -0.033901783364671166 0 -0.00061201661439644285 -0.034028706083537773 0 7.8436101357844473e-05 -0.031507120217308712 0 0.00026250975458196317 -0.031566334189893762 0 -5.7067752820782151e-06 -0.031934225613912626 0 0.0003390595127237523 -0.031880037732983105 0 0.00019621272126739913 -0.03190557959044045 0 0.00022340471869763969 -0.031737204984076131 0 -0.0016299631925292424 -0.033856163527218985 0 4.4314331841718502e-05 -0.032263904018055685 0 4.4314331841718502e-05 -0.032263904018055685 0 -0.00024740327484028621 -0.035048971698656964 0 0.0003390595127237523 -0.031880037732983105 0 0.00022340471869763969 -0.031737204984076131 0 0.00052706880750169258 -0.031895005425004459 0 4.4314331841718502e-05 -0.032263904018055685 0 0.0005940409780628307 -0.031834518350701321 0 0.00049257225967863638 -0.03189409603038193 0 0.00051252977044917187 -0.031886355007921065 0 0.00050229830840642841 -0.031896065043296548 0 0.00049257225967863638 -0.03189409603038193 0 0.00051252977044917187 -0.031886355007921065 0 0.00052706880750169258 -0.031895005425004459 0 0.00051252977044917187 -0.031886355007921065 0 0.00053412992585075635 -0.031868924756674175 0 0.00052706880750169258 -0.031895005425004459 0 0.00086669930708834365 -0.033453672027896821 0 -0.00024740327484028621 -0.035048971698656964 0 0.00051252977044917187 -0.031886355007921065 0 0.00053412992585075635 -0.031868924756674175 0 0.00050229830840642841 -0.031896065043296548 0 0.0012603656295696699 -0.035162996623748569 0 0.0010920463422671453 -0.03531625023113362 0 0.00094927577783082077 -0.035142431064608591 0 0.0012603656295696699 -0.035162996623748569 0 0.00094927577783082077 -0.035142431064608591 0 0.001010976448334524 -0.034902046978661345 0 0.0012603656295696699 -0.035162996623748569 0 0.0010920463422671453 -0.03531625023113362 0 0.0012852734994358076 -0.035400767307472443 0 0.00086669930708834365 -0.033453672027896821 0 0.001394420794858099 -0.033392738629805296 0 0.00053412992585075635 -0.031868924756674175 0 0.00052706880750169258 -0.031895005425004459 0 0.00069377579714514372 -0.031975412558367271 0 0.00071115791223421408 -0.03524357298404121 0 0.00094927577783082077 -0.035142431064608591 0 0.00087497528848920155 -0.035386416226642556 0 0.0010920463422671453 -0.03531625023113362 0 0.00094927577783082077 -0.035142431064608591 0 0.00087497528848920155 -0.035386416226642556 0 0.00071115791223421408 -0.03524357298404121 0 0.00094927577783082077 -0.035142431064608591 0 0.0008189502532972865 -0.034916616049776132 0 0.00071115791223421408 -0.03524357298404121 0 0.0008189502532972865 -0.034916616049776132 0 0.00059338876486388038 -0.034996316836765254 0 0.0008189502532972865 -0.034916616049776132 0 0.00070121985581443906 -0.034548219617968508 0 0.00059338876486388038 -0.034996316836765254 0 0.0023624746104499595 -0.031998945422728305 0 0.0023440582449010075 -0.032208204706163604 0 0.0025917542224064226 -0.03225862337437347 0 0.0008189502532972865 -0.034916616049776132 0 0.0010359351358674488 -0.034888322478640862 0 0.00070121985581443906 -0.034548219617968508 0 0.001394420794858099 -0.033392738629805296 0 0.0014956673480553807 -0.033335984553386884 0 0.00076329538083710294 -0.034350308766192696 0 0.001394420794858099 -0.033392738629805296 0 0.00094927577783082077 -0.035142431064608591 0 0.0008189502532972865 -0.034916616049776132 0 0.001010976448334524 -0.034902046978661345 0 0.001177980395043809 -0.031781429895801169 0 0.001394420794858099 -0.033392738629805296 0 0.00039444997980781816 -0.031993088287832157 0 0.00052706880750169258 -0.031895005425004459 0 0.00069377579714514372 -0.031975412558367271 0 0.0019144944595112213 -0.031886156422190323 0 0.0023624746104499595 -0.031998945422728305 0 0.0021628627659910494 -0.032161524737840314 0 0.0023624746104499595 -0.031998945422728305 0 0.0021628627659910494 -0.032161524737840314 0 0.0023440582449010075 -0.032208204706163604 0 0.0021628627659910494 -0.032161524737840314 0 0.0022203001685575123 -0.032364440668797581 0 0.002045328118345045 -0.032410546078936217 0 0.0021628627659910494 -0.032161524737840314 0 0.0023440582449010075 -0.032208204706163604 0 0.0022203001685575123 -0.032364440668797581 0 0.0022203001685575123 -0.032364440668797581 0 0.0024057138231504444 -0.032371548946003026 0 0.0022772833366968234 -0.032468529690303082 0 0.0023440582449010075 -0.032208204706163604 0 0.0022203001685575123 -0.032364440668797581 0 0.0024057138231504444 -0.032371548946003026 0 0.0022203001685575123 -0.032364440668797581 0 0.0021576490240937485 -0.032521994779291873 0 0.002045328118345045 -0.032410546078936217 0 0.0023440582449010075 -0.032208204706163604 0 0.0025917542224064226 -0.03225862337437347 0 0.0024057138231504444 -0.032371548946003026 0 0.0025917542224064226 -0.03225862337437347 0 0.0024057138231504444 -0.032371548946003026 0 0.0025835826502517765 -0.03245321391298759 0 0.002424795548030653 -0.03249311665275021 0 0.0022974163669192472 -0.032560252838391222 0 0.00263502868018965 -0.032638812174421848 0 0.0022248250410158636 -0.032577426553195211 0 0.0035806002672506107 -0.03206263590119781 0 0.0021809879462109391 -0.032671136835569936 0 0.0022974163669192472 -0.032560252838391222 0 0.00263502868018965 -0.032638812174421848 0 0.0024057138231504444 -0.032371548946003026 0 0.0025835826502517765 -0.03245321391298759 0 0.002424795548030653 -0.03249311665275021 0 0.0025835826502517765 -0.03245321391298759 0 0.002424795548030653 -0.03249311665275021 0 0.00263502868018965 -0.032638812174421848 0 0.0024057138231504444 -0.032371548946003026 0 0.002424795548030653 -0.03249311665275021 0 0.0022772833366968234 -0.032468529690303082 0 0.0022203001685575123 -0.032364440668797581 0 0.0021576490240937485 -0.032521994779291873 0 0.0022772833366968234 -0.032468529690303082 0 0.002424795548030653 -0.03249311665275021 0 0.0022772833366968234 -0.032468529690303082 0 0.0022974163669192472 -0.032560252838391222 0 0.0021576490240937485 -0.032521994779291873 0 0.0022772833366968234 -0.032468529690303082 0 0.0022974163669192472 -0.032560252838391222 0 0.0021576490240937485 -0.032521994779291873 0 0.0022974163669192472 -0.032560252838391222 0 0.0021686846226090153 -0.032590170462817258 0 0.0021809879462109391 -0.032671136835569936 0 0.0022974163669192472 -0.032560252838391222 0 0.0021686846226090153 -0.032590170462817258 0 0.0021809879462109391 -0.032671136835569936 0 0.0021686846226090153 -0.032590170462817258 0 0.0020992898418642817 -0.032582762802914784 0 0.0021576490240937485 -0.032521994779291873 0 0.0021686846226090153 -0.032590170462817258 0 0.0020992898418642817 -0.032582762802914784 0 0.0021809879462109391 -0.032671136835569936 0 0.0020992898418642817 -0.032582762802914784 0 0.0020281340347986345 -0.032554526706640753 0 0.0020992898418642817 -0.032582762802914784 0 0.0020281340347986345 -0.032554526706640753 0 0.0020155611226090162 -0.032542814279021677 0 0.0021576490240937485 -0.032521994779291873 0 0.0020992898418642817 -0.032582762802914784 0 0.0020155611226090162 -0.032542814279021677 0 0.0020281340347986345 -0.032554526706640753 0 0.0020155611226090162 -0.032542814279021677 0 0.0019982161659538064 -0.032575838451418676 0 0.0019809121462439081 -0.032506636315922273 0 0.0020281340347986345 -0.032554526706640753 0 0.0019982161659538064 -0.032575838451418676 0 0.0020155611226090162 -0.032542814279021677 0 0.0019474464235771764 -0.032498834288935297 0 0.0019982161659538064 -0.032575838451418676 0 0.0020155611226090162 -0.032542814279021677 0 0.002045328118345045 -0.032410546078936217 0 0.0019474464235771764 -0.032498834288935297 0 0.0021576490240937485 -0.032521994779291873 0 0.0020155611226090162 -0.032542814279021677 0 0.002045328118345045 -0.032410546078936217 0 0.0019474464235771764 -0.032498834288935297 0 0.0017810015395961702 -0.032413424591458136 0 0.0019982161659538064 -0.032575838451418676 0 0.002045328118345045 -0.032410546078936217 0 0.0019474464235771764 -0.032498834288935297 0 0.0017810015395961702 -0.032413424591458136 0 0.002045328118345045 -0.032410546078936217 0 0.0017810015395961702 -0.032413424591458136 0 0.0019902627695798196 -0.032222504938984306 0 0.0021628627659910494 -0.032161524737840314 0 0.002045328118345045 -0.032410546078936217 0 0.0019902627695798196 -0.032222504938984306 0 0.0017810015395961702 -0.032413424591458136 0 0.0012220335003839343 -0.032129213207385134 0 0.00082979818947226337 -0.032539178908119963 0 0.0017923154104972322 -0.032464778698489981 0 0.001499959064914756 -0.03289307936972681 0 0.0017810015395961702 -0.032413424591458136 0 0.00079382461539304245 -0.033313403103992702 0 0.00082979818947226337 -0.032539178908119963 0 0.0012220335003839343 -0.032129213207385134 0 0.00081501104025493798 -0.032133135817147385 0 0.00082979818947226337 -0.032539178908119963 0 0.0017810015395961702 -0.032413424591458136 0 0.0019982161659538064 -0.032575838451418676 0 0.0021650738601700558 -0.032654157652486873 0 0.0019809121462439081 -0.032506636315922273 0 0.0019982161659538064 -0.032575838451418676 0 0.0021650738601700558 -0.032654157652486873 0 0.00079382461539304245 -0.033313403103992702 0 0.00038062687503222025 -0.032921577099080918 0 0.00082979818947226337 -0.032539178908119963 0 0.00079382461539304245 -0.033313403103992702 0 0.00038062687503222025 -0.032921577099080918 0 0.00021199331846324951 -0.033243478894954104 0 3.6351435932513853e-05 -0.033027580408292526 0 0.00021199331846324951 -0.033243478894954104 0 -0.00019912931045973082 -0.033298758701665494 0 3.6351435932513853e-05 -0.033027580408292526 0 0.00038062687503222025 -0.032921577099080918 0 4.1095030946397963e-05 -0.032747869731447159 0 3.6351435932513853e-05 -0.033027580408292526 0 0.00038062687503222025 -0.032921577099080918 0 0.00021199331846324951 -0.033243478894954104 0 0.00079382461539304245 -0.033313403103992702 0 0.00021199331846324951 -0.033243478894954104 0 2.5739576212870473e-05 -0.033612141655517305 0 0.00021199331846324951 -0.033243478894954104 0 2.5739576212870473e-05 -0.033612141655517305 0 -0.00019912931045973082 -0.033298758701665494 0 -0.00040958787126200177 -0.033636656601520334 0 2.5739576212870473e-05 -0.033612141655517305 0 -0.00019912931045973082 -0.033298758701665494 0 -0.00040958787126200177 -0.033636656601520334 0 -0.00019912931045973082 -0.033298758701665494 0 -0.00055561322713158594 -0.033392221021089796 0 -0.00067277286234245978 -0.033734183797634772 0 -0.00055561322713158594 -0.033392221021089796 0 -0.00086242751076156664 -0.033413368434418174 0 -0.00067277286234245978 -0.033734183797634772 0 -0.00040958787126200177 -0.033636656601520334 0 -0.00055561322713158594 -0.033392221021089796 0 -0.00019912931045973082 -0.033298758701665494 0 -0.00055561322713158594 -0.033392221021089796 0 -0.00056973036115345529 -0.033083337765461511 0 -0.00055561322713158594 -0.033392221021089796 0 -0.00056973036115345529 -0.033083337765461511 0 -0.00086242751076156664 -0.033413368434418174 0 -0.00056973036115345529 -0.033083337765461511 0 -0.00086242751076156664 -0.033413368434418174 0 -0.00092361695255244668 -0.033034536608903521 0 -0.00056973036115345529 -0.033083337765461511 0 -0.00074356277693549524 -0.032791947187538695 0 -0.00047720970808653041 -0.032780329330379894 0 -0.00056973036115345529 -0.033083337765461511 0 -0.00024531726281238318 -0.032920809781003188 0 -0.00047720970808653041 -0.032780329330379894 0 -0.00056973036115345529 -0.033083337765461511 0 -0.00074356277693549524 -0.032791947187538695 0 -0.00092361695255244668 -0.033034536608903521 0 -0.00019912931045973082 -0.033298758701665494 0 -0.00056973036115345529 -0.033083337765461511 0 -0.00024531726281238318 -0.032920809781003188 0 3.6351435932513853e-05 -0.033027580408292526 0 -0.00019912931045973082 -0.033298758701665494 0 -0.00024531726281238318 -0.032920809781003188 0 3.6351435932513853e-05 -0.033027580408292526 0 -0.00024531726281238318 -0.032920809781003188 0 4.1095030946397963e-05 -0.032747869731447159 0 -0.00024531726281238318 -0.032920809781003188 0 -0.00026063327344468082 -0.032564826491029077 0 4.1095030946397963e-05 -0.032747869731447159 0 -0.00024531726281238318 -0.032920809781003188 0 -0.00026063327344468082 -0.032564826491029077 0 -0.00047720970808653041 -0.032780329330379894 0 -0.00026063327344468082 -0.032564826491029077 0 -0.00047720970808653041 -0.032780329330379894 0 -0.00055930593501832564 -0.032539964639009523 0 -0.00026063327344468082 -0.032564826491029077 0 4.6688377065021578e-06 -0.032474353197181512 0 4.1095030946397963e-05 -0.032747869731447159 0 -0.00074356277693549524 -0.032791947187538695 0 -0.00047720970808653041 -0.032780329330379894 0 -0.00055930593501832564 -0.032539964639009523 0 -0.00074356277693549524 -0.032791947187538695 0 -0.00055930593501832564 -0.032539964639009523 0 -0.0008510296601502822 -0.032534123256071301 0 -0.00055930593501832564 -0.032539964639009523 0 -0.00070093801090826704 -0.032315331720787592 0 -0.0008510296601502822 -0.032534123256071301 0 -0.00055930593501832564 -0.032539964639009523 0 -0.00070093801090826704 -0.032315331720787592 0 -0.00037309888045807216 -0.032246573194934285 0 -0.00070093801090826704 -0.032315331720787592 0 -0.00037309888045807216 -0.032246573194934285 0 -0.00076945134881499164 -0.03201127650895455 0 -0.00070093801090826704 -0.032315331720787592 0 -0.0010244156493793941 -0.032287310227809111 0 -0.00076945134881499164 -0.03201127650895455 0 -0.00026063327344468082 -0.032564826491029077 0 -0.00012827972382801269 -0.032347398165981908 0 4.6688377065021578e-06 -0.032474353197181512 0 -0.00026063327344468082 -0.032564826491029077 0 -0.00055930593501832564 -0.032539964639009523 0 -0.00037309888045807216 -0.032246573194934285 0 -0.00026063327344468082 -0.032564826491029077 0 -0.00012827972382801269 -0.032347398165981908 0 -0.00037309888045807216 -0.032246573194934285 0 -0.00012827972382801269 -0.032347398165981908 0 -0.00013977240076233657 -0.032155110303156216 0 0.00013357564043206508 -0.032288505289081643 0 -0.00012827972382801269 -0.032347398165981908 0 -0.00037309888045807216 -0.032246573194934285 0 -0.00013977240076233657 -0.032155110303156216 0 -0.00013977240076233657 -0.032155110303156216 0 0.00013357564043206508 -0.032288505289081643 0 0.00023260385662857397 -0.032043895707495808 0 0.00013357564043206508 -0.032288505289081643 0 4.6688377065021578e-06 -0.032474353197181512 0 0.00030963463933635657 -0.03253083680392628 0 -0.00012827972382801269 -0.032347398165981908 0 0.00013357564043206508 -0.032288505289081643 0 4.6688377065021578e-06 -0.032474353197181512 0 0.00013357564043206508 -0.032288505289081643 0 0.00051039601825182289 -0.032250481226704715 0 0.00030963463933635657 -0.03253083680392628 0 0.00013357564043206508 -0.032288505289081643 0 0.00051039601825182289 -0.032250481226704715 0 0.00023260385662857397 -0.032043895707495808 0 0.00051039601825182289 -0.032250481226704715 0 0.00082979818947226337 -0.032539178908119963 0 0.00030963463933635657 -0.03253083680392628 0 0.00051039601825182289 -0.032250481226704715 0 0.00081501104025493798 -0.032133135817147385 0 0.00055507212617332807 -0.032050272861828016 0 0.00051039601825182289 -0.032250481226704715 0 0.00055507212617332807 -0.032050272861828016 0 0.00023260385662857397 -0.032043895707495808 0 0.00051039601825182289 -0.032250481226704715 0 0.00081501104025493798 -0.032133135817147385 0 0.00082979818947226337 -0.032539178908119963 0 0.00038062687503222025 -0.032921577099080918 0 0.00082979818947226337 -0.032539178908119963 0 0.00030963463933635657 -0.03253083680392628 0 0.00038062687503222025 -0.032921577099080918 0 4.1095030946397963e-05 -0.032747869731447159 0 0.00030963463933635657 -0.03253083680392628 0 4.6688377065021578e-06 -0.032474353197181512 0 4.1095030946397963e-05 -0.032747869731447159 0 0.00030963463933635657 -0.03253083680392628 0 -0.0022721791621560655 -0.032844993496533283 0 -0.0020006174140967605 -0.03307853155556164 0 -0.0023478480369854156 -0.033536019685442599 0 -0.0022721791621560655 -0.032844993496533283 0 -0.0020006174140967605 -0.03307853155556164 0 -0.0019945208791590529 -0.032782948122366311 0 -0.0020006174140967605 -0.03307853155556164 0 -0.0023478480369854156 -0.033536019685442599 0 -0.0017812350654715574 -0.033330546571199153 0 -0.0015508979288699064 -0.033720012722507832 0 -0.0023478480369854156 -0.033536019685442599 0 -0.0017812350654715574 -0.033330546571199153 0 -0.0015508979288699064 -0.033720012722507832 0 -0.0017812350654715574 -0.033330546571199153 0 -0.0014780956909433848 -0.033451066723883156 0 -0.0020006174140967605 -0.03307853155556164 0 -0.0017812350654715574 -0.033330546571199153 0 -0.0017928721850828781 -0.032914697206667877 0 -0.0017812350654715574 -0.033330546571199153 0 -0.0017928721850828781 -0.032914697206667877 0 -0.0015159321046388453 -0.03298604483044381 0 -0.0020006174140967605 -0.03307853155556164 0 -0.0017928721850828781 -0.032914697206667877 0 -0.0019945208791590529 -0.032782948122366311 0 -0.0017928721850828781 -0.032914697206667877 0 -0.0015159321046388453 -0.03298604483044381 0 -0.0015776833345814531 -0.032708911620426662 0 -0.0017812350654715574 -0.033330546571199153 0 -0.0015159321046388453 -0.03298604483044381 0 -0.0013642043560166952 -0.033214298868278237 0 -0.0015159321046388453 -0.03298604483044381 0 -0.0013662240135730594 -0.032772471150038854 0 -0.0015776833345814531 -0.032708911620426662 0 -0.0015159321046388453 -0.03298604483044381 0 -0.0012124808921866498 -0.03297738871085118 0 -0.0013662240135730594 -0.032772471150038854 0 -0.0012124808921866498 -0.03297738871085118 0 -0.0013642043560166952 -0.033214298868278237 0 -0.0011056834704217995 -0.033260566548620953 0 -0.0015159321046388453 -0.03298604483044381 0 -0.0012124808921866498 -0.03297738871085118 0 -0.0013642043560166952 -0.033214298868278237 0 -0.0017812350654715574 -0.033330546571199153 0 -0.0014780956909433848 -0.033451066723883156 0 -0.0013642043560166952 -0.033214298868278237 0 -0.0015508979288699064 -0.033720012722507832 0 -0.0014780956909433848 -0.033451066723883156 0 -0.0012175696902414761 -0.033537524536379391 0 -0.0014780956909433848 -0.033451066723883156 0 -0.0012175696902414761 -0.033537524536379391 0 -0.0013642043560166952 -0.033214298868278237 0 -0.0012175696902414761 -0.033537524536379391 0 -0.0013642043560166952 -0.033214298868278237 0 -0.0011056834704217995 -0.033260566548620953 0 -0.0011056834704217995 -0.033260566548620953 0 -0.00086242751076156664 -0.033413368434418174 0 -0.00092361695255244668 -0.033034536608903521 0 -0.00096482107569561388 -0.033768244630331547 0 -0.0012175696902414761 -0.033537524536379391 0 -0.00086242751076156664 -0.033413368434418174 0 -0.0012175696902414761 -0.033537524536379391 0 -0.0011056834704217995 -0.033260566548620953 0 -0.00086242751076156664 -0.033413368434418174 0 -0.0012124808921866498 -0.03297738871085118 0 -0.0011056834704217995 -0.033260566548620953 0 -0.00092361695255244668 -0.033034536608903521 0 -0.0012124808921866498 -0.03297738871085118 0 -0.00092361695255244668 -0.033034536608903521 0 -0.0010864569326320744 -0.032714276741455231 0 -0.00074356277693549524 -0.032791947187538695 0 -0.00092361695255244668 -0.033034536608903521 0 -0.0010864569326320744 -0.032714276741455231 0 -0.0010244156493793941 -0.032287310227809111 0 -0.0015891050916883977 -0.032194394524639521 0 -0.00076945134881499164 -0.03201127650895455 0 -0.0010864569326320744 -0.032714276741455231 0 -0.0008510296601502822 -0.032534123256071301 0 -0.0012479138523888019 -0.032446387595809922 0 -0.00074356277693549524 -0.032791947187538695 0 -0.0010864569326320744 -0.032714276741455231 0 -0.0008510296601502822 -0.032534123256071301 0 -0.0008510296601502822 -0.032534123256071301 0 -0.0010244156493793941 -0.032287310227809111 0 -0.0012479138523888019 -0.032446387595809922 0 -0.00070093801090826704 -0.032315331720787592 0 -0.0008510296601502822 -0.032534123256071301 0 -0.0010244156493793941 -0.032287310227809111 0 -0.0012479138523888019 -0.032446387595809922 0 -0.0015445156759651612 -0.032426701260476101 0 -0.0015891050916883977 -0.032194394524639521 0 -0.0010244156493793941 -0.032287310227809111 0 -0.0012479138523888019 -0.032446387595809922 0 -0.0015891050916883977 -0.032194394524639521 0 -0.0015445156759651612 -0.032426701260476101 0 -0.001369165670474167 -0.032580811693460797 0 -0.0015776833345814531 -0.032708911620426662 0 -0.0012479138523888019 -0.032446387595809922 0 -0.0015445156759651612 -0.032426701260476101 0 -0.001369165670474167 -0.032580811693460797 0 -0.0010864569326320744 -0.032714276741455231 0 -0.0012479138523888019 -0.032446387595809922 0 -0.001369165670474167 -0.032580811693460797 0 -0.0010864569326320744 -0.032714276741455231 0 -0.001369165670474167 -0.032580811693460797 0 -0.0013662240135730594 -0.032772471150038854 0 -0.0012124808921866498 -0.03297738871085118 0 -0.0010864569326320744 -0.032714276741455231 0 -0.0013662240135730594 -0.032772471150038854 0 -0.001369165670474167 -0.032580811693460797 0 -0.0013662240135730594 -0.032772471150038854 0 -0.0015776833345814531 -0.032708911620426662 0 -0.0017928721850828781 -0.032914697206667877 0 -0.0015776833345814531 -0.032708911620426662 0 -0.0017948221063724707 -0.03258104705199398 0 -0.0017928721850828781 -0.032914697206667877 0 -0.0019945208791590529 -0.032782948122366311 0 -0.0017948221063724707 -0.03258104705199398 0 -0.0019945208791590529 -0.032782948122366311 0 -0.0017948221063724707 -0.03258104705199398 0 -0.0021143285448985754 -0.032486924039632228 0 -0.0015445156759651612 -0.032426701260476101 0 -0.0015776833345814531 -0.032708911620426662 0 -0.0017948221063724707 -0.03258104705199398 0 -0.0015445156759651612 -0.032426701260476101 0 -0.0017948221063724707 -0.03258104705199398 0 -0.0016661001972050359 -0.03212943657785431 0 -0.0042068514119436963 -0.033173712879573235 0 -0.0059189816341754103 -0.031184119650250305 0 -0.0016661001972050359 -0.03212943657785431 0 -0.0021919096148097939 -0.032398235454306666 0 -0.0021143285448985754 -0.032486924039632228 0 -0.0034961819673205493 -0.033008544187582034 0 -0.0042068514119436963 -0.033173712879573235 0 -0.0017948221063724707 -0.03258104705199398 0 -0.0016661001972050359 -0.03212943657785431 0 -0.0021143285448985754 -0.032486924039632228 0 -0.0074479855439877809 -0.033157077675905797 0 -0.0080548583876829012 -0.033494848798910945 0 -0.0081618688380279709 -0.032614054399367112 0 -0.0022721791621560655 -0.032844993496533283 0 -0.0021899783613434946 -0.032397554574713071 0 -0.0021143285448985754 -0.032486924039632228 0 -0.0059189816341754103 -0.031184119650250305 0 -0.0054800163429250407 -0.031559004804761606 0 -0.0022721791621560655 -0.032844993496533283 0 -0.0019945208791590529 -0.032782948122366311 0 -0.0021143285448985754 -0.032486924039632228 0 -0.0053299050939821018 -0.03540738113599827 0 -0.0054585995798383221 -0.034515892736341564 0 -0.0058336702959438198 -0.034127378481056271 0 -0.0042068514119436963 -0.033173712879573235 0 -0.0078720838599819955 -0.033840287878807822 0 -0.0074479855439877809 -0.033157077675905797 0 -0.0081618688380279709 -0.032614054399367112 0 -0.0081366277601914849 -0.03140156816914192 0 -0.0042068514119436963 -0.033173712879573235 0 -0.0021572945849215072 -0.03316674091491105 0 -0.0015891050916883977 -0.032194394524639521 0 -0.00076945134881499164 -0.03201127650895455 0 -0.00056489215384373267 -0.031759403080630556 0 -0.0053299050939821018 -0.03540738113599827 0 -0.0054585995798383221 -0.034515892736341564 0 -0.0041457861894009553 -0.034767743740663569 0 -0.0047230882858293952 -0.034199500436831419 0 -0.0054585995798383221 -0.034515892736341564 0 -0.0051298735873815957 -0.033471570357253115 0 -0.0047230882858293952 -0.034199500436831419 0 -0.0054585995798383221 -0.034515892736341564 0 -0.0041457861894009553 -0.034767743740663569 0 -0.0054585995798383221 -0.034515892736341564 0 -0.0058288566741134798 -0.034137790657172547 0 -0.0051298735873815957 -0.033471570357253115 0 -0.0056292160565070814 -0.034894891244035463 0 -0.0078720838599819955 -0.033840287878807822 0 -5.7067752820782151e-06 -0.031934225613912626 0 -5.3251161958694342e-05 -0.031973030065926292 0 -0.00056489215384373267 -0.031759403080630556 0 0.00066258847172734195 -0.031769029464168042 0 0.00023260385662857397 -0.032043895707495808 0 -0.00076945134881499164 -0.03201127650895455 0 7.8436101357844473e-05 -0.031507120217308712 0 -5.7067752820782151e-06 -0.031934225613912626 0 -0.00056489215384373267 -0.031759403080630556 0 0.00081501104025493798 -0.032133135817147385 0 0.00066258847172734195 -0.031769029464168042 0 0.00055507212617332807 -0.032050272861828016 0 0.00066258847172734195 -0.031769029464168042 0 0.00055507212617332807 -0.032050272861828016 0 0.00023260385662857397 -0.032043895707495808 0 -0.00013977240076233657 -0.032155110303156216 0 0.00023260385662857397 -0.032043895707495808 0 -0.00076945134881499164 -0.03201127650895455 0 0.0002740166357759695 -0.031909877058037515 0 -0.00068621064380635028 -0.031989332736884951 0 -0.00037309888045807216 -0.032246573194934285 0 -0.00013977240076233657 -0.032155110303156216 0 -0.00076945134881499164 -0.03201127650895455 0 -5.3251161958694342e-05 -0.031973030065926292 0 -0.00076945134881499164 -0.03201127650895455 0 -0.00056489215384373267 -0.031759403080630556 0 -0.0041457861894009553 -0.034767743740663569 0 -0.0038376412960302152 -0.034299076471502425 0 -0.0041855253627197898 -0.034261138941283541 0 -0.0047230882858293952 -0.034199500436831419 0 -0.0041457861894009553 -0.034767743740663569 0 -0.0041855253627197898 -0.034261138941283541 0 -0.0047230882858293952 -0.034199500436831419 0 -0.0041855253627197898 -0.034261138941283541 0 -0.0040336595459970004 -0.033781010246687428 0 -0.0038376412960302152 -0.034299076471502425 0 -0.0041855253627197898 -0.034261138941283541 0 -0.0040336595459970004 -0.033781010246687428 0 -0.0043342900311760038 -0.033986364393481946 0 -0.0047388806268631786 -0.035925202333835705 0 -0.0029100451055667524 -0.034099285906226157 0 -0.0038376412960302152 -0.034299076471502425 0 -0.0040208478351168178 -0.033769461476707174 0 -0.0016299631925292424 -0.033856163527218985 0 -0.0021572945849215072 -0.03316674091491105 0 -0.0029100451055667524 -0.034099285906226157 0 -0.0041457861894009553 -0.034767743740663569 0 -0.0038376412960302152 -0.034299076471502425 0 -0.0016299631925292424 -0.033856163527218985 0 -0.0047388806268631786 -0.035925202333835705 0 -0.0027003407184888711 -0.036440105897862597 0 -0.0032091818614821458 -0.035623119442109392 0 -0.0039335756717976695 -0.036080030942468637 0 -0.0059469454932182782 -0.038769037538924016 0 -0.0064259832798262712 -0.037391087997411233 0 -0.0074751204518490374 -0.038346580863436071 0 -0.0032091818614821458 -0.035623119442109392 0 -0.0039335756717976695 -0.036080030942468637 0 -0.0043248313694967469 -0.034954845811091102 0 -0.0047388806268631786 -0.035925202333835705 0 -0.0056153333606532175 -0.036686486189357971 0 -0.0032091818614821458 -0.035623119442109392 0 -0.0043248313694967469 -0.034954845811091102 0 -0.0029889464434167236 -0.03480694631179828 0 -0.0056153333606532175 -0.036686486189357971 0 -0.0035390979914491786 -0.036112228764433985 0 -0.0032091818614821458 -0.035623119442109392 0 -0.0029889464434167236 -0.03480694631179828 0 -0.002388274779308181 -0.035365907687926502 0 -0.0083129467684943722 -0.035780444991985419 0 -0.0062110255381159418 -0.035935558060684269 0 -0.0062107986070727376 -0.033173349494910867 0 -0.0058288566741134798 -0.034137790657172547 0 -0.0051298735873815957 -0.033471570357253115 0 -0.0090051494600817492 -0.037926259020862448 0 -0.0074751204518490374 -0.038346580863436071 0 -0.0081388087276092879 -0.037617771776236784 0 -0.0047388806268631786 -0.035925202333835705 0 -0.0062110255381159418 -0.035935558060684269 0 -0.0047230882858293952 -0.034199500436831419 0 -0.0040336595459970004 -0.033781010246687428 0 -0.0051298735873815957 -0.033471570357253115 0 -0.0056153333606532175 -0.036686486189357971 0 -0.008409581523988241 -0.037792473474596328 0 -0.0064641574505076528 -0.037456772040197733 0 -0.0081388087276092879 -0.037617771776236784 0 -0.0076391198490990513 -0.036865550347179608 0 -0.0064259832798262712 -0.037391087997411233 0 -0.0074751204518490374 -0.038346580863436071 0 -0.0081388087276092879 -0.037617771776236784 0 -0.0081388087276092879 -0.037617771776236784 0 -0.0085506858294798534 -0.036965802752133577 0 -0.0076391198490990513 -0.036865550347179608 0 -0.0090051494600817492 -0.037926259020862448 0 -0.0081388087276092879 -0.037617771776236784 0 -0.0085506858294798534 -0.036965802752133577 0 -0.0090125300996962664 -0.036328883912561311 0 -0.0085506858294798534 -0.036965802752133577 0 -0.008147949167729868 -0.036020997070866846 0 -0.0085506858294798534 -0.036965802752133577 0 -0.008147949167729868 -0.036020997070866846 0 -0.0076391198490990513 -0.036865550347179608 0 -0.008147949167729868 -0.036020997070866846 0 -0.0068729559878576325 -0.036222236600198993 0 -0.0076391198490990513 -0.036865550347179608 0 -0.0064641574505076528 -0.037456772040197733 0 -0.0068729559878576325 -0.036222236600198993 0 -0.0076391198490990513 -0.036865550347179608 0 -0.0059696540930170641 -0.035776086118723627 0 -0.0063173530343141361 -0.03476650946908514 0 -0.0053012933910868924 -0.035706640764443201 0 -0.008147949167729868 -0.036020997070866846 0 -0.0068729559878576325 -0.036222236600198993 0 -0.0072216721985508669 -0.034999915649271067 0 -0.006436677110502006 -0.036047326675005945 0 -0.0066725491723703765 -0.034899510899874489 0 -0.0087692688350233042 -0.034999988100578541 0 -0.008147949167729868 -0.036020997070866846 0 -0.0072216721985508669 -0.034999915649271067 0 -0.0035390979914491786 -0.036112228764433985 0 -0.005698685021864389 -0.036089523441324586 0 -0.0045395761010646497 -0.037509480598203589 0 -0.0058618522653722986 -0.036258620872671295 0 -0.0043503316376986663 -0.036162544517983036 0 -0.0056242690415617448 -0.036787924636975861 0 -0.0043080728566025359 -0.036648462922245433 0 -0.0053012933910868924 -0.035706640764443201 0 -0.0056242690415617448 -0.036787924636975861 0 -0.0059696540930170641 -0.035776086118723627 0 -0.0053012933910868924 -0.035706640764443201 0 -0.0056153333606532175 -0.036686486189357971 0 -0.006436677110502006 -0.036047326675005945 0 -0.0072214356094203007 -0.035000000089311749 0 -0.0058618522653722986 -0.036258620872671295 0 -0.0053822567348102953 -0.034999991627293253 0 -0.0066725491723703765 -0.034899510899874489 0 -0.005698685021864389 -0.036089523441324586 0 -0.0053822567348102953 -0.034999991627293253 0 -0.0035784885363993571 -0.034999993182335827 0 -0.0043503316376986663 -0.036162544517983036 0 -0.0058618522653722986 -0.036258620872671295 0 -0.0053822567348102953 -0.034999991627293253 0 -0.0043503316376986663 -0.036162544517983036 0 -0.0035784885363993571 -0.034999993182335827 0 -0.0028433319830360048 -0.036131559059083725 0 -0.0043503316376986663 -0.036162544517983036 0 -0.0035784885363993571 -0.034999993182335827 0 -0.0028433319830360048 -0.036131559059083725 0 -0.0017747244440203917 -0.034999993027524309 0 -0.0028433319830360048 -0.036131559059083725 0 -0.0033228096842651679 -0.037383206911226728 0 -0.0021068414998903378 -0.037255905755227116 0 -0.0028433319830360048 -0.036131559059083725 0 -0.0043503316376986663 -0.036162544517983036 0 -0.0033228096842651679 -0.037383206911226728 0 -0.0045395761010646497 -0.037509480598203589 0 -0.0043503316376986663 -0.036162544517983036 0 -0.0033228096842651679 -0.037383206911226728 0 -0.0035390979914491786 -0.036112228764433985 0 -0.0026135863992255465 -0.036507050636081506 0 -0.0025187523577851921 -0.035685715317159916 0 -0.0018343654359422119 -0.035617105546177773 0 -0.0020765035670497452 -0.036096650250029484 0 -0.0035390979914491786 -0.036112228764433985 0 -0.0022438796748306686 -0.03568228777420987 0 -0.0018343654359422119 -0.035617105546177773 0 -0.0016452640713737097 -0.035957791594136181 0 -0.0020765035670497452 -0.036096650250029484 0 -0.0018343654359422119 -0.035617105546177773 0 -0.0013339674455671922 -0.035732183912801356 0 -0.0011655280603542289 -0.035555697927155287 0 -0.0018343654359422119 -0.035617105546177773 0 -0.0013339674455671922 -0.035732183912801356 0 -0.0016452640713737097 -0.035957791594136181 0 -0.0026135863992255465 -0.036507050636081506 0 -0.0014880818229457892 -0.036242010255202524 0 -0.0013339674455671922 -0.035732183912801356 0 -0.0012606838103893109 -0.036008504672946744 0 -0.0011636116222202731 -0.035555990377120435 0 -0.0012414335867843686 -0.035865974057868448 0 -0.0014880818229457892 -0.036242010255202524 0 -0.0013339674455671922 -0.035732183912801356 0 -0.0012606838103893109 -0.036008504672946744 0 -0.0016452640713737097 -0.035957791594136181 0 -0.00024740327484028621 -0.035048971698656964 0 0.0013156892019612386 -0.035599818330215902 0 0.0015136055604136162 -0.035420445957449115 0 0.0012852734994358076 -0.035400767307472443 0 0.0011924260253832455 -0.035623530776575346 0 0.0011024688833139011 -0.035765749019437909 0 0.0011685503089503202 -0.035646518977132731 0 0.0010431921760530411 -0.035726304151053982 0 -0.0016452640713737097 -0.035957791594136181 0 -0.0016404943315817407 -0.036495652897325988 0 -0.0020765035670497452 -0.036096650250029484 0 -0.0012606838103893109 -0.036008504672946744 0 -0.0016452640713737097 -0.035957791594136181 0 -0.0016404943315817407 -0.036495652897325988 0 -0.00013669243062508379 -0.03594428330938923 0 -0.00024740327484028621 -0.035048971698656964 0 0.0012603656295696699 -0.035162996623748569 0 0.0015136055604136162 -0.035420445957449115 0 0.0012852734994358076 -0.035400767307472443 0 -0.0027003407184888711 -0.036440105897862597 0 -0.0017845835091616666 -0.035926680594264057 0 -0.002388274779308181 -0.035365907687926502 0 -0.0027003407184888711 -0.036440105897862597 0 -0.0032091818614821458 -0.035623119442109392 0 -0.002388274779308181 -0.035365907687926502 0 -0.00024740327484028621 -0.035048971698656964 0 -0.0022438796748306686 -0.03568228777420987 0 0.00092415175266580285 -0.035590472286452263 0 0.00072395751025658786 -0.035566156861325741 0 0.00082008466251219843 -0.035829876213780414 0 0.00092415175266580285 -0.035590472286452263 0 0.00072395751025658786 -0.035566156861325741 0 0.00087497528848920155 -0.035386416226642556 0 0.00071115791223421408 -0.03524357298404121 0 0.00072395751025658786 -0.035566156861325741 0 0.00087497528848920155 -0.035386416226642556 0 0.00092415175266580285 -0.035590472286452263 0 0.00087497528848920155 -0.035386416226642556 0 0.0010829612710999501 -0.035484111928666219 0 0.0010920463422671453 -0.03531625023113362 0 0.00087497528848920155 -0.035386416226642556 0 0.0010829612710999501 -0.035484111928666219 0 0.0010920463422671453 -0.03531625023113362 0 0.0010829612710999501 -0.035484111928666219 0 0.0012852734994358076 -0.035400767307472443 0 0.0010829612710999501 -0.035484111928666219 0 0.0012852734994358076 -0.035400767307472443 0 0.0011924260253832455 -0.035623530776575346 0 0.00092415175266580285 -0.035590472286452263 0 0.0010829612710999501 -0.035484111928666219 0 0.0011924260253832455 -0.035623530776575346 0 0.00092415175266580285 -0.035590472286452263 0 0.0011924260253832455 -0.035623530776575346 0 0.00082008466251219843 -0.035829876213780414 0 0.0010431921760530411 -0.035726304151053982 0 0.0010182163548576413 -0.035942281840310945 0 0.00082008466251219843 -0.035829876213780414 0 0.0011024688833139011 -0.035765749019437909 0 0.0010431921760530411 -0.035726304151053982 0 0.0010182163548576413 -0.035942281840310945 0 0.0013156892019612386 -0.035599818330215902 0 0.00078355535976371493 -0.035852824447461185 0 -0.00013669243062508379 -0.03594428330938923 0 -0.00024444784582313464 -0.03592946968887941 0 -0.0012606838103893109 -0.036008504672946744 0 -0.0011636116222202731 -0.035555990377120435 0 -0.0008852413724460995 -0.035529173934902077 0 -0.0014880818229457892 -0.036242010255202524 0 -0.00024444784582313464 -0.03592946968887941 0 0.0010182163548576413 -0.035942281840310945 0 0.00082008466251219843 -0.035829876213780414 0 0.00048997465044606843 -0.036017439713171846 0 0.00072395751025658786 -0.035566156861325741 0 0.00082008466251219843 -0.035829876213780414 0 0.00056971426204749517 -0.035800734630767182 0 -0.00021737558869422085 -0.035593242010556254 0 0.00016974114675692088 -0.035777468964104824 0 0.00047136803890426599 -0.035546309350632459 0 -0.00066682669803992288 -0.036199931486967415 0 -0.00021737558869422085 -0.035593242010556254 0 0.00016974114675692088 -0.035777468964104824 0 -0.00066682669803992288 -0.036199931486967415 0 0.00016974114675692088 -0.035777468964104824 0 0.00048997465044606843 -0.036017439713171846 0 -0.00024444784582313464 -0.03592946968887941 0 0.00065449962844811062 -0.03605608601024602 0 -0.0014880818229457892 -0.036242010255202524 0 -0.00086456832727927998 -0.036000508645022355 0 -0.0010371985638741308 -0.036180142510772291 0 -0.00083443649086326044 -0.036159544646881113 0 -0.00061249575512675747 -0.03573447258531199 0 -0.00083443649086326044 -0.036159544646881113 0 -0.00061249575512675747 -0.03573447258531199 0 -0.00049538374453346197 -0.035723890439096781 0 -0.00024444784582313464 -0.03592946968887941 0 -0.00042845440331059823 -0.035714147080527413 0 -0.0028433319830360048 -0.036131559059083725 0 -0.0021068414998903378 -0.037255905755227116 0 -0.0010430539860219639 -0.036130911527777997 0 -0.0028433319830360048 -0.036131559059083725 0 -0.0010430539860219639 -0.036130911527777997 0 -0.0017747244440203917 -0.034999993027524309 0 -0.00086456832727927998 -0.036000508645022355 0 -8.7575575198397268e-05 -0.035162218431737981 0 -0.00021737558869422085 -0.035593242010556254 0 3.0219579077682659e-05 -0.03499983812565139 0 0.00047136803890426599 -0.035546309350632459 0 -0.0010430539860219639 -0.036130911527777997 0 -0.0017747244440203917 -0.034999993027524309 0 2.9037553212886152e-05 -0.034999998630956403 0 -0.00061249575512675747 -0.03573447258531199 0 -0.00049538374453346197 -0.035723890439096781 0 -0.00018361975090365828 -0.035279420544923328 0 -0.00042845440331059823 -0.035714147080527413 0 -8.7575575198397268e-05 -0.035162218431737981 0 0.00092569289706807628 -0.034999617354197009 0 0.0019552299619791662 -0.035387140749318986 0 3.0219579077682659e-05 -0.03499983812565139 0 0.00047136803890426599 -0.035546309350632459 0 0.00092418597681953065 -0.035000052927217813 0 0.00047136803890426599 -0.035546309350632459 0 0.00092418597681953065 -0.035000052927217813 0 0.00050885758871690155 -0.036048215862098422 0 0.00092951546848826262 -0.034999967807293857 0 0.0028011757054937502 -0.034999459262981557 0 0.0033743619312447421 -0.035410098272776469 0 0.00092951546848826262 -0.034999967807293857 0 0.003480046657985215 -0.035042157997441779 0 0.0033743619312447421 -0.035410098272776469 0 0.00050885758871690155 -0.036048215862098422 0 0.00048997465044606843 -0.036017439713171846 0 0.00043570253270390637 -0.035854860830265893 0 0.00016974114675692088 -0.035777468964104824 0 0.00048997465044606843 -0.036017439713171846 0 0.00043570253270390637 -0.035854860830265893 0 0.00016974114675692088 -0.035777468964104824 0 0.00047136803890426599 -0.035546309350632459 0 0.00043570253270390637 -0.035854860830265893 0 0.00047136803890426599 -0.035546309350632459 0 0.00050885758871690155 -0.036048215862098422 0 0.00043570253270390637 -0.035854860830265893 0 0.0037512981928259398 -0.03547786950162575 0 0.0028011757054937502 -0.034999459262981557 0 0.0046769671132675088 -0.03499961193314774 0 0.0037512981928259398 -0.03547786950162575 0 0.0028011757054937502 -0.034999459262981557 0 0.0033743619312447421 -0.035410098272776469 0 0.0037512981928259398 -0.03547786950162575 0 0.0033743619312447421 -0.035410098272776469 0 0.0036665835428255039 -0.035631286401994353 0 0.0056788871188603951 -0.033310771391444449 0 0.0042525626380572707 -0.034209600567979087 0 0.0056212922445536854 -0.033590999358390897 0 0.0033743619312447421 -0.035410098272776469 0 0.0036665835428255039 -0.035631286401994353 0 0.0042525626380572707 -0.034209600567979087 0 0.0047399233937952543 -0.034468023795434247 0 0.004354735835087358 -0.034248316557820728 0 0.0042525626380572707 -0.034209600567979087 0 0.0056212922445536854 -0.033590999358390897 0 0.0049961271430350625 -0.03377413431617822 0 0.0019552299619791662 -0.035387140749318986 0 0.0025221561506869328 -0.034697135886999561 0 0.00050885758871690155 -0.036048215862098422 0 0.00056971426204749517 -0.035800734630767182 0 0.00036349335026886746 -0.035462837328755825 0 0.00082008466251219843 -0.035829876213780414 0 0.00048997465044606843 -0.036017439713171846 0 0.00056971426204749517 -0.035800734630767182 0 0.00050885758871690155 -0.036048215862098422 0 0.00048997465044606843 -0.036017439713171846 0 0.00056971426204749517 -0.035800734630767182 0 0.003480046657985215 -0.035042157997441779 0 0.0042525626380572707 -0.034209600567979087 0 0.0047170786580682921 -0.034005384205074256 0 0.003480046657985215 -0.035042157997441779 0 0.0033743619312447421 -0.035410098272776469 0 0.0042525626380572707 -0.034209600567979087 0 0.0042525626380572707 -0.034209600567979087 0 0.0047170786580682921 -0.034005384205074256 0 0.0049961271430350625 -0.03377413431617822 0 0.00071115791223421408 -0.03524357298404121 0 0.00072395751025658786 -0.035566156861325741 0 0.00036349335026886746 -0.035462837328755825 0 0.00072395751025658786 -0.035566156861325741 0 0.00056971426204749517 -0.035800734630767182 0 0.00036349335026886746 -0.035462837328755825 0 0.00036349335026886746 -0.035462837328755825 0 0.00059338876486388038 -0.034996316836765254 0 0.00036812155229365792 -0.034821080602522723 0 0.0025221561506869328 -0.034697135886999561 0 0.0027822416587950857 -0.034363615761504693 0 0.00071115791223421408 -0.03524357298404121 0 0.00036349335026886746 -0.035462837328755825 0 0.00059338876486388038 -0.034996316836765254 0 0.00070121985581443906 -0.034548219617968508 0 0.00059338876486388038 -0.034996316836765254 0 0.00036812155229365792 -0.034821080602522723 0 0.0052145164740287657 -0.033716274449316429 0 0.0049961271430350625 -0.03377413431617822 0 0.0053358657695559419 -0.033675983571949009 0 0.0052145164740287657 -0.033716274449316429 0 0.0053358657695559419 -0.033675983571949009 0 0.0054261882868016252 -0.033675246013252572 0 0.0047170786580682921 -0.034005384205074256 0 0.0052145164740287657 -0.033716274449316429 0 0.0049961271430350625 -0.03377413431617822 0 0.0056212922445536854 -0.033590999358390897 0 0.0049961271430350625 -0.03377413431617822 0 0.0054701832053678469 -0.033598050425888648 0 0.0056212922445536854 -0.033590999358390897 0 0.0054701832053678469 -0.033598050425888648 0 0.0059266724237298967 -0.033244049800260349 0 0.0054701832053678469 -0.033598050425888648 0 0.0055992237965810437 -0.033612295668078246 0 0.0059266724237298967 -0.033244049800260349 0 0.0055992237965810437 -0.033612295668078246 0 0.0059141010321321179 -0.03358950995405445 0 0.0059266724237298967 -0.033244049800260349 0 0.0054701832053678469 -0.033598050425888648 0 0.0053358657695559419 -0.033675983571949009 0 0.0055992237965810437 -0.033612295668078246 0 0.0049961271430350625 -0.03377413431617822 0 0.0054701832053678469 -0.033598050425888648 0 0.0053358657695559419 -0.033675983571949009 0 0.0053358657695559419 -0.033675983571949009 0 0.0055255148819486352 -0.033674049715306416 0 0.0055992237965810437 -0.033612295668078246 0 0.0053358657695559419 -0.033675983571949009 0 0.0054883041505931433 -0.03367766955424456 0 0.0054261882868016252 -0.033675246013252572 0 0.0053358657695559419 -0.033675983571949009 0 0.0055255148819486352 -0.033674049715306416 0 0.0054883041505931433 -0.03367766955424456 0 0.0055255148819486352 -0.033674049715306416 0 0.0054883041505931433 -0.03367766955424456 0 0.0056345752887654501 -0.033739017416954509 0 0.0054883041505931433 -0.03367766955424456 0 0.005493782006994458 -0.033647845493894206 0 0.0054261882868016252 -0.033675246013252572 0 0.0055992237965810437 -0.033612295668078246 0 0.0058432609332602385 -0.033823637820846533 0 0.0056345752887654501 -0.033739017416954509 0 0.0055992237965810437 -0.033612295668078246 0 0.0058432609332602385 -0.033823637820846533 0 0.0059141010321321179 -0.03358950995405445 0 0.0055255148819486352 -0.033674049715306416 0 0.0055992237965810437 -0.033612295668078246 0 0.0056345752887654501 -0.033739017416954509 0 0.0058432609332602385 -0.033823637820846533 0 0.0056345752887654501 -0.033739017416954509 0 0.005889679600169874 -0.033939342146791361 0 0.0056345752887654501 -0.033739017416954509 0 0.0056922628719767434 -0.033710882369455943 0 0.005889679600169874 -0.033939342146791361 0 0.0055816932253762563 -0.033681258031961481 0 0.0055690253761679857 -0.03358032718416136 0 0.005493782006994458 -0.033647845493894206 0 0.0054883041505931433 -0.03367766955424456 0 0.0055816932253762563 -0.033681258031961481 0 0.005493782006994458 -0.033647845493894206 0 0.0056345752887654501 -0.033739017416954509 0 0.0056922628719767434 -0.033710882369455943 0 0.0055816932253762563 -0.033681258031961481 0 0.0054883041505931433 -0.03367766955424456 0 0.0056345752887654501 -0.033739017416954509 0 0.0055816932253762563 -0.033681258031961481 0 0.0056922628719767434 -0.033710882369455943 0 0.0055816932253762563 -0.033681258031961481 0 0.0055690253761679857 -0.03358032718416136 0 0.0055690253761679857 -0.03358032718416136 0 0.0055230308398293007 -0.033566601784464065 0 0.005493782006994458 -0.033647845493894206 0 0.0055690253761679857 -0.03358032718416136 0 0.0055230308398293007 -0.033566601784464065 0 0.0055305640961922347 -0.033374855224471082 0 0.0055230308398293007 -0.033566601784464065 0 0.0055492934188341109 -0.033641752420249887 0 0.0055305640961922347 -0.033374855224471082 0 0.005493782006994458 -0.033647845493894206 0 0.0055492934188341109 -0.033641752420249887 0 0.0054261882868016252 -0.033675246013252572 0 0.0055230308398293007 -0.033566601784464065 0 0.005493782006994458 -0.033647845493894206 0 0.0055492934188341109 -0.033641752420249887 0 0.0055492934188341109 -0.033641752420249887 0 0.0055243099376416152 -0.033646321422269414 0 0.0054261882868016252 -0.033675246013252572 0 0.0048080418822078943 -0.032893976421158294 0 0.0041470456431976742 -0.032878663684031077 0 0.0055492934188341109 -0.033641752420249887 0 0.0055243099376416152 -0.033646321422269414 0 0.0055226215619347324 -0.033657186819186426 0 0.0029868133781401152 -0.033430209713677855 0 0.0041470456431976742 -0.032878663684031077 0 0.0055492934188341109 -0.033641752420249887 0 0.0056805640650236062 -0.033603529400330394 0 0.0055305640961922347 -0.033374855224471082 0 0.0053733093251130942 -0.031482897553375445 0 0.0035806002672506107 -0.03206263590119781 0 0.0054248350617191127 -0.031212845581238626 0 0.005309879178119389 -0.031415554294594146 0 0.0043681226175964014 -0.031572566060071097 0 0.0041470456431976742 -0.032878663684031077 0 0.0035806002672506107 -0.03206263590119781 0 0.005309879178119389 -0.031415554294594146 0 0.0045396505499083733 -0.031607215319195511 0 0.0049600662497716842 -0.032080706177187814 0 0.0025835826502517765 -0.03245321391298759 0 0.0028691039081334205 -0.032513114017381196 0 0.00263502868018965 -0.032638812174421848 0 0.0028691039081334205 -0.032513114017381196 0 0.0028700992862176009 -0.032557145018763674 0 0.00263502868018965 -0.032638812174421848 0 0.0025917542224064226 -0.03225862337437347 0 0.0025835826502517765 -0.03245321391298759 0 0.0028691039081334205 -0.032513114017381196 0 0.0014956673480553807 -0.033335984553386884 0 0.0029868133781401152 -0.033430209713677855 0 0.00070121985581443906 -0.034548219617968508 0 0.00036812155229365792 -0.034821080602522723 0 0.00038937087354302995 -0.034208442411251032 0 0.0027822416587950857 -0.034363615761504693 0 0.0029868133781401152 -0.033430209713677855 0 0.0052145164740287657 -0.033716274449316429 0 0.0055243099376416152 -0.033646321422269414 0 0.0054261882868016252 -0.033675246013252572 0 0.0081388669016800846 -0.033625363142445373 0 0.0097797188931947662 -0.033772016155099727 0 0.0091290102930632628 -0.032914651775644829 0 0.0081388669016800846 -0.033625363142445373 0 0.0097797188931947662 -0.033772016155099727 0 0.0087955626288233543 -0.034485960695154368 0 0.0097797188931947662 -0.033772016155099727 0 0.0091290102930632628 -0.032914651775644829 0 0.010837260065048208 -0.032819106805116426 0 0.019515925495815687 -0.028498197005822658 0 0.019009963656028063 -0.027343593594060817 0 0.020678555631041762 -0.027112950305539486 0 0.015247163066227028 -0.031801116573033861 0 0.012824643122003213 -0.030524695606047043 0 0.0097797188931947662 -0.033772016155099727 0 0.0087955626288233543 -0.034485960695154368 0 0.010555806583209914 -0.034935938921468651 0 0.0087955626288233543 -0.034485960695154368 0 0.010555806583209914 -0.034935938921468651 0 0.0083237426767703761 -0.035685778550563936 0 0.0087955626288233543 -0.034485960695154368 0 0.0074343268895536085 -0.03434776020148806 0 0.0083237426767703761 -0.035685778550563936 0 0.0081388669016800846 -0.033625363142445373 0 0.0087955626288233543 -0.034485960695154368 0 0.0074343268895536085 -0.03434776020148806 0 0.0074343268895536085 -0.03434776020148806 0 0.0061544833348931615 -0.034303590729376186 0 0.0063432964931310508 -0.033610406325835986 0 0.0074343268895536085 -0.03434776020148806 0 0.0061544833348931615 -0.034303590729376186 0 0.0083237426767703761 -0.035685778550563936 0 0.0058432609332602385 -0.033823637820846533 0 0.0061544833348931615 -0.034303590729376186 0 0.0063432964931310508 -0.033610406325835986 0 0.0058432609332602385 -0.033823637820846533 0 0.005889679600169874 -0.033939342146791361 0 0.0061544833348931615 -0.034303590729376186 0 0.0058432609332602385 -0.033823637820846533 0 0.0063432964931310508 -0.033610406325835986 0 0.0059141010321321179 -0.03358950995405445 0 0.0081388669016800846 -0.033625363142445373 0 0.0063432964931310508 -0.033610406325835986 0 0.0079692557154315505 -0.032623579865952816 0 0.0081388669016800846 -0.033625363142445373 0 0.0074343268895536085 -0.03434776020148806 0 0.0063432964931310508 -0.033610406325835986 0 0.0063432964931310508 -0.033610406325835986 0 0.006435675001191239 -0.032551034417396832 0 0.0079692557154315505 -0.032623579865952816 0 0.0063432964931310508 -0.033610406325835986 0 0.0059266724237298967 -0.033244049800260349 0 0.006435675001191239 -0.032551034417396832 0 0.0063432964931310508 -0.033610406325835986 0 0.0059141010321321179 -0.03358950995405445 0 0.0059266724237298967 -0.033244049800260349 0 0.0056212922445536854 -0.033590999358390897 0 0.0059266724237298967 -0.033244049800260349 0 0.006435675001191239 -0.032551034417396832 0 0.006435675001191239 -0.032551034417396832 0 0.0079692557154315505 -0.032623579865952816 0 0.0090691024428033711 -0.030936945600338227 0 0.0081388669016800846 -0.033625363142445373 0 0.0079692557154315505 -0.032623579865952816 0 0.0091290102930632628 -0.032914651775644829 0 0.0091290102930632628 -0.032914651775644829 0 0.010050285557822215 -0.031887874924548115 0 0.010837260065048208 -0.032819106805116426 0 0.0079692557154315505 -0.032623579865952816 0 0.0091290102930632628 -0.032914651775644829 0 0.010050285557822215 -0.031887874924548115 0 0.010050285557822215 -0.031887874924548115 0 0.0090691024428033711 -0.030936945600338227 0 0.011291930384345514 -0.030584889230210081 0 0.0079692557154315505 -0.032623579865952816 0 0.010050285557822215 -0.031887874924548115 0 0.0090691024428033711 -0.030936945600338227 0 0.0090691024428033711 -0.030936945600338227 0 0.0079487505785350611 -0.029111726290270944 0 0.010415351379192996 -0.028839501364013552 0 0.0090691024428033711 -0.030936945600338227 0 0.010415351379192996 -0.028839501364013552 0 0.011291930384345514 -0.030584889230210081 0 0.006435675001191239 -0.032551034417396832 0 0.0090691024428033711 -0.030936945600338227 0 0.0079487505785350611 -0.029111726290270944 0 0.0072864040151722851 -0.030879481728937043 0 0.0089274618125353335 -0.032694100756022144 0 0.0064806780389755798 -0.033537509431391173 0 0.0073450898982159859 -0.034173285828340387 0 0.0068123051195829601 -0.033786236383482542 0 0.0079487505785350611 -0.029111726290270944 0 0.010415351379192996 -0.028839501364013552 0 0.0094764218708932226 -0.026846166306330237 0 0.0056212922445536854 -0.033590999358390897 0 0.006435675001191239 -0.032551034417396832 0 0.0064055320110094393 -0.03346552382592051 0 0.0064515578323070047 -0.032615765678772578 0 0.0072864040151722851 -0.030879481728937043 0 0.006435675001191239 -0.032551034417396832 0 0.0064806780389755798 -0.033537509431391173 0 0.0064055320110094393 -0.03346552382592051 0 0.0064806780389755798 -0.033537509431391173 0 0.0064055320110094393 -0.03346552382592051 0 0.0068123051195829601 -0.033786236383482542 0 0.0064055320110094393 -0.03346552382592051 0 0.0064788314644944845 -0.033452338954443321 0 0.0068123051195829601 -0.033786236383482542 0 0.0056788871188603951 -0.033310771391444449 0 0.0056212922445536854 -0.033590999358390897 0 0.0064055320110094393 -0.03346552382592051 0 0.0056788871188603951 -0.033310771391444449 0 0.0064055320110094393 -0.03346552382592051 0 0.0064788314644944845 -0.033452338954443321 0 0.0047399233937952543 -0.034468023795434247 0 0.0057987001651705304 -0.034721048296235013 0 0.0037512981928259398 -0.03547786950162575 0 0.0036665835428255039 -0.035631286401994353 0 0.0051082231384312103 -0.036040574144365359 0 0.0057987001651705304 -0.034721048296235013 0 0.0069563646429517921 -0.034859538233399621 0 0.0064788314644944845 -0.033452338954443321 0 0.0068123051195829601 -0.033786236383482542 0 0.0071174898023362099 -0.033934268140963161 0 0.0051082231384312103 -0.036040574144365359 0 0.0065529672598141535 -0.034999853317259334 0 0.0046769671132675088 -0.03499961193314774 0 0.0051082231384312103 -0.036040574144365359 0 0.0065529672598141535 -0.034999853317259334 0 0.0068793433463372241 -0.035687972609214323 0 0.0037512981928259398 -0.03547786950162575 0 0.0051082231384312103 -0.036040574144365359 0 0.0046769671132675088 -0.03499961193314774 0 0.0073450898982159859 -0.034173285828340387 0 0.0073914215059847042 -0.034208622947856461 0 0.0072878590896498143 -0.034120451538014289 0 0.0073450898982159859 -0.034173285828340387 0 0.0073912743323261308 -0.034207668658014966 0 0.0075768344275637667 -0.034342358686150959 0 0.0073450898982159859 -0.034173285828340387 0 0.0073912743323261308 -0.034207668658014966 0 0.0073914215059847042 -0.034208622947856461 0 0.0073914215059847042 -0.034208622947856461 0 0.0074852408521847167 -0.034280877466172456 0 0.0075768344275637667 -0.034342358686150959 0 0.0073912743323261308 -0.034207668658014966 0 0.0073914215059847042 -0.034208622947856461 0 0.0075768344275637667 -0.034342358686150959 0 0.0074852408521847167 -0.034280877466172456 0 0.0075768344275637667 -0.034342358686150959 0 0.0078215927890024142 -0.034516043880126114 0 0.0073450898982159859 -0.034173285828340387 0 0.0068123051195829601 -0.033786236383482542 0 0.0072878590896498143 -0.034120451538014289 0 0.0068123051195829601 -0.033786236383482542 0 0.0072878590896498143 -0.034120451538014289 0 0.0071174898023362099 -0.033934268140963161 0 0.0073914215059847042 -0.034208622947856461 0 0.0074852408521847167 -0.034280877466172456 0 0.0072878590896498143 -0.034120451538014289 0 0.0072878590896498143 -0.034120451538014289 0 0.0071174898023362099 -0.033934268140963161 0 0.0077333581948011319 -0.034455601952489347 0 0.0065529672598141535 -0.034999853317259334 0 0.0068793433463372241 -0.035687972609214323 0 0.0084293224922624768 -0.035000036441236698 0 0.0071174898023362099 -0.033934268140963161 0 0.0077333581948011319 -0.034455601952489347 0 0.0084279150342705684 -0.034998188669734163 0 0.0069563646429517921 -0.034859538233399621 0 0.0084286426803545401 -0.034999927775399176 0 0.0089274618125353335 -0.032694100756022144 0 0.0080281082293883772 -0.035946305642494444 0 0.007924447292539525 -0.036443201883384534 0 0.0087182766278240138 -0.035129857365525471 0 0.0090534963870455253 -0.035963965174167035 0 0.0073450898982159859 -0.034173285828340387 0 0.0075768344275637667 -0.034342358686150959 0 0.0087182766278240138 -0.035129857365525471 0 0.0074852408521847167 -0.034280877466172456 0 0.0072878590896498143 -0.034120451538014289 0 0.0077333581948011319 -0.034455601952489347 0 0.0074852408521847167 -0.034280877466172456 0 0.0077333581948011319 -0.034455601952489347 0 0.0078215927890024142 -0.034516043880126114 0 0.0077333581948011319 -0.034455601952489347 0 0.0078215927890024142 -0.034516043880126114 0 0.0087182766278240138 -0.035129857365525471 0 0.0075768344275637667 -0.034342358686150959 0 0.0078215927890024142 -0.034516043880126114 0 0.0087182766278240138 -0.035129857365525471 0 0.0077333581948011319 -0.034455601952489347 0 0.0084279150342705684 -0.034998188669734163 0 0.0087182766278240138 -0.035129857365525471 0 0.0087182766278240138 -0.035129857365525471 0 0.0097248111760036456 -0.03570703005419406 0 0.010399161780533926 -0.035000213110261663 0 0.0084279150342705684 -0.034998188669734163 0 0.0087182766278240138 -0.035129857365525471 0 0.010399161780533926 -0.035000213110261663 0 0.0087182766278240138 -0.035129857365525471 0 0.0097248111760036456 -0.03570703005419406 0 0.0090534963870455253 -0.035963965174167035 0 0.0089274618125353335 -0.032694100756022144 0 0.010866273333999501 -0.031812238925459563 0 0.007924447292539525 -0.036443201883384534 0 0.0090534963870455253 -0.035963965174167035 0 0.0099051964001231046 -0.036711784601453148 0 0.010415351379192996 -0.028839501364013552 0 0.0094764218708932226 -0.026846166306330237 0 0.011967105350086004 -0.02720329717217547 0 0.0097248111760036456 -0.03570703005419406 0 0.0090534963870455253 -0.035963965174167035 0 0.0099051964001231046 -0.036711784601453148 0 0.0099051964001231046 -0.036711784601453148 0 0.010500035524566806 -0.035740258510865638 0 0.011127936990610637 -0.036156107213611871 0 0.010866273333999501 -0.031812238925459563 0 0.013040149037739285 -0.032217886338340503 0 0.0097248111760036456 -0.03570703005419406 0 0.0099051964001231046 -0.036711784601453148 0 0.010500035524566806 -0.035740258510865638 0 0.0097248111760036456 -0.03570703005419406 0 0.010500035524566806 -0.035740258510865638 0 0.010399161780533926 -0.035000213110261663 0 0.010500035524566806 -0.035740258510865638 0 0.010399161780533926 -0.035000213110261663 0 0.011343855295832017 -0.035632942730863107 0 0.010399161780533926 -0.035000213110261663 0 0.011343855295832017 -0.035632942730863107 0 0.012368469508368852 -0.034999856787910143 0 0.012015849464168239 -0.035752601909661889 0 0.011343855295832017 -0.035632942730863107 0 0.011127936990610637 -0.036156107213611871 0 0.010500035524566806 -0.035740258510865638 0 0.011343855295832017 -0.035632942730863107 0 0.011127936990610637 -0.036156107213611871 0 0.012015849464168239 -0.035752601909661889 0 0.011343855295832017 -0.035632942730863107 0 0.013025962774046279 -0.035322504150192752 0 0.012015849464168239 -0.035752601909661889 0 0.013025962774046279 -0.035322504150192752 0 0.01380008810251131 -0.035550789900708438 0 0.012147870830397794 -0.035713576048336942 0 0.013930591260597076 -0.035412821665471932 0 0.012015849464168239 -0.035752601909661889 0 0.013095667363945174 -0.036288583204864812 0 0.014108097333565373 -0.035241844975041632 0 0.011466551590582678 -0.035617953741009886 0 0.012984720195616199 -0.035410081589011468 0 0.011343855295832017 -0.035632942730863107 0 0.012986608953689961 -0.035486539348003304 0 0.012368469508368852 -0.034999856787910143 0 0.013095667363945174 -0.036288583204864812 0 0.011894305790008133 -0.036940348910380567 0 0.014156659114979236 -0.037171359571375809 0 0.012015849464168239 -0.035752601909661889 0 0.013095667363945174 -0.036288583204864812 0 0.011894305790008133 -0.036940348910380567 0 0.012015849464168239 -0.035752601909661889 0 0.011894305790008133 -0.036940348910380567 0 0.011127936990610637 -0.036156107213611871 0 0.0099051964001231046 -0.036711784601453148 0 0.011894305790008133 -0.036940348910380567 0 0.011127936990610637 -0.036156107213611871 0 0.014138814710645247 -0.027472751823269179 0 0.013442976378783958 -0.028769760844837448 0 0.014818384518609758 -0.028314800258999448 0 0.011967105350086004 -0.02720329717217547 0 0.014138814710645247 -0.027472751823269179 0 0.013442976378783958 -0.028769760844837448 0 0.013040149037739285 -0.032217886338340503 0 0.015205468637156789 -0.032336914806275936 0 0.014138814710645247 -0.027472751823269179 0 0.014818384518609758 -0.028314800258999448 0 0.016243788334482357 -0.027514384647852018 0 0.014818384518609758 -0.028314800258999448 0 0.014626744388024235 -0.029247454277757056 0 0.015677558002469762 -0.028551285120879018 0 0.014626744388024235 -0.029247454277757056 0 0.016083004385313984 -0.029322880103532394 0 0.015333406171083188 -0.030051719255844031 0 0.014626744388024235 -0.029247454277757056 0 0.015677558002469762 -0.028551285120879018 0 0.016083004385313984 -0.029322880103532394 0 0.014626744388024235 -0.029247454277757056 0 0.015333406171083188 -0.030051719255844031 0 0.014606361113423392 -0.030337370768981485 0 0.014626744388024235 -0.029247454277757056 0 0.013877361475744466 -0.029895779704999178 0 0.014606361113423392 -0.030337370768981485 0 0.013442976378783958 -0.028769760844837448 0 0.014818384518609758 -0.028314800258999448 0 0.014626744388024235 -0.029247454277757056 0 0.013442976378783958 -0.028769760844837448 0 0.014626744388024235 -0.029247454277757056 0 0.013877361475744466 -0.029895779704999178 0 0.013442976378783958 -0.028769760844837448 0 0.013877361475744466 -0.029895779704999178 0 0.012904495970088824 -0.030269176226374095 0 0.01200233171221439 -0.028959812700670329 0 0.011291930384345514 -0.030584889230210081 0 0.012904495970088824 -0.030269176226374095 0 0.013442976378783958 -0.028769760844837448 0 0.01200233171221439 -0.028959812700670329 0 0.012904495970088824 -0.030269176226374095 0 0.010415351379192996 -0.028839501364013552 0 0.01200233171221439 -0.028959812700670329 0 0.011291930384345514 -0.030584889230210081 0 0.010415351379192996 -0.028839501364013552 0 0.011967105350086004 -0.02720329717217547 0 0.01200233171221439 -0.028959812700670329 0 0.011967105350086004 -0.02720329717217547 0 0.013442976378783958 -0.028769760844837448 0 0.01200233171221439 -0.028959812700670329 0 0.017509782996291374 -0.035996183545274507 0 0.019146126976286926 -0.035991015974693889 0 0.018845793855190321 -0.037585008848896533 0 0.017294282398931913 -0.03523364687201859 0 0.016488054549164004 -0.035000097607405932 0 0.015552939282398107 -0.035408296779023858 0 0.017509782996291374 -0.035996183545274507 0 0.018389366585162693 -0.034560217468758932 0 0.019146126976286926 -0.035991015974693889 0 0.017310412343417993 -0.035221247097643314 0 0.016488212042049411 -0.034999998342846499 0 0.017736419595026 -0.034999998239103186 0 0.017509782996291374 -0.035996183545274507 0 0.018389366585162693 -0.034560217468758932 0 0.016267676761595202 -0.034864276305667526 0 0.017640441368376447 -0.035075003506515726 0 0.015967852916553622 -0.035112180760158151 0 0.017640441368376447 -0.035075003506515726 0 0.016488455128878657 -0.034999970918641307 0 0.017509782996291374 -0.035996183545274507 0 0.016267676761595202 -0.034864276305667526 0 0.016424388628660611 -0.035933994603433897 0 0.01630750613346402 -0.035000036332540341 0 0.014663072807215152 -0.03520186161181383 0 0.016308033113385557 -0.034999861654647364 0 0.015552939282398107 -0.035408296779023858 0 0.014679234864342958 -0.035159113738911445 0 0.016488054549164004 -0.035000097607405932 0 0.016308033113385557 -0.034999861654647364 0 0.015552939282398107 -0.035408296779023858 0 0.017509782996291374 -0.035996183545274507 0 0.016424388628660611 -0.035933994603433897 0 0.016525444824279083 -0.037370982475176159 0 0.016267676761595202 -0.034864276305667526 0 0.016424388628660611 -0.035933994603433897 0 0.015335773361901955 -0.036130856107199336 0 0.016424388628660611 -0.035933994603433897 0 0.015335773361901955 -0.036130856107199336 0 0.016525444824279083 -0.037370982475176159 0 0.015335773361901955 -0.036130856107199336 0 0.014156659114979236 -0.037171359571375809 0 0.016525444824279083 -0.037370982475176159 0 0.016267676761595202 -0.034864276305667526 0 0.015335773361901955 -0.036130856107199336 0 0.014108097333565373 -0.035241844975041632 0 0.015967852916553622 -0.035112180760158151 0 0.013930591260597076 -0.035412821665471932 0 0.016307857466165827 -0.034999979583665915 0 0.014650206654355447 -0.035244972280616252 0 0.014338235927831447 -0.035000035424514575 0 0.015552939282398107 -0.035408296779023858 0 0.014679234864342958 -0.035159113738911445 0 0.01380008810251131 -0.035550789900708438 0 0.012986608953689961 -0.035486539348003304 0 0.012368469508368852 -0.034999856787910143 0 0.014338235927831447 -0.035000035424514575 0 0.012986608953689961 -0.035486539348003304 0 0.014650206654355447 -0.035244972280616252 0 0.014338235927831447 -0.035000035424514575 0 0.012984720195616199 -0.035410081589011468 0 0.014663072807215152 -0.03520186161181383 0 0.013025962774046279 -0.035322504150192752 0 0.014679234864342958 -0.035159113738911445 0 0.01380008810251131 -0.035550789900708438 0 0.013095667363945174 -0.036288583204864812 0 0.014108097333565373 -0.035241844975041632 0 0.014156659114979236 -0.037171359571375809 0 0.015335773361901955 -0.036130856107199336 0 0.014108097333565373 -0.035241844975041632 0 0.014156659114979236 -0.037171359571375809 0 0.016243788334482357 -0.027514384647852018 0 0.015677558002469762 -0.028551285120879018 0 0.017037783528615146 -0.028582985734963318 0 0.014818384518609758 -0.028314800258999448 0 0.016243788334482357 -0.027514384647852018 0 0.015677558002469762 -0.028551285120879018 0 0.015677558002469762 -0.028551285120879018 0 0.016083004385313984 -0.029322880103532394 0 0.017037783528615146 -0.028582985734963318 0 0.016083004385313984 -0.029322880103532394 0 0.016047223895572796 -0.030250581593147287 0 0.015333406171083188 -0.030051719255844031 0 0.016083004385313984 -0.029322880103532394 0 0.017218321542373467 -0.029653448086917104 0 0.016047223895572796 -0.030250581593147287 0 0.016083004385313984 -0.029322880103532394 0 0.017037783528615146 -0.028582985734963318 0 0.017218321542373467 -0.029653448086917104 0 0.017037783528615146 -0.028582985734963318 0 0.018703750014618308 -0.027437789065729846 0 0.0186509044477862 -0.029552211681813514 0 0.017037783528615146 -0.028582985734963318 0 0.017218321542373467 -0.029653448086917104 0 0.0186509044477862 -0.029552211681813514 0 0.015205468637156789 -0.032336914806275936 0 0.017662263841671754 -0.032388295432688598 0 0.016243788334482357 -0.027514384647852018 0 0.017037783528615146 -0.028582985734963318 0 0.018703750014618308 -0.027437789065729846 0 0.018703750014618308 -0.027437789065729846 0 0.0186509044477862 -0.029552211681813514 0 0.019893407391754232 -0.028543377867880786 0 0.019893407391754232 -0.028543377867880786 0 0.020653936811825112 -0.029674793182273163 0 0.021635054828455461 -0.027493141685682947 0 0.0186509044477862 -0.029552211681813514 0 0.019893407391754232 -0.028543377867880786 0 0.020653936811825112 -0.029674793182273163 0 0.017662263841671754 -0.032388295432688598 0 0.020101551296590889 -0.032728855159203395 0 0.018703750014618308 -0.027437789065729846 0 0.019893407391754232 -0.028543377867880786 0 0.021635054828455461 -0.027493141685682947 0 0.017509782996291374 -0.035996183545274507 0 0.016525444824279083 -0.037370982475176159 0 0.018845793855190321 -0.037585008848896533 0 0.02119778644710681 -0.031650860307596382 0 0.019290684135944359 -0.030973396257668238 0 0.01855236808567182 -0.032468478595394146 0 0.028664459863427035 -0.028390883922629864 0 0.028573300617832031 -0.028439487388813123 0 0.028256344553662209 -0.028426416008032557 0 0.025141284023220651 -0.030087257566268809 0 0.022317547760949089 -0.02976729544575055 0 0.028573300617832031 -0.028439487388813123 0 0.028425147934173941 -0.028473999474945007 0 0.028531866397208533 -0.028470068508087795 0 0.020653936811825112 -0.029674793182273163 0 0.02119778644710681 -0.031650860307596382 0 0.019290684135944359 -0.030973396257668238 0 0.0186509044477862 -0.029552211681813514 0 0.020653936811825112 -0.029674793182273163 0 0.019290684135944359 -0.030973396257668238 0 0.0186509044477862 -0.029552211681813514 0 0.019290684135944359 -0.030973396257668238 0 0.018326278934155248 -0.030722820236567239 0 0.0186509044477862 -0.029552211681813514 0 0.018326278934155248 -0.030722820236567239 0 0.017805051547535262 -0.030268028777560015 0 0.019290684135944359 -0.030973396257668238 0 0.018326278934155248 -0.030722820236567239 0 0.018221356176670481 -0.031696652549005382 0 0.028573300617832031 -0.028439487388813123 0 0.028256344553662209 -0.028426416008032557 0 0.028425147934173941 -0.028473999474945007 0 0.019290684135944359 -0.030973396257668238 0 0.018221356176670481 -0.031696652549005382 0 0.01855236808567182 -0.032468478595394146 0 0.018326278934155248 -0.030722820236567239 0 0.018221356176670481 -0.031696652549005382 0 0.017692129396719249 -0.031090857772581793 0 0.018221356176670481 -0.031696652549005382 0 0.017862056143439213 -0.032040368873956844 0 0.018131102071566131 -0.032304593908202756 0 0.018221356176670481 -0.031696652549005382 0 0.018368155534972359 -0.032128253995109934 0 0.018131102071566131 -0.032304593908202756 0 0.02065041458630015 -0.030910867373995649 0 0.022317547760949089 -0.02976729544575055 0 0.017862056143439213 -0.032040368873956844 0 0.017295528696866964 -0.031829335514620749 0 0.017654560071723942 -0.0316159930846504 0 0.018221356176670481 -0.031696652549005382 0 0.017862056143439213 -0.032040368873956844 0 0.017654560071723942 -0.0316159930846504 0 0.017862056143439213 -0.032040368873956844 0 0.017474240099127344 -0.03220992310540103 0 0.017605258689966999 -0.032576249542947126 0 0.017862056143439213 -0.032040368873956844 0 0.017474240099127344 -0.03220992310540103 0 0.017295528696866964 -0.031829335514620749 0 0.017194698511137845 -0.032157512454965821 0 0.016839535199230895 -0.031948731404957825 0 0.017295528696866964 -0.031829335514620749 0 0.017474240099127344 -0.03220992310540103 0 0.017194698511137845 -0.032157512454965821 0 0.017295528696866964 -0.031829335514620749 0 0.017194698511137845 -0.032157512454965821 0 0.016839535199230895 -0.031948731404957825 0 0.016895832694681721 -0.032287207153836255 0 0.016839535199230895 -0.031948731404957825 0 0.016519157374573157 -0.032154233299697826 0 0.016895832694681721 -0.032287207153836255 0 0.016839535199230895 -0.031948731404957825 0 0.017295528696866964 -0.031829335514620749 0 0.016635783026084393 -0.031587342487319363 0 0.017196085764993655 -0.031368229191511943 0 0.016815961154964955 -0.030763243218634131 0 0.016635783026084393 -0.031587342487319363 0 0.017295528696866964 -0.031829335514620749 0 0.017196085764993655 -0.031368229191511943 0 0.016635783026084393 -0.031587342487319363 0 0.017196085764993655 -0.031368229191511943 0 0.017654560071723942 -0.0316159930846504 0 0.017692129396719249 -0.031090857772581793 0 0.017295528696866964 -0.031829335514620749 0 0.017196085764993655 -0.031368229191511943 0 0.017654560071723942 -0.0316159930846504 0 0.018221356176670481 -0.031696652549005382 0 0.017654560071723942 -0.0316159930846504 0 0.017692129396719249 -0.031090857772581793 0 0.018326278934155248 -0.030722820236567239 0 0.017692129396719249 -0.031090857772581793 0 0.017805051547535262 -0.030268028777560015 0 0.017692129396719249 -0.031090857772581793 0 0.017805051547535262 -0.030268028777560015 0 0.016815961154964955 -0.030763243218634131 0 0.017218321542373467 -0.029653448086917104 0 0.0186509044477862 -0.029552211681813514 0 0.017805051547535262 -0.030268028777560015 0 0.017218321542373467 -0.029653448086917104 0 0.017805051547535262 -0.030268028777560015 0 0.016815961154964955 -0.030763243218634131 0 0.017196085764993655 -0.031368229191511943 0 0.017692129396719249 -0.031090857772581793 0 0.016815961154964955 -0.030763243218634131 0 0.016815961154964955 -0.030763243218634131 0 0.016047223895572796 -0.030250581593147287 0 0.01600446921439988 -0.031326002837971205 0 0.017218321542373467 -0.029653448086917104 0 0.016815961154964955 -0.030763243218634131 0 0.016047223895572796 -0.030250581593147287 0 0.016047223895572796 -0.030250581593147287 0 0.015333406171083188 -0.030051719255844031 0 0.015272761745219752 -0.030872252490245913 0 0.016047223895572796 -0.030250581593147287 0 0.01600446921439988 -0.031326002837971205 0 0.015272761745219752 -0.030872252490245913 0 0.015385935567546149 -0.031580341513056026 0 0.01600446921439988 -0.031326002837971205 0 0.015272761745219752 -0.030872252490245913 0 0.015385935567546149 -0.031580341513056026 0 0.01600446921439988 -0.031326002837971205 0 0.015733218102609949 -0.031832658630838999 0 0.016815961154964955 -0.030763243218634131 0 0.01600446921439988 -0.031326002837971205 0 0.016635783026084393 -0.031587342487319363 0 0.01600446921439988 -0.031326002837971205 0 0.016635783026084393 -0.031587342487319363 0 0.01622330368022679 -0.031808385477816954 0 0.01600446921439988 -0.031326002837971205 0 0.01622330368022679 -0.031808385477816954 0 0.015733218102609949 -0.031832658630838999 0 0.016839535199230895 -0.031948731404957825 0 0.016635783026084393 -0.031587342487319363 0 0.01622330368022679 -0.031808385477816954 0 0.016839535199230895 -0.031948731404957825 0 0.01622330368022679 -0.031808385477816954 0 0.016519157374573157 -0.032154233299697826 0 0.01622330368022679 -0.031808385477816954 0 0.016519157374573157 -0.032154233299697826 0 0.015945574959191997 -0.032114026267139481 0 0.01622330368022679 -0.031808385477816954 0 0.015945574959191997 -0.032114026267139481 0 0.015733218102609949 -0.031832658630838999 0 0.015945574959191997 -0.032114026267139481 0 0.015378440079127108 -0.032045286467709676 0 0.015733218102609949 -0.031832658630838999 0 0.015385935567546149 -0.031580341513056026 0 0.015378440079127108 -0.032045286467709676 0 0.015733218102609949 -0.031832658630838999 0 0.015531658340835105 -0.032959252142957203 0 0.016711839879024561 -0.033205214225757583 0 0.014336938777345962 -0.03304419236948597 0 0.017850426662061214 -0.031602131994019289 0 0.015437743493900025 -0.03158491925951807 0 0.020539195857520828 -0.030116666345323895 0 0.020509735304126593 -0.029660000829166033 0 0.016009232779475698 -0.03048172120308263 0 0.015833759567758544 -0.032634831198169893 0 0.01545456600163404 -0.03257685033569279 0 0.015665270111831657 -0.032351885220360803 0 0.015833759567758544 -0.032634831198169893 0 0.01545456600163404 -0.03257685033569279 0 0.015609586093889663 -0.032747048280865276 0 0.01545456600163404 -0.03257685033569279 0 0.015665270111831657 -0.032351885220360803 0 0.015177753668568597 -0.032340628953672665 0 0.01545456600163404 -0.03257685033569279 0 0.015177753668568597 -0.032340628953672665 0 0.015104227617928808 -0.032607087742513911 0 0.015378440079127108 -0.032045286467709676 0 0.015665270111831657 -0.032351885220360803 0 0.015177753668568597 -0.032340628953672665 0 0.015945574959191997 -0.032114026267139481 0 0.015378440079127108 -0.032045286467709676 0 0.015665270111831657 -0.032351885220360803 0 0.015945574959191997 -0.032114026267139481 0 0.015665270111831657 -0.032351885220360803 0 0.016189770668473415 -0.032457895800303213 0 0.016519157374573157 -0.032154233299697826 0 0.015945574959191997 -0.032114026267139481 0 0.016189770668473415 -0.032457895800303213 0 0.016519157374573157 -0.032154233299697826 0 0.016189770668473415 -0.032457895800303213 0 0.016655443655791441 -0.032465727301235391 0 0.01650462598650658 -0.032745189531941415 0 0.016189770668473415 -0.032457895800303213 0 0.016655443655791441 -0.032465727301235391 0 0.01650462598650658 -0.032745189531941415 0 0.016189770668473415 -0.032457895800303213 0 0.01616727181893983 -0.03275904548145514 0 0.015833759567758544 -0.032634831198169893 0 0.016189770668473415 -0.032457895800303213 0 0.01616727181893983 -0.03275904548145514 0 0.015833759567758544 -0.032634831198169893 0 0.015665270111831657 -0.032351885220360803 0 0.016189770668473415 -0.032457895800303213 0 0.016157099990203982 -0.032960889879107641 0 0.015531658340835105 -0.032959252142957203 0 0.016711839879024561 -0.033205214225757583 0 0.015833759567758544 -0.032634831198169893 0 0.01616727181893983 -0.03275904548145514 0 0.015871708632624652 -0.032828537477882828 0 0.01616727181893983 -0.03275904548145514 0 0.016157099990203982 -0.032960889879107641 0 0.015871708632624652 -0.032828537477882828 0 0.016157099990203982 -0.032960889879107641 0 0.016454020859425392 -0.032938770287183013 0 0.016711839879024561 -0.033205214225757583 0 0.01650462598650658 -0.032745189531941415 0 0.016454020859425392 -0.032938770287183013 0 0.01663128157450549 -0.032919114214205535 0 0.01650462598650658 -0.032745189531941415 0 0.01616727181893983 -0.03275904548145514 0 0.016454020859425392 -0.032938770287183013 0 0.01616727181893983 -0.03275904548145514 0 0.016157099990203982 -0.032960889879107641 0 0.016454020859425392 -0.032938770287183013 0 0.016454020859425392 -0.032938770287183013 0 0.016711839879024561 -0.033205214225757583 0 0.01663128157450549 -0.032919114214205535 0 0.016157099990203982 -0.032960889879107641 0 0.015531658340835105 -0.032959252142957203 0 0.015871708632624652 -0.032828537477882828 0 0.015531658340835105 -0.032959252142957203 0 0.015609586093889663 -0.032747048280865276 0 0.015871708632624652 -0.032828537477882828 0 0.015531658340835105 -0.032959252142957203 0 0.015609586093889663 -0.032747048280865276 0 0.015361414176654462 -0.032740759196006164 0 0.015833759567758544 -0.032634831198169893 0 0.015609586093889663 -0.032747048280865276 0 0.015871708632624652 -0.032828537477882828 0 0.015531658340835105 -0.032959252142957203 0 0.015361414176654462 -0.032740759196006164 0 0.015121051500436168 -0.032782589659038186 0 0.015361414176654462 -0.032740759196006164 0 0.015121051500436168 -0.032782589659038186 0 0.015104227617928808 -0.032607087742513911 0 0.01545456600163404 -0.03257685033569279 0 0.015361414176654462 -0.032740759196006164 0 0.015104227617928808 -0.032607087742513911 0 0.01545456600163404 -0.03257685033569279 0 0.015609586093889663 -0.032747048280865276 0 0.015361414176654462 -0.032740759196006164 0 0.015531658340835105 -0.032959252142957203 0 0.015121051500436168 -0.032782589659038186 0 0.014849139729069311 -0.032895152120871837 0 0.020539195857520828 -0.030116666345323895 0 0.016009232779475698 -0.03048172120308263 0 0.01592722631644929 -0.030845448880184218 0 0.023955887771630168 -0.026824410617678512 0 0.020553322983508066 -0.027394916052007792 0 0.026161682999928021 -0.024068803478771775 0 0.027288476194571285 -0.023894285207011732 0 0.025265784551147068 -0.023895951768357074 0 0.026161682999928021 -0.024068803478771775 0 0.026422956570011345 -0.024405614927312132 0 0.026637990214085677 -0.024128388290668667 0 0.026161682999928021 -0.024068803478771775 0 0.026422956570011345 -0.024405614927312132 0 0.026043761138109703 -0.024373798071431706 0 0.026161682999928021 -0.024068803478771775 0 0.026043761138109703 -0.024373798071431706 0 0.025760484073749486 -0.024207306791569235 0 0.026422956570011345 -0.024405614927312132 0 0.026043761138109703 -0.024373798071431706 0 0.026012908367853055 -0.024726331902243201 0 0.026422956570011345 -0.024405614927312132 0 0.026012908367853055 -0.024726331902243201 0 0.026612242076761616 -0.024852036977333406 0 0.026012908367853055 -0.024726331902243201 0 0.026612242076761616 -0.024852036977333406 0 0.026196488388890188 -0.025239383041070089 0 0.026612242076761616 -0.024852036977333406 0 0.026886906134630774 -0.024496878690571273 0 0.027299361710153187 -0.024787600590130573 0 0.026422956570011345 -0.024405614927312132 0 0.026612242076761616 -0.024852036977333406 0 0.026886906134630774 -0.024496878690571273 0 0.026886906134630774 -0.024496878690571273 0 0.027238545883262841 -0.024361975821839299 0 0.027299361710153187 -0.024787600590130573 0 0.026637990214085677 -0.024128388290668667 0 0.026917018234398776 -0.024123832171643145 0 0.027288476194571285 -0.023894285207011732 0 0.026161682999928021 -0.024068803478771775 0 0.026637990214085677 -0.024128388290668667 0 0.027288476194571285 -0.023894285207011732 0 0.026886906134630774 -0.024496878690571273 0 0.026978602529363477 -0.02427726890529797 0 0.027238545883262841 -0.024361975821839299 0 0.026978602529363477 -0.02427726890529797 0 0.027162935607580038 -0.0241511363135 0 0.027238545883262841 -0.024361975821839299 0 0.026422956570011345 -0.024405614927312132 0 0.026769792693430709 -0.02428533622774157 0 0.026637990214085677 -0.024128388290668667 0 0.026422956570011345 -0.024405614927312132 0 0.026886906134630774 -0.024496878690571273 0 0.026769792693430709 -0.02428533622774157 0 0.026886906134630774 -0.024496878690571273 0 0.026978602529363477 -0.02427726890529797 0 0.026769792693430709 -0.02428533622774157 0 0.026978602529363477 -0.02427726890529797 0 0.026769792693430709 -0.02428533622774157 0 0.026917018234398776 -0.024123832171643145 0 0.026769792693430709 -0.02428533622774157 0 0.026637990214085677 -0.024128388290668667 0 0.026917018234398776 -0.024123832171643145 0 0.027162935607580038 -0.0241511363135 0 0.026917018234398776 -0.024123832171643145 0 0.027288476194571285 -0.023894285207011732 0 0.026978602529363477 -0.02427726890529797 0 0.027162935607580038 -0.0241511363135 0 0.026917018234398776 -0.024123832171643145 0 0.027162935607580038 -0.0241511363135 0 0.027462258229738402 -0.024192882122604738 0 0.027288476194571285 -0.023894285207011732 0 0.027462258229738402 -0.024192882122604738 0 0.027868508321591424 -0.024159149490085866 0 0.027288476194571285 -0.023894285207011732 0 0.027462258229738402 -0.024192882122604738 0 0.027712346188717443 -0.02441698010675861 0 0.027868508321591424 -0.024159149490085866 0 0.027462258229738402 -0.024192882122604738 0 0.027238545883262841 -0.024361975821839299 0 0.027712346188717443 -0.02441698010675861 0 0.027162935607580038 -0.0241511363135 0 0.027462258229738402 -0.024192882122604738 0 0.027238545883262841 -0.024361975821839299 0 0.027238545883262841 -0.024361975821839299 0 0.027299361710153187 -0.024787600590130573 0 0.027712346188717443 -0.02441698010675861 0 0.027299361710153187 -0.024787600590130573 0 0.027897986882495084 -0.024911639702153727 0 0.027712346188717443 -0.02441698010675861 0 0.027897986882495084 -0.024911639702153727 0 0.027712346188717443 -0.02441698010675861 0 0.028301645050771318 -0.02456369211612288 0 0.027712346188717443 -0.02441698010675861 0 0.027868508321591424 -0.024159149490085866 0 0.028301645050771318 -0.02456369211612288 0 0.027868508321591424 -0.024159149490085866 0 0.027288476194571285 -0.023894285207011732 0 0.028639657723377714 -0.023816662579048343 0 0.023955887771630168 -0.026824410617678512 0 0.027102003664833171 -0.028022154489990288 0 0.017850426662061214 -0.031602131994019289 0 0.02566023027527304 -0.029692995419187129 0 0.016711839879024561 -0.033205214225757583 0 0.017605258689966999 -0.032576249542947126 0 0.0187415063968841 -0.032874475928172317 0 0.020539195857520828 -0.030116666345323895 0 0.020509735304126593 -0.029660000829166033 0 0.025578671988937301 -0.028731126485396434 0 0.016711839879024561 -0.033205214225757583 0 0.01663128157450549 -0.032919114214205535 0 0.016859478832118791 -0.0327973350962402 0 0.016859478832118791 -0.0327973350962402 0 0.016924152198738055 -0.032541898267298829 0 0.017234167547248706 -0.032463115618833686 0 0.016859478832118791 -0.0327973350962402 0 0.017234167547248706 -0.032463115618833686 0 0.017605258689966999 -0.032576249542947126 0 0.016711839879024561 -0.033205214225757583 0 0.016859478832118791 -0.0327973350962402 0 0.017605258689966999 -0.032576249542947126 0 0.01650462598650658 -0.032745189531941415 0 0.016859478832118791 -0.0327973350962402 0 0.016655443655791441 -0.032465727301235391 0 0.01650462598650658 -0.032745189531941415 0 0.01663128157450549 -0.032919114214205535 0 0.016859478832118791 -0.0327973350962402 0 0.016859478832118791 -0.0327973350962402 0 0.016924152198738055 -0.032541898267298829 0 0.016655443655791441 -0.032465727301235391 0 0.016519157374573157 -0.032154233299697826 0 0.016655443655791441 -0.032465727301235391 0 0.016895832694681721 -0.032287207153836255 0 0.016924152198738055 -0.032541898267298829 0 0.016655443655791441 -0.032465727301235391 0 0.016895832694681721 -0.032287207153836255 0 0.017194698511137845 -0.032157512454965821 0 0.016895832694681721 -0.032287207153836255 0 0.017234167547248706 -0.032463115618833686 0 0.017474240099127344 -0.03220992310540103 0 0.017194698511137845 -0.032157512454965821 0 0.017234167547248706 -0.032463115618833686 0 0.016924152198738055 -0.032541898267298829 0 0.016895832694681721 -0.032287207153836255 0 0.017234167547248706 -0.032463115618833686 0 0.017474240099127344 -0.03220992310540103 0 0.017234167547248706 -0.032463115618833686 0 0.017605258689966999 -0.032576249542947126 0 0.017862056143439213 -0.032040368873956844 0 0.017605258689966999 -0.032576249542947126 0 0.018131102071566131 -0.032304593908202756 0 0.020539195857520828 -0.030116666345323895 0 0.025578671988937301 -0.028731126485396434 0 0.025757356391905937 -0.029169214651261665 0 0.022317547760949089 -0.02976729544575055 0 0.02566023027527304 -0.029692995419187129 0 0.017605258689966999 -0.032576249542947126 0 0.018131102071566131 -0.032304593908202756 0 0.0187415063968841 -0.032874475928172317 0 0.018368155534972359 -0.032128253995109934 0 0.018131102071566131 -0.032304593908202756 0 0.0187415063968841 -0.032874475928172317 0 0.028425147934173941 -0.028473999474945007 0 0.028323361346386425 -0.028591243107254451 0 0.028531866397208533 -0.028470068508087795 0 0.028256344553662209 -0.028426416008032557 0 0.028425147934173941 -0.028473999474945007 0 0.028323361346386425 -0.028591243107254451 0 0.02566023027527304 -0.029692995419187129 0 0.027102003664833171 -0.028022154489990288 0 0.029572276057188301 -0.028156076112135144 0 0.029560111586738456 -0.028129741708723958 0 0.02939598781957236 -0.028175743996309229 0 0.027102003664833171 -0.028022154489990288 0 0.029380565813625008 -0.025885331003486948 0 0.027868508321591424 -0.024159149490085866 0 0.028639657723377714 -0.023816662579048343 0 0.028301645050771318 -0.02456369211612288 0 0.028639657723377714 -0.023816662579048343 0 0.028301645050771318 -0.02456369211612288 0 0.028988458380129208 -0.024872962093318036 0 0.027897986882495084 -0.024911639702153727 0 0.028301645050771318 -0.02456369211612288 0 0.028456458182800546 -0.025277363935801288 0 0.028301645050771318 -0.02456369211612288 0 0.028988458380129208 -0.024872962093318036 0 0.028456458182800546 -0.025277363935801288 0 0.029805734531019014 -0.028090252184052741 0 0.029444267747529094 -0.027859081177003826 0 0.029615018915193837 -0.02747861705140375 0 0.029444267747529094 -0.027859081177003826 0 0.029615018915193837 -0.02747861705140375 0 0.028986108610416495 -0.027729510586825008 0 0.029444267747529094 -0.027859081177003826 0 0.029189866831866924 -0.028024678907592523 0 0.028986108610416495 -0.027729510586825008 0 0.02566023027527304 -0.029692995419187129 0 0.029532690494798185 -0.028247713020116083 0 0.029444267747529094 -0.027859081177003826 0 0.029189866831866924 -0.028024678907592523 0 0.02939598781957236 -0.028175743996309229 0 0.029572276057188301 -0.028156076112135144 0 0.02939598781957236 -0.028175743996309229 0 0.029339949074818673 -0.028234757547508458 0 0.028573300617832031 -0.028439487388813123 0 0.028583113869905655 -0.028501087443476156 0 0.0287088304774623 -0.02832313983529661 0 0.028323361346386425 -0.028591243107254451 0 0.028531866397208533 -0.028470068508087795 0 0.028583113869905655 -0.028501087443476156 0 0.029805734531019014 -0.028090252184052741 0 0.029444267747529094 -0.027859081177003826 0 0.02939598781957236 -0.028175743996309229 0 0.027102003664833171 -0.028022154489990288 0 0.030006620056045118 -0.027943144247668184 0 0.028573300617832031 -0.028439487388813123 0 0.028531866397208533 -0.028470068508087795 0 0.028583113869905655 -0.028501087443476156 0 0.029189866831866924 -0.028024678907592523 0 0.02939598781957236 -0.028175743996309229 0 0.029339949074818673 -0.028234757547508458 0 0.012497522611546174 -0.031413181117218546 0 0.012477996703349781 -0.032329349805331788 0 0.011453261851305879 -0.031992606075416874 0 0.012497522611546174 -0.031413181117218546 0 0.013331525274407275 -0.031253615924057072 0 0.013548354983579857 -0.032050418439567185 0 0.012497522611546174 -0.031413181117218546 0 0.012477996703349781 -0.032329349805331788 0 0.013548354983579857 -0.032050418439567185 0 0.012477996703349781 -0.032329349805331788 0 0.011453261851305879 -0.031992606075416874 0 0.010837260065048208 -0.032819106805116426 0 0.010050285557822215 -0.031887874924548115 0 0.011453261851305879 -0.031992606075416874 0 0.010837260065048208 -0.032819106805116426 0 0.010050285557822215 -0.031887874924548115 0 0.011453261851305879 -0.031992606075416874 0 0.011291930384345514 -0.030584889230210081 0 0.012497522611546174 -0.031413181117218546 0 0.011453261851305879 -0.031992606075416874 0 0.011291930384345514 -0.030584889230210081 0 0.012497522611546174 -0.031413181117218546 0 0.011291930384345514 -0.030584889230210081 0 0.012904495970088824 -0.030269176226374095 0 0.012497522611546174 -0.031413181117218546 0 0.012904495970088824 -0.030269176226374095 0 0.013331525274407275 -0.031253615924057072 0 0.013877361475744466 -0.029895779704999178 0 0.012904495970088824 -0.030269176226374095 0 0.013939059225205452 -0.030839099547134121 0 0.013877361475744466 -0.029895779704999178 0 0.013939059225205452 -0.030839099547134121 0 0.014606361113423392 -0.030337370768981485 0 0.013939059225205452 -0.030839099547134121 0 0.014591028795940625 -0.031026674523849659 0 0.014173022761022254 -0.031517320478765452 0 0.013939059225205452 -0.030839099547134121 0 0.013331525274407275 -0.031253615924057072 0 0.014173022761022254 -0.031517320478765452 0 0.012904495970088824 -0.030269176226374095 0 0.013939059225205452 -0.030839099547134121 0 0.013331525274407275 -0.031253615924057072 0 0.015333406171083188 -0.030051719255844031 0 0.014606361113423392 -0.030337370768981485 0 0.015272761745219752 -0.030872252490245913 0 0.014606361113423392 -0.030337370768981485 0 0.014591028795940625 -0.031026674523849659 0 0.015272761745219752 -0.030872252490245913 0 0.013939059225205452 -0.030839099547134121 0 0.014606361113423392 -0.030337370768981485 0 0.014591028795940625 -0.031026674523849659 0 0.014591028795940625 -0.031026674523849659 0 0.015272761745219752 -0.030872252490245913 0 0.014838261594242189 -0.031481084976453182 0 0.015385935567546149 -0.031580341513056026 0 0.015272761745219752 -0.030872252490245913 0 0.014838261594242189 -0.031481084976453182 0 0.014591028795940625 -0.031026674523849659 0 0.014838261594242189 -0.031481084976453182 0 0.014173022761022254 -0.031517320478765452 0 0.014838261594242189 -0.031481084976453182 0 0.014493333068169179 -0.031915572496995823 0 0.014173022761022254 -0.031517320478765452 0 0.014493333068169179 -0.031915572496995823 0 0.014173022761022254 -0.031517320478765452 0 0.013989446949895719 -0.03205151232113209 0 0.014838261594242189 -0.031481084976453182 0 0.014493333068169179 -0.031915572496995823 0 0.014969709917325189 -0.031835303471499654 0 0.014493333068169179 -0.031915572496995823 0 0.014969709917325189 -0.031835303471499654 0 0.014807329078795813 -0.032147122410463365 0 0.015378440079127108 -0.032045286467709676 0 0.014969709917325189 -0.031835303471499654 0 0.014807329078795813 -0.032147122410463365 0 0.015385935567546149 -0.031580341513056026 0 0.015378440079127108 -0.032045286467709676 0 0.014969709917325189 -0.031835303471499654 0 0.015385935567546149 -0.031580341513056026 0 0.014838261594242189 -0.031481084976453182 0 0.014969709917325189 -0.031835303471499654 0 0.013331525274407275 -0.031253615924057072 0 0.014173022761022254 -0.031517320478765452 0 0.013548354983579857 -0.032050418439567185 0 0.014173022761022254 -0.031517320478765452 0 0.013989446949895719 -0.03205151232113209 0 0.013548354983579857 -0.032050418439567185 0 0.013548354983579857 -0.032050418439567185 0 0.01375499779815364 -0.032245102650756439 0 0.013723777411175152 -0.032929936783074723 0 0.013989446949895719 -0.03205151232113209 0 0.013548354983579857 -0.032050418439567185 0 0.01375499779815364 -0.032245102650756439 0 0.013989446949895719 -0.03205151232113209 0 0.013942929950027088 -0.032263300396068645 0 0.014269255598241786 -0.032340796810550215 0 0.013989446949895719 -0.03205151232113209 0 0.01375499779815364 -0.032245102650756439 0 0.013942929950027088 -0.032263300396068645 0 0.01375499779815364 -0.032245102650756439 0 0.013800960151066763 -0.032163860090006352 0 0.013685789646897284 -0.032075829981406886 0 0.01375499779815364 -0.032245102650756439 0 0.013942929950027088 -0.032263300396068645 0 0.013800960151066763 -0.032163860090006352 0 0.013942929950027088 -0.032263300396068645 0 0.013800960151066763 -0.032163860090006352 0 0.01402515646909247 -0.032419754219066156 0 0.013800960151066763 -0.032163860090006352 0 0.013771340854221013 -0.031968690738132771 0 0.01402515646909247 -0.032419754219066156 0 0.013800960151066763 -0.032163860090006352 0 0.013771340854221013 -0.031968690738132771 0 0.013685789646897284 -0.032075829981406886 0 0.01375499779815364 -0.032245102650756439 0 0.013639929243529554 -0.032130141834854603 0 0.013723777411175152 -0.032929936783074723 0 0.013771340854221013 -0.031968690738132771 0 0.013685789646897284 -0.032075829981406886 0 0.013598705635968518 -0.031697878967114811 0 0.013598705635968518 -0.031697878967114811 0 0.013639929243529554 -0.032130141834854603 0 0.013767776879142228 -0.03157005443110654 0 0.013685789646897284 -0.032075829981406886 0 0.013598705635968518 -0.031697878967114811 0 0.013639929243529554 -0.032130141834854603 0 0.01375499779815364 -0.032245102650756439 0 0.013685789646897284 -0.032075829981406886 0 0.013639929243529554 -0.032130141834854603 0 0.015177753668568597 -0.032340628953672665 0 0.014807329078795813 -0.032147122410463365 0 0.014741867391063658 -0.032433395393940849 0 0.015177753668568597 -0.032340628953672665 0 0.014741867391063658 -0.032433395393940849 0 0.015104227617928808 -0.032607087742513911 0 0.015378440079127108 -0.032045286467709676 0 0.015177753668568597 -0.032340628953672665 0 0.014807329078795813 -0.032147122410463365 0 0.014807329078795813 -0.032147122410463365 0 0.014741867391063658 -0.032433395393940849 0 0.014269255598241786 -0.032340796810550215 0 0.014493333068169179 -0.031915572496995823 0 0.014807329078795813 -0.032147122410463365 0 0.014269255598241786 -0.032340796810550215 0 0.014493333068169179 -0.031915572496995823 0 0.013989446949895719 -0.03205151232113209 0 0.014269255598241786 -0.032340796810550215 0 0.013771340854221013 -0.031968690738132771 0 0.01402515646909247 -0.032419754219066156 0 0.014336938777345962 -0.03304419236948597 0 0.014269255598241786 -0.032340796810550215 0 0.01402515646909247 -0.032419754219066156 0 0.014306947416709534 -0.032640008515691758 0 0.013942929950027088 -0.032263300396068645 0 0.014269255598241786 -0.032340796810550215 0 0.01402515646909247 -0.032419754219066156 0 0.01402515646909247 -0.032419754219066156 0 0.014306947416709534 -0.032640008515691758 0 0.014336938777345962 -0.03304419236948597 0 0.014741867391063658 -0.032433395393940849 0 0.014269255598241786 -0.032340796810550215 0 0.014504228271630197 -0.032587175226335904 0 0.014269255598241786 -0.032340796810550215 0 0.014306947416709534 -0.032640008515691758 0 0.014504228271630197 -0.032587175226335904 0 0.015531658340835105 -0.032959252142957203 0 0.014849139729069311 -0.032895152120871837 0 0.014336938777345962 -0.03304419236948597 0 0.014741867391063658 -0.032433395393940849 0 0.014504228271630197 -0.032587175226335904 0 0.014804809892758963 -0.032674567680612839 0 0.014504228271630197 -0.032587175226335904 0 0.014547185130306629 -0.032763866872104419 0 0.014804809892758963 -0.032674567680612839 0 0.014306947416709534 -0.032640008515691758 0 0.014504228271630197 -0.032587175226335904 0 0.014547185130306629 -0.032763866872104419 0 0.014547185130306629 -0.032763866872104419 0 0.014849139729069311 -0.032895152120871837 0 0.014336938777345962 -0.03304419236948597 0 0.014306947416709534 -0.032640008515691758 0 0.014547185130306629 -0.032763866872104419 0 0.014336938777345962 -0.03304419236948597 0 0.014547185130306629 -0.032763866872104419 0 0.014849139729069311 -0.032895152120871837 0 0.014804809892758963 -0.032674567680612839 0 0.015121051500436168 -0.032782589659038186 0 0.014804809892758963 -0.032674567680612839 0 0.015104227617928808 -0.032607087742513911 0 0.014741867391063658 -0.032433395393940849 0 0.014804809892758963 -0.032674567680612839 0 0.015104227617928808 -0.032607087742513911 0 0.015121051500436168 -0.032782589659038186 0 0.014849139729069311 -0.032895152120871837 0 0.014804809892758963 -0.032674567680612839 0 0.016009232779475698 -0.03048172120308263 0 0.01592722631644929 -0.030845448880184218 0 0.013469414417276818 -0.030807096581880258 0 0.026161682999928021 -0.024068803478771775 0 0.025760484073749486 -0.024207306791569235 0 0.025265784551147068 -0.023895951768357074 0 0.026043761138109703 -0.024373798071431706 0 0.025760484073749486 -0.024207306791569235 0 0.02575882386810676 -0.024439297133958995 0 0.025760484073749486 -0.024207306791569235 0 0.025490505645443823 -0.024281876927630071 0 0.02575882386810676 -0.024439297133958995 0 0.025760484073749486 -0.024207306791569235 0 0.025490505645443823 -0.024281876927630071 0 0.025265784551147068 -0.023895951768357074 0 0.025490505645443823 -0.024281876927630071 0 0.025233007554616611 -0.024242026563867647 0 0.025265784551147068 -0.023895951768357074 0 0.025490505645443823 -0.024281876927630071 0 0.025233007554616611 -0.024242026563867647 0 0.025411845575045066 -0.024598177811349271 0 0.024999220625470331 -0.024212358640267703 0 0.025265784551147068 -0.023895951768357074 0 0.024510209367299619 -0.024268645619015816 0 0.025233007554616611 -0.024242026563867647 0 0.024999220625470331 -0.024212358640267703 0 0.024974411238014825 -0.02443227344954629 0 0.024999220625470331 -0.024212358640267703 0 0.024510209367299619 -0.024268645619015816 0 0.024974411238014825 -0.02443227344954629 0 0.025233007554616611 -0.024242026563867647 0 0.024999220625470331 -0.024212358640267703 0 0.025265784551147068 -0.023895951768357074 0 0.024510209367299619 -0.024268645619015816 0 0.024702772204078877 -0.02495227219580385 0 0.024974411238014825 -0.02443227344954629 0 0.024510209367299619 -0.024268645619015816 0 0.024702772204078877 -0.02495227219580385 0 0.023846721705480065 -0.02482186998308198 0 0.024702772204078877 -0.02495227219580385 0 0.024974411238014825 -0.02443227344954629 0 0.025411845575045066 -0.024598177811349271 0 0.025233007554616611 -0.024242026563867647 0 0.024974411238014825 -0.02443227344954629 0 0.025411845575045066 -0.024598177811349271 0 0.025490505645443823 -0.024281876927630071 0 0.025411845575045066 -0.024598177811349271 0 0.02575882386810676 -0.024439297133958995 0 0.024702772204078877 -0.02495227219580385 0 0.025411845575045066 -0.024598177811349271 0 0.025556448485840742 -0.025228563861178239 0 0.026012908367853055 -0.024726331902243201 0 0.025411845575045066 -0.024598177811349271 0 0.025556448485840742 -0.025228563861178239 0 0.026012908367853055 -0.024726331902243201 0 0.025556448485840742 -0.025228563861178239 0 0.026196488388890188 -0.025239383041070089 0 0.026043761138109703 -0.024373798071431706 0 0.026012908367853055 -0.024726331902243201 0 0.02575882386810676 -0.024439297133958995 0 0.026012908367853055 -0.024726331902243201 0 0.025411845575045066 -0.024598177811349271 0 0.02575882386810676 -0.024439297133958995 0 0.013771340854221013 -0.031968690738132771 0 0.014336938777345962 -0.03304419236948597 0 0.013469414417276818 -0.030807096581880258 0 0.020553322983508066 -0.027394916052007792 0 0.017957837062270856 -0.027623198239244317 0 0.025265784551147068 -0.023895951768357074 0 0.024510209367299619 -0.024268645619015816 0 0.022019393333643188 -0.024615436860725759 0 0.024510209367299619 -0.024268645619015816 0 0.022708904348214792 -0.024658415896508832 0 0.022019393333643188 -0.024615436860725759 0 0.01592722631644929 -0.030845448880184218 0 0.013469414417276818 -0.030807096581880258 0 0.01331849203247195 -0.030706381533529319 0 0.015437743493900025 -0.03158491925951807 0 0.013650691416219152 -0.031058570333763726 0 0.013771340854221013 -0.031968690738132771 0 0.013598705635968518 -0.031697878967114811 0 0.013469414417276818 -0.030807096581880258 0 0.013598705635968518 -0.031697878967114811 0 0.013469414417276818 -0.030807096581880258 0 0.013767776879142228 -0.03157005443110654 0 0.023846721705480065 -0.02482186998308198 0 0.023336930108057201 -0.02503213009921991 0 0.022708904348214792 -0.024658415896508832 0 0.024510209367299619 -0.024268645619015816 0 0.023846721705480065 -0.02482186998308198 0 0.022708904348214792 -0.024658415896508832 0 0.024702772204078877 -0.02495227219580385 0 0.023846721705480065 -0.02482186998308198 0 0.023911749011201178 -0.02515280511935437 0 0.023846721705480065 -0.02482186998308198 0 0.023911749011201178 -0.02515280511935437 0 0.023336930108057201 -0.02503213009921991 0 0.023911749011201178 -0.02515280511935437 0 0.023336930108057201 -0.02503213009921991 0 0.023249820388565691 -0.025495798079091119 0 0.023336930108057201 -0.02503213009921991 0 0.022557125314908024 -0.025343415732036256 0 0.023249820388565691 -0.025495798079091119 0 0.023336930108057201 -0.02503213009921991 0 0.022708904348214792 -0.024658415896508832 0 0.022557125314908024 -0.025343415732036256 0 0.022708904348214792 -0.024658415896508832 0 0.022557125314908024 -0.025343415732036256 0 0.022019393333643188 -0.024615436860725759 0 0.022557125314908024 -0.025343415732036256 0 0.02126867539189194 -0.025905441269957055 0 0.022019393333643188 -0.024615436860725759 0 0.017957837062270856 -0.027623198239244317 0 0.019120960205565016 -0.027331510063177467 0 0.01331849203247195 -0.030706381533529319 0 0.015998617783959539 -0.030031362627698361 0 0.019009963656028063 -0.027343593594060817 0 0.02126867539189194 -0.025905441269957055 0 0.022019393333643188 -0.024615436860725759 0 0.019009963656028063 -0.027343593594060817 0 0.02126867539189194 -0.025905441269957055 0 0.019009963656028063 -0.027343593594060817 0 0.020773503183027262 -0.026574889527033504 0 0.015998617783959539 -0.030031362627698361 0 0.01452383191732789 -0.030745778070499604 0 0.013723777411175152 -0.032929936783074723 0 0.01331849203247195 -0.030706381533529319 0 0.015998617783959539 -0.030031362627698361 0 0.01452383191732789 -0.030745778070499604 0 0.01331849203247195 -0.030706381533529319 0 0.013755211684261677 -0.030907492177240831 0 0.01452383191732789 -0.030745778070499604 0 0.013469414417276818 -0.030807096581880258 0 0.01331849203247195 -0.030706381533529319 0 0.013755211684261677 -0.030907492177240831 0 0.013755211684261677 -0.030907492177240831 0 0.01452383191732789 -0.030745778070499604 0 0.013767776879142228 -0.03157005443110654 0 0.013469414417276818 -0.030807096581880258 0 0.013755211684261677 -0.030907492177240831 0 0.013767776879142228 -0.03157005443110654 0 0.01452383191732789 -0.030745778070499604 0 0.013767776879142228 -0.03157005443110654 0 0.013723777411175152 -0.032929936783074723 0 0.013639929243529554 -0.032130141834854603 0 0.013767776879142228 -0.03157005443110654 0 0.013723777411175152 -0.032929936783074723 0 0.012477996703349781 -0.032329349805331788 0 0.013723777411175152 -0.032929936783074723 0 0.011854811991218543 -0.033259703192178705 0 0.012477996703349781 -0.032329349805331788 0 0.013548354983579857 -0.032050418439567185 0 0.013723777411175152 -0.032929936783074723 0 0.013669159647690471 -0.032849755042343887 0 0.015247163066227028 -0.031801116573033861 0 0.013723777411175152 -0.032929936783074723 0 0.011854811991218543 -0.033259703192178705 0 0.010555806583209914 -0.034935938921468651 0 0.0097797188931947662 -0.033772016155099727 0 0.010837260065048208 -0.032819106805116426 0 0.010823800646850242 -0.033661987627052248 0 0.010837260065048208 -0.032819106805116426 0 0.011854811991218543 -0.033259703192178705 0 0.010823800646850242 -0.033661987627052248 0 0.012477996703349781 -0.032329349805331788 0 0.010837260065048208 -0.032819106805116426 0 0.011854811991218543 -0.033259703192178705 0 0.0097797188931947662 -0.033772016155099727 0 0.010823800646850242 -0.033661987627052248 0 0.010555806583209914 -0.034935938921468651 0 0.011854811991218543 -0.033259703192178705 0 0.010823800646850242 -0.033661987627052248 0 0.010555806583209914 -0.034935938921468651 0 0.015998617783959539 -0.030031362627698361 0 0.013723777411175152 -0.032929936783074723 0 0.019515925495815687 -0.028498197005822658 0 0.015998617783959539 -0.030031362627698361 0 0.019515925495815687 -0.028498197005822658 0 0.019009963656028063 -0.027343593594060817 0 0.020143895639801183 -0.026964518578312908 0 0.019246255733728075 -0.027113786187743356 0 0.021743051754276019 -0.027571329358413554 0 0.019009963656028063 -0.027343593594060817 0 0.020143895639801183 -0.026964518578312908 0 0.019246255733728075 -0.027113786187743356 0 0.019009963656028063 -0.027343593594060817 0 0.020143895639801183 -0.026964518578312908 0 0.020773503183027262 -0.026574889527033504 0 0.020551103214076129 -0.025679513855041625 0 0.020062033418422592 -0.027223293889176513 0 0.021568878341505737 -0.027311371803021903 0 0.020551103214076129 -0.025679513855041625 0 0.021568878341505737 -0.027311371803021903 0 0.02325459738750572 -0.026319596368443981 0 0.020062033418422592 -0.027223293889176513 0 0.021568878341505737 -0.027311371803021903 0 0.019702939338737239 -0.028619374012367405 0 0.022921459107480942 -0.027415980812126824 0 0.02325459738750572 -0.026319596368443981 0 0.024025303107564591 -0.02749633018233168 0 0.021568878341505737 -0.027311371803021903 0 0.022921459107480942 -0.027415980812126824 0 0.022733774501276453 -0.028526297373170844 0 0.021568878341505737 -0.027311371803021903 0 0.022921459107480942 -0.027415980812126824 0 0.02325459738750572 -0.026319596368443981 0 0.021079605679067918 -0.026032074057608302 0 0.022258371334209444 -0.026873920136580437 0 0.021743051754276019 -0.027571329358413554 0 0.020773503183027262 -0.026574889527033504 0 0.022302956202699842 -0.026171068864317686 0 0.020143895639801183 -0.026964518578312908 0 0.021743051754276019 -0.027571329358413554 0 0.020773503183027262 -0.026574889527033504 0 0.022557125314908024 -0.025343415732036256 0 0.02126867539189194 -0.025905441269957055 0 0.022302956202699842 -0.026171068864317686 0 0.02126867539189194 -0.025905441269957055 0 0.020773503183027262 -0.026574889527033504 0 0.022302956202699842 -0.026171068864317686 0 0.022557125314908024 -0.025343415732036256 0 0.022302956202699842 -0.026171068864317686 0 0.023249820388565691 -0.025495798079091119 0 0.021743051754276019 -0.027571329358413554 0 0.022302956202699842 -0.026171068864317686 0 0.023960159242013154 -0.025843942562182708 0 0.022302956202699842 -0.026171068864317686 0 0.023249820388565691 -0.025495798079091119 0 0.023960159242013154 -0.025843942562182708 0 0.021743051754276019 -0.027571329358413554 0 0.023960159242013154 -0.025843942562182708 0 0.025225873325751276 -0.026827965834160545 0 0.024702772204078877 -0.02495227219580385 0 0.023911749011201178 -0.02515280511935437 0 0.023960159242013154 -0.025843942562182708 0 0.023911749011201178 -0.02515280511935437 0 0.023249820388565691 -0.025495798079091119 0 0.023960159242013154 -0.025843942562182708 0 0.023960159242013154 -0.025843942562182708 0 0.025092447969770809 -0.025789120704272035 0 0.025225873325751276 -0.026827965834160545 0 0.025556448485840742 -0.025228563861178239 0 0.025092447969770809 -0.025789120704272035 0 0.025967256553391257 -0.02590490449354926 0 0.025556448485840742 -0.025228563861178239 0 0.025967256553391257 -0.02590490449354926 0 0.026196488388890188 -0.025239383041070089 0 0.024702772204078877 -0.02495227219580385 0 0.025556448485840742 -0.025228563861178239 0 0.025092447969770809 -0.025789120704272035 0 0.024702772204078877 -0.02495227219580385 0 0.023960159242013154 -0.025843942562182708 0 0.025092447969770809 -0.025789120704272035 0 0.025092447969770809 -0.025789120704272035 0 0.025967256553391257 -0.02590490449354926 0 0.025225873325751276 -0.026827965834160545 0 0.025225873325751276 -0.026827965834160545 0 0.026084383806163385 -0.027222687377129524 0 0.026989883953825521 -0.026356219719026068 0 0.025967256553391257 -0.02590490449354926 0 0.025225873325751276 -0.026827965834160545 0 0.026989883953825521 -0.026356219719026068 0 0.025225873325751276 -0.026827965834160545 0 0.024025303107564591 -0.02749633018233168 0 0.02500426333006454 -0.028159971090325316 0 0.02325459738750572 -0.026319596368443981 0 0.025225873325751276 -0.026827965834160545 0 0.024025303107564591 -0.02749633018233168 0 0.022258371334209444 -0.026873920136580437 0 0.025040125790395142 -0.026930566955059451 0 0.026734498064098538 -0.024457459477381122 0 0.025492678576572288 -0.02480013253813847 0 0.025185009264773576 -0.024095072470028893 0 0.024025303107564591 -0.02749633018233168 0 0.02500426333006454 -0.028159971090325316 0 0.022733774501276453 -0.028526297373170844 0 0.025820307283058619 -0.026287755553923323 0 0.023897523849985482 -0.026473918298395297 0 0.025225873325751276 -0.026827965834160545 0 0.026084383806163385 -0.027222687377129524 0 0.02500426333006454 -0.028159971090325316 0 0.025820307283058619 -0.026287755553923323 0 0.027497820878515152 -0.02622421583652949 0 0.026084383806163385 -0.027222687377129524 0 0.02500426333006454 -0.028159971090325316 0 0.027088217542160085 -0.027523898436364796 0 0.026797291003586979 -0.025213172561600276 0 0.028094717516845336 -0.025028908886539362 0 0.027315111622854937 -0.025730540940771884 0 0.026797291003586979 -0.025213172561600276 0 0.026220267795118504 -0.025734419720218553 0 0.027315111622854937 -0.025730540940771884 0 0.026734498064098538 -0.024457459477381122 0 0.026797291003586979 -0.025213172561600276 0 0.028094717516845336 -0.025028908886539362 0 0.026734498064098538 -0.024457459477381122 0 0.026043628944560689 -0.025139814416922347 0 0.025492678576572288 -0.02480013253813847 0 0.026734498064098538 -0.024457459477381122 0 0.026797291003586979 -0.025213172561600276 0 0.026043628944560689 -0.025139814416922347 0 0.026797291003586979 -0.025213172561600276 0 0.026043628944560689 -0.025139814416922347 0 0.026220267795118504 -0.025734419720218553 0 0.026043628944560689 -0.025139814416922347 0 0.025496344167259172 -0.025530665310021891 0 0.026220267795118504 -0.025734419720218553 0 0.025496344167259172 -0.025530665310021891 0 0.025492678576572288 -0.02480013253813847 0 0.024739905975637848 -0.025242073296979403 0 0.026043628944560689 -0.025139814416922347 0 0.025496344167259172 -0.025530665310021891 0 0.025492678576572288 -0.02480013253813847 0 0.025492678576572288 -0.02480013253813847 0 0.024739905975637848 -0.025242073296979403 0 0.024799346391826089 -0.024624390094499848 0 0.024739905975637848 -0.025242073296979403 0 0.024025034788652404 -0.025504566697326089 0 0.024218261925905194 -0.024796587734235428 0 0.024025034788652404 -0.025504566697326089 0 0.024218261925905194 -0.024796587734235428 0 0.023217448436266233 -0.024549394714725725 0 0.024739905975637848 -0.025242073296979403 0 0.024218261925905194 -0.024796587734235428 0 0.024799346391826089 -0.024624390094499848 0 0.022670952446596289 -0.027236031010903734 0 0.020646491825597402 -0.026945860906381042 0 0.024218261925905194 -0.024796587734235428 0 0.024529602791236994 -0.024001173792078553 0 0.024799346391826089 -0.024624390094499848 0 0.021267462579814496 -0.028813151853048637 0 0.018990811439056288 -0.029824909483916039 0 0.019702939338737239 -0.028619374012367405 0 0.024218261925905194 -0.024796587734235428 0 0.024529602791236994 -0.024001173792078553 0 0.023217448436266233 -0.024549394714725725 0 0.022670952446596289 -0.027236031010903734 0 0.019668624646587383 -0.028368068063559296 0 0.021568878341505737 -0.027311371803021903 0 0.021545136628280448 -0.028607686053645557 0 0.019702939338737239 -0.028619374012367405 0 0.022670952446596289 -0.027236031010903734 0 0.023897523849985482 -0.026473918298395297 0 0.021568878341505737 -0.027311371803021903 0 0.021545136628280448 -0.028607686053645557 0 0.022733774501276453 -0.028526297373170844 0 0.022921459107480942 -0.027415980812126824 0 0.024025303107564591 -0.02749633018233168 0 0.022733774501276453 -0.028526297373170844 0 0.024529602791236994 -0.024001173792078553 0 0.025185009264773576 -0.024095072470028893 0 0.024799346391826089 -0.024624390094499848 0 0.025492678576572288 -0.02480013253813847 0 0.025185009264773576 -0.024095072470028893 0 0.024799346391826089 -0.024624390094499848 0 0.029354157483384821 -0.026275274534651821 0 0.029296865024818805 -0.025968530605725033 0 0.029204647708912401 -0.025663227235983233 0 0.028918200731783587 -0.025987575532054986 0 0.029313325938089042 -0.025959642201174769 0 0.028988458380129208 -0.024872962093318036 0 0.029204647708912401 -0.025663227235983233 0 0.028456458182800546 -0.025277363935801288 0 0.029380565813625008 -0.025885331003486948 0 0.029354157483384821 -0.026275274534651821 0 0.029615018915193837 -0.02747861705140375 0 0.029497490412975187 -0.026856405979237909 0 0.029012260971288471 -0.027230774463104287 0 0.029204647708912401 -0.025663227235983233 0 0.028456458182800546 -0.025277363935801288 0 0.028356087768896657 -0.025866210659031934 0 0.029204647708912401 -0.025663227235983233 0 0.028356087768896657 -0.025866210659031934 0 0.028918200731783587 -0.025987575532054986 0 0.028356087768896657 -0.025866210659031934 0 0.028070248996357679 -0.026436564177526271 0 0.028918200731783587 -0.025987575532054986 0 0.028356087768896657 -0.025866210659031934 0 0.026989883953825521 -0.026356219719026068 0 0.028070248996357679 -0.026436564177526271 0 0.028356087768896657 -0.025866210659031934 0 0.027646797014607687 -0.02548656989542139 0 0.026989883953825521 -0.026356219719026068 0 0.028456458182800546 -0.025277363935801288 0 0.028356087768896657 -0.025866210659031934 0 0.027646797014607687 -0.02548656989542139 0 0.027897986882495084 -0.024911639702153727 0 0.028456458182800546 -0.025277363935801288 0 0.027646797014607687 -0.02548656989542139 0 0.027299361710153187 -0.024787600590130573 0 0.027646797014607687 -0.02548656989542139 0 0.02677000114959574 -0.025453577689926773 0 0.027299361710153187 -0.024787600590130573 0 0.027897986882495084 -0.024911639702153727 0 0.027646797014607687 -0.02548656989542139 0 0.025967256553391257 -0.02590490449354926 0 0.02677000114959574 -0.025453577689926773 0 0.026989883953825521 -0.026356219719026068 0 0.027646797014607687 -0.02548656989542139 0 0.02677000114959574 -0.025453577689926773 0 0.026989883953825521 -0.026356219719026068 0 0.026612242076761616 -0.024852036977333406 0 0.027299361710153187 -0.024787600590130573 0 0.02677000114959574 -0.025453577689926773 0 0.025967256553391257 -0.02590490449354926 0 0.02677000114959574 -0.025453577689926773 0 0.026196488388890188 -0.025239383041070089 0 0.026612242076761616 -0.024852036977333406 0 0.02677000114959574 -0.025453577689926773 0 0.026196488388890188 -0.025239383041070089 0 0.026989883953825521 -0.026356219719026068 0 0.027088217542160085 -0.027523898436364796 0 0.028070248996357679 -0.026436564177526271 0 0.026084383806163385 -0.027222687377129524 0 0.026989883953825521 -0.026356219719026068 0 0.027088217542160085 -0.027523898436364796 0 0.028094717516845336 -0.025028908886539362 0 0.028458027215832255 -0.025780029323510176 0 0.027315111622854937 -0.025730540940771884 0 0.028094717516845336 -0.025028908886539362 0 0.028809844819380735 -0.025880226283113268 0 0.028458027215832255 -0.025780029323510176 0 0.028809844819380735 -0.025880226283113268 0 0.029053562512772368 -0.025639167115160767 0 0.028458027215832255 -0.025780029323510176 0 0.027497820878515152 -0.02622421583652949 0 0.028587097955369001 -0.02596723807771429 0 0.027088217542160085 -0.027523898436364796 0 0.028070248996357679 -0.026436564177526271 0 0.028809844819380735 -0.025880226283113268 0 0.028918200731783587 -0.025987575532054986 0 0.028809844819380735 -0.025880226283113268 0 0.02927067529061441 -0.025476191192510267 0 0.028070248996357679 -0.026436564177526271 0 0.028918200731783587 -0.025987575532054986 0 0.028809844819380735 -0.025880226283113268 0 0.028809844819380735 -0.025880226283113268 0 0.02927067529061441 -0.025476191192510267 0 0.029053562512772368 -0.025639167115160767 0 0.02927067529061441 -0.025476191192510267 0 0.029313325938089042 -0.025959642201174769 0 0.029534497503401515 -0.024769059387147723 0 0.028918200731783587 -0.025987575532054986 0 0.02927067529061441 -0.025476191192510267 0 0.029313325938089042 -0.025959642201174769 0 0.02927067529061441 -0.025476191192510267 0 0.029534038235282251 -0.025231709470778445 0 0.029534497503401515 -0.024769059387147723 0 0.02927067529061441 -0.025476191192510267 0 0.029534038235282251 -0.025231709470778445 0 0.029053562512772368 -0.025639167115160767 0 0.029534038235282251 -0.025231709470778445 0 0.029053562512772368 -0.025639167115160767 0 0.028869540739866618 -0.026480346893310958 0 0.029534038235282251 -0.025231709470778445 0 0.029413576570703277 -0.025166878348125869 0 0.029576618663056779 -0.02528879396127609 0 0.029496130107789276 -0.0253227248485632 0 0.029070505683250213 -0.025832380029887254 0 0.028869540739866618 -0.026480346893310958 0 0.028458027215832255 -0.025780029323510176 0 0.027679066471387234 -0.026483220373635569 0 0.029053562512772368 -0.025639167115160767 0 0.028869540739866618 -0.026480346893310958 0 0.028458027215832255 -0.025780029323510176 0 0.028458027215832255 -0.025780029323510176 0 0.027679066471387234 -0.026483220373635569 0 0.027315111622854937 -0.025730540940771884 0 0.028869540739866618 -0.026480346893310958 0 0.027679066471387234 -0.026483220373635569 0 0.027736328172792465 -0.027405667876302959 0 0.029100615391520212 -0.02514633767225679 0 0.029113304932234473 -0.025340689047304171 0 0.029265680909766698 -0.025280123486690242 0 0.029113304932234473 -0.025340689047304171 0 0.029403412457749495 -0.025416827460219785 0 0.029265680909766698 -0.025280123486690242 0 0.02992350504385435 -0.018919473658119815 0 0.030664395500259657 -0.019122733029627106 0 0.029070505683250213 -0.025832380029887254 0 0.028482998062766964 -0.026133955963738353 0 0.029413576570703277 -0.025166878348125869 0 0.029403412457749495 -0.025416827460219785 0 0.029265680909766698 -0.025280123486690242 0 0.029413576570703277 -0.025166878348125869 0 0.029100615391520212 -0.02514633767225679 0 0.029265680909766698 -0.025280123486690242 0 0.029413576570703277 -0.025166878348125869 0 0.029403412457749495 -0.025416827460219785 0 0.029576618663056779 -0.02528879396127609 0 0.029403412457749495 -0.025416827460219785 0 0.029752918816629219 -0.025573083391998201 0 0.029576618663056779 -0.02528879396127609 0 0.030664395500259657 -0.019122733029627106 0 0.031347789489570788 -0.019413924584631852 0 0.029752918816629219 -0.025573083391998201 0 0.029576618663056779 -0.02528879396127609 0 0.030054379135502331 -0.025270728844618322 0 0.029534038235282251 -0.025231709470778445 0 0.029576618663056779 -0.02528879396127609 0 0.030054379135502331 -0.025270728844618322 0 0.025116099004152306 -0.026691844986256066 0 0.025698236241353527 -0.026188104553606126 0 0.025896626062730448 -0.02686128935459127 0 0.025116099004152306 -0.026691844986256066 0 0.025896626062730448 -0.02686128935459127 0 0.025337352353475621 -0.027452381499321901 0 0.025116099004152306 -0.026691844986256066 0 0.024341684874862043 -0.027265018817732384 0 0.025337352353475621 -0.027452381499321901 0 0.024341684874862043 -0.027265018817732384 0 0.024338899755757148 -0.026338039081857039 0 0.02326194292550678 -0.026185744988726865 0 0.025116099004152306 -0.026691844986256066 0 0.024341684874862043 -0.027265018817732384 0 0.024338899755757148 -0.026338039081857039 0 0.024025034788652404 -0.025504566697326089 0 0.024338899755757148 -0.026338039081857039 0 0.02326194292550678 -0.026185744988726865 0 0.024739905975637848 -0.025242073296979403 0 0.024025034788652404 -0.025504566697326089 0 0.024873901484726554 -0.025918609195150693 0 0.024025034788652404 -0.025504566697326089 0 0.024338899755757148 -0.026338039081857039 0 0.024873901484726554 -0.025918609195150693 0 0.025496344167259172 -0.025530665310021891 0 0.024739905975637848 -0.025242073296979403 0 0.024873901484726554 -0.025918609195150693 0 0.025116099004152306 -0.026691844986256066 0 0.024338899755757148 -0.026338039081857039 0 0.024873901484726554 -0.025918609195150693 0 0.025116099004152306 -0.026691844986256066 0 0.024873901484726554 -0.025918609195150693 0 0.025698236241353527 -0.026188104553606126 0 0.025496344167259172 -0.025530665310021891 0 0.024873901484726554 -0.025918609195150693 0 0.025698236241353527 -0.026188104553606126 0 0.025496344167259172 -0.025530665310021891 0 0.025698236241353527 -0.026188104553606126 0 0.026220267795118504 -0.025734419720218553 0 0.025698236241353527 -0.026188104553606126 0 0.026220267795118504 -0.025734419720218553 0 0.026604866111025024 -0.02635100687388707 0 0.027679066471387234 -0.026483220373635569 0 0.026604866111025024 -0.02635100687388707 0 0.027315111622854937 -0.025730540940771884 0 0.026220267795118504 -0.025734419720218553 0 0.026604866111025024 -0.02635100687388707 0 0.027315111622854937 -0.025730540940771884 0 0.027679066471387234 -0.026483220373635569 0 0.027736328172792465 -0.027405667876302959 0 0.026679976838303348 -0.027118233419676532 0 0.027679066471387234 -0.026483220373635569 0 0.026604866111025024 -0.02635100687388707 0 0.026679976838303348 -0.027118233419676532 0 0.025698236241353527 -0.026188104553606126 0 0.026604866111025024 -0.02635100687388707 0 0.025896626062730448 -0.02686128935459127 0 0.026604866111025024 -0.02635100687388707 0 0.026679976838303348 -0.027118233419676532 0 0.025896626062730448 -0.02686128935459127 0 0.026679976838303348 -0.027118233419676532 0 0.025896626062730448 -0.02686128935459127 0 0.026003310645175744 -0.02751428165135664 0 0.025896626062730448 -0.02686128935459127 0 0.026003310645175744 -0.02751428165135664 0 0.025337352353475621 -0.027452381499321901 0 0.026679976838303348 -0.027118233419676532 0 0.026003310645175744 -0.02751428165135664 0 0.026230375108952556 -0.028237666297840962 0 0.026230375108952556 -0.028237666297840962 0 0.025699724742717846 -0.027850398588914412 0 0.025234300878664538 -0.028206042650313626 0 0.026003310645175744 -0.02751428165135664 0 0.026230375108952556 -0.028237666297840962 0 0.025699724742717846 -0.027850398588914412 0 0.027736328172792465 -0.027405667876302959 0 0.026679976838303348 -0.027118233419676532 0 0.026230375108952556 -0.028237666297840962 0 0.029100615391520212 -0.02514633767225679 0 0.028712802041856559 -0.025127342395879704 0 0.028917224605362026 -0.025226269031499677 0 0.028482998062766964 -0.026133955963738353 0 0.027157433329752775 -0.027663445175597441 0 0.02992350504385435 -0.018919473658119815 0 0.02938631985318885 -0.018566076111747265 0 0.029100615391520212 -0.02514633767225679 0 0.029113304932234473 -0.025340689047304171 0 0.028917224605362026 -0.025226269031499677 0 0.030880537193989355 -0.012447490239758099 0 0.029524641229192846 -0.012204829355986258 0 0.030139596313443383 -0.012602168504975928 0 0.029113304932234473 -0.025340689047304171 0 0.028917224605362026 -0.025226269031499677 0 0.028718802072029627 -0.025261964119520686 0 0.028712802041856559 -0.025127342395879704 0 0.028917224605362026 -0.025226269031499677 0 0.028718802072029627 -0.025261964119520686 0 0.029524641229192846 -0.012204829355986258 0 0.02784092627574054 -0.012159213222017922 0 0.028546618380885323 -0.013022510997835472 0 0.027157433329752775 -0.027663445175597441 0 0.026820693225669247 -0.020080421094388713 0 0.028712802041856559 -0.025127342395879704 0 0.028718802072029627 -0.025261964119520686 0 0.028230439304855103 -0.025118712818920929 0 0.02938631985318885 -0.018566076111747265 0 0.026820693225669247 -0.020080421094388713 0 0.026230375108952556 -0.028237666297840962 0 0.025234300878664538 -0.028206042650313626 0 0.024524082705857424 -0.028887072464284163 0 0.025234300878664538 -0.028206042650313626 0 0.024455455917267138 -0.028304180784798884 0 0.024524082705857424 -0.028887072464284163 0 0.025234300878664538 -0.028206042650313626 0 0.024707450641510153 -0.027875971811156884 0 0.024455455917267138 -0.028304180784798884 0 0.025234300878664538 -0.028206042650313626 0 0.024707450641510153 -0.027875971811156884 0 0.025337352353475621 -0.027452381499321901 0 0.024341684874862043 -0.027265018817732384 0 0.024707450641510153 -0.027875971811156884 0 0.025337352353475621 -0.027452381499321901 0 0.025699724742717846 -0.027850398588914412 0 0.025234300878664538 -0.028206042650313626 0 0.025337352353475621 -0.027452381499321901 0 0.026003310645175744 -0.02751428165135664 0 0.025699724742717846 -0.027850398588914412 0 0.025337352353475621 -0.027452381499321901 0 0.024341684874862043 -0.027265018817732384 0 0.024085911937348055 -0.028073356339978518 0 0.023056997759326795 -0.028233685455091161 0 0.024341684874862043 -0.027265018817732384 0 0.024707450641510153 -0.027875971811156884 0 0.024085911937348055 -0.028073356339978518 0 0.024707450641510153 -0.027875971811156884 0 0.024455455917267138 -0.028304180784798884 0 0.024085911937348055 -0.028073356339978518 0 0.024455455917267138 -0.028304180784798884 0 0.024085911937348055 -0.028073356339978518 0 0.023684871122570901 -0.028332517743625819 0 0.026820693225669247 -0.020080421094388713 0 0.024441147795301921 -0.021250449262385028 0 0.024524082705857424 -0.028887072464284163 0 0.023617055672014657 -0.028843618057634721 0 0.023684871122570901 -0.028332517743625819 0 0.024455455917267138 -0.028304180784798884 0 0.024524082705857424 -0.028887072464284163 0 0.023684871122570901 -0.028332517743625819 0 0.026820693225669247 -0.020080421094388713 0 0.025346363447193473 -0.013037849244053181 0 0.024441147795301921 -0.021250449262385028 0 0.021026205650755844 -0.026207530483722392 0 0.026576273048544579 -0.01459771923804248 0 0.025031215501637137 -0.014473985483538397 0 0.023784957645613565 -0.015362885533271508 0 0.023617055672014657 -0.028843618057634721 0 0.023684871122570901 -0.028332517743625819 0 0.023203321950291022 -0.028093853339067089 0 0.024441147795301921 -0.021250449262385028 0 0.021172877535225509 -0.017515830825998353 0 0.025031215501637137 -0.014473985483538397 0 0.021920703437838193 -0.014227667871937404 0 0.023784957645613565 -0.015362885533271508 0 0.024108651808746981 -0.021716466887859911 0 0.021382649256566896 -0.020407608512497517 0 0.020492940962501024 -0.021594123931327668 0 0.020742477816646177 -0.028735916888036991 0 0.021284032524674854 -0.026710507479979342 0 0.018388491910917643 -0.027730526532541142 0 0.020742477816646177 -0.028735916888036991 0 0.02194579302320018 -0.028016049289900605 0 0.021284032524674854 -0.026710507479979342 0 0.021026205650755844 -0.026207530483722392 0 0.022931374643662263 -0.028160322683067236 0 0.020742477816646177 -0.028735916888036991 0 0.022633874488726915 -0.02840881465682597 0 0.02194579302320018 -0.028016049289900605 0 0.023617055672014657 -0.028843618057634721 0 0.022273304472950103 -0.028178544844681481 0 0.023203321950291022 -0.028093853339067089 0 0.023895831091211541 -0.028103638020315961 0 0.022931374643662263 -0.028160322683067236 0 0.024085911937348055 -0.028073356339978518 0 0.023684871122570901 -0.028332517743625819 0 0.023203321950291022 -0.028093853339067089 0 0.024085911937348055 -0.028073356339978518 0 0.023056997759326795 -0.028233685455091161 0 0.022633874488726915 -0.02840881465682597 0 0.023056997759326795 -0.028233685455091161 0 0.022633874488726915 -0.02840881465682597 0 0.02194579302320018 -0.028016049289900605 0 0.023056997759326795 -0.028233685455091161 0 0.02194579302320018 -0.028016049289900605 0 0.021284032524674854 -0.026710507479979342 0 0.02299867138766936 -0.028501601599249169 0 0.023220418099900976 -0.024885459941355974 0 0.023056997759326795 -0.028233685455091161 0 0.021284032524674854 -0.026710507479979342 0 0.022637298224521728 -0.025190920211371318 0 0.024341684874862043 -0.027265018817732384 0 0.023056997759326795 -0.028233685455091161 0 0.02326194292550678 -0.026185744988726865 0 0.021284032524674854 -0.026710507479979342 0 0.020974049651010518 -0.024510611656617727 0 0.018921608790195638 -0.025379103730405399 0 0.021284032524674854 -0.026710507479979342 0 0.020974049651010518 -0.024510611656617727 0 0.022637298224521728 -0.025190920211371318 0 0.020974049651010518 -0.024510611656617727 0 0.022637298224521728 -0.025190920211371318 0 0.022364401013622769 -0.022118534421003314 0 0.016617829820326221 -0.024333899549804371 0 0.018921608790195638 -0.025379103730405399 0 0.015995669421800199 -0.026701700088967828 0 0.020974049651010518 -0.024510611656617727 0 0.018921608790195638 -0.025379103730405399 0 0.01959034048484147 -0.023196965058955167 0 0.016617829820326221 -0.024333899549804371 0 0.018921608790195638 -0.025379103730405399 0 0.01959034048484147 -0.023196965058955167 0 0.021284032524674854 -0.026710507479979342 0 0.018921608790195638 -0.025379103730405399 0 0.018388491910917643 -0.027730526532541142 0 0.017585830283393375 -0.026377978142515277 0 0.015381650751816647 -0.024692137137290675 0 0.018921608790195638 -0.025379103730405399 0 0.018388491910917643 -0.027730526532541142 0 0.015995669421800199 -0.026701700088967828 0 0.01494294524932341 -0.02538716244409206 0 0.016664782879195265 -0.026530412094129145 0 0.013562898602785466 -0.026866717102018624 0 0.01494294524932341 -0.02538716244409206 0 0.016989559122453521 -0.024805121978466807 0 0.014193433473557109 -0.023515352245928153 0 0.01494294524932341 -0.02538716244409206 0 0.016989559122453521 -0.024805121978466807 0 0.016664782879195265 -0.026530412094129145 0 0.019837367750292541 -0.026158845101734912 0 0.016989559122453521 -0.024805121978466807 0 0.016664782879195265 -0.026530412094129145 0 0.021026205650755844 -0.026207530483722392 0 0.017585830283393375 -0.026377978142515277 0 0.021026205650755844 -0.026207530483722392 0 0.017695965737263303 -0.023361732198949187 0 0.021920703437838193 -0.014227667871937404 0 0.018667683585218416 -0.014015901304116481 0 0.020918783141675914 -0.016238110497997903 0 0.021172877535225509 -0.017515830825998353 0 0.017975769809505601 -0.017385439254139344 0 0.021382649256566896 -0.020407608512497517 0 0.018662911004735511 -0.020706241670639749 0 0.020492940962501024 -0.021594123931327668 0 0.018662911004735511 -0.020706241670639749 0 0.020492940962501024 -0.021594123931327668 0 0.016854920347633313 -0.021447102459645959 0 0.018662911004735511 -0.020706241670639749 0 0.016854920347633313 -0.021447102459645959 0 0.015939038658109465 -0.020998173970951942 0 0.017695965737263303 -0.023361732198949187 0 0.014412144249514354 -0.024269981483928262 0 0.016854920347633313 -0.021447102459645959 0 0.015939038658109465 -0.020998173970951942 0 0.013216175820665465 -0.021284527899375131 0 0.017975769809505601 -0.017385439254139344 0 0.013276231042965785 -0.02044006527090279 0 0.018667683585218416 -0.014015901304116481 0 0.015317685096381133 -0.013839284379118914 0 0.016050079672501345 -0.01594906670817996 0 0.014412144249514354 -0.024269981483928262 0 0.013276231042965785 -0.02044006527090279 0 0.013562898602785466 -0.026866717102018624 0 0.010523384131014037 -0.027188246687651362 0 0.011761593940325886 -0.024866481315409843 0 0.010523384131014037 -0.027188246687651362 0 0.011761593940325886 -0.024866481315409843 0 0.0086626049313253337 -0.025690417106800471 0 0.01494294524932341 -0.02538716244409206 0 0.011761593940325886 -0.024866481315409843 0 0.014193433473557109 -0.023515352245928153 0 0.01494294524932341 -0.02538716244409206 0 0.013562898602785466 -0.026866717102018624 0 0.011761593940325886 -0.024866481315409843 0 0.0038284047242992847 -0.011005388147587182 0 0.0051433704263164999 -0.01061418292640077 0 0.0052978994287386817 -0.010866712002801111 0 0.0061777867683767166 -0.019054818719706806 0 0.0084693829448684397 -0.012674242424930118 0 0.010523384131014037 -0.027188246687651362 0 0.0067985504419142183 -0.027039144237836266 0 0.0086626049313253337 -0.025690417106800471 0 0.015317685096381133 -0.013839284379118914 0 0.012444037290695783 -0.014131517966712349 0 0.013678141850845624 -0.016131947462565393 0 0.013210715496875764 -0.0182261475730147 0 0.0067388611561248323 -0.017968232819031097 0 0.0072835302072041651 -0.018884071532417813 0 0.013276231042965785 -0.02044006527090279 0 0.0061777867683767166 -0.019054818719706806 0 0.013276231042965785 -0.02044006527090279 0 0.0084693829448684397 -0.012674242424930118 0 0.011761593940325886 -0.024866481315409843 0 0.0086626049313253337 -0.025690417106800471 0 0.0084142936604621726 -0.023517458229275968 0 0.0054107418912200944 -0.024757238013295262 0 0.0067985504419142183 -0.027039144237836266 0 0.0086626049313253337 -0.025690417106800471 0 0.0054107418912200944 -0.024757238013295262 0 0.0086626049313253337 -0.025690417106800471 0 0.0084142936604621726 -0.023517458229275968 0 0.0035531909940181984 -0.027439351028208964 0 0.0061777867683767166 -0.019054818719706806 0 0.0035531909940181984 -0.027439351028208964 0 0.0067051852556213824 -0.029310652309476309 0 0.0042135578924434418 -0.035122473615144936 0 0.004883287603523241 -0.034886366126673646 0 0.004378349873943606 -0.034634522093555789 0 0.0067051852556213824 -0.029310652309476309 0 0.0092681756313664158 -0.029742082489090282 0 0.0047217196469194174 -0.035055453747318222 0 0.0092681756313664158 -0.029742082489090282 0 0.004883287603523241 -0.034886366126673646 0 0.0049273061441190051 -0.034325210320522187 0 0.0056308988845245609 -0.034568915541559136 0 0.004883287603523241 -0.034886366126673646 0 0.0049273061441190051 -0.034325210320522187 0 0.004378349873943606 -0.034634522093555789 0 0.0043360792687001876 -0.034144625159537215 0 0.0049273061441190051 -0.034325210320522187 0 0.004378349873943606 -0.034634522093555789 0 0.011761593940325886 -0.024866481315409843 0 0.014193433473557109 -0.023515352245928153 0 0.011446675373104204 -0.022256705576969436 0 0.015381650751816647 -0.024692137137290675 0 0.0092681756313664158 -0.029742082489090282 0 0.011761593940325886 -0.024866481315409843 0 0.0084142936604621726 -0.023517458229275968 0 0.011446675373104204 -0.022256705576969436 0 0.0051309890947584934 -0.034833231162273756 0 0.0064145386327366886 -0.036061951880214063 0 0.0059740701308556498 -0.034441310055731894 0 0.0064145386327366886 -0.036061951880214063 0 0.0073243869138934778 -0.034647315928843 0 0.0059740701308556498 -0.034441310055731894 0 0.016617829820326221 -0.024333899549804371 0 0.015995669421800199 -0.026701700088967828 0 0.013531275835163252 -0.025599285357104352 0 0.0094709100141273928 -0.035554890109166536 0 0.0064145386327366886 -0.036061951880214063 0 0.0073243869138934778 -0.034647315928843 0 0.013203038973023813 -0.030041766955710449 0 0.0092681756313664158 -0.029742082489090282 0 0.0094709100141273928 -0.035554890109166536 0 0.0073243869138934778 -0.034647315928843 0 0.0099369123096320205 -0.033010524089684024 0 0.0073243869138934778 -0.034647315928843 0 0.006236626902233736 -0.033213307470105612 0 0.0099369123096320205 -0.033010524089684024 0 0.0059740701308556498 -0.034441310055731894 0 0.006236626902233736 -0.033213307470105612 0 0.0053554476525466948 -0.033751198183246511 0 0.0073243869138934778 -0.034647315928843 0 0.0059740701308556498 -0.034441310055731894 0 0.006236626902233736 -0.033213307470105612 0 0.006236626902233736 -0.033213307470105612 0 0.0056562135059946986 -0.033281739871724232 0 0.0059035056179219522 -0.033490553003395741 0 0.0063117259010123192 -0.033051756297361942 0 0.0076227735019108178 -0.031886726968793175 0 0.006236626902233736 -0.033213307470105612 0 0.0099369123096320205 -0.033010524089684024 0 0.0091315291785161751 -0.030212212675955339 0 0.006236626902233736 -0.033213307470105612 0 0.0059035056179219522 -0.033490553003395741 0 0.005924071888546564 -0.033547367542125894 0 0.0043360792687001876 -0.034144625159537215 0 0.0051309890947584934 -0.034833231162273756 0 0.0053554476525466948 -0.033751198183246511 0 0.0043360792687001876 -0.034144625159537215 0 0.0053554476525466948 -0.033751198183246511 0 0.004731971874161591 -0.033393005836648677 0 0.0044674684612081451 -0.034125032602763936 0 0.0047217196469194174 -0.035055453747318222 0 0.0051309890947584934 -0.034833231162273756 0 0.0059740701308556498 -0.034441310055731894 0 0.0053554476525466948 -0.033751198183246511 0 0.006236626902233736 -0.033213307470105612 0 0.0053554476525466948 -0.033751198183246511 0 0.0056562135059946986 -0.033281739871724232 0 0.0053554476525466948 -0.033751198183246511 0 0.004731971874161591 -0.033393005836648677 0 0.0056562135059946986 -0.033281739871724232 0 0.0043459802866095115 -0.032897481211600077 0 0.0054342051837241506 -0.032959976900168102 0 0.0046308842976854735 -0.03237906006260588 0 0.0043459802866095115 -0.032897481211600077 0 0.004731971874161591 -0.033393005836648677 0 0.0054342051837241506 -0.032959976900168102 0 0.004731971874161591 -0.033393005836648677 0 0.0054342051837241506 -0.032959976900168102 0 0.0056562135059946986 -0.033281739871724232 0 0.0054342051837241506 -0.032959976900168102 0 0.0056562135059946986 -0.033281739871724232 0 0.0056398277192418146 -0.033282189231674225 0 0.0054248350617191127 -0.031212845581238626 0 0.005309879178119389 -0.031415554294594146 0 0.0054342051837241506 -0.032959976900168102 0 0.0056805640650236062 -0.033603529400330394 0 0.0054342051837241506 -0.032959976900168102 0 0.0055305640961922347 -0.033374855224471082 0 0.0041470456431976742 -0.032878663684031077 0 0.0057528922839883579 -0.03275405948824129 0 0.0054342051837241506 -0.032959976900168102 0 0.0056398277192418146 -0.033282189231674225 0 0.0055305640961922347 -0.033374855224471082 0 0.005309879178119389 -0.031415554294594146 0 0.0054342051837241506 -0.032959976900168102 0 0.0049600662497716842 -0.032080706177187814 0 0.0054342051837241506 -0.032959976900168102 0 0.0049600662497716842 -0.032080706177187814 0 0.0046308842976854735 -0.03237906006260588 0 0.0045396505499083733 -0.031607215319195511 0 0.0049600662497716842 -0.032080706177187814 0 0.0046308842976854735 -0.03237906006260588 0 0.0059035056179219522 -0.033490553003395741 0 0.0059598937586307814 -0.033816199046486584 0 0.005924071888546564 -0.033547367542125894 0 0.0056562135059946986 -0.033281739871724232 0 0.0056398277192418146 -0.033282189231674225 0 0.0059035056179219522 -0.033490553003395741 0 0.0059035056179219522 -0.033490553003395741 0 0.0056897638733876352 -0.033513216283322572 0 0.0058351041366457431 -0.033682947505874229 0 0.0056398277192418146 -0.033282189231674225 0 0.0055305640961922347 -0.033374855224471082 0 0.0056897638733876352 -0.033513216283322572 0 0.0056398277192418146 -0.033282189231674225 0 0.0059035056179219522 -0.033490553003395741 0 0.0056897638733876352 -0.033513216283322572 0 0.0055690253761679857 -0.03358032718416136 0 0.0055305640961922347 -0.033374855224471082 0 0.0056897638733876352 -0.033513216283322572 0 0.0056922628719767434 -0.033710882369455943 0 0.0055690253761679857 -0.03358032718416136 0 0.0056897638733876352 -0.033513216283322572 0 0.0056922628719767434 -0.033710882369455943 0 0.0056897638733876352 -0.033513216283322572 0 0.0058351041366457431 -0.033682947505874229 0 0.0059035056179219522 -0.033490553003395741 0 0.0058351041366457431 -0.033682947505874229 0 0.0059598937586307814 -0.033816199046486584 0 0.0056922628719767434 -0.033710882369455943 0 0.005889679600169874 -0.033939342146791361 0 0.0058351041366457431 -0.033682947505874229 0 0.005889679600169874 -0.033939342146791361 0 0.0058351041366457431 -0.033682947505874229 0 0.0059598937586307814 -0.033816199046486584 0 0.005889679600169874 -0.033939342146791361 0 0.0061544833348931615 -0.034303590729376186 0 0.0059598937586307814 -0.033816199046486584 0 0.0061544833348931615 -0.034303590729376186 0 0.0059598937586307814 -0.033816199046486584 0 0.0059626670889006686 -0.033844721153662154 0 0.012718328435425997 -0.027300838541114789 0 0.0091315291785161751 -0.030212212675955339 0 0.012157178436669341 -0.030703992510614508 0 0.0059598937586307814 -0.033816199046486584 0 0.0059626670889006686 -0.033844721153662154 0 0.005924071888546564 -0.033547367542125894 0 0.0091258538898540843 -0.030503881746746647 0 0.0076227735019108178 -0.031886726968793175 0 0.012718328435425997 -0.027300838541114789 0 0.015467961729149467 -0.030025216052089139 0 0.012157178436669341 -0.030703992510614508 0 0.0061544833348931615 -0.034303590729376186 0 0.0059626670889006686 -0.033844721153662154 0 0.0056930034244630197 -0.034079131515216902 0 0.0039146167929851811 -0.035376968343605299 0 0.012824643122003213 -0.030524695606047043 0 0.012718328435425997 -0.027300838541114789 0 0.016703199670872616 -0.024720999249954127 0 0.015844788593087602 -0.027262800204486643 0 0.0091258538898540843 -0.030503881746746647 0 0.012824643122003213 -0.030524695606047043 0 0.016703199670872616 -0.024720999249954127 0 0.01845755538752172 -0.027079059608426659 0 0.015844788593087602 -0.027262800204486643 0 0.021079605679067918 -0.026032074057608302 0 0.012824643122003213 -0.030524695606047043 0 0.020551103214076129 -0.025679513855041625 0 0.016703199670872616 -0.024720999249954127 0 0.01845755538752172 -0.027079059608426659 0 0.019009963656028063 -0.027343593594060817 0 0.019246255733728075 -0.027113786187743356 0 0.020678555631041762 -0.027112950305539486 0 0.020551103214076129 -0.025679513855041625 0 0.020062033418422592 -0.027223293889176513 0 0.01845755538752172 -0.027079059608426659 0 0.020062033418422592 -0.027223293889176513 0 0.01845755538752172 -0.027079059608426659 0 0.019702939338737239 -0.028619374012367405 0 0.012718328435425997 -0.027300838541114789 0 0.015844788593087602 -0.027262800204486643 0 0.015467961729149467 -0.030025216052089139 0 0.01845755538752172 -0.027079059608426659 0 0.015844788593087602 -0.027262800204486643 0 0.015467961729149467 -0.030025216052089139 0 0.015467961729149467 -0.030025216052089139 0 0.018816820090725588 -0.032256372620691247 0 0.013915949456195354 -0.034188693051903314 0 0.01845755538752172 -0.027079059608426659 0 0.015467961729149467 -0.030025216052089139 0 0.018816820090725588 -0.032256372620691247 0 0.01845755538752172 -0.027079059608426659 0 0.018990811439056288 -0.029824909483916039 0 0.019702939338737239 -0.028619374012367405 0 0.018154872441742593 -0.028960894878384373 0 0.020646491825597402 -0.026945860906381042 0 0.023220418099900976 -0.024885459941355974 0 0.020646491825597402 -0.026945860906381042 0 0.024025034788652404 -0.025504566697326089 0 0.02326194292550678 -0.026185744988726865 0 0.023217448436266233 -0.024549394714725725 0 0.020646491825597402 -0.026945860906381042 0 0.016716146893155353 -0.028698165997576856 0 0.020974049651010518 -0.024510611656617727 0 0.022364401013622769 -0.022118534421003314 0 0.01959034048484147 -0.023196965058955167 0 0.013915949456195354 -0.034188693051903314 0 0.0099369123096320205 -0.033010524089684024 0 0.012157178436669341 -0.030703992510614508 0 0.013203038973023813 -0.030041766955710449 0 0.016716146893155353 -0.028698165997576856 0 0.0094709100141273928 -0.035554890109166536 0 0.013915949456195354 -0.034188693051903314 0 0.0099369123096320205 -0.033010524089684024 0 0.0099369123096320205 -0.033010524089684024 0 0.0091315291785161751 -0.030212212675955339 0 0.012157178436669341 -0.030703992510614508 0 0.015467961729149467 -0.030025216052089139 0 0.013915949456195354 -0.034188693051903314 0 0.012157178436669341 -0.030703992510614508 0 0.037028169097972498 -0.027812842623206793 0 0.035538347925329686 -0.028370788303090644 0 0.035787943132716292 -0.027494582598685556 0 0.03677494612680654 -0.028064725629840716 0 0.035538347925329686 -0.028370788303090644 0 0.036414849206946716 -0.028775596134327647 0 0.037544660548359636 -0.027591863741794929 0 0.035377674925461344 -0.028471919266433696 0 0.034999979785265659 -0.028283546442403048 0 0.035787943132716292 -0.027494582598685556 0 0.03499994168639093 -0.026520956898761602 0 0.035538347925329686 -0.028370788303090644 0 0.034999979785265659 -0.028283546442403048 0 0.035787943132716292 -0.027494582598685556 0 0.03499994168639093 -0.026520956898761602 0 0.036490610634630813 -0.026496088168316497 0 0.035828127846559386 -0.025285809640368851 0 0.035787943132716292 -0.027494582598685556 0 0.03499994168639093 -0.026520956898761602 0 0.036490610634630813 -0.026496088168316497 0 0.037028169097972498 -0.027812842623206793 0 0.035787943132716292 -0.027494582598685556 0 0.036490610634630813 -0.026496088168316497 0 0.037028169097972498 -0.027812842623206793 0 0.036490610634630813 -0.026496088168316497 0 0.037938639150320329 -0.026446812141954854 0 0.037028169097972498 -0.027812842623206793 0 0.037938639150320329 -0.026446812141954854 0 0.038686474531981194 -0.027177634855536328 0 0.036490610634630813 -0.026496088168316497 0 0.037938639150320329 -0.026446812141954854 0 0.03780007142313499 -0.02534630772128519 0 0.037938639150320329 -0.026446812141954854 0 0.038958123753714879 -0.026643265631559308 0 0.03780007142313499 -0.02534630772128519 0 0.037938639150320329 -0.026446812141954854 0 0.038958123753714879 -0.026643265631559308 0 0.038686474531981194 -0.027177634855536328 0 0.035759434480385738 -0.021634940256499889 0 0.03576014842140833 -0.021639058176314646 0 0.035746159001641194 -0.021610944621732211 0 0.035759434480385738 -0.021634940256499889 0 0.035746159001641194 -0.021610944621732211 0 0.035799335563158202 -0.021624257193588226 0 0.035420413515966316 -0.02545114954011931 0 0.035341528372548697 -0.029786009695879873 0 0.032391146518283287 -0.03678017312548184 0 0.032357588083827653 -0.036787770886891065 0 0.032377836969203488 -0.036769701917174734 0 0.035341528372548697 -0.029786009695879873 0 0.032215901284828707 -0.029194660924053335 0 0.034850961140986667 -0.028806704748978115 0 0.034868171399859822 -0.028785935649149767 0 0.034830763581625179 -0.028793899413348489 0 0.035420413515966316 -0.02545114954011931 0 0.032215901284828707 -0.029194660924053335 0 0.032215901284828707 -0.029194660924053335 0 0.028160703126450609 -0.033812507456421018 0 0.032357588083827653 -0.036787770886891065 0 0.032353322912026687 -0.036753404262961496 0 0.032224704977518184 -0.036740979786075802 0 0.032353322912026687 -0.036753404262961496 0 0.032377836969203488 -0.036769701917174734 0 0.032440201948499017 -0.036740901757382559 0 0.032391146518283287 -0.03678017312548184 0 0.032377836969203488 -0.036769701917174734 0 0.032440201948499017 -0.036740901757382559 0 0.032357588083827653 -0.036787770886891065 0 0.032353322912026687 -0.036753404262961496 0 0.032377836969203488 -0.036769701917174734 0 0.032440201948499017 -0.036740901757382559 0 0.032409128115791414 -0.03671522813966295 0 0.032493827157342038 -0.036698280079234216 0 0.032353322912026687 -0.036753404262961496 0 0.032440201948499017 -0.036740901757382559 0 0.032409128115791414 -0.03671522813966295 0 0.032353322912026687 -0.036753404262961496 0 0.03229154045843638 -0.036689627669493984 0 0.032224704977518184 -0.036740979786075802 0 0.032353322912026687 -0.036753404262961496 0 0.032409128115791414 -0.03671522813966295 0 0.03229154045843638 -0.036689627669493984 0 0.035341528372548697 -0.029786009695879873 0 0.034802044529988987 -0.033471872025944274 0 0.032391146518283287 -0.03678017312548184 0 0.032440201948499017 -0.036740901757382559 0 0.032702572585139512 -0.036717260403514945 0 0.03677494612680654 -0.028064725629840716 0 0.037830829516116993 -0.027674833648944953 0 0.037180928124673329 -0.029107578934011179 0 0.037544660548359636 -0.027591863741794929 0 0.035341528372548697 -0.029786009695879873 0 0.032440201948499017 -0.036740901757382559 0 0.032493827157342038 -0.036698280079234216 0 0.032702572585139512 -0.036717260403514945 0 0.032493827157342038 -0.036698280079234216 0 0.032521491700297542 -0.036586173358196472 0 0.032400825614324037 -0.036642281328738362 0 0.032493827157342038 -0.036698280079234216 0 0.032521491700297542 -0.036586173358196472 0 0.032702572585139512 -0.036717260403514945 0 0.032409128115791414 -0.03671522813966295 0 0.032493827157342038 -0.036698280079234216 0 0.032400825614324037 -0.036642281328738362 0 0.032409128115791414 -0.03671522813966295 0 0.03229154045843638 -0.036689627669493984 0 0.032400825614324037 -0.036642281328738362 0 0.032400825614324037 -0.036642281328738362 0 0.032284279488983027 -0.036608834809406278 0 0.03241669788882709 -0.036561409336943337 0 0.032521491700297542 -0.036586173358196472 0 0.032400825614324037 -0.036642281328738362 0 0.03241669788882709 -0.036561409336943337 0 0.03229154045843638 -0.036689627669493984 0 0.032400825614324037 -0.036642281328738362 0 0.032284279488983027 -0.036608834809406278 0 0.032284279488983027 -0.036608834809406278 0 0.03241669788882709 -0.036561409336943337 0 0.03219223403047923 -0.036459891007546708 0 0.03241669788882709 -0.036561409336943337 0 0.032461042958609299 -0.036452519894691823 0 0.03219223403047923 -0.036459891007546708 0 0.032612099117481801 -0.036519842898375413 0 0.03316521298829888 -0.036005010951650936 0 0.032521491700297542 -0.036586173358196472 0 0.03241669788882709 -0.036561409336943337 0 0.032680887535087265 -0.036512981805020515 0 0.032521491700297542 -0.036586173358196472 0 0.032702572585139512 -0.036717260403514945 0 0.033472345181020519 -0.035482777986649963 0 0.032521491700297542 -0.036586173358196472 0 0.032680887535087265 -0.036512981805020515 0 0.03311833743085045 -0.036525538025492348 0 0.03241669788882709 -0.036561409336943337 0 0.032680887535087265 -0.036512981805020515 0 0.032461042958609299 -0.036452519894691823 0 0.034802044529988987 -0.033471872025944274 0 0.035080561746017098 -0.032830574586622779 0 0.037180928124673329 -0.029107578934011179 0 0.036379251170517053 -0.029991535139205806 0 0.036446109586494933 -0.030862543274573349 0 0.032521491700297542 -0.036586173358196472 0 0.03332587694280692 -0.035362964010409378 0 0.033472345181020519 -0.035482777986649963 0 0.036155402319122759 -0.03048304796712362 0 0.036379251170517053 -0.029991535139205806 0 0.036446109586494933 -0.030862543274573349 0 0.036155402319122759 -0.03048304796712362 0 0.036379251170517053 -0.029991535139205806 0 0.035776787638694303 -0.030350307046408991 0 0.036379251170517053 -0.029991535139205806 0 0.036346329767672603 -0.029348030639272923 0 0.035941450157006789 -0.029783126451325002 0 0.036379251170517053 -0.029991535139205806 0 0.035941450157006789 -0.029783126451325002 0 0.035776787638694303 -0.030350307046408991 0 0.037180928124673329 -0.029107578934011179 0 0.036379251170517053 -0.029991535139205806 0 0.036346329767672603 -0.029348030639272923 0 0.03677494612680654 -0.028064725629840716 0 0.037180928124673329 -0.029107578934011179 0 0.036414849206946716 -0.028775596134327647 0 0.037180928124673329 -0.029107578934011179 0 0.036346329767672603 -0.029348030639272923 0 0.036414849206946716 -0.028775596134327647 0 0.036346329767672603 -0.029348030639272923 0 0.036414849206946716 -0.028775596134327647 0 0.035777824522392636 -0.029095276608713971 0 0.034999979785265659 -0.028283546442403048 0 0.035777824522392636 -0.029095276608713971 0 0.034999969196648981 -0.030046113838425904 0 0.035538347925329686 -0.028370788303090644 0 0.034999979785265659 -0.028283546442403048 0 0.035777824522392636 -0.029095276608713971 0 0.035538347925329686 -0.028370788303090644 0 0.036414849206946716 -0.028775596134327647 0 0.035777824522392636 -0.029095276608713971 0 0.036346329767672603 -0.029348030639272923 0 0.035777824522392636 -0.029095276608713971 0 0.035941450157006789 -0.029783126451325002 0 0.034999969196648981 -0.030046113838425904 0 0.035776787638694303 -0.030350307046408991 0 0.035642397479251235 -0.031162658382567241 0 0.035777824522392636 -0.029095276608713971 0 0.034999969196648981 -0.030046113838425904 0 0.035941450157006789 -0.029783126451325002 0 0.034999969196648981 -0.030046113838425904 0 0.035941450157006789 -0.029783126451325002 0 0.035776787638694303 -0.030350307046408991 0 0.036155402319122759 -0.03048304796712362 0 0.035776787638694303 -0.030350307046408991 0 0.036020584320468584 -0.030731388899181818 0 0.034999969196648981 -0.030046113838425904 0 0.035642397479251235 -0.031162658382567241 0 0.034999965355321003 -0.031808718182997638 0 0.035642397479251235 -0.031162658382567241 0 0.036446109586494933 -0.030862543274573349 0 0.035572504220825037 -0.032701535258145814 0 0.035642397479251235 -0.031162658382567241 0 0.036020584320468584 -0.030731388899181818 0 0.036446109586494933 -0.030862543274573349 0 0.035776787638694303 -0.030350307046408991 0 0.035642397479251235 -0.031162658382567241 0 0.036020584320468584 -0.030731388899181818 0 0.03332587694280692 -0.035362964010409378 0 0.033472345181020519 -0.035482777986649963 0 0.034309474045058137 -0.034001903375534943 0 0.03311833743085045 -0.036525538025492348 0 0.032973861014196748 -0.036318724000402286 0 0.032876196019842319 -0.036456518969748483 0 0.036155402319122759 -0.03048304796712362 0 0.036020584320468584 -0.030731388899181818 0 0.036446109586494933 -0.030862543274573349 0 0.03311833743085045 -0.036525538025492348 0 0.032973861014196748 -0.036318724000402286 0 0.033232013879227612 -0.036027468085277424 0 0.032973861014196748 -0.036318724000402286 0 0.033232013879227612 -0.036027468085277424 0 0.03274865925258047 -0.036228851925154244 0 0.03311833743085045 -0.036525538025492348 0 0.033232013879227612 -0.036027468085277424 0 0.034292810831410989 -0.035469667365924273 0 0.03316521298829888 -0.036005010951650936 0 0.034606373916878791 -0.034391328346472697 0 0.033232013879227612 -0.036027468085277424 0 0.033622673900819168 -0.035406079340520091 0 0.034292810831410989 -0.035469667365924273 0 0.033232013879227612 -0.036027468085277424 0 0.03307138351936402 -0.035681998803664156 0 0.03274865925258047 -0.036228851925154244 0 0.033232013879227612 -0.036027468085277424 0 0.033622673900819168 -0.035406079340520091 0 0.03307138351936402 -0.035681998803664156 0 0.035642397479251235 -0.031162658382567241 0 0.034999965355321003 -0.031808718182997638 0 0.035572504220825037 -0.032701535258145814 0 0.034999965355321003 -0.031808718182997638 0 0.035572504220825037 -0.032701535258145814 0 0.035000004927505664 -0.033571391924014281 0 0.035080561746017098 -0.032830574586622779 0 0.034606373916878791 -0.034391328346472697 0 0.034363857863287682 -0.036629066735671637 0 0.034999307416903429 -0.033576546547187801 0 0.034671605237699334 -0.034289674657999786 0 0.034606373916878791 -0.034391328346472697 0 0.034510107282851692 -0.03484391164806467 0 0.034606373916878791 -0.034391328346472697 0 0.034999912190612791 -0.033572072648859523 0 0.034999307416903429 -0.033576546547187801 0 0.034371748812656595 -0.034436431492391943 0 0.034380482076805816 -0.034671835063795058 0 0.034999307416903429 -0.033576546547187801 0 0.034671605237699334 -0.034289674657999786 0 0.034371748812656595 -0.034436431492391943 0 0.034371748812656595 -0.034436431492391943 0 0.033622935791369747 -0.034942165806356187 0 0.034380482076805816 -0.034671835063795058 0 0.034671605237699334 -0.034289674657999786 0 0.034371748812656595 -0.034436431492391943 0 0.034081964385889611 -0.034888994914634402 0 0.034371748812656595 -0.034436431492391943 0 0.034081964385889611 -0.034888994914634402 0 0.033622935791369747 -0.034942165806356187 0 0.033622673900819168 -0.035406079340520091 0 0.034292810831410989 -0.035469667365924273 0 0.034081964385889611 -0.034888994914634402 0 0.034292810831410989 -0.035469667365924273 0 0.034671605237699334 -0.034289674657999786 0 0.034081964385889611 -0.034888994914634402 0 0.033622673900819168 -0.035406079340520091 0 0.034081964385889611 -0.034888994914634402 0 0.033622935791369747 -0.034942165806356187 0 0.033622673900819168 -0.035406079340520091 0 0.03307138351936402 -0.035681998803664156 0 0.033622935791369747 -0.034942165806356187 0 0.03307138351936402 -0.035681998803664156 0 0.033622935791369747 -0.034942165806356187 0 0.032883399284330955 -0.035189639201877725 0 0.033622935791369747 -0.034942165806356187 0 0.033144741992535844 -0.034918044183769849 0 0.032883399284330955 -0.035189639201877725 0 0.032927697393708905 -0.03499848691763216 0 0.033144741992535844 -0.034918044183769849 0 0.034380482076805816 -0.034671835063795058 0 0.033622935791369747 -0.034942165806356187 0 0.033144741992535844 -0.034918044183769849 0 0.034380482076805816 -0.034671835063795058 0 0.032927697393708905 -0.03499848691763216 0 0.034998843095495891 -0.034998138463187244 0 0.034380482076805816 -0.034671835063795058 0 0.034999307416903429 -0.033576546547187801 0 0.034998843095495891 -0.034998138463187244 0 0.034380482076805816 -0.034671835063795058 0 0.031165828110353674 -0.034999797374178375 0 0.031637508592061672 -0.03573759196588143 0 0.030421387470725036 -0.035511776213466816 0 0.031637508592061672 -0.03573759196588143 0 0.030259393548621758 -0.036222367321634114 0 0.030421387470725036 -0.035511776213466816 0 0.032925338130206518 -0.035000056593360591 0 0.031165828110353674 -0.034999797374178375 0 0.031637508592061672 -0.03573759196588143 0 0.032927697393708905 -0.03499848691763216 0 0.033144741992535844 -0.034918044183769849 0 0.032501783230827981 -0.034709289756646902 0 0.032925033630832386 -0.03500002303616858 0 0.032027244664125792 -0.035229995904815792 0 0.032501783230827981 -0.034709289756646902 0 0.032883399284330955 -0.035189639201877725 0 0.03231680503298491 -0.035358178592949277 0 0.033144741992535844 -0.034918044183769849 0 0.032501783230827981 -0.034709289756646902 0 0.032883399284330955 -0.035189639201877725 0 0.032883399284330955 -0.035189639201877725 0 0.03231680503298491 -0.035358178592949277 0 0.032570828689632458 -0.035888500942459704 0 0.032501783230827981 -0.034709289756646902 0 0.03231680503298491 -0.035358178592949277 0 0.031064813349054393 -0.035086828575660318 0 0.03231680503298491 -0.035358178592949277 0 0.032054627019334314 -0.036080537961126855 0 0.031064813349054393 -0.035086828575660318 0 0.032027244664125792 -0.035229995904815792 0 0.030657612355077413 -0.035679546273506273 0 0.032054627019334314 -0.036080537961126855 0 0.030654827442902509 -0.03639138056689234 0 0.031064813349054393 -0.035086828575660318 0 0.03231680503298491 -0.035358178592949277 0 0.032054627019334314 -0.036080537961126855 0 0.032570828689632458 -0.035888500942459704 0 0.032054627019334314 -0.036080537961126855 0 0.032570828689632458 -0.035888500942459704 0 0.032331200905616697 -0.036280778384986147 0 0.03307138351936402 -0.035681998803664156 0 0.032883399284330955 -0.035189639201877725 0 0.032570828689632458 -0.035888500942459704 0 0.032570828689632458 -0.035888500942459704 0 0.03274865925258047 -0.036228851925154244 0 0.032331200905616697 -0.036280778384986147 0 0.03307138351936402 -0.035681998803664156 0 0.032570828689632458 -0.035888500942459704 0 0.03274865925258047 -0.036228851925154244 0 0.032973861014196748 -0.036318724000402286 0 0.03274865925258047 -0.036228851925154244 0 0.032738875387418889 -0.036422109717756564 0 0.03274865925258047 -0.036228851925154244 0 0.032461042958609299 -0.036452519894691823 0 0.032331200905616697 -0.036280778384986147 0 0.03274865925258047 -0.036228851925154244 0 0.032461042958609299 -0.036452519894691823 0 0.032738875387418889 -0.036422109717756564 0 0.032680887535087265 -0.036512981805020515 0 0.032461042958609299 -0.036452519894691823 0 0.032738875387418889 -0.036422109717756564 0 0.032680887535087265 -0.036512981805020515 0 0.03311833743085045 -0.036525538025492348 0 0.032876196019842319 -0.036456518969748483 0 0.032680887535087265 -0.036512981805020515 0 0.032738875387418889 -0.036422109717756564 0 0.032876196019842319 -0.036456518969748483 0 0.032973861014196748 -0.036318724000402286 0 0.032738875387418889 -0.036422109717756564 0 0.032876196019842319 -0.036456518969748483 0 0.032461042958609299 -0.036452519894691823 0 0.032331200905616697 -0.036280778384986147 0 0.03219223403047923 -0.036459891007546708 0 0.031924271016687072 -0.035967173023634766 0 0.031798768630770281 -0.03776945920961166 0 0.032054627019334314 -0.036080537961126855 0 0.032331200905616697 -0.036280778384986147 0 0.03219223403047923 -0.036459891007546708 0 0.030464347376660188 -0.038244917246755397 0 0.028252931176676571 -0.037231386988666931 0 0.027972748633158434 -0.038800447122132438 0 0.030464347376660188 -0.038244917246755397 0 0.02918962593422306 -0.036329346755800747 0 0.028252931176676571 -0.037231386988666931 0 0.032054627019334314 -0.036080537961126855 0 0.030464347376660188 -0.038244917246755397 0 0.030654827442902509 -0.03639138056689234 0 0.030464347376660188 -0.038244917246755397 0 0.02918962593422306 -0.036329346755800747 0 0.030654827442902509 -0.03639138056689234 0 0.02918962593422306 -0.036329346755800747 0 0.030654827442902509 -0.03639138056689234 0 0.031064813349054393 -0.035086828575660318 0 0.029367941780566922 -0.03628657347550087 0 0.030657612355077413 -0.035679546273506273 0 0.02918962593422306 -0.036329346755800747 0 0.030259393548621758 -0.036222367321634114 0 0.029580465860305605 -0.035817922589320934 0 0.030259393548621758 -0.036222367321634114 0 0.029580465860305605 -0.035817922589320934 0 0.030421387470725036 -0.035511776213466816 0 0.02918962593422306 -0.036329346755800747 0 0.028742707439336081 -0.035740380761972008 0 0.027583373750242703 -0.036165802512592667 0 0.02918962593422306 -0.036329346755800747 0 0.029580465860305605 -0.035817922589320934 0 0.028742707439336081 -0.035740380761972008 0 0.029580465860305605 -0.035817922589320934 0 0.028742707439336081 -0.035740380761972008 0 0.029406911291195895 -0.034999777807814075 0 0.028742707439336081 -0.035740380761972008 0 0.029406911291195895 -0.034999777807814075 0 0.027647340619029636 -0.034999563793959784 0 0.029580465860305605 -0.035817922589320934 0 0.029406911291195895 -0.034999777807814075 0 0.030421387470725036 -0.035511776213466816 0 0.031165828110353674 -0.034999797374178375 0 0.029406911291195895 -0.034999777807814075 0 0.030421387470725036 -0.035511776213466816 0 0.027647340619029636 -0.034999563793959784 0 0.027583373750242703 -0.036165802512592667 0 0.026670061664871174 -0.03573356831957205 0 0.027647340619029636 -0.034999563793959784 0 0.026670061664871174 -0.03573356831957205 0 0.025890834513466337 -0.035000395669677463 0 0.028742707439336081 -0.035740380761972008 0 0.027647340619029636 -0.034999563793959784 0 0.027583373750242703 -0.036165802512592667 0 0.027583373750242703 -0.036165802512592667 0 0.026670061664871174 -0.03573356831957205 0 0.026588082529663454 -0.036372277709224077 0 0.027583373750242703 -0.036165802512592667 0 0.026641224818725516 -0.03707772571626896 0 0.026588082529663454 -0.036372277709224077 0 0.02918962593422306 -0.036329346755800747 0 0.027583373750242703 -0.036165802512592667 0 0.028252931176676571 -0.037231386988666931 0 0.027583373750242703 -0.036165802512592667 0 0.028252931176676571 -0.037231386988666931 0 0.026641224818725516 -0.03707772571626896 0 0.02655981030189259 -0.037100525626160626 0 0.026209510335736163 -0.037432434786450135 0 0.028252931176676571 -0.037231386988666931 0 0.026641224818725516 -0.03707772571626896 0 0.027972748633158434 -0.038800447122132438 0 0.026641224818725516 -0.03707772571626896 0 0.02601874113035044 -0.035329920307380067 0 0.027179838725733842 -0.035720693528825315 0 0.02601874113035044 -0.035329920307380067 0 0.024714300060763406 -0.033702879911651863 0 0.026241671888854012 -0.032699255721002268 0 0.02601874113035044 -0.035329920307380067 0 0.027264228430710611 -0.033905604988047296 0 0.027179838725733842 -0.035720693528825315 0 0.02601874113035044 -0.035329920307380067 0 0.026241671888854012 -0.032699255721002268 0 0.027264228430710611 -0.033905604988047296 0 0.02601874113035044 -0.035329920307380067 0 0.024714300060763406 -0.033702879911651863 0 0.024576297035870685 -0.03585860928714836 0 0.026641224818725516 -0.03707772571626896 0 0.02601874113035044 -0.035329920307380067 0 0.024576297035870685 -0.03585860928714836 0 0.030464347376660188 -0.038244917246755397 0 0.027972748633158434 -0.038800447122132438 0 0.029281515819216494 -0.040102121319355345 0 0.032284279488983027 -0.036608834809406278 0 0.03219223403047923 -0.036459891007546708 0 0.03208516002248555 -0.03665123210466751 0 0.031798768630770281 -0.03776945920961166 0 0.027212808711335704 -0.035616780310238551 0 0.03229154045843638 -0.036689627669493984 0 0.03208516002248555 -0.03665123210466751 0 0.032224704977518184 -0.036740979786075802 0 0.03229154045843638 -0.036689627669493984 0 0.032284279488983027 -0.036608834809406278 0 0.03208516002248555 -0.03665123210466751 0 0.026209510335736163 -0.037432434786450135 0 0.027212808711335704 -0.035616780310238551 0 0.024714300060763406 -0.033702879911651863 0 0.024576297035870685 -0.03585860928714836 0 0.022734155580873289 -0.034136867727440803 0 0.027212808711335704 -0.035616780310238551 0 0.024094663793255096 -0.031261048560312574 0 0.024456598844289548 -0.031050494969756127 0 0.02459727626635283 -0.030749087625930795 0 0.024350144323486044 -0.030602107188257011 0 0.024714300060763406 -0.033702879911651863 0 0.022734155580873289 -0.034136867727440803 0 0.023664356653883091 -0.032284742206377198 0 0.024204613920769349 -0.030601366818079154 0 0.024246343122429521 -0.030763141336652634 0 0.024273335913339217 -0.030576327672497811 0 0.024456598844289548 -0.031050494969756127 0 0.024246343122429521 -0.030763141336652634 0 0.024350144323486044 -0.030602107188257011 0 0.027212808711335704 -0.035616780310238551 0 0.028160703126450609 -0.033812507456421018 0 0.024246343122429521 -0.030763141336652634 0 0.024273335913339217 -0.030576327672497811 0 0.024350144323486044 -0.030602107188257011 0 0.03576014842140833 -0.021639058176314646 0 0.035746159001641194 -0.021610944621732211 0 0.035649718590544048 -0.021553348648781397 0 0.024204613920769349 -0.030601366818079154 0 0.024273335913339217 -0.030576327672497811 0 0.024298481127018542 -0.030333881316649346 0 0.032215901284828707 -0.029194660924053335 0 0.029597457907679686 -0.0255242958309067 0 0.024273335913339217 -0.030576327672497811 0 0.024350144323486044 -0.030602107188257011 0 0.024298481127018542 -0.030333881316649346 0 0.02459727626635283 -0.030749087625930795 0 0.024298481127018542 -0.030333881316649346 0 0.024866897508321172 -0.03033890073505011 0 0.02459727626635283 -0.030749087625930795 0 0.024350144323486044 -0.030602107188257011 0 0.024298481127018542 -0.030333881316649346 0 0.024866897508321172 -0.03033890073505011 0 0.025974411145104358 -0.030901056780717598 0 0.025374159529712989 -0.029218759912031371 0 0.023664356653883091 -0.032284742206377198 0 0.024866897508321172 -0.03033890073505011 0 0.025111678103614678 -0.031975460959178074 0 0.024094663793255096 -0.031261048560312574 0 0.024760099117196895 -0.030514690588971181 0 0.024866897508321172 -0.03033890073505011 0 0.025974411145104358 -0.030901056780717598 0 0.025111678103614678 -0.031975460959178074 0 0.025974411145104358 -0.030901056780717598 0 0.026241671888854012 -0.032699255721002268 0 0.028391134482816834 -0.030995531876393818 0 0.025974411145104358 -0.030901056780717598 0 0.026241671888854012 -0.032699255721002268 0 0.025111678103614678 -0.031975460959178074 0 0.024714300060763406 -0.033702879911651863 0 0.026241671888854012 -0.032699255721002268 0 0.025111678103614678 -0.031975460959178074 0 0.024714300060763406 -0.033702879911651863 0 0.023664356653883091 -0.032284742206377198 0 0.025111678103614678 -0.031975460959178074 0 0.02727177690400882 -0.027826248413567543 0 0.02744442663794595 -0.027996042703638938 0 0.027205124764355309 -0.028245062529114292 0 0.027803311828945049 -0.029475762458248126 0 0.028219040944458002 -0.030793256225755225 0 0.028391134482816834 -0.030995531876393818 0 0.028932260551280373 -0.033887325532567743 0 0.027264228430710611 -0.033905604988047296 0 0.026241671888854012 -0.032699255721002268 0 0.028391134482816834 -0.030995531876393818 0 0.027264228430710611 -0.033905604988047296 0 0.025974411145104358 -0.030901056780717598 0 0.028391134482816834 -0.030995531876393818 0 0.02681030622424652 -0.029810512771480002 0 0.02727177690400882 -0.027826248413567543 0 0.02744442663794595 -0.027996042703638938 0 0.027399318034155396 -0.027663295284741027 0 0.027550974264093964 -0.027662619752512118 0 0.02744442663794595 -0.027996042703638938 0 0.027399318034155396 -0.027663295284741027 0 0.027550974264093964 -0.027662619752512118 0 0.027680706527890873 -0.027981223645223326 0 0.02744442663794595 -0.027996042703638938 0 0.027680706527890873 -0.027981223645223326 0 0.027580274510096401 -0.028231936897857739 0 0.027724747477695759 -0.028316665711952162 0 0.027680706527890873 -0.027981223645223326 0 0.02744442663794595 -0.027996042703638938 0 0.027580274510096401 -0.028231936897857739 0 0.02744442663794595 -0.027996042703638938 0 0.027449526451392519 -0.028381554229530374 0 0.027580274510096401 -0.028231936897857739 0 0.02744442663794595 -0.027996042703638938 0 0.027449526451392519 -0.028381554229530374 0 0.027205124764355309 -0.028245062529114292 0 0.027580274510096401 -0.028231936897857739 0 0.02761020812043553 -0.028515918475800282 0 0.027724747477695759 -0.028316665711952162 0 0.027449526451392519 -0.028381554229530374 0 0.027580274510096401 -0.028231936897857739 0 0.02761020812043553 -0.028515918475800282 0 0.02761020812043553 -0.028515918475800282 0 0.027665697562199734 -0.028682447998756067 0 0.027683524194253972 -0.028624779906983099 0 0.02761020812043553 -0.028515918475800282 0 0.027528256674629586 -0.028618634068877245 0 0.027648125531511553 -0.028665343556581544 0 0.02761020812043553 -0.028515918475800282 0 0.027665697562199734 -0.028682447998756067 0 0.027648125531511553 -0.028665343556581544 0 0.027449526451392519 -0.028381554229530374 0 0.027528256674629586 -0.028618634068877245 0 0.027279876786625218 -0.028676088547709623 0 0.027449526451392519 -0.028381554229530374 0 0.02761020812043553 -0.028515918475800282 0 0.027528256674629586 -0.028618634068877245 0 0.02698315881659416 -0.034207254579600693 0 0.028219040944458002 -0.030793256225755225 0 0.029462629946510558 -0.036969166181870385 0 0.028932260551280373 -0.033887325532567743 0 0.027179838725733842 -0.035720693528825315 0 0.027449526451392519 -0.028381554229530374 0 0.027279876786625218 -0.028676088547709623 0 0.027205124764355309 -0.028245062529114292 0 0.028932260551280373 -0.033887325532567743 0 0.027264228430710611 -0.033905604988047296 0 0.027179838725733842 -0.035720693528825315 0 0.02698315881659416 -0.034207254579600693 0 0.027819387801491711 -0.036434851180078935 0 0.026848599014521527 -0.036383355574841333 0 0.027179838725733842 -0.035720693528825315 0 0.02672424508949495 -0.036610113515374701 0 0.026641224818725516 -0.03707772571626896 0 0.027179838725733842 -0.035720693528825315 0 0.02672424508949495 -0.036610113515374701 0 0.026641224818725516 -0.03707772571626896 0 0.02672424508949495 -0.036610113515374701 0 0.026588082529663454 -0.036372277709224077 0 0.026848599014521527 -0.036383355574841333 0 0.02672424508949495 -0.036610113515374701 0 0.026373175394041083 -0.036499560269001738 0 0.02698315881659416 -0.034207254579600693 0 0.026217177466370655 -0.036771135785912519 0 0.025979504379015896 -0.036743820185695379 0 0.025899429186582331 -0.03642852304295801 0 0.025746008171220233 -0.036499995557495987 0 0.026217177466370655 -0.036771135785912519 0 0.02592204007922615 -0.035974599476767323 0 0.02672424508949495 -0.036610113515374701 0 0.026373175394041083 -0.036499560269001738 0 0.026335575337674631 -0.036309757649849728 0 0.026373175394041083 -0.036499560269001738 0 0.026335575337674631 -0.036309757649849728 0 0.025882792670380114 -0.036083964534190861 0 0.02672424508949495 -0.036610113515374701 0 0.026335575337674631 -0.036309757649849728 0 0.026588082529663454 -0.036372277709224077 0 0.026670061664871174 -0.03573356831957205 0 0.026588082529663454 -0.036372277709224077 0 0.026051660370090494 -0.03575428405890501 0 0.026335575337674631 -0.036309757649849728 0 0.026588082529663454 -0.036372277709224077 0 0.026051660370090494 -0.03575428405890501 0 0.025843263137656902 -0.035809265082047737 0 0.026051660370090494 -0.03575428405890501 0 0.025742740843296162 -0.035599394413107548 0 0.026335575337674631 -0.036309757649849728 0 0.025882792670380114 -0.036083964534190861 0 0.026051660370090494 -0.03575428405890501 0 0.025882792670380114 -0.036083964534190861 0 0.025843263137656902 -0.035809265082047737 0 0.026051660370090494 -0.03575428405890501 0 0.025888677139128791 -0.035000092732546097 0 0.024794304972384273 -0.035658532781510877 0 0.026051660370090494 -0.03575428405890501 0 0.025890834513466337 -0.035000395669677463 0 0.025742740843296162 -0.035599394413107548 0 0.025888643694690665 -0.035000004106027577 0 0.024012750763007316 -0.034999986826541464 0 0.023948826207074978 -0.035735209064305148 0 0.026670061664871174 -0.03573356831957205 0 0.026051660370090494 -0.03575428405890501 0 0.025890834513466337 -0.035000395669677463 0 0.022137019286045279 -0.03500000142227655 0 0.023032448505482275 -0.035547864746132848 0 0.022035715279370625 -0.036453143017586918 0 0.022137019286045279 -0.03500000142227655 0 0.024012750763007316 -0.034999986826541464 0 0.023032448505482275 -0.035547864746132848 0 0.023948826207074978 -0.035735209064305148 0 0.023032448505482275 -0.035547864746132848 0 0.022035715279370625 -0.036453143017586918 0 0.024012750763007316 -0.034999986826541464 0 0.023948826207074978 -0.035735209064305148 0 0.023032448505482275 -0.035547864746132848 0 0.024794304972384273 -0.035658532781510877 0 0.023845141504806582 -0.036085725960234565 0 0.025742740843296162 -0.035599394413107548 0 0.02563864301239701 -0.035883927384862388 0 0.025315150342652783 -0.035867267855174384 0 0.025843263137656902 -0.035809265082047737 0 0.025742740843296162 -0.035599394413107548 0 0.02563864301239701 -0.035883927384862388 0 0.025882792670380114 -0.036083964534190861 0 0.02563864301239701 -0.035883927384862388 0 0.02565818035530304 -0.036134478327002985 0 0.025882792670380114 -0.036083964534190861 0 0.025843263137656902 -0.035809265082047737 0 0.02563864301239701 -0.035883927384862388 0 0.02563864301239701 -0.035883927384862388 0 0.025484635751234802 -0.036003828998850657 0 0.02565818035530304 -0.036134478327002985 0 0.02563864301239701 -0.035883927384862388 0 0.025484635751234802 -0.036003828998850657 0 0.025315150342652783 -0.035867267855174384 0 0.025484635751234802 -0.036003828998850657 0 0.025315150342652783 -0.035867267855174384 0 0.02527972415384553 -0.036164029674519288 0 0.025315150342652783 -0.035867267855174384 0 0.025085853751455025 -0.035795162270342074 0 0.024830143786959528 -0.036007351459685859 0 0.025315150342652783 -0.035867267855174384 0 0.02527972415384553 -0.036164029674519288 0 0.024830143786959528 -0.036007351459685859 0 0.025742740843296162 -0.035599394413107548 0 0.025315150342652783 -0.035867267855174384 0 0.025124203383305305 -0.035814057507366784 0 0.025176023024805986 -0.036132020826326036 0 0.023845141504806582 -0.036085725960234565 0 0.026220521527481305 -0.032877497102293846 0 0.025311057773975701 -0.034646485427396442 0 0.02527972415384553 -0.036164029674519288 0 0.025408778481355147 -0.036494682470647154 0 0.024940530378353233 -0.036281527560446496 0 0.02527972415384553 -0.036164029674519288 0 0.025483162049608529 -0.036164665339470888 0 0.025494503307379877 -0.036325268847717716 0 0.025484635751234802 -0.036003828998850657 0 0.02527972415384553 -0.036164029674519288 0 0.025483162049608529 -0.036164665339470888 0 0.02527972415384553 -0.036164029674519288 0 0.025494503307379877 -0.036325268847717716 0 0.025408778481355147 -0.036494682470647154 0 0.025494503307379877 -0.036325268847717716 0 0.025483371488718473 -0.036435129917805641 0 0.025408778481355147 -0.036494682470647154 0 0.025899429186582331 -0.03642852304295801 0 0.025882792670380114 -0.036083964534190861 0 0.025694143110664661 -0.036317778667146194 0 0.025882792670380114 -0.036083964534190861 0 0.02565818035530304 -0.036134478327002985 0 0.025694143110664661 -0.036317778667146194 0 0.02565818035530304 -0.036134478327002985 0 0.025583015715786906 -0.036236137208525233 0 0.025694143110664661 -0.036317778667146194 0 0.02565818035530304 -0.036134478327002985 0 0.025583015715786906 -0.036236137208525233 0 0.025483162049608529 -0.036164665339470888 0 0.025484635751234802 -0.036003828998850657 0 0.02565818035530304 -0.036134478327002985 0 0.025483162049608529 -0.036164665339470888 0 0.025583015715786906 -0.036236137208525233 0 0.025483162049608529 -0.036164665339470888 0 0.025494503307379877 -0.036325268847717716 0 0.025494503307379877 -0.036325268847717716 0 0.025694143110664661 -0.036317778667146194 0 0.025577036776895278 -0.036425653220235034 0 0.025583015715786906 -0.036236137208525233 0 0.025494503307379877 -0.036325268847717716 0 0.025694143110664661 -0.036317778667146194 0 0.025494503307379877 -0.036325268847717716 0 0.025577036776895278 -0.036425653220235034 0 0.025483371488718473 -0.036435129917805641 0 0.025694143110664661 -0.036317778667146194 0 0.025746008171220233 -0.036499995557495987 0 0.025577036776895278 -0.036425653220235034 0 0.025979504379015896 -0.036743820185695379 0 0.025416942753009514 -0.036490972702603798 0 0.02544942752092156 -0.036493644956958463 0 0.027528256674629586 -0.028618634068877245 0 0.027279876786625218 -0.028676088547709623 0 0.027687825140862602 -0.028744884564968765 0 0.025979504379015896 -0.036743820185695379 0 0.025746008171220233 -0.036499995557495987 0 0.02544942752092156 -0.036493644956958463 0 0.02698315881659416 -0.034207254579600693 0 0.026220521527481305 -0.032877497102293846 0 0.025899429186582331 -0.03642852304295801 0 0.025694143110664661 -0.036317778667146194 0 0.025746008171220233 -0.036499995557495987 0 0.025746008171220233 -0.036499995557495987 0 0.025577036776895278 -0.036425653220235034 0 0.02544942752092156 -0.036493644956958463 0 0.025577036776895278 -0.036425653220235034 0 0.025483371488718473 -0.036435129917805641 0 0.02544942752092156 -0.036493644956958463 0 0.027528256674629586 -0.028618634068877245 0 0.027687825140862602 -0.028744884564968765 0 0.027648125531511553 -0.028665343556581544 0 0.027687825140862602 -0.028744884564968765 0 0.027709032920759987 -0.02862835153178225 0 0.027664079543208309 -0.028162100984149879 0 0.026220521527481305 -0.032877497102293846 0 0.026707009813673223 -0.030408956016330087 0 0.025483371488718473 -0.036435129917805641 0 0.025408778481355147 -0.036494682470647154 0 0.02544942752092156 -0.036493644956958463 0 0.026220521527481305 -0.032877497102293846 0 0.026183105294953424 -0.032955854740439397 0 0.027687825140862602 -0.028744884564968765 0 0.027648125531511553 -0.028665343556581544 0 0.027709032920759987 -0.02862835153178225 0 0.027665697562199734 -0.028682447998756067 0 0.027648125531511553 -0.028665343556581544 0 0.027709032920759987 -0.02862835153178225 0 0.027665697562199734 -0.028682447998756067 0 0.027709032920759987 -0.02862835153178225 0 0.027489605114364629 -0.028992458458087032 0 0.027709032920759987 -0.02862835153178225 0 0.027489605114364629 -0.028992458458087032 0 0.027664079543208309 -0.028162100984149879 0 0.027489605114364629 -0.028992458458087032 0 0.025702947764130308 -0.028819463840600006 0 0.024232982284385338 -0.030675752849171949 0 0.027489605114364629 -0.028992458458087032 0 0.027664079543208309 -0.028162100984149879 0 0.025702947764130308 -0.028819463840600006 0 0.027664079543208309 -0.028162100984149879 0 0.025702947764130308 -0.028819463840600006 0 0.025199919233867243 -0.027404212762258105 0 0.026707009813673223 -0.030408956016330087 0 0.023546878016871203 -0.031425992174827298 0 0.025242588574552197 -0.033132197512780223 0 0.024767851007357313 -0.032497224174996321 0 0.024332982109458102 -0.033013071308791296 0 0.023645386322774731 -0.035718743226183257 0 0.023546878016871203 -0.031425992174827298 0 0.025242588574552197 -0.033132197512780223 0 0.0254598787276776 -0.032870412333934208 0 0.024767851007357313 -0.032497224174996321 0 0.024940530378353233 -0.036281527560446496 0 0.024830143786959528 -0.036007351459685859 0 0.024462160992654153 -0.036032542970072579 0 0.026148753574812163 -0.033245111224695659 0 0.025242588574552197 -0.033132197512780223 0 0.0254598787276776 -0.032870412333934208 0 0.02527972415384553 -0.036164029674519288 0 0.024940530378353233 -0.036281527560446496 0 0.024830143786959528 -0.036007351459685859 0 0.025311057773975701 -0.034646485427396442 0 0.023645386322774731 -0.035718743226183257 0 0.023845141504806582 -0.036085725960234565 0 0.022331501083982887 -0.035986768343055912 0 0.025085853751455025 -0.035795162270342074 0 0.024739430091774744 -0.035695216942955681 0 0.024830143786959528 -0.036007351459685859 0 0.024739430091774744 -0.035695216942955681 0 0.024830143786959528 -0.036007351459685859 0 0.024462160992654153 -0.036032542970072579 0 0.022811534918817943 -0.035733038298717171 0 0.021983626059507592 -0.036750198180977689 0 0.020623670444344697 -0.035150225356979994 0 0.022331501083982887 -0.035986768343055912 0 0.023645386322774731 -0.035718743226183257 0 0.021123208244325564 -0.036243374876303837 0 0.020560764840124021 -0.034999987690889328 0 0.019214807525569109 -0.035725739984000651 0 0.022331501083982887 -0.035986768343055912 0 0.019888829039690456 -0.035409579805207626 0 0.022135740046578537 -0.035001054311112556 0 0.022331501083982887 -0.035986768343055912 0 0.022137019286045279 -0.03500000142227655 0 0.022035715279370625 -0.036453143017586918 0 0.021180520629696102 -0.036217019255239562 0 0.022136925757805081 -0.03500000129359189 0 0.021123208244325564 -0.036243374876303837 0 0.020560764840124021 -0.034999987690889328 0 0.017357712656099665 -0.03521077239705523 0 0.019214807525569109 -0.035725739984000651 0 0.01898467259840686 -0.035000008378733717 0 0.018389366585162693 -0.034560217468758932 0 0.020623670444344697 -0.035150225356979994 0 0.019146126976286926 -0.035991015974693889 0 0.017640441368376447 -0.035075003506515726 0 0.019888829039690456 -0.035409579805207626 0 0.017640441368376447 -0.035075003506515726 0 0.018983840600568128 -0.035000141715757362 0 0.017310412343417993 -0.035221247097643314 0 0.017736419595026 -0.034999998239103186 0 0.018984622452266106 -0.034999999231716823 0 0.020560764840124021 -0.034999987690889328 0 0.019214807525569109 -0.035725739984000651 0 0.01898467259840686 -0.035000008378733717 0 0.021983626059507592 -0.036750198180977689 0 0.020623670444344697 -0.035150225356979994 0 0.020338772835016929 -0.036652550462936258 0 0.020623670444344697 -0.035150225356979994 0 0.020338772835016929 -0.036652550462936258 0 0.019146126976286926 -0.035991015974693889 0 0.020338772835016929 -0.036652550462936258 0 0.019146126976286926 -0.035991015974693889 0 0.018845793855190321 -0.037585008848896533 0 0.021983626059507592 -0.036750198180977689 0 0.020338772835016929 -0.036652550462936258 0 0.021112069271640773 -0.037815452270063249 0 0.020101551296590889 -0.032728855159203395 0 0.023546878016871203 -0.031425992174827298 0 0.020338772835016929 -0.036652550462936258 0 0.018845793855190321 -0.037585008848896533 0 0.021112069271640773 -0.037815452270063249 0 0.025702947764130308 -0.028819463840600006 0 0.025199919233867243 -0.027404212762258105 0 0.023221025088868131 -0.029527552492452577 0 0.021635054828455461 -0.027493141685682947 0 0.024585794793496381 -0.027837383591883112 0 0.023221025088868131 -0.029527552492452577 0 0.023546878016871203 -0.031425992174827298 0 0.024129924790078638 -0.028129441869914607 0 0.020653936811825112 -0.029674793182273163 0 0.021635054828455461 -0.027493141685682947 0 0.021932065875194747 -0.029205882421088344 0 0.021635054828455461 -0.027493141685682947 0 0.023221025088868131 -0.029527552492452577 0 0.021932065875194747 -0.029205882421088344 0 0.023221025088868131 -0.029527552492452577 0 0.021932065875194747 -0.029205882421088344 0 0.022232002394804821 -0.030149573685923463 0 0.020653936811825112 -0.029674793182273163 0 0.021932065875194747 -0.029205882421088344 0 0.022232002394804821 -0.030149573685923463 0 0.02119778644710681 -0.031650860307596382 0 0.022232002394804821 -0.030149573685923463 0 0.024232982284385338 -0.030675752849171949 0 0.025141284023220651 -0.030087257566268809 0 0.026287044073924428 -0.029649883716526288 0 0.028664459863427035 -0.028390883922629864 0 0.028521373719789227 -0.028474513967098668 0 0.028440291998503175 -0.028715366117323369 0 0.020653936811825112 -0.029674793182273163 0 0.02119778644710681 -0.031650860307596382 0 0.022232002394804821 -0.030149573685923463 0 0.028664459863427035 -0.028390883922629864 0 0.028573300617832031 -0.028439487388813123 0 0.0287088304774623 -0.02832313983529661 0 0.028664459863427035 -0.028390883922629864 0 0.028521373719789227 -0.028474513967098668 0 0.0287088304774623 -0.02832313983529661 0 0.02833493858423472 -0.028370461648001645 0 0.028521373719789227 -0.028474513967098668 0 0.0287088304774623 -0.02832313983529661 0 0.02833493858423472 -0.028370461648001645 0 0.028521373719789227 -0.028474513967098668 0 0.028235303056374474 -0.028532980146795599 0 0.023221025088868131 -0.029527552492452577 0 0.022232002394804821 -0.030149573685923463 0 0.024232982284385338 -0.030675752849171949 0 0.028521373719789227 -0.028474513967098668 0 0.028235303056374474 -0.028532980146795599 0 0.028440291998503175 -0.028715366117323369 0 0.025702947764130308 -0.028819463840600006 0 0.023221025088868131 -0.029527552492452577 0 0.024232982284385338 -0.030675752849171949 0 0.027489605114364629 -0.028992458458087032 0 0.028440291998503175 -0.028715366117323369 0 0.027926998945208018 -0.028639615724387564 0 0.028235303056374474 -0.028532980146795599 0 0.028440291998503175 -0.028715366117323369 0 0.027926998945208018 -0.028639615724387564 0 0.027449438200981197 -0.029062682412352769 0 0.026287044073924428 -0.029649883716526288 0 0.027926998945208018 -0.028639615724387564 0 0.027683524194253972 -0.028624779906983099 0 0.027957290860740645 -0.028416981683900649 0 0.027665697562199734 -0.028682447998756067 0 0.027489605114364629 -0.028992458458087032 0 0.027683524194253972 -0.028624779906983099 0 0.027489605114364629 -0.028992458458087032 0 0.027926998945208018 -0.028639615724387564 0 0.027683524194253972 -0.028624779906983099 0 0.02761020812043553 -0.028515918475800282 0 0.027683524194253972 -0.028624779906983099 0 0.027724747477695759 -0.028316665711952162 0 0.027683524194253972 -0.028624779906983099 0 0.027724747477695759 -0.028316665711952162 0 0.027957290860740645 -0.028416981683900649 0 0.027724747477695759 -0.028316665711952162 0 0.027957290860740645 -0.028416981683900649 0 0.028031725672257674 -0.0281007853826152 0 0.02833493858423472 -0.028370461648001645 0 0.027957290860740645 -0.028416981683900649 0 0.028031725672257674 -0.0281007853826152 0 0.028235303056374474 -0.028532980146795599 0 0.027926998945208018 -0.028639615724387564 0 0.027957290860740645 -0.028416981683900649 0 0.02833493858423472 -0.028370461648001645 0 0.028235303056374474 -0.028532980146795599 0 0.027957290860740645 -0.028416981683900649 0 0.02833493858423472 -0.028370461648001645 0 0.028031725672257674 -0.0281007853826152 0 0.028452804075923269 -0.028050671895985688 0 0.028031725672257674 -0.0281007853826152 0 0.02824185864015195 -0.027858778761536928 0 0.028452804075923269 -0.028050671895985688 0 0.027680706527890873 -0.027981223645223326 0 0.028031725672257674 -0.0281007853826152 0 0.027984403201507246 -0.027624931905430711 0 0.027680706527890873 -0.027981223645223326 0 0.027724747477695759 -0.028316665711952162 0 0.028031725672257674 -0.0281007853826152 0 0.027550974264093964 -0.027662619752512118 0 0.027680706527890873 -0.027981223645223326 0 0.027984403201507246 -0.027624931905430711 0 0.028031725672257674 -0.0281007853826152 0 0.027984403201507246 -0.027624931905430711 0 0.02824185864015195 -0.027858778761536928 0 0.027984403201507246 -0.027624931905430711 0 0.02824185864015195 -0.027858778761536928 0 0.028579890758202026 -0.02756857863588506 0 0.02824185864015195 -0.027858778761536928 0 0.028579890758202026 -0.02756857863588506 0 0.028452804075923269 -0.028050671895985688 0 0.028579890758202026 -0.02756857863588506 0 0.028986108610416495 -0.027729510586825008 0 0.028452804075923269 -0.028050671895985688 0 0.029615018915193837 -0.02747861705140375 0 0.028986108610416495 -0.027729510586825008 0 0.029012260971288471 -0.027230774463104287 0 0.028579890758202026 -0.02756857863588506 0 0.028986108610416495 -0.027729510586825008 0 0.029012260971288471 -0.027230774463104287 0 0.028986108610416495 -0.027729510586825008 0 0.0287088304774623 -0.02832313983529661 0 0.028452804075923269 -0.028050671895985688 0 0.029532690494798185 -0.028247713020116083 0 0.028538162655742563 -0.028385466001473444 0 0.029189866831866924 -0.028024678907592523 0 0.028986108610416495 -0.027729510586825008 0 0.0287088304774623 -0.02832313983529661 0 0.029189866831866924 -0.028024678907592523 0 0.029339949074818673 -0.028234757547508458 0 0.0287088304774623 -0.02832313983529661 0 0.02833493858423472 -0.028370461648001645 0 0.0287088304774623 -0.02832313983529661 0 0.028452804075923269 -0.028050671895985688 0 0.028958883411404769 -0.02668779029701886 0 0.028395813943765769 -0.027054894947519968 0 0.028688682653724637 -0.026251017987504361 0 0.028395813943765769 -0.027054894947519968 0 0.028107468778327326 -0.026599360148243361 0 0.028688682653724637 -0.026251017987504361 0 0.029497490412975187 -0.026856405979237909 0 0.028958883411404769 -0.02668779029701886 0 0.029313325938089042 -0.025959642201174769 0 0.029497490412975187 -0.026856405979237909 0 0.028958883411404769 -0.02668779029701886 0 0.029012260971288471 -0.027230774463104287 0 0.028958883411404769 -0.02668779029701886 0 0.029012260971288471 -0.027230774463104287 0 0.028395813943765769 -0.027054894947519968 0 0.028579890758202026 -0.02756857863588506 0 0.029012260971288471 -0.027230774463104287 0 0.028395813943765769 -0.027054894947519968 0 0.027984403201507246 -0.027624931905430711 0 0.028579890758202026 -0.02756857863588506 0 0.028395813943765769 -0.027054894947519968 0 0.027984403201507246 -0.027624931905430711 0 0.028395813943765769 -0.027054894947519968 0 0.0278263230984181 -0.027161551252649328 0 0.027550974264093964 -0.027662619752512118 0 0.027984403201507246 -0.027624931905430711 0 0.0278263230984181 -0.027161551252649328 0 0.0278263230984181 -0.027161551252649328 0 0.028107468778327326 -0.026599360148243361 0 0.02768361341258211 -0.026539223019571633 0 0.028395813943765769 -0.027054894947519968 0 0.0278263230984181 -0.027161551252649328 0 0.028107468778327326 -0.026599360148243361 0 0.028107468778327326 -0.026599360148243361 0 0.02768361341258211 -0.026539223019571633 0 0.028263738488055547 -0.025691110252365163 0 0.028107468778327326 -0.026599360148243361 0 0.028263738488055547 -0.025691110252365163 0 0.028688682653724637 -0.026251017987504361 0 0.030090073399937002 -0.024193652831976716 0 0.029780391887947927 -0.024293774470576658 0 0.032420397319106786 -0.021883118098285578 0 0.032099990429840186 -0.022980717757983046 0 0.031167271624874433 -0.022848646978373778 0 0.032420397319106786 -0.021883118098285578 0 0.032099990429840186 -0.022980717757983046 0 0.032879821465808735 -0.023004842659124662 0 0.032099990429840186 -0.022980717757983046 0 0.031167271624874433 -0.022848646978373778 0 0.031520650751522716 -0.02375617591862737 0 0.028263738488055547 -0.025691110252365163 0 0.028688682653724637 -0.026251017987504361 0 0.029534497503401515 -0.024769059387147723 0 0.029780391887947927 -0.024293774470576658 0 0.029592603692725261 -0.024667333239661308 0 0.028958883411404769 -0.02668779029701886 0 0.028688682653724637 -0.026251017987504361 0 0.029313325938089042 -0.025959642201174769 0 0.028688682653724637 -0.026251017987504361 0 0.029313325938089042 -0.025959642201174769 0 0.029534497503401515 -0.024769059387147723 0 0.029534038235282251 -0.025231709470778445 0 0.029534497503401515 -0.024769059387147723 0 0.030562891860812093 -0.024568440030983484 0 0.029534497503401515 -0.024769059387147723 0 0.030562891860812093 -0.024568440030983484 0 0.031520650751522716 -0.02375617591862737 0 0.031167271624874433 -0.022848646978373778 0 0.029534497503401515 -0.024769059387147723 0 0.031520650751522716 -0.02375617591862737 0 0.029534038235282251 -0.025231709470778445 0 0.030562891860812093 -0.024568440030983484 0 0.030054379135502331 -0.025270728844618322 0 0.030562891860812093 -0.024568440030983484 0 0.030054379135502331 -0.025270728844618322 0 0.030898376896120468 -0.025185098310163721 0 0.030591064299571518 -0.024258693441718479 0 0.031275645098758464 -0.025130229845212848 0 0.030054379135502331 -0.025270728844618322 0 0.030463923570159528 -0.025696439226003252 0 0.030898376896120468 -0.025185098310163721 0 0.031347789489570788 -0.019413924584631852 0 0.031993311073999595 -0.019510363650360959 0 0.029752918816629219 -0.025573083391998201 0 0.030054379135502331 -0.025270728844618322 0 0.030463923570159528 -0.025696439226003252 0 0.032332434338863549 -0.023552165037193797 0 0.032317943323962331 -0.023514825962604541 0 0.032828194229205444 -0.022921661767317001 0 0.033666914673101025 -0.020684609734030034 0 0.035120252938195581 -0.020946652683185144 0 0.032332434338863549 -0.023552165037193797 0 0.032828194229205444 -0.022921661767317001 0 0.033297022647125515 -0.023159268007530827 0 0.031993311073999595 -0.019510363650360959 0 0.033666914673101025 -0.020684609734030034 0 0.030463923570159528 -0.025696439226003252 0 0.031314248844545187 -0.025683105411711867 0 0.030898376896120468 -0.025185098310163721 0 0.033666914673101025 -0.020684609734030034 0 0.031275645098758464 -0.025130229845212848 0 0.032332434338863549 -0.023552165037193797 0 0.031822660457153609 -0.023993689599827964 0 0.032317943323962331 -0.023514825962604541 0 0.031822660457153609 -0.023993689599827964 0 0.032317943323962331 -0.023514825962604541 0 0.032338632842108403 -0.023672652917500474 0 0.032317943323962331 -0.023514825962604541 0 0.032338632842108403 -0.023672652917500474 0 0.032828194229205444 -0.022921661767317001 0 0.031822660457153609 -0.023993689599827964 0 0.032338632842108403 -0.023672652917500474 0 0.031520650751522716 -0.02375617591862737 0 0.030562891860812093 -0.024568440030983484 0 0.031822660457153609 -0.023993689599827964 0 0.031520650751522716 -0.02375617591862737 0 0.032099990429840186 -0.022980717757983046 0 0.032338632842108403 -0.023672652917500474 0 0.031520650751522716 -0.02375617591862737 0 0.032099990429840186 -0.022980717757983046 0 0.032338632842108403 -0.023672652917500474 0 0.032879821465808735 -0.023004842659124662 0 0.032879821465808735 -0.023004842659124662 0 0.032963958273663704 -0.023641587850500478 0 0.034067645453884118 -0.023086737028141929 0 0.032879821465808735 -0.023004842659124662 0 0.034067645453884118 -0.023086737028141929 0 0.033773133933441939 -0.022110915561366351 0 0.033767387988473931 -0.022222810508533065 0 0.034668985920819032 -0.021911339521876762 0 0.032338632842108403 -0.023672652917500474 0 0.032879821465808735 -0.023004842659124662 0 0.032963958273663704 -0.023641587850500478 0 0.034543429430492621 -0.020749252174703654 0 0.034440942128711557 -0.02180454909377234 0 0.032828194229205444 -0.022921661767317001 0 0.032338632842108403 -0.023672652917500474 0 0.032963958273663704 -0.023641587850500478 0 0.032828194229205444 -0.022921661767317001 0 0.033767387988473931 -0.022222810508533065 0 0.032930931396897525 -0.022862732093224605 0 0.034543429430492621 -0.020749252174703654 0 0.034440942128711557 -0.02180454909377234 0 0.035391076686913152 -0.020812787465780486 0 0.034440942128711557 -0.02180454909377234 0 0.03494797763921148 -0.021676327297869249 0 0.033297022647125515 -0.023159268007530827 0 0.034440942128711557 -0.02180454909377234 0 0.03494797763921148 -0.021676327297869249 0 0.035391076686913152 -0.020812787465780486 0 0.035097345152953111 -0.020325978844764035 0 0.035120252938195581 -0.020946652683185144 0 0.034440942128711557 -0.02180454909377234 0 0.032828194229205444 -0.022921661767317001 0 0.033297022647125515 -0.023159268007530827 0 0.035309592127416897 -0.019967269327514487 0 0.035391076686913152 -0.020812787465780486 0 0.035259874880037262 -0.020327625312148545 0 0.035097345152953111 -0.020325978844764035 0 0.035167531418166559 -0.020035607763556035 0 0.03494797763921148 -0.021676327297869249 0 0.035309592127416897 -0.019967269327514487 0 0.035391076686913152 -0.020812787465780486 0 0.035391076686913152 -0.020812787465780486 0 0.03537518676309042 -0.020756778060800528 0 0.035259874880037262 -0.020327625312148545 0 0.035391076686913152 -0.020812787465780486 0 0.035384302738431461 -0.020820194566307602 0 0.03537518676309042 -0.020756778060800528 0 0.034543429430492621 -0.020749252174703654 0 0.035391076686913152 -0.020812787465780486 0 0.035339457212203683 -0.020758935665891889 0 0.035391076686913152 -0.020812787465780486 0 0.035384302738431461 -0.020820194566307602 0 0.035339457212203683 -0.020758935665891889 0 0.035384302738431461 -0.020820194566307602 0 0.035339457212203683 -0.020758935665891889 0 0.035320571360997602 -0.021109446505549804 0 0.035384302738431461 -0.020820194566307602 0 0.035320571360997602 -0.021109446505549804 0 0.03537518676309042 -0.020756778060800528 0 0.035339457212203683 -0.020758935665891889 0 0.035320571360997602 -0.021109446505549804 0 0.035214257000885894 -0.021612476420506739 0 0.035320571360997602 -0.021109446505549804 0 0.035214257000885894 -0.021612476420506739 0 0.035355651168446862 -0.021400333666134204 0 0.035214257000885894 -0.021612476420506739 0 0.035258061480736597 -0.021310769864078188 0 0.035355651168446862 -0.021400333666134204 0 0.035214257000885894 -0.021612476420506739 0 0.035258061480736597 -0.021310769864078188 0 0.034734771309411661 -0.021365267466320562 0 0.034734771309411661 -0.021365267466320562 0 0.033773133933441939 -0.022110915561366351 0 0.033838922590697491 -0.021091153397371273 0 0.034668985920819032 -0.021911339521876762 0 0.035153262384852009 -0.021639618753017439 0 0.034067645453884118 -0.023086737028141929 0 0.035214257000885894 -0.021612476420506739 0 0.033773133933441939 -0.022110915561366351 0 0.035214257000885894 -0.021612476420506739 0 0.034734771309411661 -0.021365267466320562 0 0.033773133933441939 -0.022110915561366351 0 0.032420397319106786 -0.021883118098285578 0 0.032879821465808735 -0.023004842659124662 0 0.033773133933441939 -0.022110915561366351 0 0.030090073399937002 -0.024193652831976716 0 0.030666924724600891 -0.024166106109792956 0 0.032420397319106786 -0.021883118098285578 0 0.033773133933441939 -0.022110915561366351 0 0.033838922590697491 -0.021091153397371273 0 0.027418581679691894 -0.027221040707544806 0 0.027541315534499344 -0.027320568931012 0 0.027399318034155396 -0.027663295284741027 0 0.0278263230984181 -0.027161551252649328 0 0.02768361341258211 -0.026539223019571633 0 0.027541315534499344 -0.027320568931012 0 0.02768361341258211 -0.026539223019571633 0 0.027418581679691894 -0.027221040707544806 0 0.027541315534499344 -0.027320568931012 0 0.027550974264093964 -0.027662619752512118 0 0.0278263230984181 -0.027161551252649328 0 0.027541315534499344 -0.027320568931012 0 0.027550974264093964 -0.027662619752512118 0 0.027541315534499344 -0.027320568931012 0 0.027399318034155396 -0.027663295284741027 0 0.02727177690400882 -0.027826248413567543 0 0.027399318034155396 -0.027663295284741027 0 0.027476677362847219 -0.027982169748459934 0 0.028391134482816834 -0.030995531876393818 0 0.027476677362847219 -0.027982169748459934 0 0.02681030622424652 -0.029810512771480002 0 0.027803311828945049 -0.029475762458248126 0 0.027514106964770198 -0.028058800350353338 0 0.027399318034155396 -0.027663295284741027 0 0.027600768096189277 -0.027709278244754068 0 0.027476677362847219 -0.027982169748459934 0 0.035258061480736597 -0.021310769864078188 0 0.034734771309411661 -0.021365267466320562 0 0.035105046229497887 -0.020997213918553633 0 0.027600768096189277 -0.027709278244754068 0 0.027476677362847219 -0.027982169748459934 0 0.025374159529712989 -0.029218759912031371 0 0.035258061480736597 -0.021310769864078188 0 0.035105046229497887 -0.020997213918553633 0 0.03539762805168703 -0.021274270745455941 0 0.034734771309411661 -0.021365267466320562 0 0.033838922590697491 -0.021091153397371273 0 0.035105046229497887 -0.020997213918553633 0 0.030666924724600891 -0.024166106109792956 0 0.031299478858613602 -0.02436738459856639 0 0.027418581679691894 -0.027221040707544806 0 0.027399318034155396 -0.027663295284741027 0 0.027600768096189277 -0.027709278244754068 0 0.035538370590309516 -0.021380734197735132 0 0.035616833425695611 -0.021490291777845498 0 0.035607435015098811 -0.021412397418333378 0 0.035538370590309516 -0.021380734197735132 0 0.035498800361628287 -0.021334119383802398 0 0.035616833425695611 -0.021490291777845498 0 0.035105046229497887 -0.020997213918553633 0 0.03539762805168703 -0.021274270745455941 0 0.035498800361628287 -0.021334119383802398 0 0.035538370590309516 -0.021380734197735132 0 0.03539762805168703 -0.021274270745455941 0 0.035461731389966035 -0.021372724660415121 0 0.035538370590309516 -0.021380734197735132 0 0.03539762805168703 -0.021274270745455941 0 0.035498800361628287 -0.021334119383802398 0 0.027476677362847219 -0.027982169748459934 0 0.02681030622424652 -0.029810512771480002 0 0.025374159529712989 -0.029218759912031371 0 0.025974411145104358 -0.030901056780717598 0 0.02681030622424652 -0.029810512771480002 0 0.025374159529712989 -0.029218759912031371 0 0.031299478858613602 -0.02436738459856639 0 0.030537307169101111 -0.025308496437501403 0 0.029597457907679686 -0.0255242958309067 0 0.030537307169101111 -0.025308496437501403 0 0.035649718590544048 -0.021553348648781397 0 0.035498800361628287 -0.021334119383802398 0 0.035616833425695611 -0.021490291777845498 0 0.024298481127018542 -0.030333881316649346 0 0.024866897508321172 -0.03033890073505011 0 0.025374159529712989 -0.029218759912031371 0 0.035649718590544048 -0.021553348648781397 0 0.035693273659848535 -0.02160929791146662 0 0.035616833425695611 -0.021490291777845498 0 0.035746159001641194 -0.021610944621732211 0 0.035649718590544048 -0.021553348648781397 0 0.035740733407931498 -0.021613235283465388 0 0.035746159001641194 -0.021610944621732211 0 0.035740733407931498 -0.021613235283465388 0 0.035799335563158202 -0.021624257193588226 0 0.035649718590544048 -0.021553348648781397 0 0.035693273659848535 -0.02160929791146662 0 0.035740733407931498 -0.021613235283465388 0 0.035693273659848535 -0.02160929791146662 0 0.035740733407931498 -0.021613235283465388 0 0.035867687266845312 -0.021861610619236662 0 0.035775671886883131 -0.022080264912087727 0 0.036121965480658207 -0.021464934428799671 0 0.035740733407931498 -0.021613235283465388 0 0.035867687266845312 -0.021861610619236662 0 0.035799335563158202 -0.021624257193588226 0 0.035693273659848535 -0.02160929791146662 0 0.035867687266845312 -0.021861610619236662 0 0.035731603267415049 -0.021607497080772656 0 0.035693273659848535 -0.02160929791146662 0 0.035731603267415049 -0.021607497080772656 0 0.035616833425695611 -0.021490291777845498 0 0.035731603267415049 -0.021607497080772656 0 0.035616833425695611 -0.021490291777845498 0 0.035607435015098811 -0.021412397418333378 0 0.035708579007680451 -0.021446942616259523 0 0.035624491171722145 -0.021257223528110106 0 0.035607435015098811 -0.021412397418333378 0 0.035731603267415049 -0.021607497080772656 0 0.035708579007680451 -0.021446942616259523 0 0.035607435015098811 -0.021412397418333378 0 0.035867687266845312 -0.021861610619236662 0 0.035731603267415049 -0.021607497080772656 0 0.035848129015165112 -0.021653074690386093 0 0.035731603267415049 -0.021607497080772656 0 0.035708579007680451 -0.021446942616259523 0 0.035848129015165112 -0.021653074690386093 0 0.035867687266845312 -0.021861610619236662 0 0.035848129015165112 -0.021653074690386093 0 0.035926705655067642 -0.02198833560413203 0 0.035708579007680451 -0.021446942616259523 0 0.035848129015165112 -0.021653074690386093 0 0.035744872654500374 -0.021247924922972089 0 0.035848129015165112 -0.021653074690386093 0 0.035744872654500374 -0.021247924922972089 0 0.035858358186224369 -0.021339497279806309 0 0.035744872654500374 -0.021247924922972089 0 0.035624491171722145 -0.021257223528110106 0 0.035602469334243748 -0.020917915068991481 0 0.035708579007680451 -0.021446942616259523 0 0.035744872654500374 -0.021247924922972089 0 0.035624491171722145 -0.021257223528110106 0 0.035624491171722145 -0.021257223528110106 0 0.035607435015098811 -0.021412397418333378 0 0.035466419766416929 -0.021187391365291061 0 0.035538370590309516 -0.021380734197735132 0 0.035607435015098811 -0.021412397418333378 0 0.035461731389966035 -0.021372724660415121 0 0.035607435015098811 -0.021412397418333378 0 0.035461731389966035 -0.021372724660415121 0 0.035466419766416929 -0.021187391365291061 0 0.035258061480736597 -0.021310769864078188 0 0.035461731389966035 -0.021372724660415121 0 0.035355651168446862 -0.021400333666134204 0 0.035258061480736597 -0.021310769864078188 0 0.03539762805168703 -0.021274270745455941 0 0.035461731389966035 -0.021372724660415121 0 0.035320571360997602 -0.021109446505549804 0 0.035355651168446862 -0.021400333666134204 0 0.035466419766416929 -0.021187391365291061 0 0.035461731389966035 -0.021372724660415121 0 0.035355651168446862 -0.021400333666134204 0 0.035466419766416929 -0.021187391365291061 0 0.035466419766416929 -0.021187391365291061 0 0.035439917780678155 -0.020599010040832942 0 0.03537518676309042 -0.020756778060800528 0 0.035320571360997602 -0.021109446505549804 0 0.035466419766416929 -0.021187391365291061 0 0.03537518676309042 -0.020756778060800528 0 0.035624491171722145 -0.021257223528110106 0 0.035466419766416929 -0.021187391365291061 0 0.035602469334243748 -0.020917915068991481 0 0.035466419766416929 -0.021187391365291061 0 0.035439917780678155 -0.020599010040832942 0 0.035602469334243748 -0.020917915068991481 0 0.035439917780678155 -0.020599010040832942 0 0.03537518676309042 -0.020756778060800528 0 0.035259874880037262 -0.020327625312148545 0 0.035439917780678155 -0.020599010040832942 0 0.035259874880037262 -0.020327625312148545 0 0.03522408528617145 -0.019966960430435179 0 0.03522408528617145 -0.019966960430435179 0 0.035083658638881791 -0.019767372664745868 0 0.035034044857105741 -0.019536093779905138 0 0.03522408528617145 -0.019966960430435179 0 0.035132166987510795 -0.019489342840590534 0 0.035034044857105741 -0.019536093779905138 0 0.035259874880037262 -0.020327625312148545 0 0.03522408528617145 -0.019966960430435179 0 0.035083658638881791 -0.019767372664745868 0 0.035309592127416897 -0.019967269327514487 0 0.035259874880037262 -0.020327625312148545 0 0.035083658638881791 -0.019767372664745868 0 0.03522408528617145 -0.019966960430435179 0 0.035454818300987866 -0.01965661187369994 0 0.035132166987510795 -0.019489342840590534 0 0.03522408528617145 -0.019966960430435179 0 0.035454818300987866 -0.01965661187369994 0 0.03552958521935231 -0.020300254174242454 0 0.035439917780678155 -0.020599010040832942 0 0.03522408528617145 -0.019966960430435179 0 0.03552958521935231 -0.020300254174242454 0 0.035454818300987866 -0.01965661187369994 0 0.03552958521935231 -0.020300254174242454 0 0.035761935497781255 -0.020156320644770041 0 0.03552958521935231 -0.020300254174242454 0 0.035746308279398252 -0.020805367368414464 0 0.035761935497781255 -0.020156320644770041 0 0.03552958521935231 -0.020300254174242454 0 0.035602469334243748 -0.020917915068991481 0 0.035746308279398252 -0.020805367368414464 0 0.035439917780678155 -0.020599010040832942 0 0.03552958521935231 -0.020300254174242454 0 0.035602469334243748 -0.020917915068991481 0 0.035744872654500374 -0.021247924922972089 0 0.035602469334243748 -0.020917915068991481 0 0.035746308279398252 -0.020805367368414464 0 0.035744872654500374 -0.021247924922972089 0 0.035746308279398252 -0.020805367368414464 0 0.035858358186224369 -0.021339497279806309 0 0.035831707587271409 -0.020784540699051182 0 0.035858358186224369 -0.021339497279806309 0 0.035899603752658743 -0.021334907923114831 0 0.035746308279398252 -0.020805367368414464 0 0.035831707587271409 -0.020784540699051182 0 0.035858358186224369 -0.021339497279806309 0 0.035831707587271409 -0.020784540699051182 0 0.035859926450739155 -0.021015718474900687 0 0.035899603752658743 -0.021334907923114831 0 0.035868012253314652 -0.021275041432151476 0 0.035859926450739155 -0.021015718474900687 0 0.035899603752658743 -0.021334907923114831 0 0.035831707587271409 -0.020784540699051182 0 0.035859926450739155 -0.021015718474900687 0 0.035806115211671118 -0.020622206492615019 0 0.035868012253314652 -0.021275041432151476 0 0.035859926450739155 -0.021015718474900687 0 0.035806115211671118 -0.020622206492615019 0 0.035868012253314652 -0.021275041432151476 0 0.035806115211671118 -0.020622206492615019 0 0.03570279308303044 -0.020669604699598165 0 0.035806115211671118 -0.020622206492615019 0 0.035761935497781255 -0.020156320644770041 0 0.035688981343797596 -0.019834781011448418 0 0.035806115211671118 -0.020622206492615019 0 0.035688981343797596 -0.019834781011448418 0 0.03570279308303044 -0.020669604699598165 0 0.035746308279398252 -0.020805367368414464 0 0.035831707587271409 -0.020784540699051182 0 0.035761935497781255 -0.020156320644770041 0 0.035831707587271409 -0.020784540699051182 0 0.035806115211671118 -0.020622206492615019 0 0.035761935497781255 -0.020156320644770041 0 0.035454818300987866 -0.01965661187369994 0 0.035761935497781255 -0.020156320644770041 0 0.035718899754493043 -0.019327715855698781 0 0.035761935497781255 -0.020156320644770041 0 0.035718899754493043 -0.019327715855698781 0 0.035688981343797596 -0.019834781011448418 0 0.035678891985147135 -0.018442636488041599 0 0.035718899754493043 -0.019327715855698781 0 0.035688981343797596 -0.019834781011448418 0 0.035678891985147135 -0.018442636488041599 0 0.035718899754493043 -0.019327715855698781 0 0.035465688637850774 -0.019321671175659545 0 0.035454818300987866 -0.01965661187369994 0 0.035718899754493043 -0.019327715855698781 0 0.035465688637850774 -0.019321671175659545 0 0.034999440164121792 -0.018385435462184636 0 0.035451419636304327 -0.018995290917041965 0 0.035383816586492582 -0.017694906954526152 0 0.035678891985147135 -0.018442636488041599 0 0.035451419636304327 -0.018995290917041965 0 0.035383816586492582 -0.017694906954526152 0 0.035451419636304327 -0.018995290917041965 0 0.035688981343797596 -0.019834781011448418 0 0.03550147989965842 -0.02018974048179541 0 0.035678891985147135 -0.018442636488041599 0 0.035451419636304327 -0.018995290917041965 0 0.035688981343797596 -0.019834781011448418 0 0.034999440164121792 -0.018385435462184636 0 0.035451419636304327 -0.018995290917041965 0 0.034999605256902891 -0.020177794444690391 0 0.035451419636304327 -0.018995290917041965 0 0.034999605256902891 -0.020177794444690391 0 0.03550147989965842 -0.02018974048179541 0 0.034999605256902891 -0.020177794444690391 0 0.03550147989965842 -0.02018974048179541 0 0.035567291998525985 -0.021261414883198257 0 0.03550147989965842 -0.02018974048179541 0 0.03570279308303044 -0.020669604699598165 0 0.035567291998525985 -0.021261414883198257 0 0.035688981343797596 -0.019834781011448418 0 0.03550147989965842 -0.02018974048179541 0 0.03570279308303044 -0.020669604699598165 0 0.035868012253314652 -0.021275041432151476 0 0.03570279308303044 -0.020669604699598165 0 0.035567291998525985 -0.021261414883198257 0 0.034999605256902891 -0.020177794444690391 0 0.035567291998525985 -0.021261414883198257 0 0.034999556550737526 -0.021969113199266969 0 0.035567291998525985 -0.021261414883198257 0 0.034999556550737526 -0.021969113199266969 0 0.035765722094895716 -0.022355733776833368 0 0.034999556550737526 -0.021969113199266969 0 0.035000007848437167 -0.023761300573953467 0 0.035765722094895716 -0.022355733776833368 0 0.035000077993742142 -0.023761286020898307 0 0.035622150991564447 -0.022368922374007626 0 0.034999130706654225 -0.023761408112355952 0 0.035680415289306752 -0.023291715150566005 0 0.035000482141689923 -0.024757997874798935 0 0.034999130706654225 -0.023761408112355952 0 0.035680415289306752 -0.023291715150566005 0 0.035507521510829712 -0.022408369828015168 0 0.035733940738280998 -0.022955917114876163 0 0.035952164553673088 -0.021995765557007163 0 0.035808137889264992 -0.022608852401511496 0 0.035910268453015551 -0.021835553020443581 0 0.035982769407043022 -0.022315962996017073 0 0.035808137889264992 -0.022608852401511496 0 0.035982769407043022 -0.022315962996017073 0 0.036118277437094191 -0.022864640803997086 0 0.035868012253314652 -0.021275041432151476 0 0.035567291998525985 -0.021261414883198257 0 0.035765722094895716 -0.022355733776833368 0 0.035680415289306752 -0.023291715150566005 0 0.035507521510829712 -0.022408369828015168 0 0.035910268453015551 -0.021835553020443581 0 0.035868012253314652 -0.021275041432151476 0 0.035507521510829712 -0.022408369828015168 0 0.035910268453015551 -0.021835553020443581 0 0.03591740707150836 -0.021436876281800358 0 0.035622150991564447 -0.022368922374007626 0 0.035868012253314652 -0.021275041432151476 0 0.035910268453015551 -0.021835553020443581 0 0.035899603752658743 -0.021334907923114831 0 0.035910268453015551 -0.021835553020443581 0 0.035941622244379995 -0.021796772169629667 0 0.035956450066969597 -0.022039963125742201 0 0.035910268453015551 -0.021835553020443581 0 0.035899603752658743 -0.021334907923114831 0 0.035941622244379995 -0.021796772169629667 0 0.035848129015165112 -0.021653074690386093 0 0.035858358186224369 -0.021339497279806309 0 0.035941622244379995 -0.021796772169629667 0 0.035858358186224369 -0.021339497279806309 0 0.035899603752658743 -0.021334907923114831 0 0.035941622244379995 -0.021796772169629667 0 0.035848129015165112 -0.021653074690386093 0 0.035941622244379995 -0.021796772169629667 0 0.035926705655067642 -0.02198833560413203 0 0.035941622244379995 -0.021796772169629667 0 0.035926705655067642 -0.02198833560413203 0 0.035996698136313281 -0.022291580252343974 0 0.035910268453015551 -0.021835553020443581 0 0.035982769407043022 -0.022315962996017073 0 0.035956450066969597 -0.022039963125742201 0 0.035982769407043022 -0.022315962996017073 0 0.035956450066969597 -0.022039963125742201 0 0.035996698136313281 -0.022291580252343974 0 0.035941622244379995 -0.021796772169629667 0 0.035956450066969597 -0.022039963125742201 0 0.035996698136313281 -0.022291580252343974 0 0.035982769407043022 -0.022315962996017073 0 0.035996698136313281 -0.022291580252343974 0 0.036118277437094191 -0.022864640803997086 0 0.035981334694382465 -0.02249781093186452 0 0.035913113323471017 -0.02223066683650796 0 0.036000078652475356 -0.022430370592504703 0 0.036118277437094191 -0.022864640803997086 0 0.035981334694382465 -0.02249781093186452 0 0.036000078652475356 -0.022430370592504703 0 0.035996698136313281 -0.022291580252343974 0 0.036118277437094191 -0.022864640803997086 0 0.035981334694382465 -0.02249781093186452 0 0.035996698136313281 -0.022291580252343974 0 0.035981334694382465 -0.02249781093186452 0 0.035913113323471017 -0.02223066683650796 0 0.035867687266845312 -0.021861610619236662 0 0.035926705655067642 -0.02198833560413203 0 0.035913113323471017 -0.02223066683650796 0 0.035926705655067642 -0.02198833560413203 0 0.035996698136313281 -0.022291580252343974 0 0.035913113323471017 -0.02223066683650796 0 0.035867687266845312 -0.021861610619236662 0 0.035913113323471017 -0.02223066683650796 0 0.035943468970534638 -0.022304501747496094 0 0.035961752369565045 -0.022346086142193869 0 0.035943468970534638 -0.022304501747496094 0 0.036000078652475356 -0.022430370592504703 0 0.035913113323471017 -0.02223066683650796 0 0.035943468970534638 -0.022304501747496094 0 0.036000078652475356 -0.022430370592504703 0 0.035420413515966316 -0.02545114954011931 0 0.036121965480658207 -0.021464934428799671 0 0.035420413515966316 -0.02545114954011931 0 0.037051981106176503 -0.023908748444742115 0 0.036490610634630813 -0.026496088168316497 0 0.03780007142313499 -0.02534630772128519 0 0.035828127846559386 -0.025285809640368851 0 0.03780007142313499 -0.02534630772128519 0 0.035828127846559386 -0.025285809640368851 0 0.036196377319990619 -0.023524658435837037 0 0.037051981106176503 -0.023908748444742115 0 0.03619467230880203 -0.023452849910836304 0 0.03499994168639093 -0.026520956898761602 0 0.035828127846559386 -0.025285809640368851 0 0.034999158482566531 -0.024755739641012815 0 0.035828127846559386 -0.025285809640368851 0 0.034999158482566531 -0.024755739641012815 0 0.036196377319990619 -0.023524658435837037 0 0.035808137889264992 -0.022608852401511496 0 0.034999158482566531 -0.024755739641012815 0 0.036196377319990619 -0.023524658435837037 0 0.035733940738280998 -0.022955917114876163 0 0.03500012697381271 -0.024757605668398797 0 0.036118277437094191 -0.022864640803997086 0 0.036000078652475356 -0.022430370592504703 0 0.036196377319990619 -0.023524658435837037 0 0.035808137889264992 -0.022608852401511496 0 0.036118277437094191 -0.022864640803997086 0 0.036196377319990619 -0.023524658435837037 0 0.036651740332435422 -0.010581174898644227 0 0.035826847497868471 -0.0099653857494494628 0 0.03609218482172924 -0.011332728765266807 0 0.034999906625553273 -0.010322838387051031 0 0.035826847497868471 -0.0099653857494494628 0 0.03609218482172924 -0.011332728765266807 0 0.034999906625553273 -0.010322838387051031 0 0.034999965895071879 -0.0087858199104812098 0 0.035826847497868471 -0.0099653857494494628 0 0.034999965895071879 -0.0087858199104812098 0 0.035826847497868471 -0.0099653857494494628 0 0.03646759943503923 -0.0092312258463344322 0 0.035000171676451905 -0.0087855135156478734 0 0.036179803635235382 -0.008810658396975788 0 0.036651740332435422 -0.010581174898644227 0 0.035826847497868471 -0.0099653857494494628 0 0.03646759943503923 -0.0092312258463344322 0 0.036651740332435422 -0.010581174898644227 0 0.03646759943503923 -0.0092312258463344322 0 0.037284491397459193 -0.010022355802667216 0 0.036037656933017997 -0.0083386958330461721 0 0.036705965243025267 -0.0081675386631533658 0 0.036410680805552369 -0.008024808104512008 0 0.03646759943503923 -0.0092312258463344322 0 0.037926282231375431 -0.0096231614711691088 0 0.037284491397459193 -0.010022355802667216 0 0.036179803635235382 -0.008810658396975788 0 0.037429703531223095 -0.0086408295805392547 0 0.036641807986694155 -0.0079911239416464597 0 0.036682194066199582 -0.0081756171405536239 0 0.036735131166831754 -0.0078012943980957216 0 0.036641807986694155 -0.0079911239416464597 0 0.036705965243025267 -0.0081675386631533658 0 0.036410680805552369 -0.008024808104512008 0 0.036641807986694155 -0.0079911239416464597 0 0.036682194066199582 -0.0081756171405536239 0 0.036705965243025267 -0.0081675386631533658 0 0.037926282231375431 -0.0096231614711691088 0 0.037802550960710571 -0.010034752644386944 0 0.037284491397459193 -0.010022355802667216 0 0.037926282231375431 -0.0096231614711691088 0 0.037802550960710571 -0.010034752644386944 0 0.038215749638464601 -0.010109212553588657 0 0.036682194066199582 -0.0081756171405536239 0 0.036705965243025267 -0.0081675386631533658 0 0.036353993794744556 -0.0081791219004166728 0 0.037037530451410373 -0.0071181560862841079 0 0.036423615132179801 -0.011352648898738745 0 0.037429703531223095 -0.0086408295805392547 0 0.036706770198007777 -0.012486539606792935 0 0.036682194066199582 -0.0081756171405536239 0 0.036353993794744556 -0.0081791219004166728 0 0.036233031794234941 -0.0085175159328606635 0 0.037926282231375431 -0.0096231614711691088 0 0.03854319321451128 -0.010009909539484203 0 0.039167628102036035 -0.0099074209219125291 0 0.037926282231375431 -0.0096231614711691088 0 0.03854319321451128 -0.010009909539484203 0 0.038215749638464601 -0.010109212553588657 0 0.03854319321451128 -0.010009909539484203 0 0.0389602106577107 -0.010432847704413901 0 0.039167628102036035 -0.0099074209219125291 0 0.037631035671722879 -0.010888156812681389 0 0.038075434789302622 -0.012656944917057678 0 0.038918617809640656 -0.010904826562603963 0 0.038215749638464601 -0.010109212553588657 0 0.037904737952786413 -0.01047105285474593 0 0.0389602106577107 -0.010432847704413901 0 0.037939707423431251 -0.010606201917743681 0 0.037901717603348442 -0.012651727164004497 0 0.03854319321451128 -0.010009909539484203 0 0.038215749638464601 -0.010109212553588657 0 0.0389602106577107 -0.010432847704413901 0 0.036651740332435422 -0.010581174898644227 0 0.037631035671722879 -0.010888156812681389 0 0.037199509907123555 -0.012029371440429933 0 0.036651740332435422 -0.010581174898644227 0 0.037284491397459193 -0.010022355802667216 0 0.037904737952786413 -0.01047105285474593 0 0.036660726966898149 -0.010622156478955574 0 0.037939707423431251 -0.010606201917743681 0 0.037802550960710571 -0.010034752644386944 0 0.037284491397459193 -0.010022355802667216 0 0.037904737952786413 -0.01047105285474593 0 0.037802550960710571 -0.010034752644386944 0 0.038215749638464601 -0.010109212553588657 0 0.037904737952786413 -0.01047105285474593 0 0.037631035671722879 -0.010888156812681389 0 0.037199509907123555 -0.012029371440429933 0 0.038075434789302622 -0.012656944917057678 0 0.038277920970259123 -0.012601940491471659 0 0.037901717603348442 -0.012651727164004497 0 0.038075434789302622 -0.012656944917057678 0 0.037751644335077959 -0.013633431482055732 0 0.038063498315798409 -0.014145246391250912 0 0.038075434789302622 -0.012656944917057678 0 0.037633346051830469 -0.012895729543837579 0 0.037785050585092503 -0.012752025078311221 0 0.037199509907123555 -0.012029371440429933 0 0.037633346051830469 -0.012895729543837579 0 0.036794964711002978 -0.013014639800414226 0 0.037199509907123555 -0.012029371440429933 0 0.038075434789302622 -0.012656944917057678 0 0.037633346051830469 -0.012895729543837579 0 0.036651740332435422 -0.010581174898644227 0 0.037199509907123555 -0.012029371440429933 0 0.03609218482172924 -0.011332728765266807 0 0.037199509907123555 -0.012029371440429933 0 0.036794964711002978 -0.013014639800414226 0 0.03609218482172924 -0.011332728765266807 0 0.034999906625553273 -0.010322838387051031 0 0.03609218482172924 -0.011332728765266807 0 0.035000111236609774 -0.011860043130317218 0 0.036794964711002978 -0.013014639800414226 0 0.03609218482172924 -0.011332728765266807 0 0.035000111236609774 -0.011860043130317218 0 0.036736959536240864 -0.013013644958016175 0 0.034999999248939498 -0.011859721545464585 0 0.034999987333784517 -0.013437644349400087 0 0.036967745307386571 -0.012765673208317566 0 0.035000115379803846 -0.011860028364363428 0 0.036736959536240864 -0.013013644958016175 0 0.034999987333784517 -0.013437644349400087 0 0.036042637984873734 -0.014432806602759914 0 0.036736959536240864 -0.013013644958016175 0 0.036042637984873734 -0.014432806602759914 0 0.037299473207065469 -0.014937598919725584 0 0.036042637984873734 -0.014432806602759914 0 0.036158359549466217 -0.015758144996980788 0 0.037299473207065469 -0.014937598919725584 0 0.034999987333784517 -0.013437644349400087 0 0.036042637984873734 -0.014432806602759914 0 0.034999988256497992 -0.015015552829128899 0 0.036042637984873734 -0.014432806602759914 0 0.034999988256497992 -0.015015552829128899 0 0.036158359549466217 -0.015758144996980788 0 0.034999988256497992 -0.015015552829128899 0 0.036158359549466217 -0.015758144996980788 0 0.0349999929503063 -0.016593464842056566 0 0.035699687215883749 -0.016456670365906666 0 0.035000115830780741 -0.016593607842747993 0 0.035699687215883749 -0.016456670365906666 0 0.036429438952444458 -0.016088730494384966 0 0.03533209360272857 -0.017178034382122571 0 0.0355720377704127 -0.017462453067107184 0 0.035541105576057823 -0.017200995028764557 0 0.03533209360272857 -0.017178034382122571 0 0.035383816586492582 -0.017694906954526152 0 0.0355720377704127 -0.017462453067107184 0 0.035678891985147135 -0.018442636488041599 0 0.035383816586492582 -0.017694906954526152 0 0.0355720377704127 -0.017462453067107184 0 0.03533209360272857 -0.017178034382122571 0 0.035383816586492582 -0.017694906954526152 0 0.034999601140366481 -0.01659650514232415 0 0.034999440164121792 -0.018385435462184636 0 0.035383816586492582 -0.017694906954526152 0 0.034999601140366481 -0.01659650514232415 0 0.035588641549341583 -0.018465422319589028 0 0.035524647672352465 -0.018356639834869182 0 0.035678891985147135 -0.018442636488041599 0 0.035697146061050025 -0.017366515762096309 0 0.0355720377704127 -0.017462453067107184 0 0.0355720377704127 -0.017462453067107184 0 0.035570551353757619 -0.017230767201928301 0 0.035541105576057823 -0.017200995028764557 0 0.035697146061050025 -0.017366515762096309 0 0.035570551353757619 -0.017230767201928301 0 0.035305578307480497 -0.017096725489124297 0 0.035697146061050025 -0.017366515762096309 0 0.0355720377704127 -0.017462453067107184 0 0.035570551353757619 -0.017230767201928301 0 0.035570551353757619 -0.017230767201928301 0 0.035538372492636291 -0.017259374328287887 0 0.035305578307480497 -0.017096725489124297 0 0.036707108777561254 -0.015335236400099912 0 0.035121171069532053 -0.017225337136912641 0 0.035570551353757619 -0.017230767201928301 0 0.035541105576057823 -0.017200995028764557 0 0.035538372492636291 -0.017259374328287887 0 0.036429438952444458 -0.016088730494384966 0 0.036707108777561254 -0.015335236400099912 0 0.036736959536240864 -0.013013644958016175 0 0.037299473207065469 -0.014937598919725584 0 0.038430963453582552 -0.014137388839940188 0 0.036967745307386571 -0.012765673208317566 0 0.036707108777561254 -0.015335236400099912 0 0.037633346051830469 -0.012895729543837579 0 0.036794964711002978 -0.013014639800414226 0 0.03775614602778006 -0.013223375653662715 0 0.037633346051830469 -0.012895729543837579 0 0.03775614602778006 -0.013223375653662715 0 0.037785050585092503 -0.012752025078311221 0 0.03516052863534963 -0.016849123618034489 0 0.035305578307480497 -0.017096725489124297 0 0.03509583907881024 -0.016687496138472365 0 0.036707108777561254 -0.015335236400099912 0 0.036367225613800284 -0.014691193829710408 0 0.035068222817391186 -0.016940415320564187 0 0.035305578307480497 -0.017096725489124297 0 0.03509583907881024 -0.016687496138472365 0 0.03516052863534963 -0.016849123618034489 0 0.035097840997711231 -0.016565830452153124 0 0.03509583907881024 -0.016687496138472365 0 0.035225965681052518 -0.016979516491173654 0 0.035305578307480497 -0.017096725489124297 0 0.035296811043819411 -0.017071950012411703 0 0.035225965681052518 -0.016979516491173654 0 0.035296811043819411 -0.017071950012411703 0 0.035171522645472499 -0.016902746120594607 0 0.03516052863534963 -0.016849123618034489 0 0.035225965681052518 -0.016979516491173654 0 0.035305578307480497 -0.017096725489124297 0 0.03516052863534963 -0.016849123618034489 0 0.035225965681052518 -0.016979516491173654 0 0.035172415501209531 -0.016911798175076143 0 0.035697146061050025 -0.017366515762096309 0 0.035305578307480497 -0.017096725489124297 0 0.035296811043819411 -0.017071950012411703 0 0.035524647672352465 -0.018356639834869182 0 0.035165175497176876 -0.018162903334514462 0 0.035165175497176876 -0.018162903334514462 0 0.034965689444255585 -0.017680266259126717 0 0.035006861838440928 -0.019300067853241832 0 0.035132166987510795 -0.019489342840590534 0 0.034871668246172445 -0.019136252852326514 0 0.035465688637850774 -0.019321671175659545 0 0.035006861838440928 -0.019300067853241832 0 0.035132166987510795 -0.019489342840590534 0 0.035454818300987866 -0.01965661187369994 0 0.035465688637850774 -0.019321671175659545 0 0.035132166987510795 -0.019489342840590534 0 0.035083658638881791 -0.019767372664745868 0 0.034948462173296585 -0.019276819428028263 0 0.035034044857105741 -0.019536093779905138 0 0.035083658638881791 -0.019767372664745868 0 0.034948462173296585 -0.019276819428028263 0 0.035073237161767502 -0.018926315925201151 0 0.034948462173296585 -0.019276819428028263 0 0.034839795055883575 -0.018743284119313246 0 0.035073237161767502 -0.018926315925201151 0 0.035132166987510795 -0.019489342840590534 0 0.035034044857105741 -0.019536093779905138 0 0.034871668246172445 -0.019136252852326514 0 0.034948462173296585 -0.019276819428028263 0 0.035034044857105741 -0.019536093779905138 0 0.034871668246172445 -0.019136252852326514 0 0.034948462173296585 -0.019276819428028263 0 0.034871668246172445 -0.019136252852326514 0 0.034839795055883575 -0.018743284119313246 0 0.035006861838440928 -0.019300067853241832 0 0.034871668246172445 -0.019136252852326514 0 0.034665653832926108 -0.01852816289587322 0 0.034871668246172445 -0.019136252852326514 0 0.034839795055883575 -0.018743284119313246 0 0.034665653832926108 -0.01852816289587322 0 0.034839795055883575 -0.018743284119313246 0 0.03485244817063151 -0.018163583895748136 0 0.034665653832926108 -0.01852816289587322 0 0.034839795055883575 -0.018743284119313246 0 0.035000446300032226 -0.018166493041334688 0 0.035073237161767502 -0.018926315925201151 0 0.034839795055883575 -0.018743284119313246 0 0.03485244817063151 -0.018163583895748136 0 0.035000446300032226 -0.018166493041334688 0 0.03485244817063151 -0.018163583895748136 0 0.034665653832926108 -0.01852816289587322 0 0.0349560496615988 -0.017102285523828253 0 0.035171522645472499 -0.016902746120594607 0 0.035135547228569618 -0.01696983975479785 0 0.0349560496615988 -0.017102285523828253 0 0.034965689444255585 -0.017680266259126717 0 0.035038958929394209 -0.017170994655137325 0 0.03485244817063151 -0.018163583895748136 0 0.0349560496615988 -0.017102285523828253 0 0.035000446300032226 -0.018166493041334688 0 0.035225965681052518 -0.016979516491173654 0 0.035171522645472499 -0.016902746120594607 0 0.035172415501209531 -0.016911798175076143 0 0.035171522645472499 -0.016902746120594607 0 0.035135547228569618 -0.01696983975479785 0 0.035172415501209531 -0.016911798175076143 0 0.03516052863534963 -0.016849123618034489 0 0.035172415501209531 -0.016911798175076143 0 0.035132460210515339 -0.016699923363881392 0 0.035135547228569618 -0.01696983975479785 0 0.035172415501209531 -0.016911798175076143 0 0.035132460210515339 -0.016699923363881392 0 0.03516052863534963 -0.016849123618034489 0 0.035132460210515339 -0.016699923363881392 0 0.035097840997711231 -0.016565830452153124 0 0.035135547228569618 -0.01696983975479785 0 0.035132460210515339 -0.016699923363881392 0 0.035462991607947345 -0.016354935466851413 0 0.035135547228569618 -0.01696983975479785 0 0.034852707900253507 -0.016715624111215906 0 0.0349560496615988 -0.017102285523828253 0 0.035122303455417433 -0.016917081261763733 0 0.035154605335843553 -0.016526598453624516 0 0.035132460210515339 -0.016699923363881392 0 0.035462991607947345 -0.016354935466851413 0 0.035173084879611488 -0.016363266288118565 0 0.035462991607947345 -0.016354935466851413 0 0.035277800350792116 -0.015970433528689574 0 0.035173084879611488 -0.016363266288118565 0 0.035462991607947345 -0.016354935466851413 0 0.035277800350792116 -0.015970433528689574 0 0.035373554413520171 -0.01567054163183489 0 0.035277800350792116 -0.015970433528689574 0 0.035008576254956666 -0.016134090200144596 0 0.035332513898196589 -0.015303164063622107 0 0.035277800350792116 -0.015970433528689574 0 0.035332513898196589 -0.015303164063622107 0 0.035373554413520171 -0.01567054163183489 0 0.035797840552937332 -0.014810211891332938 0 0.035382560601166499 -0.015214881902376879 0 0.036457520111269008 -0.013442719924966455 0 0.035332513898196589 -0.015303164063622107 0 0.036166972387926703 -0.014550425194346437 0 0.036457520111269008 -0.013442719924966455 0 0.036883806062781375 -0.014034390070797249 0 0.036166972387926703 -0.014550425194346437 0 0.035008576254956666 -0.016134090200144596 0 0.035173084879611488 -0.016363266288118565 0 0.035097840997711231 -0.016565830452153124 0 0.035277800350792116 -0.015970433528689574 0 0.035008576254956666 -0.016134090200144596 0 0.035173084879611488 -0.016363266288118565 0 0.035132460210515339 -0.016699923363881392 0 0.035173084879611488 -0.016363266288118565 0 0.035097840997711231 -0.016565830452153124 0 0.036457520111269008 -0.013442719924966455 0 0.037785050585092503 -0.012752025078311221 0 0.037491943883251971 -0.013426086941031997 0 0.035797840552937332 -0.014810211891332938 0 0.036367225613800284 -0.014691193829710408 0 0.035008576254956666 -0.016134090200144596 0 0.035097840997711231 -0.016565830452153124 0 0.03509583907881024 -0.016687496138472365 0 0.038075434789302622 -0.012656944917057678 0 0.037785050585092503 -0.012752025078311221 0 0.037491943883251971 -0.013426086941031997 0 0.038075434789302622 -0.012656944917057678 0 0.037491943883251971 -0.013426086941031997 0 0.037751644335077959 -0.013633431482055732 0 0.037491943883251971 -0.013426086941031997 0 0.037751644335077959 -0.013633431482055732 0 0.037399373261021183 -0.013969522400125977 0 0.036457520111269008 -0.013442719924966455 0 0.037491943883251971 -0.013426086941031997 0 0.036883806062781375 -0.014034390070797249 0 0.037491943883251971 -0.013426086941031997 0 0.036883806062781375 -0.014034390070797249 0 0.037399373261021183 -0.013969522400125977 0 0.035298073720779873 -0.01542778888245031 0 0.035458467693920928 -0.015534145931664398 0 0.035175607115309697 -0.015523203655408982 0 0.036883806062781375 -0.014034390070797249 0 0.037399373261021183 -0.013969522400125977 0 0.036862432825262262 -0.014581151356623181 0 0.035298073720779873 -0.01542778888245031 0 0.035981713657480908 -0.015303756619558042 0 0.035458467693920928 -0.015534145931664398 0 0.035269201797989334 -0.015473887460858159 0 0.035227745574783052 -0.015519133852004553 0 0.035981713657480908 -0.015303756619558042 0 0.03588715628285561 -0.015559739364253372 0 0.035458467693920928 -0.015534145931664398 0 0.037399373261021183 -0.013969522400125977 0 0.036862432825262262 -0.014581151356623181 0 0.038063498315798409 -0.014145246391250912 0 0.03585223213207521 -0.015290346674339874 0 0.037901717603348442 -0.012651727164004497 0 0.037751644335077959 -0.013633431482055732 0 0.037399373261021183 -0.013969522400125977 0 0.038063498315798409 -0.014145246391250912 0 0.037901717603348442 -0.012651727164004497 0 0.036706770198007777 -0.012486539606792935 0 0.035392998931953842 -0.015485026126026797 0 0.03531184789259844 -0.015547543169304305 0 0.035253884214440624 -0.015501430145413612 0 0.036706770198007777 -0.012486539606792935 0 0.035269201797989334 -0.015473887460858159 0 0.036706770198007777 -0.012486539606792935 0 0.036423615132179801 -0.011352648898738745 0 0.035392998931953842 -0.015485026126026797 0 0.03531184789259844 -0.015547543169304305 0 0.03533334080154741 -0.015623892243343667 0 0.03531184789259844 -0.015547543169304305 0 0.035254658028950496 -0.015564321652981519 0 0.03533334080154741 -0.015623892243343667 0 0.035199498389104293 -0.015554312697388946 0 0.035253884214440624 -0.015501430145413612 0 0.035175607115309697 -0.015523203655408982 0 0.035199498389104293 -0.015554312697388946 0 0.035253884214440624 -0.015501430145413612 0 0.035254658028950496 -0.015564321652981519 0 0.03531184789259844 -0.015547543169304305 0 0.035253884214440624 -0.015501430145413612 0 0.035254658028950496 -0.015564321652981519 0 0.035199498389104293 -0.015554312697388946 0 0.035254658028950496 -0.015564321652981519 0 0.035188909443583612 -0.015609007885307618 0 0.035199498389104293 -0.015554312697388946 0 0.035128114122907166 -0.015601263681879668 0 0.035188909443583612 -0.015609007885307618 0 0.035199498389104293 -0.015554312697388946 0 0.035128114122907166 -0.015601263681879668 0 0.035175607115309697 -0.015523203655408982 0 0.035128114122907166 -0.015601263681879668 0 0.035070776346796118 -0.015609653629337807 0 0.035175607115309697 -0.015523203655408982 0 0.035128114122907166 -0.015601263681879668 0 0.035058189271079336 -0.01564473156158452 0 0.035070776346796118 -0.015609653629337807 0 0.035058189271079336 -0.01564473156158452 0 0.035026896062776328 -0.015648500827477891 0 0.035070776346796118 -0.015609653629337807 0 0.035026896062776328 -0.015648500827477891 0 0.035015641238785436 -0.015709146479734811 0 0.03502340932653901 -0.015671925208332518 0 0.035058189271079336 -0.01564473156158452 0 0.035026896062776328 -0.015648500827477891 0 0.03502340932653901 -0.015671925208332518 0 0.035026896062776328 -0.015648500827477891 0 0.035004288615743076 -0.015608234546421712 0 0.035034943917254077 -0.015666127010893999 0 0.035026896062776328 -0.015648500827477891 0 0.035070776346796118 -0.015609653629337807 0 0.035004288615743076 -0.015608234546421712 0 0.03546902217336536 -0.015333905579870223 0 0.035332513898196589 -0.015303164063622107 0 0.036166972387926703 -0.014550425194346437 0 0.035070776346796118 -0.015609653629337807 0 0.035004288615743076 -0.015608234546421712 0 0.035175607115309697 -0.015523203655408982 0 0.035298073720779873 -0.01542778888245031 0 0.035004288615743076 -0.015608234546421712 0 0.035175607115309697 -0.015523203655408982 0 0.03585223213207521 -0.015290346674339874 0 0.035283057842441012 -0.015423310995248714 0 0.036862432825262262 -0.014581151356623181 0 0.03546902217336536 -0.015333905579870223 0 0.036166972387926703 -0.014550425194346437 0 0.036883806062781375 -0.014034390070797249 0 0.036862432825262262 -0.014581151356623181 0 0.036166972387926703 -0.014550425194346437 0 0.035098848625380437 -0.015735899532552042 0 0.034904199228164234 -0.015806163816527902 0 0.035414060113225371 -0.015616790747416008 0 0.034949181092345287 -0.015821636253495766 0 0.035168878521404857 -0.015907179604291916 0 0.035098848625380437 -0.015735899532552042 0 0.034936275465192027 -0.015811957579858281 0 0.034904199228164234 -0.015806163816527902 0 0.035098848625380437 -0.015735899532552042 0 0.035337412018684296 -0.015567694734587093 0 0.035414060113225371 -0.015616790747416008 0 0.035283057842441012 -0.015423310995248714 0 0.035067412217665662 -0.015705268691000727 0 0.035004288615743076 -0.015608234546421712 0 0.035098848625380437 -0.015735899532552042 0 0.035034943917254077 -0.015666127010893999 0 0.035332513898196589 -0.015303164063622107 0 0.035098848625380437 -0.015735899532552042 0 0.035337412018684296 -0.015567694734587093 0 0.03546902217336536 -0.015333905579870223 0 0.035332513898196589 -0.015303164063622107 0 0.035098848625380437 -0.015735899532552042 0 0.035332513898196589 -0.015303164063622107 0 0.035337412018684296 -0.015567694734587093 0 0.035373554413520171 -0.01567054163183489 0 0.035098848625380437 -0.015735899532552042 0 0.035033614470632198 -0.015689330335712775 0 0.035034943917254077 -0.015666127010893999 0 0.035098848625380437 -0.015735899532552042 0 0.035033614470632198 -0.015689330335712775 0 0.035035318311965803 -0.015737964263916333 0 0.035026896062776328 -0.015648500827477891 0 0.035033614470632198 -0.015689330335712775 0 0.035034943917254077 -0.015666127010893999 0 0.035026896062776328 -0.015648500827477891 0 0.035033614470632198 -0.015689330335712775 0 0.035015641238785436 -0.015709146479734811 0 0.034994023650844641 -0.015779514581978425 0 0.035035318311965803 -0.015737964263916333 0 0.035015641238785436 -0.015709146479734811 0 0.035033614470632198 -0.015689330335712775 0 0.035035318311965803 -0.015737964263916333 0 0.035015641238785436 -0.015709146479734811 0 0.034994023650844641 -0.015779514581978425 0 0.035035318311965803 -0.015737964263916333 0 0.034936275465192027 -0.015811957579858281 0 0.035098848625380437 -0.015735899532552042 0 0.035035318311965803 -0.015737964263916333 0 0.034936275465192027 -0.015811957579858281 0 0.034936275465192027 -0.015811957579858281 0 0.034931278505607247 -0.015825874987084172 0 0.034753172350293848 -0.015921422520126734 0 0.034931278505607247 -0.015825874987084172 0 0.034753172350293848 -0.015921422520126734 0 0.034960453521682325 -0.015809447645982813 0 0.034994023650844641 -0.015779514581978425 0 0.034936275465192027 -0.015811957579858281 0 0.034931278505607247 -0.015825874987084172 0 0.034994023650844641 -0.015779514581978425 0 0.034931278505607247 -0.015825874987084172 0 0.034960453521682325 -0.015809447645982813 0 0.034936275465192027 -0.015811957579858281 0 0.034753172350293848 -0.015921422520126734 0 0.034810227449210966 -0.015850724486445481 0 0.034753172350293848 -0.015921422520126734 0 0.03471971786882725 -0.015874147342693216 0 0.034810227449210966 -0.015850724486445481 0 0.034753172350293848 -0.015921422520126734 0 0.03471971786882725 -0.015874147342693216 0 0.034894460640967913 -0.01573092072689778 0 0.03471971786882725 -0.015874147342693216 0 0.034810227449210966 -0.015850724486445481 0 0.034804454426990823 -0.015901766279400455 0 0.034936275465192027 -0.015811957579858281 0 0.034810227449210966 -0.015850724486445481 0 0.034904199228164234 -0.015806163816527902 0 0.03471971786882725 -0.015874147342693216 0 0.034392352095808924 -0.015977287446192753 0 0.034423826571565147 -0.015938331688474645 0 0.03471971786882725 -0.015874147342693216 0 0.034392352095808924 -0.015977287446192753 0 0.034587951284871479 -0.015941124736963234 0 0.03471971786882725 -0.015874147342693216 0 0.034587951284871479 -0.015941124736963234 0 0.034804454426990823 -0.015901766279400455 0 0.034392352095808924 -0.015977287446192753 0 0.034587951284871479 -0.015941124736963234 0 0.034327807276575868 -0.016029742794705901 0 0.034587951284871479 -0.015941124736963234 0 0.034681108944387751 -0.015975522969968275 0 0.034327807276575868 -0.016029742794705901 0 0.034587951284871479 -0.015941124736963234 0 0.034681108944387751 -0.015975522969968275 0 0.034804454426990823 -0.015901766279400455 0 0.034681108944387751 -0.015975522969968275 0 0.034804454426990823 -0.015901766279400455 0 0.034891300704132593 -0.015991184945731991 0 0.034904199228164234 -0.015806163816527902 0 0.034929891019165084 -0.015946438344062248 0 0.034993089937124883 -0.01604872896755561 0 0.034904199228164234 -0.015806163816527902 0 0.034804454426990823 -0.015901766279400455 0 0.034929891019165084 -0.015946438344062248 0 0.034810227449210966 -0.015850724486445481 0 0.034904199228164234 -0.015806163816527902 0 0.034804454426990823 -0.015901766279400455 0 0.034804454426990823 -0.015901766279400455 0 0.034929891019165084 -0.015946438344062248 0 0.034891300704132593 -0.015991184945731991 0 0.034993089937124883 -0.01604872896755561 0 0.035048660032983125 -0.016103432552084386 0 0.035142460286761878 -0.01629020290415379 0 0.034929891019165084 -0.015946438344062248 0 0.034993089937124883 -0.01604872896755561 0 0.035048660032983125 -0.016103432552084386 0 0.034929891019165084 -0.015946438344062248 0 0.034891300704132593 -0.015991184945731991 0 0.035048660032983125 -0.016103432552084386 0 0.035048660032983125 -0.016103432552084386 0 0.034851170081073177 -0.016031522644793506 0 0.035060584004788606 -0.016125156503312244 0 0.034891300704132593 -0.015991184945731991 0 0.035048660032983125 -0.016103432552084386 0 0.034851170081073177 -0.016031522644793506 0 0.034681108944387751 -0.015975522969968275 0 0.034851170081073177 -0.016031522644793506 0 0.034519759014808887 -0.016006545472857913 0 0.034681108944387751 -0.015975522969968275 0 0.034891300704132593 -0.015991184945731991 0 0.034851170081073177 -0.016031522644793506 0 0.034851170081073177 -0.016031522644793506 0 0.035060584004788606 -0.016125156503312244 0 0.035010834058999615 -0.016070750727624407 0 0.035060584004788606 -0.016125156503312244 0 0.035010834058999615 -0.016070750727624407 0 0.035274715449397039 -0.016290567546201409 0 0.035048660032983125 -0.016103432552084386 0 0.035060584004788606 -0.016125156503312244 0 0.035274715449397039 -0.016290567546201409 0 0.035048660032983125 -0.016103432552084386 0 0.035274715449397039 -0.016290567546201409 0 0.035142460286761878 -0.01629020290415379 0 0.035142460286761878 -0.01629020290415379 0 0.034948946184099439 -0.016142919734283279 0 0.035097153949120947 -0.016635009325159687 0 0.034904199228164234 -0.015806163816527902 0 0.034993089937124883 -0.01604872896755561 0 0.034948946184099439 -0.016142919734283279 0 0.034993089937124883 -0.01604872896755561 0 0.035142460286761878 -0.01629020290415379 0 0.034948946184099439 -0.016142919734283279 0 0.035462991607947345 -0.016354935466851413 0 0.035414060113225371 -0.015616790747416008 0 0.035373554413520171 -0.01567054163183489 0 0.035337412018684296 -0.015567694734587093 0 0.035414060113225371 -0.015616790747416008 0 0.035373554413520171 -0.01567054163183489 0 0.034852707900253507 -0.016715624111215906 0 0.034948946184099439 -0.016142919734283279 0 0.035097153949120947 -0.016635009325159687 0 0.035154605335843553 -0.016526598453624516 0 0.035168878521404857 -0.015907179604291916 0 0.035097153949120947 -0.016635009325159687 0 0.035267571149568203 -0.017160734602079987 0 0.0349560496615988 -0.017102285523828253 0 0.034852707900253507 -0.016715624111215906 0 0.035097153949120947 -0.016635009325159687 0 0.0349560496615988 -0.017102285523828253 0 0.035142460286761878 -0.01629020290415379 0 0.035097153949120947 -0.016635009325159687 0 0.035346161122783631 -0.016601743701833059 0 0.035097153949120947 -0.016635009325159687 0 0.035267571149568203 -0.017160734602079987 0 0.035346161122783631 -0.016601743701833059 0 0.035267571149568203 -0.017160734602079987 0 0.035297684213887626 -0.017986679200208033 0 0.035598767376334189 -0.017070961750849531 0 0.035267571149568203 -0.017160734602079987 0 0.035598767376334189 -0.017070961750849531 0 0.035346161122783631 -0.016601743701833059 0 0.035267571149568203 -0.017160734602079987 0 0.0349560496615988 -0.017102285523828253 0 0.035000446300032226 -0.018166493041334688 0 0.035267571149568203 -0.017160734602079987 0 0.035000446300032226 -0.018166493041334688 0 0.035297684213887626 -0.017986679200208033 0 0.035297684213887626 -0.017986679200208033 0 0.035569658995035031 -0.018401774719995132 0 0.035073237161767502 -0.018926315925201151 0 0.035000446300032226 -0.018166493041334688 0 0.035297684213887626 -0.017986679200208033 0 0.035073237161767502 -0.018926315925201151 0 0.035297684213887626 -0.017986679200208033 0 0.035569658995035031 -0.018401774719995132 0 0.035598767376334189 -0.017070961750849531 0 0.035677048680054613 -0.018905329200896871 0 0.035309592127416897 -0.019967269327514487 0 0.035569658995035031 -0.018401774719995132 0 0.035309592127416897 -0.019967269327514487 0 0.035569658995035031 -0.018401774719995132 0 0.035073237161767502 -0.018926315925201151 0 0.035309592127416897 -0.019967269327514487 0 0.035083658638881791 -0.019767372664745868 0 0.035073237161767502 -0.018926315925201151 0 0.036468521838467036 -0.018780253491582036 0 0.035918361701101735 -0.017905516644769186 0 0.03704587308412275 -0.017889017306562477 0 0.035677048680054613 -0.018905329200896871 0 0.036468521838467036 -0.018780253491582036 0 0.035918361701101735 -0.017905516644769186 0 0.035677048680054613 -0.018905329200896871 0 0.035569658995035031 -0.018401774719995132 0 0.035918361701101735 -0.017905516644769186 0 0.035918361701101735 -0.017905516644769186 0 0.03597840032392826 -0.016443688478287786 0 0.035598767376334189 -0.017070961750849531 0 0.035569658995035031 -0.018401774719995132 0 0.035918361701101735 -0.017905516644769186 0 0.035598767376334189 -0.017070961750849531 0 0.036096997402013303 -0.016493098055700053 0 0.03610598763267249 -0.015848852707967459 0 0.035918361701101735 -0.017905516644769186 0 0.03597840032392826 -0.016443688478287786 0 0.03704587308412275 -0.017889017306562477 0 0.03597840032392826 -0.016443688478287786 0 0.035386692716292682 -0.0160885680293197 0 0.035469179808501797 -0.016272912644131193 0 0.035386692716292682 -0.0160885680293197 0 0.035469179808501797 -0.016272912644131193 0 0.034961701842128129 -0.015928656417228078 0 0.03597840032392826 -0.016443688478287786 0 0.035598767376334189 -0.017070961750849531 0 0.035469179808501797 -0.016272912644131193 0 0.035598767376334189 -0.017070961750849531 0 0.035346161122783631 -0.016601743701833059 0 0.035469179808501797 -0.016272912644131193 0 0.035274715449397039 -0.016290567546201409 0 0.035142460286761878 -0.01629020290415379 0 0.035346161122783631 -0.016601743701833059 0 0.035274715449397039 -0.016290567546201409 0 0.035346161122783631 -0.016601743701833059 0 0.035469179808501797 -0.016272912644131193 0 0.035010834058999615 -0.016070750727624407 0 0.035469179808501797 -0.016272912644131193 0 0.034961701842128129 -0.015928656417228078 0 0.035010834058999615 -0.016070750727624407 0 0.035274715449397039 -0.016290567546201409 0 0.035469179808501797 -0.016272912644131193 0 0.035010834058999615 -0.016070750727624407 0 0.034961701842128129 -0.015928656417228078 0 0.03438368035479044 -0.015784658510443982 0 0.034961701842128129 -0.015928656417228078 0 0.034465009374047909 -0.015506069787058966 0 0.03438368035479044 -0.015784658510443982 0 0.034465009374047909 -0.015506069787058966 0 0.033894540870376542 -0.015288877203067512 0 0.03438368035479044 -0.015784658510443982 0 0.034465009374047909 -0.015506069787058966 0 0.034943386565348976 -0.015558533096842197 0 0.034062694170103512 -0.014773879284709975 0 0.03597840032392826 -0.016443688478287786 0 0.035386692716292682 -0.0160885680293197 0 0.034943386565348976 -0.015558533096842197 0 0.035386692716292682 -0.0160885680293197 0 0.034961701842128129 -0.015928656417228078 0 0.034943386565348976 -0.015558533096842197 0 0.034961701842128129 -0.015928656417228078 0 0.034465009374047909 -0.015506069787058966 0 0.034943386565348976 -0.015558533096842197 0 0.034943386565348976 -0.015558533096842197 0 0.034573587966794148 -0.014454106369721605 0 0.035403615608746497 -0.014680315555731986 0 0.03597840032392826 -0.016443688478287786 0 0.034943386565348976 -0.015558533096842197 0 0.035403615608746497 -0.014680315555731986 0 0.034943386565348976 -0.015558533096842197 0 0.034573587966794148 -0.014454106369721605 0 0.034062694170103512 -0.014773879284709975 0 0.033804732261084686 -0.013582404427129971 0 0.03486451799806619 -0.013803437454422494 0 0.034573587966794148 -0.014454106369721605 0 0.033666914673101025 -0.020684609734030034 0 0.03610598763267249 -0.015848852707967459 0 0.037650386206064618 -0.018811238154244282 0 0.036468521838467036 -0.018780253491582036 0 0.03704587308412275 -0.017889017306562477 0 0.03486451799806619 -0.013803437454422494 0 0.034573587966794148 -0.014454106369721605 0 0.035403615608746497 -0.014680315555731986 0 0.032901312923238016 -0.013231309486159595 0 0.033804732261084686 -0.013582404427129971 0 0.033281319609652221 -0.014089809292510837 0 0.033804732261084686 -0.013582404427129971 0 0.034573587966794148 -0.014454106369721605 0 0.034062694170103512 -0.014773879284709975 0 0.033804732261084686 -0.013582404427129971 0 0.034062694170103512 -0.014773879284709975 0 0.033281319609652221 -0.014089809292510837 0 0.034062694170103512 -0.014773879284709975 0 0.033281319609652221 -0.014089809292510837 0 0.033427304801389307 -0.014740651139840542 0 0.033281319609652221 -0.014089809292510837 0 0.033427304801389307 -0.014740651139840542 0 0.032804976921030349 -0.014356040821304582 0 0.033427304801389307 -0.014740651139840542 0 0.033894540870376542 -0.015288877203067512 0 0.03310388936020478 -0.015141330170347052 0 0.034062694170103512 -0.014773879284709975 0 0.033427304801389307 -0.014740651139840542 0 0.033894540870376542 -0.015288877203067512 0 0.034465009374047909 -0.015506069787058966 0 0.034062694170103512 -0.014773879284709975 0 0.033894540870376542 -0.015288877203067512 0 0.033894540870376542 -0.015288877203067512 0 0.033633168324718396 -0.015478283674569196 0 0.03438368035479044 -0.015784658510443982 0 0.033894540870376542 -0.015288877203067512 0 0.033633168324718396 -0.015478283674569196 0 0.03310388936020478 -0.015141330170347052 0 0.033633168324718396 -0.015478283674569196 0 0.033240176389623816 -0.0157393562131957 0 0.033943801659823095 -0.015804992922864733 0 0.033633168324718396 -0.015478283674569196 0 0.033240176389623816 -0.0157393562131957 0 0.03310388936020478 -0.015141330170347052 0 0.033240176389623816 -0.0157393562131957 0 0.033725899310673962 -0.015973002231560944 0 0.033943801659823095 -0.015804992922864733 0 0.033725899310673962 -0.015973002231560944 0 0.033943801659823095 -0.015804992922864733 0 0.034177735493069662 -0.016023181749866045 0 0.033633168324718396 -0.015478283674569196 0 0.033943801659823095 -0.015804992922864733 0 0.03438368035479044 -0.015784658510443982 0 0.033943801659823095 -0.015804992922864733 0 0.03438368035479044 -0.015784658510443982 0 0.034560276619998345 -0.015969005559254658 0 0.035010834058999615 -0.016070750727624407 0 0.03438368035479044 -0.015784658510443982 0 0.034560276619998345 -0.015969005559254658 0 0.034851170081073177 -0.016031522644793506 0 0.035010834058999615 -0.016070750727624407 0 0.034560276619998345 -0.015969005559254658 0 0.034560276619998345 -0.015969005559254658 0 0.034177735493069662 -0.016023181749866045 0 0.034519759014808887 -0.016006545472857913 0 0.034851170081073177 -0.016031522644793506 0 0.034560276619998345 -0.015969005559254658 0 0.034519759014808887 -0.016006545472857913 0 0.033943801659823095 -0.015804992922864733 0 0.034560276619998345 -0.015969005559254658 0 0.034177735493069662 -0.016023181749866045 0 0.034177735493069662 -0.016023181749866045 0 0.034327807276575868 -0.016029742794705901 0 0.033895418464317269 -0.016159546871548417 0 0.034177735493069662 -0.016023181749866045 0 0.034519759014808887 -0.016006545472857913 0 0.034327807276575868 -0.016029742794705901 0 0.034681108944387751 -0.015975522969968275 0 0.034519759014808887 -0.016006545472857913 0 0.034327807276575868 -0.016029742794705901 0 0.034392352095808924 -0.015977287446192753 0 0.034327807276575868 -0.016029742794705901 0 0.033889877810869544 -0.016177979958448357 0 0.034327807276575868 -0.016029742794705901 0 0.033895418464317269 -0.016159546871548417 0 0.033889877810869544 -0.016177979958448357 0 0.033895418464317269 -0.016159546871548417 0 0.03359916508564572 -0.016340351888203593 0 0.033889877810869544 -0.016177979958448357 0 0.033895418464317269 -0.016159546871548417 0 0.033472404094657932 -0.016175982389236312 0 0.03359916508564572 -0.016340351888203593 0 0.033240176389623816 -0.0157393562131957 0 0.033725899310673962 -0.015973002231560944 0 0.033472404094657932 -0.016175982389236312 0 0.033725899310673962 -0.015973002231560944 0 0.033895418464317269 -0.016159546871548417 0 0.033472404094657932 -0.016175982389236312 0 0.033725899310673962 -0.015973002231560944 0 0.034177735493069662 -0.016023181749866045 0 0.033895418464317269 -0.016159546871548417 0 0.033569275083787355 -0.016324280696099532 0 0.03359916508564572 -0.016340351888203593 0 0.033527342315182833 -0.016295115861149199 0 0.032745384340429028 -0.016004552266814898 0 0.032704385772678077 -0.016245896873924234 0 0.03283773458926624 -0.016066605706178301 0 0.033142428955325993 -0.016175259139786846 0 0.032960243543699738 -0.016365491771013804 0 0.033472404094657932 -0.016175982389236312 0 0.03359916508564572 -0.016340351888203593 0 0.033250026621305329 -0.016514515819623991 0 0.033569275083787355 -0.016324280696099532 0 0.03359916508564572 -0.016340351888203593 0 0.033250026621305329 -0.016514515819623991 0 0.03359916508564572 -0.016340351888203593 0 0.033889877810869544 -0.016177979958448357 0 0.033527342315182833 -0.016295115861149199 0 0.034392352095808924 -0.015977287446192753 0 0.033889877810869544 -0.016177979958448357 0 0.034089461443699502 -0.016087317337879353 0 0.033889877810869544 -0.016177979958448357 0 0.033451333715571067 -0.016198890015123941 0 0.034089461443699502 -0.016087317337879353 0 0.033451333715571067 -0.016198890015123941 0 0.033991023456164442 -0.016311848647401251 0 0.034089461443699502 -0.016087317337879353 0 0.033889877810869544 -0.016177979958448357 0 0.033451333715571067 -0.016198890015123941 0 0.033527342315182833 -0.016295115861149199 0 0.033451333715571067 -0.016198890015123941 0 0.033051784216249075 -0.016031601328300667 0 0.032989210888495032 -0.015935169217196621 0 0.033451333715571067 -0.016198890015123941 0 0.033527342315182833 -0.016295115861149199 0 0.032989210888495032 -0.015935169217196621 0 0.035263973360453518 -0.013322148034480268 0 0.035260515965269815 -0.01459828821419986 0 0.033451333715571067 -0.016198890015123941 0 0.033051784216249075 -0.016031601328300667 0 0.033991023456164442 -0.016311848647401251 0 0.037555416420832217 -0.010615627305215434 0 0.037267233718574544 -0.0092312872803935013 0 0.036026522943835654 -0.0095876317873942411 0 0.033051784216249075 -0.016031601328300667 0 0.032989210888495032 -0.015935169217196621 0 0.03258156663636811 -0.01559397675046563 0 0.033051784216249075 -0.016031601328300667 0 0.03258156663636811 -0.01559397675046563 0 0.032100581073041846 -0.015034530255049069 0 0.03258156663636811 -0.01559397675046563 0 0.032835996660646079 -0.015729437819531913 0 0.032799939424528572 -0.015285324055180237 0 0.03258156663636811 -0.01559397675046563 0 0.032786654568194393 -0.015873792725194548 0 0.032835996660646079 -0.015729437819531913 0 0.032786654568194393 -0.015873792725194548 0 0.03279978459898391 -0.015907307592522461 0 0.032835996660646079 -0.015729437819531913 0 0.032989210888495032 -0.015935169217196621 0 0.03258156663636811 -0.01559397675046563 0 0.032786654568194393 -0.015873792725194548 0 0.033569275083787355 -0.016324280696099532 0 0.033527342315182833 -0.016295115861149199 0 0.032989210888495032 -0.015935169217196621 0 0.032745384340429028 -0.016004552266814898 0 0.032989210888495032 -0.015935169217196621 0 0.032786654568194393 -0.015873792725194548 0 0.032745384340429028 -0.016004552266814898 0 0.032786654568194393 -0.015873792725194548 0 0.03279978459898391 -0.015907307592522461 0 0.033142428955325993 -0.016175259139786846 0 0.033012112535948733 -0.015962857695810049 0 0.032745384340429028 -0.016004552266814898 0 0.03279978459898391 -0.015907307592522461 0 0.032857129721593541 -0.015937277195604817 0 0.032745384340429028 -0.016004552266814898 0 0.032857129721593541 -0.015937277195604817 0 0.03283773458926624 -0.016066605706178301 0 0.032857129721593541 -0.015937277195604817 0 0.032969841595100489 -0.015785295538478964 0 0.032835996660646079 -0.015729437819531913 0 0.032857129721593541 -0.015937277195604817 0 0.032969841595100489 -0.015785295538478964 0 0.032928275413068593 -0.015914274477140011 0 0.03279978459898391 -0.015907307592522461 0 0.032857129721593541 -0.015937277195604817 0 0.032835996660646079 -0.015729437819531913 0 0.032835996660646079 -0.015729437819531913 0 0.033006961186730743 -0.015488395957112325 0 0.032799939424528572 -0.015285324055180237 0 0.032969841595100489 -0.015785295538478964 0 0.033006961186730743 -0.015488395957112325 0 0.033102456611395638 -0.015556264221132599 0 0.032969841595100489 -0.015785295538478964 0 0.032835996660646079 -0.015729437819531913 0 0.033006961186730743 -0.015488395957112325 0 0.032799939424528572 -0.015285324055180237 0 0.033297867234357424 -0.014809117327635572 0 0.032423132268811883 -0.014621574496917958 0 0.033006961186730743 -0.015488395957112325 0 0.033297867234357424 -0.014809117327635572 0 0.033102456611395638 -0.015556264221132599 0 0.033006961186730743 -0.015488395957112325 0 0.032799939424528572 -0.015285324055180237 0 0.033297867234357424 -0.014809117327635572 0 0.03258156663636811 -0.01559397675046563 0 0.032423132268811883 -0.014621574496917958 0 0.032100581073041846 -0.015034530255049069 0 0.03258156663636811 -0.01559397675046563 0 0.032799939424528572 -0.015285324055180237 0 0.032423132268811883 -0.014621574496917958 0 0.032047019542049193 -0.012940999652618636 0 0.031896850472086846 -0.012645096092943911 0 0.032100581073041846 -0.015034530255049069 0 0.033908163726698665 -0.010134591426462825 0 0.035529074022768753 -0.011827941540780229 0 0.032423132268811883 -0.014621574496917958 0 0.032047019542049193 -0.012940999652618636 0 0.032100581073041846 -0.015034530255049069 0 0.030079763019591439 -0.010200704490811775 0 0.031004999904605323 -0.012445221999891244 0 0.030010752806664914 -0.012043238425522835 0 0.030079763019591439 -0.010200704490811775 0 0.030010752806664914 -0.012043238425522835 0 0.028637049154680023 -0.012027288404069929 0 0.030079763019591439 -0.010200704490811775 0 0.031004999904605323 -0.012445221999891244 0 0.032047019542049193 -0.012940999652618636 0 0.033297867234357424 -0.014809117327635572 0 0.032423132268811883 -0.014621574496917958 0 0.032047019542049193 -0.012940999652618636 0 0.031725170508091441 -0.012410600256737557 0 0.032005400028462493 -0.012912843005090853 0 0.030010752806664914 -0.012043238425522835 0 0.030451178227987395 -0.01275559890619285 0 0.029676516340587225 -0.01283357735876533 0 0.033908163726698665 -0.010134591426462825 0 0.030309332711183006 -0.012335273973166496 0 0.031407063830360481 -0.012989381915103532 0 0.031877487174979478 -0.012942011404414283 0 0.030058601684719462 -0.014423647350876758 0 0.030070947125377012 -0.013411609064543526 0 0.031407063830360481 -0.012989381915103532 0 0.030058601684719462 -0.014423647350876758 0 0.031004999904605323 -0.012445221999891244 0 0.030010752806664914 -0.012043238425522835 0 0.030451178227987395 -0.01275559890619285 0 0.030451178227987395 -0.01275559890619285 0 0.029676516340587225 -0.01283357735876533 0 0.030070947125377012 -0.013411609064543526 0 0.029676516340587225 -0.01283357735876533 0 0.030070947125377012 -0.013411609064543526 0 0.029320321290513013 -0.013302995410134157 0 0.030451178227987395 -0.01275559890619285 0 0.030070947125377012 -0.013411609064543526 0 0.031407063830360481 -0.012989381915103532 0 0.031004999904605323 -0.012445221999891244 0 0.030451178227987395 -0.01275559890619285 0 0.031407063830360481 -0.012989381915103532 0 0.031004999904605323 -0.012445221999891244 0 0.031731779217073118 -0.012822073864449014 0 0.032047019542049193 -0.012940999652618636 0 0.031004999904605323 -0.012445221999891244 0 0.031407063830360481 -0.012989381915103532 0 0.031731779217073118 -0.012822073864449014 0 0.031731779217073118 -0.012822073864449014 0 0.032047019542049193 -0.012940999652618636 0 0.031896850472086846 -0.012645096092943911 0 0.031407063830360481 -0.012989381915103532 0 0.031731779217073118 -0.012822073864449014 0 0.031896850472086846 -0.012645096092943911 0 0.032581147242263547 -0.010767193056477711 0 0.033908163726698665 -0.010134591426462825 0 0.031513071362171026 -0.0079135763965624845 0 0.031648115049215539 -0.0084581381452322538 0 0.03200786171193843 -0.0081870239398599103 0 0.031513071362171026 -0.0079135763965624845 0 0.031648115049215539 -0.0084581381452322538 0 0.030901092226348004 -0.0086338363077973247 0 0.031648115049215539 -0.0084581381452322538 0 0.032346372575929087 -0.0085462826461449246 0 0.031392675277044667 -0.0090077387560488394 0 0.03034185589313081 -0.0035737121786949553 0 0.028939531692149148 -0.0039016508170517479 0 0.031648115049215539 -0.0084581381452322538 0 0.030901092226348004 -0.0086338363077973247 0 0.031392675277044667 -0.0090077387560488394 0 0.030070947125377012 -0.013411609064543526 0 0.030058601684719462 -0.014423647350876758 0 0.028923058721217573 -0.013804653761879334 0 0.03034185589313081 -0.0035737121786949553 0 0.031914637356959541 -0.0029020300439411254 0 0.030090842329416036 0.00082819464846981775 0 0.028476056623756959 0.001528118163958104 0 0.030757715114361518 0.0023821952614946811 0 0.030090842329416036 0.00082819464846981775 0 0.028476056623756959 0.001528118163958104 0 0.02851554878453481 8.739386192409939e-05 0 0.031648115049215539 -0.0084581381452322538 0 0.032346372575929087 -0.0085462826461449246 0 0.03200786171193843 -0.0081870239398599103 0 0.031513071362171026 -0.0079135763965624845 0 0.032490489819043462 -0.0078332505495824645 0 0.03200786171193843 -0.0081870239398599103 0 0.033908163726698665 -0.010134591426462825 0 0.035467812028101307 -0.0074911454069359687 0 0.032346372575929087 -0.0085462826461449246 0 0.032490489819043462 -0.0078332505495824645 0 0.03200786171193843 -0.0081870239398599103 0 0.032346372575929087 -0.0085462826461449246 0 0.032490489819043462 -0.0078332505495824645 0 0.0330533562905806 -0.0082001459465838155 0 0.032490489819043462 -0.0078332505495824645 0 0.033159513844376383 -0.007880405137982216 0 0.0330533562905806 -0.0082001459465838155 0 0.035467812028101307 -0.0074911454069359687 0 0.034553075912958697 -0.0079450399406453317 0 0.037793501764296383 -0.0077605564455851825 0 0.036458120464412935 -0.0087526574505896008 0 0.036152031412501749 -0.0079007677713265455 0 0.037793501764296383 -0.0077605564455851825 0 0.037267233718574544 -0.0092312872803935013 0 0.036458120464412935 -0.0087526574505896008 0 0.037793501764296383 -0.0077605564455851825 0 0.038324543586290089 -0.0088921236166975993 0 0.037267233718574544 -0.0092312872803935013 0 0.039080950717445676 -0.0075803373644812364 0 0.037793501764296383 -0.0077605564455851825 0 0.038324543586290089 -0.0088921236166975993 0 0.035263973360453518 -0.013322148034480268 0 0.035529074022768753 -0.011827941540780229 0 0.037555416420832217 -0.010615627305215434 0 0.038324543586290089 -0.0088921236166975993 0 0.037267233718574544 -0.0092312872803935013 0 0.037267233718574544 -0.0092312872803935013 0 0.036026522943835654 -0.0095876317873942411 0 0.036458120464412935 -0.0087526574505896008 0 0.036026522943835654 -0.0095876317873942411 0 0.036458120464412935 -0.0087526574505896008 0 0.035397457757989428 -0.0086413346454246986 0 0.036026522943835654 -0.0095876317873942411 0 0.035397457757989428 -0.0086413346454246986 0 0.034172711615903364 -0.0093394369265968769 0 0.035397457757989428 -0.0086413346454246986 0 0.034420266377255357 -0.0081824982534119215 0 0.034172711615903364 -0.0093394369265968769 0 0.033159513844376383 -0.007880405137982216 0 0.033390647288611575 -0.0080535424306977677 0 0.033434397732712118 -0.0080604546762268955 0 0.034553075912958697 -0.0079450399406453317 0 0.033945196296356686 -0.0081253144917335773 0 0.035397457757989428 -0.0086413346454246986 0 0.036152031412501749 -0.0079007677713265455 0 0.034420266377255357 -0.0081824982534119215 0 0.036458120464412935 -0.0087526574505896008 0 0.035397457757989428 -0.0086413346454246986 0 0.036152031412501749 -0.0079007677713265455 0 0.030757715114361518 0.0023821952614946811 0 0.032539534549090476 0.0029572108511030566 0 0.031997830171330843 0.0019488979183193225 0 0.033159513844376383 -0.007880405137982216 0 0.0330533562905806 -0.0082001459465838155 0 0.033390647288611575 -0.0080535424306977677 0 0.031914637356959541 -0.0029020300439411254 0 0.032912641011208818 -0.0026141344950096142 0 0.032539534549090476 0.0029572108511030566 0 0.031997830171330843 0.0019488979183193225 0 0.033217160469895951 0.0019562816842272658 0 0.033079255193535682 0.0018995012260025006 0 0.031541017015912089 0.0011724187330345009 0 0.031997830171330843 0.0019488979183193225 0 0.033217160469895951 0.0019562816842272658 0 0.03168449334475032 0.00056473229941546288 0 0.030090842329416036 0.00082819464846981775 0 0.031149506321636062 0.0014410045817814859 0 0.03168449334475032 0.00056473229941546288 0 0.030090842329416036 0.00082819464846981775 0 0.030757715114361518 0.0023821952614946811 0 0.031149506321636062 0.0014410045817814859 0 0.031997830171330843 0.0019488979183193225 0 0.031149506321636062 0.0014410045817814859 0 0.03168449334475032 0.00056473229941546288 0 0.030757715114361518 0.0023821952614946811 0 0.031997830171330843 0.0019488979183193225 0 0.031149506321636062 0.0014410045817814859 0 0.034384486311493559 0.0016151504741043485 0 0.033217160469895951 0.0019562816842272658 0 0.034286612726820972 0.0023659393861366661 0 0.033217160469895951 0.0019562816842272658 0 0.033426884559064514 0.0027339935810918171 0 0.034286612726820972 0.0023659393861366661 0 0.032539534549090476 0.0029572108511030566 0 0.033426884559064514 0.0027339935810918171 0 0.033925981044177732 0.0033908778227362412 0 0.032539534549090476 0.0029572108511030566 0 0.033217160469895951 0.0019562816842272658 0 0.033426884559064514 0.0027339935810918171 0 0.033426884559064514 0.0027339935810918171 0 0.034300652611391112 0.00290481449207006 0 0.033925981044177732 0.0033908778227362412 0 0.033426884559064514 0.0027339935810918171 0 0.034286612726820972 0.0023659393861366661 0 0.034300652611391112 0.00290481449207006 0 0.034286612726820972 0.0023659393861366661 0 0.034300652611391112 0.00290481449207006 0 0.034839986057456383 0.0027065236250370804 0 0.033886287205197527 -0.0020620103201314209 0 0.034414999212786887 -0.0053021041046081791 0 0.033925981044177732 0.0033908778227362412 0 0.03498906149069933 0.0034078503115272953 0 0.034942636561965036 0.0032154953983532311 0 0.033528901474542031 -0.0082451215901050978 0 0.033631521086772455 -0.0083504200447522808 0 0.033944273682771621 -0.0085567054939578273 0 0.034300652611391112 0.00290481449207006 0 0.033925981044177732 0.0033908778227362412 0 0.034942636561965036 0.0032154953983532311 0 0.033615311468285516 -0.0083201720171989253 0 0.033945196296356686 -0.0081253144917335773 0 0.033528901474542031 -0.0082451215901050978 0 0.033631521086772455 -0.0083504200447522808 0 0.033434397732712118 -0.0080604546762268955 0 0.033390647288611575 -0.0080535424306977677 0 0.033528901474542031 -0.0082451215901050978 0 0.033434397732712118 -0.0080604546762268955 0 0.032912641011208818 -0.0026141344950096142 0 0.033886287205197527 -0.0020620103201314209 0 0.033631521086772455 -0.0083504200447522808 0 0.034420266377255357 -0.0081824982534119215 0 0.03400393393462757 -0.0086400519524376142 0 0.03400393393462757 -0.0086400519524376142 0 0.033782120573950566 -0.0087212379877195708 0 0.034172711615903364 -0.0093394369265968769 0 0.034420266377255357 -0.0081824982534119215 0 0.03400393393462757 -0.0086400519524376142 0 0.034172711615903364 -0.0093394369265968769 0 0.033086534973999611 -0.0065746697240399807 0 0.033997835478228114 -0.0074244202862539278 0 0.033666832820078457 -0.0083064430260281295 0 0.033782120573950566 -0.0087212379877195708 0 0.033675988031157129 -0.0090828772374292113 0 0.033666832820078457 -0.0083064430260281295 0 0.033990176947993632 -0.01026444102287305 0 0.033292757523052517 -0.0074758907645141133 0 0.033631521086772455 -0.0083504200447522808 0 0.033782120573950566 -0.0087212379877195708 0 0.033666832820078457 -0.0083064430260281295 0 0.033631521086772455 -0.0083504200447522808 0 0.03400393393462757 -0.0086400519524376142 0 0.033782120573950566 -0.0087212379877195708 0 0.03182998875284062 -0.010128150508126366 0 0.032784793820185579 -0.012072834182303732 0 0.033269685347781089 -0.010642896602101931 0 0.033782120573950566 -0.0087212379877195708 0 0.033675988031157129 -0.0090828772374292113 0 0.034172711615903364 -0.0093394369265968769 0 0.033990176947993632 -0.01026444102287305 0 0.033988058454242714 -0.014208925780613016 0 0.035026737610701048 -0.015604227066309553 0 0.035017661363129109 -0.015453995588811097 0 0.03502267838169569 -0.015471459547931828 0 0.035026737610701048 -0.015604227066309553 0 0.035017661363129109 -0.015453995588811097 0 0.035204889530263205 -0.015445198943913671 0 0.035017661363129109 -0.015453995588811097 0 0.03502267838169569 -0.015471459547931828 0 0.035017264695146121 -0.015584525855047342 0 0.033808812969821279 -0.011532823808932193 0 0.033269685347781089 -0.010642896602101931 0 0.034919887433237866 -0.01102686828917656 0 0.032784793820185579 -0.012072834182303732 0 0.033808812969821279 -0.011532823808932193 0 0.034248323879237111 -0.012403258413261778 0 0.032784793820185579 -0.012072834182303732 0 0.033808812969821279 -0.011532823808932193 0 0.033269685347781089 -0.010642896602101931 0 0.034172711615903364 -0.0093394369265968769 0 0.033269685347781089 -0.010642896602101931 0 0.034919887433237866 -0.01102686828917656 0 0.033990176947993632 -0.01026444102287305 0 0.033682959196087978 -0.0092881563052388313 0 0.03182998875284062 -0.010128150508126366 0 0.034172711615903364 -0.0093394369265968769 0 0.033269685347781089 -0.010642896602101931 0 0.036026522943835654 -0.0095876317873942411 0 0.034172711615903364 -0.0093394369265968769 0 0.034919887433237866 -0.01102686828917656 0 0.036026522943835654 -0.0095876317873942411 0 0.036271634012669127 -0.011007180351908473 0 0.034919887433237866 -0.01102686828917656 0 0.037555416420832217 -0.010615627305215434 0 0.036026522943835654 -0.0095876317873942411 0 0.036271634012669127 -0.011007180351908473 0 0.036271634012669127 -0.011007180351908473 0 0.034919887433237866 -0.01102686828917656 0 0.036546057358423166 -0.012925442291500699 0 0.037555416420832217 -0.010615627305215434 0 0.036271634012669127 -0.011007180351908473 0 0.036546057358423166 -0.012925442291500699 0 0.034919887433237866 -0.01102686828917656 0 0.034248323879237111 -0.012403258413261778 0 0.036546057358423166 -0.012925442291500699 0 0.033808812969821279 -0.011532823808932193 0 0.034919887433237866 -0.01102686828917656 0 0.034248323879237111 -0.012403258413261778 0 0.034248323879237111 -0.012403258413261778 0 0.036546057358423166 -0.012925442291500699 0 0.033618941800950833 -0.014083523956929351 0 0.033991023456164442 -0.016311848647401251 0 0.034089461443699502 -0.016087317337879353 0 0.034423826571565147 -0.015938331688474645 0 0.035260515965269815 -0.01459828821419986 0 0.034889983264866913 -0.015661970190622494 0 0.033991023456164442 -0.016311848647401251 0 0.034423826571565147 -0.015938331688474645 0 0.034894460640967913 -0.01573092072689778 0 0.034392352095808924 -0.015977287446192753 0 0.034089461443699502 -0.016087317337879353 0 0.034423826571565147 -0.015938331688474645 0 0.034753172350293848 -0.015921422520126734 0 0.034894460640967913 -0.01573092072689778 0 0.033618941800950833 -0.014083523956929351 0 0.036546057358423166 -0.012925442291500699 0 0.034894460640967913 -0.01573092072689778 0 0.033618941800950833 -0.014083523956929351 0 0.034730151678123329 -0.015827718263743958 0 0.034305903215854874 -0.014819787556839811 0 0.03471971786882725 -0.015874147342693216 0 0.034423826571565147 -0.015938331688474645 0 0.034894460640967913 -0.01573092072689778 0 0.035000555863168872 -0.015744586374181122 0 0.035002198682166273 -0.01567996783512066 0 0.035051470824706471 -0.015718619818569007 0 0.034753172350293848 -0.015921422520126734 0 0.034960453521682325 -0.015809447645982813 0 0.035051470824706471 -0.015718619818569007 0 0.034960453521682325 -0.015809447645982813 0 0.035000555863168872 -0.015744586374181122 0 0.035051470824706471 -0.015718619818569007 0 0.034994023650844641 -0.015779514581978425 0 0.034960453521682325 -0.015809447645982813 0 0.035000555863168872 -0.015744586374181122 0 0.034994023650844641 -0.015779514581978425 0 0.035000555863168872 -0.015744586374181122 0 0.035015641238785436 -0.015709146479734811 0 0.035015641238785436 -0.015709146479734811 0 0.035002198682166273 -0.01567996783512066 0 0.035008673225104411 -0.015672408398799433 0 0.035000555863168872 -0.015744586374181122 0 0.035015641238785436 -0.015709146479734811 0 0.035002198682166273 -0.01567996783512066 0 0.035002198682166273 -0.01567996783512066 0 0.034999736537359778 -0.015630782628775226 0 0.035017264695146121 -0.015584525855047342 0 0.035002198682166273 -0.01567996783512066 0 0.034999736537359778 -0.015630782628775226 0 0.035008673225104411 -0.015672408398799433 0 0.035017661363129109 -0.015453995588811097 0 0.034999736537359778 -0.015630782628775226 0 0.035017264695146121 -0.015584525855047342 0 0.033988058454242714 -0.014208925780613016 0 0.034305903215854874 -0.014819787556839811 0 0.035002198682166273 -0.01567996783512066 0 0.035017264695146121 -0.015584525855047342 0 0.035051470824706471 -0.015718619818569007 0 0.032784793820185579 -0.012072834182303732 0 0.034248323879237111 -0.012403258413261778 0 0.033618941800950833 -0.014083523956929351 0 0.03502267838169569 -0.015471459547931828 0 0.035017264695146121 -0.015584525855047342 0 0.035051470824706471 -0.015718619818569007 0 0.034997521722909812 -0.01567890973533324 0 0.035080703410231437 -0.015658176018132623 0 0.035160315273182606 -0.015700279588568625 0 0.035286391327639492 -0.015273676031340855 0 0.035338356783324879 -0.015480793369550204 0 0.035835542786496637 -0.015050559448275217 0 0.035394784156109846 -0.014986558026934623 0 0.036009195382138981 -0.014544226416285127 0 0.035023542960576415 -0.015445150541865396 0 0.035286391327639492 -0.015273676031340855 0 0.035017661363129109 -0.015453995588811097 0 0.034999736537359778 -0.015630782628775226 0 0.034997521722909812 -0.01567890973533324 0 0.034999736537359778 -0.015630782628775226 0 0.034997521722909812 -0.01567890973533324 0 0.035008673225104411 -0.015672408398799433 0 0.034997521722909812 -0.01567890973533324 0 0.035008673225104411 -0.015672408398799433 0 0.035080703410231437 -0.015658176018132623 0 0.035015641238785436 -0.015709146479734811 0 0.035008673225104411 -0.015672408398799433 0 0.03502340932653901 -0.015671925208332518 0 0.035058189271079336 -0.01564473156158452 0 0.035008673225104411 -0.015672408398799433 0 0.03502340932653901 -0.015671925208332518 0 0.035058189271079336 -0.01564473156158452 0 0.035008673225104411 -0.015672408398799433 0 0.035080703410231437 -0.015658176018132623 0 0.035128114122907166 -0.015601263681879668 0 0.035058189271079336 -0.01564473156158452 0 0.035080703410231437 -0.015658176018132623 0 0.035080703410231437 -0.015658176018132623 0 0.035188909443583612 -0.015609007885307618 0 0.035160315273182606 -0.015700279588568625 0 0.035128114122907166 -0.015601263681879668 0 0.035080703410231437 -0.015658176018132623 0 0.035188909443583612 -0.015609007885307618 0 0.035254658028950496 -0.015564321652981519 0 0.035188909443583612 -0.015609007885307618 0 0.03533334080154741 -0.015623892243343667 0 0.036009195382138981 -0.014544226416285127 0 0.036732285078008839 -0.014130629448734704 0 0.036491137376661271 -0.014752039814106279 0 0.035338356783324879 -0.015480793369550204 0 0.036423615132179801 -0.011352648898738745 0 0.035188909443583612 -0.015609007885307618 0 0.035160315273182606 -0.015700279588568625 0 0.03533334080154741 -0.015623892243343667 0 0.037424097182059538 -0.007672538098252385 0 0.037248856416063861 -0.0072792046319929615 0 0.036970042494201334 -0.007693659597271146 0 0.037424097182059538 -0.007672538098252385 0 0.037248856416063861 -0.0072792046319929615 0 0.037634811081041657 -0.0071041349296377182 0 0.036423615132179801 -0.011352648898738745 0 0.036988175020294646 -0.011110094110318507 0 0.037003674600779954 -0.006700340650453958 0 0.037634811081041657 -0.0071041349296377182 0 0.03788451986666215 -0.0064292240465817418 0 0.037248856416063861 -0.0072792046319929615 0 0.037003674600779954 -0.006700340650453958 0 0.036932405512454781 -0.0071603509307156133 0 0.037248856416063861 -0.0072792046319929615 0 0.037003674600779954 -0.006700340650453958 0 0.037634811081041657 -0.0071041349296377182 0 0.036988175020294646 -0.011110094110318507 0 0.036239714337251545 -0.0085274776225108435 0 0.035835542786496637 -0.015050559448275217 0 0.036491137376661271 -0.014752039814106279 0 0.036250670436676756 -0.015297630894248963 0 0.035835542786496637 -0.015050559448275217 0 0.036009195382138981 -0.014544226416285127 0 0.036491137376661271 -0.014752039814106279 0 0.036408140545361026 -0.0063849010910259248 0 0.036745781590842165 -0.0065646259262183287 0 0.036449674599871439 -0.0067522797927577483 0 0.037457980477117937 -0.0062216184093552961 0 0.036239714337251545 -0.0085274776225108435 0 0.037003674600779954 -0.006700340650453958 0 0.036408140545361026 -0.0063849010910259248 0 0.036745781590842165 -0.0065646259262183287 0 0.037003674600779954 -0.006700340650453958 0 0.036745781590842165 -0.0065646259262183287 0 0.036852348971500096 -0.0065596607543950943 0 0.036745781590842165 -0.0065646259262183287 0 0.036756134996930111 -0.0066050396225330972 0 0.036852348971500096 -0.0065596607543950943 0 0.036745781590842165 -0.0065646259262183287 0 0.036756134996930111 -0.0066050396225330972 0 0.036449674599871439 -0.0067522797927577483 0 0.036756134996930111 -0.0066050396225330972 0 0.036449674599871439 -0.0067522797927577483 0 0.036623952684456368 -0.0069138991832763683 0 0.036756134996930111 -0.0066050396225330972 0 0.036623952684456368 -0.0069138991832763683 0 0.036777812972538966 -0.0066551059113934743 0 0.036239714337251545 -0.0085274776225108435 0 0.036269575404459832 -0.0058355655169602351 0 0.036408140545361026 -0.0063849010910259248 0 0.036449674599871439 -0.0067522797927577483 0 0.035936831775171499 -0.0066955783669497551 0 0.035936831775171499 -0.0066955783669497551 0 0.035623235659988046 -0.0070980771339795813 0 0.036168767606080829 -0.0070892650361532722 0 0.036449674599871439 -0.0067522797927577483 0 0.035936831775171499 -0.0066955783669497551 0 0.036168767606080829 -0.0070892650361532722 0 0.036374744395212384 -0.0055947170582193607 0 0.035936831775171499 -0.0066955783669497551 0 0.034918762289942312 -0.0060558499255760397 0 0.035936831775171499 -0.0066955783669497551 0 0.035076827968842282 -0.0070221311479880151 0 0.035623235659988046 -0.0070980771339795813 0 0.035936831775171499 -0.0066955783669497551 0 0.035076827968842282 -0.0070221311479880151 0 0.034918762289942312 -0.0060558499255760397 0 0.035835542786496637 -0.015050559448275217 0 0.036250670436676756 -0.015297630894248963 0 0.035483771399487669 -0.01556452586448398 0 0.036239714337251545 -0.0085274776225108435 0 0.035128820850297636 -0.011103139303322988 0 0.035835542786496637 -0.015050559448275217 0 0.035394784156109846 -0.014986558026934623 0 0.035483771399487669 -0.01556452586448398 0 0.035394784156109846 -0.014986558026934623 0 0.035483771399487669 -0.01556452586448398 0 0.035204889530263205 -0.015445198943913671 0 0.035017661363129109 -0.015453995588811097 0 0.035394784156109846 -0.014986558026934623 0 0.035204889530263205 -0.015445198943913671 0 0.033086534973999611 -0.0065746697240399807 0 0.034918762289942312 -0.0060558499255760397 0 0.034393121299835239 -0.0067942206076862764 0 0.033990176947993632 -0.01026444102287305 0 0.035128820850297636 -0.011103139303322988 0 0.035026737610701048 -0.015604227066309553 0 0.035483771399487669 -0.01556452586448398 0 0.035204889530263205 -0.015445198943913671 0 0.033086534973999611 -0.0065746697240399807 0 0.034393121299835239 -0.0067942206076862764 0 0.033997835478228114 -0.0074244202862539278 0 0.035076827968842282 -0.0070221311479880151 0 0.034918762289942312 -0.0060558499255760397 0 0.034393121299835239 -0.0067942206076862764 0 0.035076827968842282 -0.0070221311479880151 0 0.034393121299835239 -0.0067942206076862764 0 0.03457226772540218 -0.0072339576985615281 0 0.034393121299835239 -0.0067942206076862764 0 0.033997835478228114 -0.0074244202862539278 0 0.03457226772540218 -0.0072339576985615281 0 0.033997835478228114 -0.0074244202862539278 0 0.03457226772540218 -0.0072339576985615281 0 0.034501344872419307 -0.0075406548675897665 0 0.035076827968842282 -0.0070221311479880151 0 0.03457226772540218 -0.0072339576985615281 0 0.034832053081330479 -0.0074576903532701426 0 0.03457226772540218 -0.0072339576985615281 0 0.034832053081330479 -0.0074576903532701426 0 0.034501344872419307 -0.0075406548675897665 0 0.034501344872419307 -0.0075406548675897665 0 0.03471320464152048 -0.007638965311629776 0 0.0346767508178994 -0.0078180070968316591 0 0.033997835478228114 -0.0074244202862539278 0 0.034501344872419307 -0.0075406548675897665 0 0.0346767508178994 -0.0078180070968316591 0 0.034832053081330479 -0.0074576903532701426 0 0.034501344872419307 -0.0075406548675897665 0 0.03471320464152048 -0.007638965311629776 0 0.034832053081330479 -0.0074576903532701426 0 0.03471320464152048 -0.007638965311629776 0 0.034855557683153279 -0.0077121401285484654 0 0.03471320464152048 -0.007638965311629776 0 0.034855557683153279 -0.0077121401285484654 0 0.0346767508178994 -0.0078180070968316591 0 0.034285759786024557 -0.0058127210575476583 0 0.034414999212786887 -0.0053021041046081791 0 0.034855557683153279 -0.0077121401285484654 0 0.034652617942586693 -0.0077246917185382164 0 0.03495830272810866 -0.0078602606452473651 0 0.033631521086772455 -0.0083504200447522808 0 0.033944273682771621 -0.0085567054939578273 0 0.033666832820078457 -0.0083064430260281295 0 0.034426947037570259 -0.0080356451665819575 0 0.034414999212786887 -0.0053021041046081791 0 0.033997835478228114 -0.0074244202862539278 0 0.033944273682771621 -0.0085567054939578273 0 0.033666832820078457 -0.0083064430260281295 0 0.035623235659988046 -0.0070980771339795813 0 0.035245920679260669 -0.007416681470747667 0 0.035742813442268102 -0.0073650639680220842 0 0.035076827968842282 -0.0070221311479880151 0 0.035623235659988046 -0.0070980771339795813 0 0.035245920679260669 -0.007416681470747667 0 0.035076827968842282 -0.0070221311479880151 0 0.034832053081330479 -0.0074576903532701426 0 0.035245920679260669 -0.007416681470747667 0 0.034855557683153279 -0.0077121401285484654 0 0.035245920679260669 -0.007416681470747667 0 0.035328332207965267 -0.0077381846729513513 0 0.034855557683153279 -0.0077121401285484654 0 0.035328332207965267 -0.0077381846729513513 0 0.03495830272810866 -0.0078602606452473651 0 0.034832053081330479 -0.0074576903532701426 0 0.034855557683153279 -0.0077121401285484654 0 0.035245920679260669 -0.007416681470747667 0 0.035245920679260669 -0.007416681470747667 0 0.035742813442268102 -0.0073650639680220842 0 0.035328332207965267 -0.0077381846729513513 0 0.036118519822860247 -0.00077531545146526822 0 0.037411123877528943 -0.0055602282339650613 0 0.039154560331367383 -0.0020249688173457417 0 0.038663402770837983 -0.0019233003854241841 0 0.038371640693492616 -0.0023762793081883622 0 0.035328332207965267 -0.0077381846729513513 0 0.034890167653862054 -0.0081971356264355852 0 0.036363544909066486 -0.007519963779772011 0 0.035328332207965267 -0.0077381846729513513 0 0.03495830272810866 -0.0078602606452473651 0 0.034890167653862054 -0.0081971356264355852 0 0.033925981044177732 0.0033908778227362412 0 0.035191238511615458 0.0036889891487355358 0 0.03498906149069933 0.0034078503115272953 0 0.034652617942586693 -0.0077246917185382164 0 0.03495830272810866 -0.0078602606452473651 0 0.034890167653862054 -0.0081971356264355852 0 0.035191238511615458 0.0036889891487355358 0 0.03498906149069933 0.0034078503115272953 0 0.035398935267733772 0.0032586371775219737 0 0.034414999212786887 -0.0053021041046081791 0 0.036118519822860247 -0.00077531545146526822 0 0.036118519822860247 -0.00077531545146526822 0 0.035676761464807222 0.0015463561018374684 0 0.03541969576801135 0.0033793131222190744 0 0.034942636561965036 0.0032154953983532311 0 0.035388901318417612 0.0027715530020967901 0 0.03498906149069933 0.0034078503115272953 0 0.035398935267733772 0.0032586371775219737 0 0.034942636561965036 0.0032154953983532311 0 0.034286612726820972 0.0023659393861366661 0 0.034839986057456383 0.0027065236250370804 0 0.03521436810184439 0.0020710030195496588 0 0.034300652611391112 0.00290481449207006 0 0.034942636561965036 0.0032154953983532311 0 0.034839986057456383 0.0027065236250370804 0 0.034839986057456383 0.0027065236250370804 0 0.035388901318417612 0.0027715530020967901 0 0.03521436810184439 0.0020710030195496588 0 0.034942636561965036 0.0032154953983532311 0 0.034839986057456383 0.0027065236250370804 0 0.035388901318417612 0.0027715530020967901 0 0.036118519822860247 -0.00077531545146526822 0 0.037447864003634285 0.00072711103349403752 0 0.039154560331367383 -0.0020249688173457417 0 0.038854374788995581 -0.0013561633705181746 0 0.038663402770837983 -0.0019233003854241841 0 0.03541969576801135 0.0033793131222190744 0 0.035388901318417612 0.0027715530020967901 0 0.035991349345545452 0.0024420373199192731 0 0.035388901318417612 0.0027715530020967901 0 0.035991349345545452 0.0024420373199192731 0 0.03521436810184439 0.0020710030195496588 0 0.037447864003634285 0.00072711103349403752 0 0.037443227060145218 0.00032209947720399193 0 0.03521436810184439 0.0020710030195496588 0 0.036616683009904512 0.0013812393972599533 0 0.035037652761669057 0.0010162865081908793 0 0.035991349345545452 0.0024420373199192731 0 0.03521436810184439 0.0020710030195496588 0 0.036616683009904512 0.0013812393972599533 0 0.034384486311493559 0.0016151504741043485 0 0.03521436810184439 0.0020710030195496588 0 0.035037652761669057 0.0010162865081908793 0 0.034384486311493559 0.0016151504741043485 0 0.034286612726820972 0.0023659393861366661 0 0.03521436810184439 0.0020710030195496588 0 0.037780660013049638 -0.0013044835852312861 0 0.037263083642139726 -0.00048571141512320464 0 0.037596864763359723 -0.00046615037398024676 0 0.038224747807942897 -0.0013862834518693658 0 0.037780660013049638 -0.0013044835852312861 0 0.037596864763359723 -0.00046615037398024676 0 0.038854374788995581 -0.0013561633705181746 0 0.038224747807942897 -0.0013862834518693658 0 0.038294280737418279 -0.00057160206859116014 0 0.038224747807942897 -0.0013862834518693658 0 0.038294280737418279 -0.00057160206859116014 0 0.037596864763359723 -0.00046615037398024676 0 0.038854374788995581 -0.0013561633705181746 0 0.038224747807942897 -0.0013862834518693658 0 0.038663402770837983 -0.0019233003854241841 0 0.038224747807942897 -0.0013862834518693658 0 0.038663402770837983 -0.0019233003854241841 0 0.038335797828615459 -0.0019498046926357 0 0.038224747807942897 -0.0013862834518693658 0 0.038052174986130838 -0.0019682292241831323 0 0.038335797828615459 -0.0019498046926357 0 0.038224747807942897 -0.0013862834518693658 0 0.037780660013049638 -0.0013044835852312861 0 0.038052174986130838 -0.0019682292241831323 0 0.037780660013049638 -0.0013044835852312861 0 0.038052174986130838 -0.0019682292241831323 0 0.037691331064212144 -0.0019251601291399246 0 0.038052174986130838 -0.0019682292241831323 0 0.037853613628660306 -0.0022705780708188986 0 0.037691331064212144 -0.0019251601291399246 0 0.038052174986130838 -0.0019682292241831323 0 0.038371640693492616 -0.0023762793081883622 0 0.03799671921399235 -0.0025545327190016876 0 0.038052174986130838 -0.0019682292241831323 0 0.037853613628660306 -0.0022705780708188986 0 0.03799671921399235 -0.0025545327190016876 0 0.037853613628660306 -0.0022705780708188986 0 0.03799671921399235 -0.0025545327190016876 0 0.037639863692298818 -0.0026160140408408804 0 0.038663402770837983 -0.0019233003854241841 0 0.038335797828615459 -0.0019498046926357 0 0.038371640693492616 -0.0023762793081883622 0 0.038052174986130838 -0.0019682292241831323 0 0.038335797828615459 -0.0019498046926357 0 0.038371640693492616 -0.0023762793081883622 0 0.035742813442268102 -0.0073650639680220842 0 0.035328332207965267 -0.0077381846729513513 0 0.036363544909066486 -0.007519963779772011 0 0.035742813442268102 -0.0073650639680220842 0 0.036363544909066486 -0.007519963779772011 0 0.036168767606080829 -0.0070892650361532722 0 0.036363544909066486 -0.007519963779772011 0 0.036405259723448838 -0.0070488327818341691 0 0.036168767606080829 -0.0070892650361532722 0 0.036449674599871439 -0.0067522797927577483 0 0.036405259723448838 -0.0070488327818341691 0 0.036168767606080829 -0.0070892650361532722 0 0.035623235659988046 -0.0070980771339795813 0 0.035742813442268102 -0.0073650639680220842 0 0.036168767606080829 -0.0070892650361532722 0 0.036623952684456368 -0.0069138991832763683 0 0.036897092060647417 -0.0066134043620679197 0 0.036777812972538966 -0.0066551059113934743 0 0.036363544909066486 -0.007519963779772011 0 0.036623952684456368 -0.0069138991832763683 0 0.036897092060647417 -0.0066134043620679197 0 0.038371640693492616 -0.0023762793081883622 0 0.03799671921399235 -0.0025545327190016876 0 0.037451896943469065 -0.0029629788739900589 0 0.037411123877528943 -0.0055602282339650613 0 0.037122491793399583 -0.0047140647953806394 0 0.036363544909066486 -0.007519963779772011 0 0.036405259723448838 -0.0070488327818341691 0 0.036623952684456368 -0.0069138991832763683 0 0.036449674599871439 -0.0067522797927577483 0 0.036405259723448838 -0.0070488327818341691 0 0.036623952684456368 -0.0069138991832763683 0 0.03799671921399235 -0.0025545327190016876 0 0.037451896943469065 -0.0029629788739900589 0 0.037178847846633702 -0.003077473816340469 0 0.037962309638195448 -0.0026305669594165982 0 0.037281019826566758 -0.0031296895385389744 0 0.03799671921399235 -0.0025545327190016876 0 0.037396060841705298 -0.0031718278487397663 0 0.037639863692298818 -0.0026160140408408804 0 0.036897092060647417 -0.0066134043620679197 0 0.036829925335071963 -0.0065648962690335747 0 0.036777812972538966 -0.0066551059113934743 0 0.036897092060647417 -0.0066134043620679197 0 0.036655738844626327 -0.006286085067853847 0 0.036794203245544797 -0.0064723671290663736 0 0.036897092060647417 -0.0066134043620679197 0 0.036829925335071963 -0.0065648962690335747 0 0.036794203245544797 -0.0064723671290663736 0 0.037396060841705298 -0.0031718278487397663 0 0.037376954466379723 -0.0027638892329919741 0 0.037639863692298818 -0.0026160140408408804 0 0.037281019826566758 -0.0031296895385389744 0 0.036316246333742114 -0.0038764999053725988 0 0.037451896943469065 -0.0029629788739900589 0 0.037178847846633702 -0.003077473816340469 0 0.03645569732185424 -0.003569170080261357 0 0.036897092060647417 -0.0066134043620679197 0 0.036371179814950756 -0.0058969205079145914 0 0.036655738844626327 -0.006286085067853847 0 0.037178847846633702 -0.003077473816340469 0 0.0363117924443008 -0.003607826732148467 0 0.03645569732185424 -0.003569170080261357 0 0.037396060841705298 -0.0031718278487397663 0 0.036834306733889877 -0.0033271372693804944 0 0.036383237682844058 -0.0041283759646877785 0 0.037122491793399583 -0.0047140647953806394 0 0.036330770579794863 -0.0047600697013218318 0 0.037396060841705298 -0.0031718278487397663 0 0.036834306733889877 -0.0033271372693804944 0 0.03714802160103943 -0.0028827104522574525 0 0.037396060841705298 -0.0031718278487397663 0 0.037376954466379723 -0.0027638892329919741 0 0.03714802160103943 -0.0028827104522574525 0 0.03714802160103943 -0.0028827104522574525 0 0.036772166073147781 -0.0030378776495239321 0 0.036859995263591357 -0.0026157660274568726 0 0.036834306733889877 -0.0033271372693804944 0 0.03714802160103943 -0.0028827104522574525 0 0.036772166073147781 -0.0030378776495239321 0 0.03714802160103943 -0.0028827104522574525 0 0.036859995263591357 -0.0026157660274568726 0 0.03730556464812982 -0.0023642249704837197 0 0.037376954466379723 -0.0027638892329919741 0 0.03714802160103943 -0.0028827104522574525 0 0.03730556464812982 -0.0023642249704837197 0 0.036859995263591357 -0.0026157660274568726 0 0.03730556464812982 -0.0023642249704837197 0 0.03673771183160332 -0.0020470151573576253 0 0.03730556464812982 -0.0023642249704837197 0 0.037691331064212144 -0.0019251601291399246 0 0.037436632818695678 -0.0014670265880405383 0 0.037853613628660306 -0.0022705780708188986 0 0.037639863692298818 -0.0026160140408408804 0 0.037691331064212144 -0.0019251601291399246 0 0.037376954466379723 -0.0027638892329919741 0 0.037639863692298818 -0.0026160140408408804 0 0.03730556464812982 -0.0023642249704837197 0 0.037639863692298818 -0.0026160140408408804 0 0.03730556464812982 -0.0023642249704837197 0 0.037691331064212144 -0.0019251601291399246 0 0.037780660013049638 -0.0013044835852312861 0 0.037691331064212144 -0.0019251601291399246 0 0.037436632818695678 -0.0014670265880405383 0 0.03673771183160332 -0.0020470151573576253 0 0.037436632818695678 -0.0014670265880405383 0 0.036991860615300236 -0.00084378370125086529 0 0.03730556464812982 -0.0023642249704837197 0 0.03673771183160332 -0.0020470151573576253 0 0.037436632818695678 -0.0014670265880405383 0 0.037436632818695678 -0.0014670265880405383 0 0.036991860615300236 -0.00084378370125086529 0 0.037901612715922482 -0.00026066994987972224 0 0.036991860615300236 -0.00084378370125086529 0 0.036401507320723815 0.00010524816346160912 0 0.037161132498009487 0.00021534250098137155 0 0.036991860615300236 -0.00084378370125086529 0 0.037901612715922482 -0.00026066994987972224 0 0.037161132498009487 0.00021534250098137155 0 0.037784593597583967 -0.001185163990701248 0 0.03757060070823337 -0.0003376062641368914 0 0.037780660013049638 -0.0013044835852312861 0 0.037436632818695678 -0.0014670265880405383 0 0.037901612715922482 -0.00026066994987972224 0 0.036007356802524239 -0.0010420975985852984 0 0.036401507320723815 0.00010524816346160912 0 0.034999859017002588 0.00047828814126275589 0 0.036007356802524239 -0.0010420975985852984 0 0.03499987975444533 -0.001382380742290752 0 0.034999859017002588 0.00047828814126275589 0 0.036991860615300236 -0.00084378370125086529 0 0.036007356802524239 -0.0010420975985852984 0 0.036401507320723815 0.00010524816346160912 0 0.03673771183160332 -0.0020470151573576253 0 0.036007356802524239 -0.0010420975985852984 0 0.035858096683857428 -0.0023395082523080275 0 0.03673771183160332 -0.0020470151573576253 0 0.036991860615300236 -0.00084378370125086529 0 0.036007356802524239 -0.0010420975985852984 0 0.036007356802524239 -0.0010420975985852984 0 0.03499987975444533 -0.001382380742290752 0 0.035858096683857428 -0.0023395082523080275 0 0.03499987975444533 -0.001382380742290752 0 0.034999861043485229 -0.0032428814709639427 0 0.035858096683857428 -0.0023395082523080275 0 0.034999861043485229 -0.0032428814709639427 0 0.035858096683857428 -0.0023395082523080275 0 0.035844036128072493 -0.0033792083313977359 0 0.03673771183160332 -0.0020470151573576253 0 0.035858096683857428 -0.0023395082523080275 0 0.036385160375317624 -0.0029016649802349687 0 0.035858096683857428 -0.0023395082523080275 0 0.036385160375317624 -0.0029016649802349687 0 0.035844036128072493 -0.0033792083313977359 0 0.036772166073147781 -0.0030378776495239321 0 0.036859995263591357 -0.0026157660274568726 0 0.036385160375317624 -0.0029016649802349687 0 0.036859995263591357 -0.0026157660274568726 0 0.03673771183160332 -0.0020470151573576253 0 0.036385160375317624 -0.0029016649802349687 0 0.036834306733889877 -0.0033271372693804944 0 0.036772166073147781 -0.0030378776495239321 0 0.0364257125027889 -0.0034488437234536646 0 0.036772166073147781 -0.0030378776495239321 0 0.036385160375317624 -0.0029016649802349687 0 0.0364257125027889 -0.0034488437234536646 0 0.036385160375317624 -0.0029016649802349687 0 0.0364257125027889 -0.0034488437234536646 0 0.035844036128072493 -0.0033792083313977359 0 0.0364257125027889 -0.0034488437234536646 0 0.036064703669940398 -0.0037993037751044363 0 0.035844036128072493 -0.0033792083313977359 0 0.0364257125027889 -0.0034488437234536646 0 0.036064703669940398 -0.0037993037751044363 0 0.036383237682844058 -0.0041283759646877785 0 0.036064703669940398 -0.0037993037751044363 0 0.035582655445367775 -0.0042534794146173466 0 0.036383237682844058 -0.0041283759646877785 0 0.036834306733889877 -0.0033271372693804944 0 0.0364257125027889 -0.0034488437234536646 0 0.036383237682844058 -0.0041283759646877785 0 0.034999861043485229 -0.0032428814709639427 0 0.035844036128072493 -0.0033792083313977359 0 0.035582655445367775 -0.0042534794146173466 0 0.034999861043485229 -0.0032428814709639427 0 0.034999930292929339 -0.0051583586522037364 0 0.035582655445367775 -0.0042534794146173466 0 0.036064703669940398 -0.0037993037751044363 0 0.035844036128072493 -0.0033792083313977359 0 0.035582655445367775 -0.0042534794146173466 0 0.035000127835356075 -0.0051603863014141058 0 0.035798886752484847 -0.0058037835344671492 0 0.036371179814950756 -0.0058969205079145914 0 0.035234031842500554 -0.0046488692288294943 0 0.036330770579794863 -0.0047600697013218318 0 0.035234031842500554 -0.0046488692288294943 0 0.036316246333742114 -0.0038764999053725988 0 0.034999930292929339 -0.0051583586522037364 0 0.035582655445367775 -0.0042534794146173466 0 0.036383237682844058 -0.0041283759646877785 0 0.035000127835356075 -0.0051603863014141058 0 0.035717871459761595 -0.0063587272525402506 0 0.035798886752484847 -0.0058037835344671492 0 0.035000127835356075 -0.0051603863014141058 0 0.035717871459761595 -0.0063587272525402506 0 0.034999799129663979 -0.0069722578735998825 0 0.035717871459761595 -0.0063587272525402506 0 0.036236697298169702 -0.0065027595414765835 0 0.035974731323621618 -0.0071368535908801186 0 0.035717871459761595 -0.0063587272525402506 0 0.036006465314656101 -0.0062014296612718485 0 0.035798886752484847 -0.0058037835344671492 0 0.035717871459761595 -0.0063587272525402506 0 0.036236697298169702 -0.0065027595414765835 0 0.036006465314656101 -0.0062014296612718485 0 0.036236697298169702 -0.0065027595414765835 0 0.036217854451346038 -0.0061184416914825714 0 0.036475621177934438 -0.0062649337098322367 0 0.036236697298169702 -0.0065027595414765835 0 0.036006465314656101 -0.0062014296612718485 0 0.036217854451346038 -0.0061184416914825714 0 0.036217854451346038 -0.0061184416914825714 0 0.036368783596198564 -0.0060645539773156688 0 0.036475621177934438 -0.0062649337098322367 0 0.035411907686219823 -0.0041617297829759621 0 0.0363117924443008 -0.003607826732148467 0 0.03645569732185424 -0.003569170080261357 0 0.036217854451346038 -0.0061184416914825714 0 0.036195413761220402 -0.0059684068395015576 0 0.036368783596198564 -0.0060645539773156688 0 0.036217854451346038 -0.0061184416914825714 0 0.036195413761220402 -0.0059684068395015576 0 0.035798886752484847 -0.0058037835344671492 0 0.036006465314656101 -0.0062014296612718485 0 0.036217854451346038 -0.0061184416914825714 0 0.035798886752484847 -0.0058037835344671492 0 0.036195413761220402 -0.0059684068395015576 0 0.035798886752484847 -0.0058037835344671492 0 0.036371179814950756 -0.0058969205079145914 0 0.036368783596198564 -0.0060645539773156688 0 0.036371179814950756 -0.0058969205079145914 0 0.036515907394335169 -0.006160887314112515 0 0.036195413761220402 -0.0059684068395015576 0 0.036368783596198564 -0.0060645539773156688 0 0.036371179814950756 -0.0058969205079145914 0 0.036371179814950756 -0.0058969205079145914 0 0.036515907394335169 -0.006160887314112515 0 0.036655738844626327 -0.006286085067853847 0 0.036655738844626327 -0.006286085067853847 0 0.036730830750480691 -0.0063929578596518084 0 0.036794203245544797 -0.0064723671290663736 0 0.036655738844626327 -0.006286085067853847 0 0.036630960250314849 -0.0063164818961174212 0 0.036730830750480691 -0.0063929578596518084 0 0.036515907394335169 -0.006160887314112515 0 0.036655738844626327 -0.006286085067853847 0 0.036630960250314849 -0.0063164818961174212 0 0.036630960250314849 -0.0063164818961174212 0 0.036730830750480691 -0.0063929578596518084 0 0.036727516378353267 -0.0064614352630620077 0 0.036630960250314849 -0.0063164818961174212 0 0.036727516378353267 -0.0064614352630620077 0 0.036610014145007259 -0.0063909751082826399 0 0.036630960250314849 -0.0063164818961174212 0 0.036475621177934438 -0.0062649337098322367 0 0.036610014145007259 -0.0063909751082826399 0 0.036368783596198564 -0.0060645539773156688 0 0.036515907394335169 -0.006160887314112515 0 0.036475621177934438 -0.0062649337098322367 0 0.036515907394335169 -0.006160887314112515 0 0.036630960250314849 -0.0063164818961174212 0 0.036475621177934438 -0.0062649337098322367 0 0.036756134996930111 -0.0066050396225330972 0 0.036777812972538966 -0.0066551059113934743 0 0.036811976300745688 -0.0065054433250249025 0 0.036829925335071963 -0.0065648962690335747 0 0.036777812972538966 -0.0066551059113934743 0 0.036811976300745688 -0.0065054433250249025 0 0.036811976300745688 -0.0065054433250249025 0 0.036730830750480691 -0.0063929578596518084 0 0.036794203245544797 -0.0064723671290663736 0 0.036829925335071963 -0.0065648962690335747 0 0.036811976300745688 -0.0065054433250249025 0 0.036794203245544797 -0.0064723671290663736 0 0.036811976300745688 -0.0065054433250249025 0 0.036852348971500096 -0.0065596607543950943 0 0.036727516378353267 -0.0064614352630620077 0 0.036811976300745688 -0.0065054433250249025 0 0.036730830750480691 -0.0063929578596518084 0 0.036727516378353267 -0.0064614352630620077 0 0.036756134996930111 -0.0066050396225330972 0 0.036811976300745688 -0.0065054433250249025 0 0.036852348971500096 -0.0065596607543950943 0 0.036852348971500096 -0.0065596607543950943 0 0.036727516378353267 -0.0064614352630620077 0 0.036781485448254617 -0.0067797940045342692 0 0.037003674600779954 -0.006700340650453958 0 0.036852348971500096 -0.0065596607543950943 0 0.036781485448254617 -0.0067797940045342692 0 0.036236697298169702 -0.0065027595414765835 0 0.036580727296486829 -0.0065612692394328865 0 0.036490228012373629 -0.0071523310054432991 0 0.036475621177934438 -0.0062649337098322367 0 0.036610014145007259 -0.0063909751082826399 0 0.036580727296486829 -0.0065612692394328865 0 0.036236697298169702 -0.0065027595414765835 0 0.036475621177934438 -0.0062649337098322367 0 0.036580727296486829 -0.0065612692394328865 0 0.036727516378353267 -0.0064614352630620077 0 0.036610014145007259 -0.0063909751082826399 0 0.036580727296486829 -0.0065612692394328865 0 0.036727516378353267 -0.0064614352630620077 0 0.036781485448254617 -0.0067797940045342692 0 0.036580727296486829 -0.0065612692394328865 0 0.036781485448254617 -0.0067797940045342692 0 0.036490228012373629 -0.0071523310054432991 0 0.036725672584037382 -0.0073878221089455267 0 0.036781485448254617 -0.0067797940045342692 0 0.036580727296486829 -0.0065612692394328865 0 0.036490228012373629 -0.0071523310054432991 0 0.036781485448254617 -0.0067797940045342692 0 0.036932405512454781 -0.0071603509307156133 0 0.036725672584037382 -0.0073878221089455267 0 0.037003674600779954 -0.006700340650453958 0 0.036781485448254617 -0.0067797940045342692 0 0.036932405512454781 -0.0071603509307156133 0 0.036682194066199582 -0.0081756171405536239 0 0.037424097182059538 -0.007672538098252385 0 0.036970042494201334 -0.007693659597271146 0 0.037248856416063861 -0.0072792046319929615 0 0.036932405512454781 -0.0071603509307156133 0 0.036970042494201334 -0.007693659597271146 0 0.036932405512454781 -0.0071603509307156133 0 0.036725672584037382 -0.0073878221089455267 0 0.036970042494201334 -0.007693659597271146 0 0.036725672584037382 -0.0073878221089455267 0 0.036735131166831754 -0.0078012943980957216 0 0.036970042494201334 -0.007693659597271146 0 0.036682194066199582 -0.0081756171405536239 0 0.036735131166831754 -0.0078012943980957216 0 0.036970042494201334 -0.007693659597271146 0 0.036490228012373629 -0.0071523310054432991 0 0.036575861301338976 -0.0077370541679247047 0 0.036251764490534841 -0.0077224979246524571 0 0.036490228012373629 -0.0071523310054432991 0 0.036725672584037382 -0.0073878221089455267 0 0.036575861301338976 -0.0077370541679247047 0 0.036725672584037382 -0.0073878221089455267 0 0.036735131166831754 -0.0078012943980957216 0 0.036575861301338976 -0.0077370541679247047 0 0.036641807986694155 -0.0079911239416464597 0 0.036575861301338976 -0.0077370541679247047 0 0.036410680805552369 -0.008024808104512008 0 0.036641807986694155 -0.0079911239416464597 0 0.036735131166831754 -0.0078012943980957216 0 0.036575861301338976 -0.0077370541679247047 0 0.036575861301338976 -0.0077370541679247047 0 0.036410680805552369 -0.008024808104512008 0 0.036251764490534841 -0.0077224979246524571 0 0.036037656933017997 -0.0083386958330461721 0 0.036410680805552369 -0.008024808104512008 0 0.036251764490534841 -0.0077224979246524571 0 0.036251764490534841 -0.0077224979246524571 0 0.03570621375028199 -0.0078903815411217638 0 0.035974731323621618 -0.0071368535908801186 0 0.036037656933017997 -0.0083386958330461721 0 0.036251764490534841 -0.0077224979246524571 0 0.03570621375028199 -0.0078903815411217638 0 0.034999923659138531 -0.0087844729505617402 0 0.036037656933017997 -0.0083386958330461721 0 0.03570621375028199 -0.0078903815411217638 0 0.034999923659138531 -0.0087844729505617402 0 0.03570621375028199 -0.0078903815411217638 0 0.034999799129663979 -0.0069722578735998825 0 0.035717871459761595 -0.0063587272525402506 0 0.034999799129663979 -0.0069722578735998825 0 0.035974731323621618 -0.0071368535908801186 0 0.03570621375028199 -0.0078903815411217638 0 0.034999799129663979 -0.0069722578735998825 0 0.035974731323621618 -0.0071368535908801186 0 0.036490228012373629 -0.0071523310054432991 0 0.036251764490534841 -0.0077224979246524571 0 0.035974731323621618 -0.0071368535908801186 0 0.036236697298169702 -0.0065027595414765835 0 0.036490228012373629 -0.0071523310054432991 0 0.035974731323621618 -0.0071368535908801186 0 0.026009184525473218 -0.014976676406803405 0 0.026446610619957324 -0.01503223157741518 0 0.026112872240572894 -0.015203515730635114 0 0.026009184525473218 -0.014976676406803405 0 0.026271763304110379 -0.014761155650202296 0 0.026446610619957324 -0.01503223157741518 0 0.026009184525473218 -0.014976676406803405 0 0.025741051997722832 -0.014852613113910331 0 0.025934751931636895 -0.014658257206889728 0 0.026009184525473218 -0.014976676406803405 0 0.025971561522827848 -0.015167893562582118 0 0.026112872240572894 -0.015203515730635114 0 0.026009184525473218 -0.014976676406803405 0 0.025764838720770691 -0.015029065755928698 0 0.025971561522827848 -0.015167893562582118 0 0.025764838720770691 -0.015029065755928698 0 0.025431257621025449 -0.014997604492328547 0 0.025778065357942265 -0.015188725907360302 0 0.025471115395050842 -0.015124670656189951 0 0.025613721543314486 -0.015205229381082293 0 0.025778065357942265 -0.015188725907360302 0 0.022682895644642164 -0.01463630063256513 0 0.026004418690548405 -0.01571097400951332 0 0.022682895644642164 -0.01463630063256513 0 0.016828200670121363 -0.011863567085009798 0 0.025764838720770691 -0.015029065755928698 0 0.025431257621025449 -0.014997604492328547 0 0.025741051997722832 -0.014852613113910331 0 0.026009184525473218 -0.014976676406803405 0 0.025764838720770691 -0.015029065755928698 0 0.025741051997722832 -0.014852613113910331 0 0.025741051997722832 -0.014852613113910331 0 0.025594187809196221 -0.014550456064734521 0 0.025934751931636895 -0.014658257206889728 0 0.025431257621025449 -0.014997604492328547 0 0.025594187809196221 -0.014550456064734521 0 0.025334565368407509 -0.014246675838363749 0 0.025431257621025449 -0.014997604492328547 0 0.025741051997722832 -0.014852613113910331 0 0.025594187809196221 -0.014550456064734521 0 0.025594187809196221 -0.014550456064734521 0 0.025934751931636895 -0.014658257206889728 0 0.025764248849169169 -0.014283497411563144 0 0.025594187809196221 -0.014550456064734521 0 0.025764248849169169 -0.014283497411563144 0 0.025334565368407509 -0.014246675838363749 0 0.025934751931636895 -0.014658257206889728 0 0.026172842133721678 -0.014417293984685307 0 0.025764248849169169 -0.014283497411563144 0 0.026009184525473218 -0.014976676406803405 0 0.025934751931636895 -0.014658257206889728 0 0.026271763304110379 -0.014761155650202296 0 0.025934751931636895 -0.014658257206889728 0 0.026271763304110379 -0.014761155650202296 0 0.026172842133721678 -0.014417293984685307 0 0.026172842133721678 -0.014417293984685307 0 0.026674513991130716 -0.014608414131287868 0 0.026487134876209666 -0.014064481356517073 0 0.026271763304110379 -0.014761155650202296 0 0.026172842133721678 -0.014417293984685307 0 0.026674513991130716 -0.014608414131287868 0 0.026271763304110379 -0.014761155650202296 0 0.026674513991130716 -0.014608414131287868 0 0.026446610619957324 -0.01503223157741518 0 0.027244169192849839 -0.014901356198937191 0 0.027573829522881368 -0.014330180265520069 0 0.028112595503408444 -0.014802391799266351 0 0.026674513991130716 -0.014608414131287868 0 0.027244169192849839 -0.014901356198937191 0 0.027573829522881368 -0.014330180265520069 0 0.027244169192849839 -0.014901356198937191 0 0.026980745115651503 -0.015306307402195175 0 0.026446610619957324 -0.01503223157741518 0 0.027244169192849839 -0.014901356198937191 0 0.026980745115651503 -0.015306307402195175 0 0.02786685168092817 -0.015322549204253083 0 0.026674513991130716 -0.014608414131287868 0 0.027244169192849839 -0.014901356198937191 0 0.026446610619957324 -0.01503223157741518 0 0.026980745115651503 -0.015306307402195175 0 0.026446610619957324 -0.01503223157741518 0 0.02627866660488436 -0.015245600690386781 0 0.026446610619957324 -0.01503223157741518 0 0.02627866660488436 -0.015245600690386781 0 0.026112872240572894 -0.015203515730635114 0 0.02627866660488436 -0.015245600690386781 0 0.026139040317185658 -0.015230195724581487 0 0.026112872240572894 -0.015203515730635114 0 0.02627866660488436 -0.015245600690386781 0 0.026139040317185658 -0.015230195724581487 0 0.026017625655498589 -0.015217740138535307 0 0.026980745115651503 -0.015306307402195175 0 0.02627866660488436 -0.015245600690386781 0 0.027496260628371814 -0.016189154675124159 0 0.02627866660488436 -0.015245600690386781 0 0.026017625655498589 -0.015217740138535307 0 0.027496260628371814 -0.016189154675124159 0 0.026980745115651503 -0.015306307402195175 0 0.02786685168092817 -0.015322549204253083 0 0.027496260628371814 -0.016189154675124159 0 0.026097850490210829 -0.015248015261778686 0 0.026321675950422927 -0.015362331365315738 0 0.026017625655498589 -0.015217740138535307 0 0.024936470859672141 -0.014572819420179985 0 0.025417185104368519 -0.01386025511398201 0 0.026017625655498589 -0.015217740138535307 0 0.026207540544863579 -0.015138281020742163 0 0.025417185104368519 -0.01386025511398201 0 0.021265847905582468 -0.014478262008924834 0 0.019493906788184644 -0.012555124254916108 0 0.026139040317185658 -0.015230195724581487 0 0.026017625655498589 -0.015217740138535307 0 0.026207540544863579 -0.015138281020742163 0 0.014741605081254796 -0.012656097961505984 0 0.01540575534473617 -0.012482243735575667 0 0.01456562843156955 -0.011762876346054461 0 0.026207540544863579 -0.015138281020742163 0 0.025971561522827848 -0.015167893562582118 0 0.025778065357942265 -0.015188725907360302 0 0.026207540544863579 -0.015138281020742163 0 0.025971561522827848 -0.015167893562582118 0 0.026112872240572894 -0.015203515730635114 0 0.026139040317185658 -0.015230195724581487 0 0.026207540544863579 -0.015138281020742163 0 0.026112872240572894 -0.015203515730635114 0 0.012064076122817223 -0.0056146252052526324 0 0.012585033247685198 -0.007968859097732317 0 0.01128051090193731 -0.0071001686039633694 0 0.014741605081254796 -0.012656097961505984 0 0.015686828846721599 -0.013462423672189245 0 0.01540575534473617 -0.012482243735575667 0 0.021265847905582468 -0.014478262008924834 0 0.016828200670121363 -0.011863567085009798 0 0.016828200670121363 -0.011863567085009798 0 0.013641495068781788 -0.0096513301047618759 0 0.026207540544863579 -0.015138281020742163 0 0.025613721543314486 -0.015205229381082293 0 0.025778065357942265 -0.015188725907360302 0 0.025764838720770691 -0.015029065755928698 0 0.025971561522827848 -0.015167893562582118 0 0.025778065357942265 -0.015188725907360302 0 0.012585033247685198 -0.007968859097732317 0 0.011816784934362869 -0.0085979986713170045 0 0.01128051090193731 -0.0071001686039633694 0 0.011816784934362869 -0.0085979986713170045 0 0.010713683629629335 -0.0085375265407672367 0 0.01128051090193731 -0.0071001686039633694 0 0.0099469921849488427 -0.0073285078249873325 0 0.010713683629629335 -0.0085375265407672367 0 0.01128051090193731 -0.0071001686039633694 0 0.010466527494085854 -0.0086178214759351519 0 0.0092966377075646301 -0.0088630314117109053 0 0.0099469921849488427 -0.0073285078249873325 0 0.0083058994223161303 -0.0072220557276292943 0 0.0084440790568585545 -0.0091662603880317012 0 0.0083058994223161303 -0.0072220557276292943 0 0.0071780382143196769 -0.0082010319547333212 0 0.0084440790568585545 -0.0091662603880317012 0 0.0099469921849488427 -0.0073285078249873325 0 0.010713683629629335 -0.0085375265407672367 0 0.0084440790568585545 -0.0091662603880317012 0 0.0099469921849488427 -0.0073285078249873325 0 0.0083058994223161303 -0.0072220557276292943 0 0.009284311698468016 -0.0059525960748587816 0 0.0083058994223161303 -0.0072220557276292943 0 0.009284311698468016 -0.0059525960748587816 0 0.0077433918486371029 -0.0053176441708064244 0 0.012064076122817223 -0.0056146252052526324 0 0.01060113988769058 -0.0059172171983387237 0 0.01128051090193731 -0.0071001686039633694 0 0.0099469921849488427 -0.0073285078249873325 0 0.01060113988769058 -0.0059172171983387237 0 0.01128051090193731 -0.0071001686039633694 0 0.0099469921849488427 -0.0073285078249873325 0 0.009284311698468016 -0.0059525960748587816 0 0.01060113988769058 -0.0059172171983387237 0 0.0027932225018252542 -0.0068844782471268453 0 0.0045259880082212465 -0.0083360059055446883 0 0.0045647427497424904 -0.0064778051007077378 0 0.0040418884995841878 -0.0078027135315621365 0 0.0068096064189218479 -0.0084291406744329885 0 0.0045259880082212465 -0.0083360059055446883 0 0.0058944401110803133 -0.0080524008744864012 0 0.0063231839900111187 -0.0095851168995632983 0 0.0045259880082212465 -0.0083360059055446883 0 0.0058944401110803133 -0.0080524008744864012 0 0.0045647427497424904 -0.0064778051007077378 0 0.0071780382143196769 -0.0082010319547333212 0 0.0063231839900111187 -0.0095851168995632983 0 0.0084440790568585545 -0.0091662603880317012 0 0.0058944401110803133 -0.0080524008744864012 0 0.0071780382143196769 -0.0082010319547333212 0 0.0065839427884172115 -0.0068556818644343563 0 0.0058944401110803133 -0.0080524008744864012 0 0.0071780382143196769 -0.0082010319547333212 0 0.0063231839900111187 -0.0095851168995632983 0 0.0083058994223161303 -0.0072220557276292943 0 0.0071780382143196769 -0.0082010319547333212 0 0.0065839427884172115 -0.0068556818644343563 0 0.0065839427884172115 -0.0068556818644343563 0 0.0054388022238898428 -0.0048152944466421611 0 0.0077433918486371029 -0.0053176441708064244 0 0.0083058994223161303 -0.0072220557276292943 0 0.0065839427884172115 -0.0068556818644343563 0 0.0077433918486371029 -0.0053176441708064244 0 0.0032708028548558816 -0.0059153242979485907 0 0.0036690099335536176 -0.0048789146151845455 0 0.0045647427497424904 -0.0064778051007077378 0 0.0065839427884172115 -0.0068556818644343563 0 0.0045647427497424904 -0.0064778051007077378 0 0.0054388022238898428 -0.0048152944466421611 0 0.0058944401110803133 -0.0080524008744864012 0 0.0065839427884172115 -0.0068556818644343563 0 0.0045647427497424904 -0.0064778051007077378 0 0.0036690099335536176 -0.0048789146151845455 0 0.0045647427497424904 -0.0064778051007077378 0 0.0054388022238898428 -0.0048152944466421611 0 0.0054388022238898428 -0.0048152944466421611 0 0.0051428002461858567 -0.0028235799410306264 0 0.0038842394879294645 -0.0037208286324546284 0 0.0036690099335536176 -0.0048789146151845455 0 0.0054388022238898428 -0.0048152944466421611 0 0.0038842394879294645 -0.0037208286324546284 0 0.0054388022238898428 -0.0048152944466421611 0 0.0069594558015038336 -0.0035399659211193574 0 0.0077433918486371029 -0.0053176441708064244 0 0.0069594558015038336 -0.0035399659211193574 0 0.0051428002461858567 -0.0028235799410306264 0 0.0069729955940541714 -0.0013959709513733801 0 0.0054388022238898428 -0.0048152944466421611 0 0.0069594558015038336 -0.0035399659211193574 0 0.0051428002461858567 -0.0028235799410306264 0 0.0036665494378268974 -0.0024407032470658012 0 0.0051428002461858567 -0.0028235799410306264 0 0.0045220547991533747 -0.0013462170911746417 0 0.0036665494378268974 -0.0024407032470658012 0 0.0051428002461858567 -0.0028235799410306264 0 0.0038842394879294645 -0.0037208286324546284 0 0.009284311698468016 -0.0059525960748587816 0 0.01060113988769058 -0.0059172171983387237 0 0.0095516358421345732 -0.0034002481928185743 0 0.012064076122817223 -0.0056146252052526324 0 0.01060113988769058 -0.0059172171983387237 0 0.0095516358421345732 -0.0034002481928185743 0 0.016828200670121363 -0.011863567085009798 0 0.010601244053025089 -0.0074788195338007157 0 0.014772262125009875 -0.013333249658459861 0 0.015066938357916284 -0.014363418528289812 0 0.012998591083855975 -0.012520216295825124 0 0.0069594558015038336 -0.0035399659211193574 0 0.0077433918486371029 -0.0053176441708064244 0 0.0095516358421345732 -0.0034002481928185743 0 0.009284311698468016 -0.0059525960748587816 0 0.0077433918486371029 -0.0053176441708064244 0 0.0095516358421345732 -0.0034002481928185743 0 0.0069594558015038336 -0.0035399659211193574 0 0.0095516358421345732 -0.0034002481928185743 0 0.0069729955940541714 -0.0013959709513733801 0 0.012998591083855975 -0.012520216295825124 0 0.012528141151840963 -0.011149483312208377 0 0.01106732266617181 -0.010745283828879657 0 0.010601244053025089 -0.0074788195338007157 0 0.0091697786789450737 -0.0062439961549222165 0 0.022682895644642164 -0.01463630063256513 0 0.025607718344728879 -0.014391657464222244 0 0.022682895644642164 -0.01463630063256513 0 0.018800179337189853 -0.012754425705978857 0 0.012998591083855975 -0.012520216295825124 0 0.013590831827069163 -0.011528166605741127 0 0.012528141151840963 -0.011149483312208377 0 0.025431257621025449 -0.014997604492328547 0 0.024867168835099495 -0.01412821825756732 0 0.025334565368407509 -0.014246675838363749 0 0.02494805869947804 -0.015019537046603203 0 0.024696156793339964 -0.014436539958449016 0 0.024867168835099495 -0.01412821825756732 0 0.014772262125009875 -0.013333249658459861 0 0.012998591083855975 -0.012520216295825124 0 0.013590831827069163 -0.011528166605741127 0 0.018800179337189853 -0.012754425705978857 0 0.018508027151014694 -0.01178175678368611 0 0.024696156793339964 -0.014436539958449016 0 0.024867168835099495 -0.01412821825756732 0 0.024174616853812492 -0.01374851427850951 0 0.024867168835099495 -0.01412821825756732 0 0.0250915391853586 -0.013810337172100092 0 0.02467818494206855 -0.013722466874523215 0 0.024867168835099495 -0.01412821825756732 0 0.0250915391853586 -0.013810337172100092 0 0.025334565368407509 -0.014246675838363749 0 0.024867168835099495 -0.01412821825756732 0 0.024174616853812492 -0.01374851427850951 0 0.02467818494206855 -0.013722466874523215 0 0.013590831827069163 -0.011528166605741127 0 0.012528141151840963 -0.011149483312208377 0 0.012459037553515497 -0.0098298037097504353 0 0.012459037553515497 -0.0098298037097504353 0 0.01106732266617181 -0.010745283828879657 0 0.01127297915437076 -0.0092939588517112204 0 0.012528141151840963 -0.011149483312208377 0 0.012459037553515497 -0.0098298037097504353 0 0.01106732266617181 -0.010745283828879657 0 0.024174616853812492 -0.01374851427850951 0 0.024178388900762619 -0.013264307450168759 0 0.024466596900310857 -0.013545331738545959 0 0.024174616853812492 -0.01374851427850951 0 0.024178388900762619 -0.013264307450168759 0 0.02384718759202412 -0.013129932612758695 0 0.012459037553515497 -0.0098298037097504353 0 0.01127297915437076 -0.0092939588517112204 0 0.01138919988691474 -0.0081921079516369347 0 0.018508027151014694 -0.01178175678368611 0 0.015822409625570317 -0.011671570406603837 0 0.024178388900762619 -0.013264307450168759 0 0.024849837755963552 -0.013443719172094887 0 0.025391593713266963 -0.012901356968910272 0 0.024178388900762619 -0.013264307450168759 0 0.024849837755963552 -0.013443719172094887 0 0.024466596900310857 -0.013545331738545959 0 0.0250915391853586 -0.013810337172100092 0 0.024849837755963552 -0.013443719172094887 0 0.02467818494206855 -0.013722466874523215 0 0.024849837755963552 -0.013443719172094887 0 0.02467818494206855 -0.013722466874523215 0 0.024466596900310857 -0.013545331738545959 0 0.024174616853812492 -0.01374851427850951 0 0.02467818494206855 -0.013722466874523215 0 0.024466596900310857 -0.013545331738545959 0 0.0051428002461858567 -0.0028235799410306264 0 0.0045220547991533747 -0.0013462170911746417 0 0.0069729955940541714 -0.0013959709513733801 0 0.0045220547991533747 -0.0013462170911746417 0 0.0069729955940541714 -0.0013959709513733801 0 0.0046291763302188675 0.00040543829167161448 0 0.0091697786789450737 -0.0062439961549222165 0 0.0070721768021027752 -0.0040116828557741086 0 0.01106732266617181 -0.010745283828879657 0 0.01127297915437076 -0.0092939588517112204 0 0.0092740661728292623 -0.0090566218726350171 0 0.01127297915437076 -0.0092939588517112204 0 0.0092740661728292623 -0.0090566218726350171 0 0.010654614461868717 -0.0084365275315875319 0 0.01127297915437076 -0.0092939588517112204 0 0.010654614461868717 -0.0084365275315875319 0 0.01138919988691474 -0.0081921079516369347 0 0.0092740661728292623 -0.0090566218726350171 0 0.0093193404167664605 -0.0076805675732603221 0 0.010654614461868717 -0.0084365275315875319 0 0.0076642582890471701 -0.007525284711951327 0 0.0092740661728292623 -0.0090566218726350171 0 0.0093193404167664605 -0.0076805675732603221 0 0.015822409625570317 -0.011671570406603837 0 0.011918203394999386 -0.011261518098391802 0 0.010654614461868717 -0.0084365275315875319 0 0.011287710629751353 -0.0082473552838015617 0 0.010358800701746995 -0.006841541722786052 0 0.0093193404167664605 -0.0076805675732603221 0 0.010654614461868717 -0.0084365275315875319 0 0.010358800701746995 -0.006841541722786052 0 0.011779498625473636 -0.010693309343367308 0 0.015822409625570317 -0.011671570406603837 0 0.014896511207354765 -0.018099326378627677 0 0.013678141850845624 -0.016131947462565393 0 0.016050079672501345 -0.01594906670817996 0 0.0087439988807749471 -0.0066001338745815116 0 0.0093193404167664605 -0.0076805675732603221 0 0.010358800701746995 -0.006841541722786052 0 0.0084693829448684397 -0.012674242424930118 0 0.011918203394999386 -0.011261518098391802 0 0.0087439988807749471 -0.0066001338745815116 0 0.009466260891436382 -0.0054696972281765401 0 0.010358800701746995 -0.006841541722786052 0 0.024178388900762619 -0.013264307450168759 0 0.02445423901642782 -0.013155164248751358 0 0.024723682260991316 -0.013358529434001462 0 0.02423968656003099 -0.013260468212070818 0 0.025060668108865286 -0.013134869964270211 0 0.014896511207354765 -0.018099326378627677 0 0.017932595943825309 -0.017166252986417385 0 0.016050079672501345 -0.01594906670817996 0 0.015822409625570317 -0.011671570406603837 0 0.021874751691344094 -0.01560359484586132 0 0.024178388900762619 -0.013264307450168759 0 0.02384718759202412 -0.013129932612758695 0 0.02445423901642782 -0.013155164248751358 0 0.015317685096381133 -0.013839284379118914 0 0.013678141850845624 -0.016131947462565393 0 0.016050079672501345 -0.01594906670817996 0 0.018667683585218416 -0.014015901304116481 0 0.017932595943825309 -0.017166252986417385 0 0.016050079672501345 -0.01594906670817996 0 0.018667683585218416 -0.014015901304116481 0 0.017932595943825309 -0.017166252986417385 0 0.020918783141675914 -0.016238110497997903 0 0.021874751691344094 -0.01560359484586132 0 0.022813876214302933 -0.01472673891790837 0 0.025391593713266963 -0.012901356968910272 0 0.026114783661324754 -0.013234725204701123 0 0.026527897804177716 -0.012694872080194087 0 0.025060668108865286 -0.013134869964270211 0 0.026072219171653432 -0.013045335919591131 0 0.025139116272719572 -0.013026719403599963 0 0.024723682260991316 -0.013358529434001462 0 0.025587491074298148 -0.013404143138153458 0 0.02445423901642782 -0.013155164248751358 0 0.025139116272719572 -0.013026719403599963 0 0.024723682260991316 -0.013358529434001462 0 0.024849837755963552 -0.013443719172094887 0 0.025391593713266963 -0.012901356968910272 0 0.025419804089284233 -0.013398564618740488 0 0.025391593713266963 -0.012901356968910272 0 0.025419804089284233 -0.013398564618740488 0 0.026114783661324754 -0.013234725204701123 0 0.0250915391853586 -0.013810337172100092 0 0.024849837755963552 -0.013443719172094887 0 0.025419804089284233 -0.013398564618740488 0 0.0250915391853586 -0.013810337172100092 0 0.025419804089284233 -0.013398564618740488 0 0.025560645638968049 -0.013848416750058806 0 0.025419804089284233 -0.013398564618740488 0 0.025872696635566121 -0.013610298419267411 0 0.025560645638968049 -0.013848416750058806 0 0.026114783661324754 -0.013234725204701123 0 0.026246652455713716 -0.013659214976376568 0 0.026784686401203961 -0.013522699632799824 0 0.025419804089284233 -0.013398564618740488 0 0.026114783661324754 -0.013234725204701123 0 0.025872696635566121 -0.013610298419267411 0 0.026114783661324754 -0.013234725204701123 0 0.026246652455713716 -0.013659214976376568 0 0.025872696635566121 -0.013610298419267411 0 0.026246652455713716 -0.013659214976376568 0 0.025872696635566121 -0.013610298419267411 0 0.026019963724652106 -0.01389504355202271 0 0.025872696635566121 -0.013610298419267411 0 0.026019963724652106 -0.01389504355202271 0 0.025560645638968049 -0.013848416750058806 0 0.026246652455713716 -0.013659214976376568 0 0.026019963724652106 -0.01389504355202271 0 0.026487134876209666 -0.014064481356517073 0 0.026172842133721678 -0.014417293984685307 0 0.026019963724652106 -0.01389504355202271 0 0.026487134876209666 -0.014064481356517073 0 0.026172842133721678 -0.014417293984685307 0 0.026019963724652106 -0.01389504355202271 0 0.025764248849169169 -0.014283497411563144 0 0.025764248849169169 -0.014283497411563144 0 0.025334565368407509 -0.014246675838363749 0 0.025560645638968049 -0.013848416750058806 0 0.0250915391853586 -0.013810337172100092 0 0.025334565368407509 -0.014246675838363749 0 0.025560645638968049 -0.013848416750058806 0 0.026019963724652106 -0.01389504355202271 0 0.025764248849169169 -0.014283497411563144 0 0.025560645638968049 -0.013848416750058806 0 0.026674513991130716 -0.014608414131287868 0 0.027573829522881368 -0.014330180265520069 0 0.027009883277958308 -0.014078322631369506 0 0.027573829522881368 -0.014330180265520069 0 0.027009883277958308 -0.014078322631369506 0 0.027595014785312951 -0.013789858382505137 0 0.026674513991130716 -0.014608414131287868 0 0.026487134876209666 -0.014064481356517073 0 0.027009883277958308 -0.014078322631369506 0 0.026487134876209666 -0.014064481356517073 0 0.027009883277958308 -0.014078322631369506 0 0.026784686401203961 -0.013522699632799824 0 0.026784686401203961 -0.013522699632799824 0 0.027541271968985703 -0.013270065451801946 0 0.026932105824906738 -0.013049925415741889 0 0.026114783661324754 -0.013234725204701123 0 0.026784686401203961 -0.013522699632799824 0 0.026932105824906738 -0.013049925415741889 0 0.026246652455713716 -0.013659214976376568 0 0.026487134876209666 -0.014064481356517073 0 0.026784686401203961 -0.013522699632799824 0 0.026784686401203961 -0.013522699632799824 0 0.027595014785312951 -0.013789858382505137 0 0.027541271968985703 -0.013270065451801946 0 0.027009883277958308 -0.014078322631369506 0 0.026784686401203961 -0.013522699632799824 0 0.027595014785312951 -0.013789858382505137 0 0.027595014785312951 -0.013789858382505137 0 0.027541271968985703 -0.013270065451801946 0 0.028102391880557905 -0.013544806817549406 0 0.027541271968985703 -0.013270065451801946 0 0.026932105824906738 -0.013049925415741889 0 0.027731203632182504 -0.012524548446883863 0 0.027541271968985703 -0.013270065451801946 0 0.027731203632182504 -0.012524548446883863 0 0.028149044020786641 -0.013127692949928278 0 0.026072219171653432 -0.013045335919591131 0 0.027325195563796194 -0.012911229324121417 0 0.026114783661324754 -0.013234725204701123 0 0.026527897804177716 -0.012694872080194087 0 0.026932105824906738 -0.013049925415741889 0 0.026527897804177716 -0.012694872080194087 0 0.026932105824906738 -0.013049925415741889 0 0.027731203632182504 -0.012524548446883863 0 0.025139116272719572 -0.013026719403599963 0 0.025587491074298148 -0.013404143138153458 0 0.026295737026892911 -0.012651153564114725 0 0.021920703437838193 -0.014227667871937404 0 0.020918783141675914 -0.016238110497997903 0 0.023784957645613565 -0.015362885533271508 0 0.022813876214302933 -0.01472673891790837 0 0.025346363447193473 -0.013037849244053181 0 0.02784092627574054 -0.012159213222017922 0 0.026919359644295447 -0.01329340740878966 0 0.026295737026892911 -0.012651153564114725 0 0.025587491074298148 -0.013404143138153458 0 0.026919359644295447 -0.01329340740878966 0 0.026295737026892911 -0.012651153564114725 0 0.027325195563796194 -0.012911229324121417 0 0.028777528685729668 -0.012755420858080839 0 0.027731203632182504 -0.012524548446883863 0 0.028559867048626356 -0.012948992565072103 0 0.029008996830046943 -0.012484519202030349 0 0.02784092627574054 -0.012159213222017922 0 0.026919359644295447 -0.01329340740878966 0 0.028546618380885323 -0.013022510997835472 0 0.027731203632182504 -0.012524548446883863 0 0.028559867048626356 -0.012948992565072103 0 0.028149044020786641 -0.013127692949928278 0 0.028559867048626356 -0.012948992565072103 0 0.028149044020786641 -0.013127692949928278 0 0.028757083419408174 -0.013451767952957352 0 0.028559867048626356 -0.012948992565072103 0 0.029135011050086045 -0.013127950634699841 0 0.029008996830046943 -0.012484519202030349 0 0.029135011050086045 -0.013127950634699841 0 0.029008996830046943 -0.012484519202030349 0 0.029758989957904117 -0.013186929930650402 0 0.028559867048626356 -0.012948992565072103 0 0.029135011050086045 -0.013127950634699841 0 0.028757083419408174 -0.013451767952957352 0 0.028777528685729668 -0.012755420858080839 0 0.030043918934230213 -0.012596183287745304 0 0.029008996830046943 -0.012484519202030349 0 0.030139596313443383 -0.012602168504975928 0 0.029758989957904117 -0.013186929930650402 0 0.029524641229192846 -0.012204829355986258 0 0.028546618380885323 -0.013022510997835472 0 0.030139596313443383 -0.012602168504975928 0 0.030139596313443383 -0.012602168504975928 0 0.030343111810568452 -0.013243487290643027 0 0.03071017297578716 -0.012955623682010992 0 0.030880537193989355 -0.012447490239758099 0 0.030139596313443383 -0.012602168504975928 0 0.03071017297578716 -0.012955623682010992 0 0.030139596313443383 -0.012602168504975928 0 0.030343111810568452 -0.013243487290643027 0 0.029758989957904117 -0.013186929930650402 0 0.030343111810568452 -0.013243487290643027 0 0.03071017297578716 -0.012955623682010992 0 0.030872905344390814 -0.013357238558767333 0 0.030343111810568452 -0.013243487290643027 0 0.029758989957904117 -0.013186929930650402 0 0.030115010692289543 -0.013642877002581972 0 0.030343111810568452 -0.013243487290643027 0 0.030629281566323569 -0.013800120973444888 0 0.030872905344390814 -0.013357238558767333 0 0.030343111810568452 -0.013243487290643027 0 0.030629281566323569 -0.013800120973444888 0 0.030115010692289543 -0.013642877002581972 0 0.029758989957904117 -0.013186929930650402 0 0.029558120505744096 -0.013828767939554881 0 0.030115010692289543 -0.013642877002581972 0 0.029135011050086045 -0.013127950634699841 0 0.029758989957904117 -0.013186929930650402 0 0.029558120505744096 -0.013828767939554881 0 0.029558120505744096 -0.013828767939554881 0 0.030115010692289543 -0.013642877002581972 0 0.030261316889247981 -0.01416185553116537 0 0.029558120505744096 -0.013828767939554881 0 0.030261316889247981 -0.01416185553116537 0 0.029546834010464918 -0.014256116306427782 0 0.029558120505744096 -0.013828767939554881 0 0.029546834010464918 -0.014256116306427782 0 0.029018748710854657 -0.01394623795582859 0 0.030629281566323569 -0.013800120973444888 0 0.030261316889247981 -0.01416185553116537 0 0.031194495046021904 -0.014351424050163515 0 0.030629281566323569 -0.013800120973444888 0 0.030115010692289543 -0.013642877002581972 0 0.030261316889247981 -0.01416185553116537 0 0.030261316889247981 -0.01416185553116537 0 0.03080702474030108 -0.01469915658886437 0 0.030022618452645505 -0.014581320520032809 0 0.030261316889247981 -0.01416185553116537 0 0.03080702474030108 -0.01469915658886437 0 0.031194495046021904 -0.014351424050163515 0 0.029546834010464918 -0.014256116306427782 0 0.030022618452645505 -0.014581320520032809 0 0.029478629198956476 -0.014792212439369725 0 0.029546834010464918 -0.014256116306427782 0 0.02895441081440121 -0.014346511099751777 0 0.029478629198956476 -0.014792212439369725 0 0.030261316889247981 -0.01416185553116537 0 0.029546834010464918 -0.014256116306427782 0 0.030022618452645505 -0.014581320520032809 0 0.029546834010464918 -0.014256116306427782 0 0.02895441081440121 -0.014346511099751777 0 0.029018748710854657 -0.01394623795582859 0 0.02895441081440121 -0.014346511099751777 0 0.028340009840166554 -0.013972547815349696 0 0.029018748710854657 -0.01394623795582859 0 0.02895441081440121 -0.014346511099751777 0 0.028362996279786272 -0.014425784835262379 0 0.028340009840166554 -0.013972547815349696 0 0.027573829522881368 -0.014330180265520069 0 0.027595014785312951 -0.013789858382505137 0 0.028340009840166554 -0.013972547815349696 0 0.027573829522881368 -0.014330180265520069 0 0.028362996279786272 -0.014425784835262379 0 0.028340009840166554 -0.013972547815349696 0 0.027595014785312951 -0.013789858382505137 0 0.028340009840166554 -0.013972547815349696 0 0.028102391880557905 -0.013544806817549406 0 0.028340009840166554 -0.013972547815349696 0 0.028102391880557905 -0.013544806817549406 0 0.028757083419408174 -0.013451767952957352 0 0.027541271968985703 -0.013270065451801946 0 0.028149044020786641 -0.013127692949928278 0 0.028102391880557905 -0.013544806817549406 0 0.028149044020786641 -0.013127692949928278 0 0.028102391880557905 -0.013544806817549406 0 0.028757083419408174 -0.013451767952957352 0 0.029558120505744096 -0.013828767939554881 0 0.028757083419408174 -0.013451767952957352 0 0.029018748710854657 -0.01394623795582859 0 0.029135011050086045 -0.013127950634699841 0 0.029558120505744096 -0.013828767939554881 0 0.028757083419408174 -0.013451767952957352 0 0.028340009840166554 -0.013972547815349696 0 0.028757083419408174 -0.013451767952957352 0 0.029018748710854657 -0.01394623795582859 0 0.033281319609652221 -0.014089809292510837 0 0.032804976921030349 -0.014356040821304582 0 0.032370683956758912 -0.013633549196563493 0 0.032901312923238016 -0.013231309486159595 0 0.033281319609652221 -0.014089809292510837 0 0.032370683956758912 -0.013633549196563493 0 0.031937924975195563 -0.012829714333242872 0 0.032901312923238016 -0.013231309486159595 0 0.032370683956758912 -0.013633549196563493 0 0.032804976921030349 -0.014356040821304582 0 0.032370683956758912 -0.013633549196563493 0 0.03183492172055323 -0.01399722510272886 0 0.032370683956758912 -0.013633549196563493 0 0.03183492172055323 -0.01399722510272886 0 0.031399857992688809 -0.013287840762183804 0 0.03183492172055323 -0.01399722510272886 0 0.031399857992688809 -0.013287840762183804 0 0.031164054011133441 -0.013801873619540177 0 0.031937924975195563 -0.012829714333242872 0 0.032370683956758912 -0.013633549196563493 0 0.031399857992688809 -0.013287840762183804 0 0.030880537193989355 -0.012447490239758099 0 0.031937924975195563 -0.012829714333242872 0 0.031399857992688809 -0.013287840762183804 0 0.031399857992688809 -0.013287840762183804 0 0.03071017297578716 -0.012955623682010992 0 0.030872905344390814 -0.013357238558767333 0 0.030880537193989355 -0.012447490239758099 0 0.031399857992688809 -0.013287840762183804 0 0.03071017297578716 -0.012955623682010992 0 0.031399857992688809 -0.013287840762183804 0 0.030872905344390814 -0.013357238558767333 0 0.031164054011133441 -0.013801873619540177 0 0.030629281566323569 -0.013800120973444888 0 0.030872905344390814 -0.013357238558767333 0 0.031164054011133441 -0.013801873619540177 0 0.030629281566323569 -0.013800120973444888 0 0.031164054011133441 -0.013801873619540177 0 0.031194495046021904 -0.014351424050163515 0 0.03080702474030108 -0.01469915658886437 0 0.031194495046021904 -0.014351424050163515 0 0.031451305267834198 -0.014991725203602512 0 0.031194495046021904 -0.014351424050163515 0 0.031958351946355865 -0.014824843896894693 0 0.031451305267834198 -0.014991725203602512 0 0.03183492172055323 -0.01399722510272886 0 0.031164054011133441 -0.013801873619540177 0 0.031194495046021904 -0.014351424050163515 0 0.03183492172055323 -0.01399722510272886 0 0.031194495046021904 -0.014351424050163515 0 0.031958351946355865 -0.014824843896894693 0 0.03183492172055323 -0.01399722510272886 0 0.031958351946355865 -0.014824843896894693 0 0.032345186567435846 -0.014539223613117481 0 0.032804976921030349 -0.014356040821304582 0 0.03183492172055323 -0.01399722510272886 0 0.032345186567435846 -0.014539223613117481 0 0.031958351946355865 -0.014824843896894693 0 0.032345186567435846 -0.014539223613117481 0 0.032537065025679518 -0.015249019526873799 0 0.032345186567435846 -0.014539223613117481 0 0.03310388936020478 -0.015141330170347052 0 0.032537065025679518 -0.015249019526873799 0 0.033427304801389307 -0.014740651139840542 0 0.032804976921030349 -0.014356040821304582 0 0.03310388936020478 -0.015141330170347052 0 0.032804976921030349 -0.014356040821304582 0 0.032345186567435846 -0.014539223613117481 0 0.03310388936020478 -0.015141330170347052 0 0.033240176389623816 -0.0157393562131957 0 0.032537065025679518 -0.015249019526873799 0 0.032513748712292401 -0.015706556747546629 0 0.033240176389623816 -0.0157393562131957 0 0.032513748712292401 -0.015706556747546629 0 0.032906403446625487 -0.01603332759011351 0 0.033240176389623816 -0.0157393562131957 0 0.03310388936020478 -0.015141330170347052 0 0.032537065025679518 -0.015249019526873799 0 0.031958351946355865 -0.014824843896894693 0 0.032537065025679518 -0.015249019526873799 0 0.031945155117212645 -0.015434714963218575 0 0.032537065025679518 -0.015249019526873799 0 0.032513748712292401 -0.015706556747546629 0 0.031945155117212645 -0.015434714963218575 0 0.032513748712292401 -0.015706556747546629 0 0.031945155117212645 -0.015434714963218575 0 0.032225748334056559 -0.015950745369261471 0 0.031945155117212645 -0.015434714963218575 0 0.031639945979174758 -0.015824808045810063 0 0.032225748334056559 -0.015950745369261471 0 0.031958351946355865 -0.014824843896894693 0 0.031945155117212645 -0.015434714963218575 0 0.031451305267834198 -0.014991725203602512 0 0.031945155117212645 -0.015434714963218575 0 0.031451305267834198 -0.014991725203602512 0 0.031268394799047521 -0.015431762124960394 0 0.031451305267834198 -0.014991725203602512 0 0.03094206380088213 -0.015061451028300057 0 0.031268394799047521 -0.015431762124960394 0 0.03080702474030108 -0.01469915658886437 0 0.031451305267834198 -0.014991725203602512 0 0.03094206380088213 -0.015061451028300057 0 0.03094206380088213 -0.015061451028300057 0 0.031268394799047521 -0.015431762124960394 0 0.030681547490621498 -0.015276442080860262 0 0.031945155117212645 -0.015434714963218575 0 0.031268394799047521 -0.015431762124960394 0 0.031639945979174758 -0.015824808045810063 0 0.031268394799047521 -0.015431762124960394 0 0.031190126412891164 -0.015786876731075834 0 0.031639945979174758 -0.015824808045810063 0 0.031268394799047521 -0.015431762124960394 0 0.031190126412891164 -0.015786876731075834 0 0.030820168495961739 -0.015618341995769341 0 0.031190126412891164 -0.015786876731075834 0 0.031639945979174758 -0.015824808045810063 0 0.031307327976680573 -0.016112458275463572 0 0.031190126412891164 -0.015786876731075834 0 0.031307327976680573 -0.016112458275463572 0 0.030936285062351888 -0.015925853067334308 0 0.031639945979174758 -0.015824808045810063 0 0.031307327976680573 -0.016112458275463572 0 0.031927127425620788 -0.016191922848073054 0 0.031307327976680573 -0.016112458275463572 0 0.031662091741477986 -0.016333708302210148 0 0.031927127425620788 -0.016191922848073054 0 0.031307327976680573 -0.016112458275463572 0 0.031662091741477986 -0.016333708302210148 0 0.031020031099560121 -0.016337841678536188 0 0.031662091741477986 -0.016333708302210148 0 0.031020031099560121 -0.016337841678536188 0 0.031764786095664625 -0.016540945404504286 0 0.028250279345054103 -0.015428184615843459 0 0.027925142990306153 -0.015095276092236492 0 0.031662091741477986 -0.016333708302210148 0 0.032172069113961456 -0.016404034073428924 0 0.031764786095664625 -0.016540945404504286 0 0.031662091741477986 -0.016333708302210148 0 0.032172069113961456 -0.016404034073428924 0 0.031927127425620788 -0.016191922848073054 0 0.032172069113961456 -0.016404034073428924 0 0.031927127425620788 -0.016191922848073054 0 0.032527954462704109 -0.016312448466098309 0 0.032225748334056559 -0.015950745369261471 0 0.031927127425620788 -0.016191922848073054 0 0.032527954462704109 -0.016312448466098309 0 0.031639945979174758 -0.015824808045810063 0 0.032225748334056559 -0.015950745369261471 0 0.031927127425620788 -0.016191922848073054 0 0.032527954462704109 -0.016312448466098309 0 0.032906403446625487 -0.01603332759011351 0 0.033250026621305329 -0.016514515819623991 0 0.033472404094657932 -0.016175982389236312 0 0.032906403446625487 -0.01603332759011351 0 0.033250026621305329 -0.016514515819623991 0 0.032225748334056559 -0.015950745369261471 0 0.032527954462704109 -0.016312448466098309 0 0.032906403446625487 -0.01603332759011351 0 0.032513748712292401 -0.015706556747546629 0 0.032225748334056559 -0.015950745369261471 0 0.032906403446625487 -0.01603332759011351 0 0.033240176389623816 -0.0157393562131957 0 0.033472404094657932 -0.016175982389236312 0 0.032906403446625487 -0.01603332759011351 0 0.028874600712949054 -0.015179751438695779 0 0.02786685168092817 -0.015322549204253083 0 0.028571600251053465 -0.015749405498910938 0 0.028874600712949054 -0.015179751438695779 0 0.02950770652841074 -0.015228701765343038 0 0.029356038936184117 -0.015629873687425522 0 0.028874600712949054 -0.015179751438695779 0 0.029356038936184117 -0.015629873687425522 0 0.028571600251053465 -0.015749405498910938 0 0.027244169192849839 -0.014901356198937191 0 0.02786685168092817 -0.015322549204253083 0 0.028112595503408444 -0.014802391799266351 0 0.028874600712949054 -0.015179751438695779 0 0.02786685168092817 -0.015322549204253083 0 0.028112595503408444 -0.014802391799266351 0 0.027573829522881368 -0.014330180265520069 0 0.028362996279786272 -0.014425784835262379 0 0.028112595503408444 -0.014802391799266351 0 0.028362996279786272 -0.014425784835262379 0 0.028112595503408444 -0.014802391799266351 0 0.028841744288158049 -0.014719462793230307 0 0.02895441081440121 -0.014346511099751777 0 0.028362996279786272 -0.014425784835262379 0 0.028841744288158049 -0.014719462793230307 0 0.028874600712949054 -0.015179751438695779 0 0.028112595503408444 -0.014802391799266351 0 0.028841744288158049 -0.014719462793230307 0 0.028874600712949054 -0.015179751438695779 0 0.028841744288158049 -0.014719462793230307 0 0.029478629198956476 -0.014792212439369725 0 0.02895441081440121 -0.014346511099751777 0 0.028841744288158049 -0.014719462793230307 0 0.029478629198956476 -0.014792212439369725 0 0.030022618452645505 -0.014581320520032809 0 0.029478629198956476 -0.014792212439369725 0 0.030064328142076574 -0.015139819005583213 0 0.028874600712949054 -0.015179751438695779 0 0.029478629198956476 -0.014792212439369725 0 0.02950770652841074 -0.015228701765343038 0 0.029478629198956476 -0.014792212439369725 0 0.030064328142076574 -0.015139819005583213 0 0.02950770652841074 -0.015228701765343038 0 0.03080702474030108 -0.01469915658886437 0 0.030022618452645505 -0.014581320520032809 0 0.030464238998293709 -0.014917772869486168 0 0.030022618452645505 -0.014581320520032809 0 0.030064328142076574 -0.015139819005583213 0 0.030464238998293709 -0.014917772869486168 0 0.03080702474030108 -0.01469915658886437 0 0.03094206380088213 -0.015061451028300057 0 0.030464238998293709 -0.014917772869486168 0 0.030064328142076574 -0.015139819005583213 0 0.030464238998293709 -0.014917772869486168 0 0.030681547490621498 -0.015276442080860262 0 0.03094206380088213 -0.015061451028300057 0 0.030464238998293709 -0.014917772869486168 0 0.030681547490621498 -0.015276442080860262 0 0.031268394799047521 -0.015431762124960394 0 0.030681547490621498 -0.015276442080860262 0 0.030820168495961739 -0.015618341995769341 0 0.030681547490621498 -0.015276442080860262 0 0.030366294286285223 -0.015528103714617575 0 0.030820168495961739 -0.015618341995769341 0 0.030064328142076574 -0.015139819005583213 0 0.030681547490621498 -0.015276442080860262 0 0.030366294286285223 -0.015528103714617575 0 0.030366294286285223 -0.015528103714617575 0 0.030820168495961739 -0.015618341995769341 0 0.030562456635774914 -0.015878857684274057 0 0.030366294286285223 -0.015528103714617575 0 0.029965478893751979 -0.015847719378089296 0 0.030562456635774914 -0.015878857684274057 0 0.031190126412891164 -0.015786876731075834 0 0.030820168495961739 -0.015618341995769341 0 0.030936285062351888 -0.015925853067334308 0 0.030064328142076574 -0.015139819005583213 0 0.030366294286285223 -0.015528103714617575 0 0.029875802623790845 -0.015454658427867463 0 0.030064328142076574 -0.015139819005583213 0 0.02950770652841074 -0.015228701765343038 0 0.029875802623790845 -0.015454658427867463 0 0.030366294286285223 -0.015528103714617575 0 0.029875802623790845 -0.015454658427867463 0 0.029965478893751979 -0.015847719378089296 0 0.029875802623790845 -0.015454658427867463 0 0.029356038936184117 -0.015629873687425522 0 0.029965478893751979 -0.015847719378089296 0 0.02950770652841074 -0.015228701765343038 0 0.029875802623790845 -0.015454658427867463 0 0.029356038936184117 -0.015629873687425522 0 0.029356038936184117 -0.015629873687425522 0 0.029965478893751979 -0.015847719378089296 0 0.029076507628574406 -0.016552472035145621 0 0.029965478893751979 -0.015847719378089296 0 0.030420537532453468 -0.016226473422488123 0 0.029076507628574406 -0.016552472035145621 0 0.030420537532453468 -0.016226473422488123 0 0.030691488904521658 -0.016575757377859435 0 0.029076507628574406 -0.016552472035145621 0 0.030820168495961739 -0.015618341995769341 0 0.030936285062351888 -0.015925853067334308 0 0.030562456635774914 -0.015878857684274057 0 0.031307327976680573 -0.016112458275463572 0 0.030936285062351888 -0.015925853067334308 0 0.030828987173659499 -0.016163157261553748 0 0.030936285062351888 -0.015925853067334308 0 0.030562456635774914 -0.015878857684274057 0 0.030828987173659499 -0.016163157261553748 0 0.029965478893751979 -0.015847719378089296 0 0.030562456635774914 -0.015878857684274057 0 0.030420537532453468 -0.016226473422488123 0 0.030562456635774914 -0.015878857684274057 0 0.030420537532453468 -0.016226473422488123 0 0.030828987173659499 -0.016163157261553748 0 0.029798983447258055 -0.016573888918034851 0 0.028250279345054103 -0.015428184615843459 0 0.030420537532453468 -0.016226473422488123 0 0.030828987173659499 -0.016163157261553748 0 0.030793616378742013 -0.016407723249122898 0 0.031307327976680573 -0.016112458275463572 0 0.030828987173659499 -0.016163157261553748 0 0.031020031099560121 -0.016337841678536188 0 0.030828987173659499 -0.016163157261553748 0 0.030793616378742013 -0.016407723249122898 0 0.031020031099560121 -0.016337841678536188 0 0.028250279345054103 -0.015428184615843459 0 0.029153784811853184 -0.01549893724131228 0 0.030898471890636475 -0.01636032854364269 0 0.031020031099560121 -0.016337841678536188 0 0.031764786095664625 -0.016540945404504286 0 0.024428510836235467 -0.014077837048516752 0 0.024424298899028304 -0.0139528800725043 0 0.024314886889795745 -0.013839067853809544 0 0.024428510836235467 -0.014077837048516752 0 0.024424298899028304 -0.0139528800725043 0 0.024499033078789083 -0.014024897762095107 0 0.024424298899028304 -0.0139528800725043 0 0.024499033078789083 -0.014024897762095107 0 0.024454735058835629 -0.013871014905737002 0 0.024499033078789083 -0.014024897762095107 0 0.024609050956229936 -0.014208976308352567 0 0.024559729726683518 -0.013856752702142606 0 0.024428510836235467 -0.014077837048516752 0 0.024499033078789083 -0.014024897762095107 0 0.024609050956229936 -0.014208976308352567 0 0.028250279345054103 -0.015428184615843459 0 0.026710428572015794 -0.015367888304887637 0 0.024609050956229936 -0.014208976308352567 0 0.024736307690669902 -0.013925111451847123 0 0.024559729726683518 -0.013856752702142606 0 0.029356038936184117 -0.015629873687425522 0 0.029076507628574406 -0.016552472035145621 0 0.028571600251053465 -0.015749405498910938 0 0.029076507628574406 -0.016552472035145621 0 0.028571600251053465 -0.015749405498910938 0 0.027496260628371814 -0.016189154675124159 0 0.02786685168092817 -0.015322549204253083 0 0.028571600251053465 -0.015749405498910938 0 0.027496260628371814 -0.016189154675124159 0 0.026710428572015794 -0.015367888304887637 0 0.026321675950422927 -0.015362331365315738 0 0.024609050956229936 -0.014208976308352567 0 0.024936470859672141 -0.014572819420179985 0 0.024736307690669902 -0.013925111451847123 0 0.024936470859672141 -0.014572819420179985 0 0.024736307690669902 -0.013925111451847123 0 0.025417185104368519 -0.01386025511398201 0 0.024736307690669902 -0.013925111451847123 0 0.024883307956332396 -0.013422866474108562 0 0.025417185104368519 -0.01386025511398201 0 0.024736307690669902 -0.013925111451847123 0 0.024883307956332396 -0.013422866474108562 0 0.024667417218849779 -0.013602601843036558 0 0.024883307956332396 -0.013422866474108562 0 0.024667417218849779 -0.013602601843036558 0 0.024680104764498993 -0.013406949281866873 0 0.024667417218849779 -0.013602601843036558 0 0.024590924322060816 -0.013432812107980998 0 0.024680104764498993 -0.013406949281866873 0 0.024736307690669902 -0.013925111451847123 0 0.024667417218849779 -0.013602601843036558 0 0.024559729726683518 -0.013856752702142606 0 0.024499033078789083 -0.014024897762095107 0 0.024559729726683518 -0.013856752702142606 0 0.024454735058835629 -0.013871014905737002 0 0.024559729726683518 -0.013856752702142606 0 0.024454735058835629 -0.013871014905737002 0 0.024462913752648602 -0.013701397596713029 0 0.024559729726683518 -0.013856752702142606 0 0.024462913752648602 -0.013701397596713029 0 0.024550994606054394 -0.013638113015929775 0 0.024462913752648602 -0.013701397596713029 0 0.024314886889795745 -0.013839067853809544 0 0.024395878701594917 -0.013552219959967785 0 0.024424298899028304 -0.0139528800725043 0 0.024454735058835629 -0.013871014905737002 0 0.024314886889795745 -0.013839067853809544 0 0.024454735058835629 -0.013871014905737002 0 0.024462913752648602 -0.013701397596713029 0 0.024314886889795745 -0.013839067853809544 0 0.024462913752648602 -0.013701397596713029 0 0.02449846856111685 -0.013526412927574796 0 0.024395878701594917 -0.013552219959967785 0 0.024667417218849779 -0.013602601843036558 0 0.024550994606054394 -0.013638113015929775 0 0.024590924322060816 -0.013432812107980998 0 0.024667417218849779 -0.013602601843036558 0 0.024559729726683518 -0.013856752702142606 0 0.024550994606054394 -0.013638113015929775 0 0.024462913752648602 -0.013701397596713029 0 0.02449846856111685 -0.013526412927574796 0 0.024550994606054394 -0.013638113015929775 0 0.02449846856111685 -0.013526412927574796 0 0.024550994606054394 -0.013638113015929775 0 0.024590924322060816 -0.013432812107980998 0 0.02449846856111685 -0.013526412927574796 0 0.024590924322060816 -0.013432812107980998 0 0.024486147567443765 -0.013348268474826315 0 0.024590924322060816 -0.013432812107980998 0 0.024486147567443765 -0.013348268474826315 0 0.024575817549996826 -0.013262947029091676 0 0.024575817549996826 -0.013262947029091676 0 0.024662766956921718 -0.013266571888326448 0 0.024626916250862611 -0.013335998511139589 0 0.024590924322060816 -0.013432812107980998 0 0.024575817549996826 -0.013262947029091676 0 0.024626916250862611 -0.013335998511139589 0 0.02449846856111685 -0.013526412927574796 0 0.024486147567443765 -0.013348268474826315 0 0.024395878701594917 -0.013552219959967785 0 0.024486147567443765 -0.013348268474826315 0 0.024395878701594917 -0.013552219959967785 0 0.024367267281521506 -0.013365738138065847 0 0.024486147567443765 -0.013348268474826315 0 0.024518999364813162 -0.013184020964450807 0 0.02442623185289091 -0.013111944744175369 0 0.024518999364813162 -0.013184020964450807 0 0.02442623185289091 -0.013111944744175369 0 0.024561565318764758 -0.013041241996408609 0 0.024486147567443765 -0.013348268474826315 0 0.024518999364813162 -0.013184020964450807 0 0.024575817549996826 -0.013262947029091676 0 0.024518999364813162 -0.013184020964450807 0 0.024575817549996826 -0.013262947029091676 0 0.024561565318764758 -0.013041241996408609 0 0.024575817549996826 -0.013262947029091676 0 0.02463336885332219 -0.013212516892104011 0 0.024561565318764758 -0.013041241996408609 0 0.024575817549996826 -0.013262947029091676 0 0.02463336885332219 -0.013212516892104011 0 0.024662766956921718 -0.013266571888326448 0 0.019312520345642112 -0.0099649400709713298 0 0.022081003403841778 -0.010523634546105675 0 0.014349934659703342 -0.0103468285655288 0 0.014348401504252985 -0.010490238154189752 0 0.013999976736662246 -0.010411463691845171 0 0.014487248589771125 -0.010392452348256224 0 0.014349934659703342 -0.0103468285655288 0 0.014348401504252985 -0.010490238154189752 0 0.019312520345642112 -0.0099649400709713298 0 0.019686448855648495 -0.011536211246194363 0 0.013999976736662246 -0.010411463691845171 0 0.014224004062189464 -0.010558397746388996 0 0.013876494883722772 -0.010475101979995296 0 0.014348401504252985 -0.010490238154189752 0 0.013999976736662246 -0.010411463691845171 0 0.014224004062189464 -0.010558397746388996 0 0.019383853040011917 -0.012097180814728428 0 0.019686448855648495 -0.011536211246194363 0 0.01378454569466713 -0.010554303399769097 0 0.014349934659703342 -0.0103468285655288 0 0.013999976736662246 -0.010411463691845171 0 0.024883307956332396 -0.013422866474108562 0 0.024662766956921718 -0.013266571888326448 0 0.024680104764498993 -0.013406949281866873 0 0.024590924322060816 -0.013432812107980998 0 0.024680104764498993 -0.013406949281866873 0 0.024626916250862611 -0.013335998511139589 0 0.024662766956921718 -0.013266571888326448 0 0.024680104764498993 -0.013406949281866873 0 0.024626916250862611 -0.013335998511139589 0 0.032704385772678077 -0.016245896873924234 0 0.032593821540033006 -0.016322354582918738 0 0.03283773458926624 -0.016066605706178301 0 0.032568779635398733 -0.01629250382234626 0 0.032960243543699738 -0.016365491771013804 0 0.032527954462704109 -0.016312448466098309 0 0.032704385772678077 -0.016245896873924234 0 0.032593821540033006 -0.016322354582918738 0 0.032172069113961456 -0.016404034073428924 0 0.032527954462704109 -0.016312448466098309 0 0.032593821540033006 -0.016322354582918738 0 0.032593821540033006 -0.016322354582918738 0 0.032385405138682877 -0.016424631810566744 0 0.032761058571664031 -0.016139808565687128 0 0.032172069113961456 -0.016404034073428924 0 0.032593821540033006 -0.016322354582918738 0 0.032385405138682877 -0.016424631810566744 0 0.032172069113961456 -0.016404034073428924 0 0.032385405138682877 -0.016424631810566744 0 0.031764786095664625 -0.016540945404504286 0 0.028313704397290883 -0.014974246229843918 0 0.027925142990306153 -0.015095276092236492 0 0.024240027255479118 -0.013566759668431077 0 0.024314886889795745 -0.013839067853809544 0 0.024395878701594917 -0.013552219959967785 0 0.024240027255479118 -0.013566759668431077 0 0.024395878701594917 -0.013552219959967785 0 0.024367267281521506 -0.013365738138065847 0 0.024367267281521506 -0.013365738138065847 0 0.02442623185289091 -0.013111944744175369 0 0.024290097480555512 -0.013260096757771581 0 0.024486147567443765 -0.013348268474826315 0 0.024367267281521506 -0.013365738138065847 0 0.02442623185289091 -0.013111944744175369 0 0.024290097480555512 -0.013260096757771581 0 0.024214893071910992 -0.013144370887513279 0 0.024306100591901855 -0.013042521780604896 0 0.02442623185289091 -0.013111944744175369 0 0.024290097480555512 -0.013260096757771581 0 0.024306100591901855 -0.013042521780604896 0 0.024240027255479118 -0.013566759668431077 0 0.024290097480555512 -0.013260096757771581 0 0.024182429357587559 -0.013327128075506525 0 0.028313704397290883 -0.014974246229843918 0 0.028379100647638454 -0.014885131101173817 0 0.024240027255479118 -0.013566759668431077 0 0.024367267281521506 -0.013365738138065847 0 0.024290097480555512 -0.013260096757771581 0 0.032593821540033006 -0.016322354582918738 0 0.032761058571664031 -0.016139808565687128 0 0.03283773458926624 -0.016066605706178301 0 0.024182429357587559 -0.013327128075506525 0 0.024214893071910992 -0.013144370887513279 0 0.024077600731349597 -0.013099080558747084 0 0.024214893071910992 -0.013144370887513279 0 0.024077600731349597 -0.013099080558747084 0 0.024225986806803483 -0.012978485931753663 0 0.028379100647638454 -0.014885131101173817 0 0.029605258628996916 -0.01309266991312436 0 0.024290097480555512 -0.013260096757771581 0 0.024182429357587559 -0.013327128075506525 0 0.024214893071910992 -0.013144370887513279 0 0.032761058571664031 -0.016139808565687128 0 0.03303881541771591 -0.015825822786197378 0 0.033029456211018389 -0.015850942499767564 0 0.029605258628996916 -0.01309266991312436 0 0.030297070001805131 -0.014305127585277166 0 0.032969841595100489 -0.015785295538478964 0 0.033102456611395638 -0.015556264221132599 0 0.033029456211018389 -0.015850942499767564 0 0.033202983089392804 -0.015680311593520443 0 0.033102456611395638 -0.015556264221132599 0 0.033029456211018389 -0.015850942499767564 0 0.032969841595100489 -0.015785295538478964 0 0.032928275413068593 -0.015914274477140011 0 0.033029456211018389 -0.015850942499767564 0 0.032761058571664031 -0.016139808565687128 0 0.033029456211018389 -0.015850942499767564 0 0.03283773458926624 -0.016066605706178301 0 0.032928275413068593 -0.015914274477140011 0 0.033029456211018389 -0.015850942499767564 0 0.03283773458926624 -0.016066605706178301 0 0.032857129721593541 -0.015937277195604817 0 0.032928275413068593 -0.015914274477140011 0 0.03283773458926624 -0.016066605706178301 0 0.030079763019591439 -0.010200704490811775 0 0.028637049154680023 -0.012027288404069929 0 0.027552863470620779 -0.010793194946655036 0 0.031725170508091441 -0.012410600256737557 0 0.029605258628996916 -0.01309266991312436 0 0.033297867234357424 -0.014809117327635572 0 0.033202983089392804 -0.015680311593520443 0 0.033102456611395638 -0.015556264221132599 0 0.030079763019591439 -0.010200704490811775 0 0.028518592007657478 -0.0083388446193925509 0 0.027552863470620779 -0.010793194946655036 0 0.029605258628996916 -0.01309266991312436 0 0.025635432167793026 -0.011456136464790602 0 0.024077600731349597 -0.013099080558747084 0 0.024225986806803483 -0.012978485931753663 0 0.024212185055855019 -0.012815912130851681 0 0.024214893071910992 -0.013144370887513279 0 0.024225986806803483 -0.012978485931753663 0 0.024306100591901855 -0.013042521780604896 0 0.024212185055855019 -0.012815912130851681 0 0.024378948779979592 -0.012755120982927373 0 0.024624636212123543 -0.012557303224915812 0 0.028637049154680023 -0.012027288404069929 0 0.027552863470620779 -0.010793194946655036 0 0.026609270125144937 -0.012946785255423376 0 0.024225986806803483 -0.012978485931753663 0 0.024212185055855019 -0.012815912130851681 0 0.024378948779979592 -0.012755120982927373 0 0.025635432167793026 -0.011456136464790602 0 0.025584186338422122 -0.012931496218138917 0 0.024225986806803483 -0.012978485931753663 0 0.024378948779979592 -0.012755120982927373 0 0.024306100591901855 -0.013042521780604896 0 0.024378948779979592 -0.012755120982927373 0 0.024306100591901855 -0.013042521780604896 0 0.024393292462038078 -0.012926757313202449 0 0.02442623185289091 -0.013111944744175369 0 0.024393292462038078 -0.012926757313202449 0 0.024447397073121952 -0.012795955336349498 0 0.02442623185289091 -0.013111944744175369 0 0.024306100591901855 -0.013042521780604896 0 0.024393292462038078 -0.012926757313202449 0 0.024378948779979592 -0.012755120982927373 0 0.024393292462038078 -0.012926757313202449 0 0.024447397073121952 -0.012795955336349498 0 0.021642929014169202 -0.010021028778440999 0 0.021901702776324056 -0.012408312320936378 0 0.024287376813620559 -0.012701023024372815 0 0.02300806689923519 -0.011414263928296812 0 0.024248704243724144 -0.012635990638134757 0 0.021901702776324056 -0.012408312320936378 0 0.022969607211869362 -0.014077362695051247 0 0.024287376813620559 -0.012701023024372815 0 0.021901702776324056 -0.012408312320936378 0 0.022969607211869362 -0.014077362695051247 0 0.02105195410151901 -0.01400393870401455 0 0.022969607211869362 -0.014077362695051247 0 0.024287376813620559 -0.012701023024372815 0 0.024984592861358523 -0.014625640190443406 0 0.024287376813620559 -0.012701023024372815 0 0.024624636212123543 -0.012557303224915812 0 0.024984592861358523 -0.014625640190443406 0 0.024378948779979592 -0.012755120982927373 0 0.024287376813620559 -0.012701023024372815 0 0.024624636212123543 -0.012557303224915812 0 0.024378948779979592 -0.012755120982927373 0 0.024447397073121952 -0.012795955336349498 0 0.024287376813620559 -0.012701023024372815 0 0.028637049154680023 -0.012027288404069929 0 0.026609270125144937 -0.012946785255423376 0 0.027777007365691823 -0.013306157129017289 0 0.026609270125144937 -0.012946785255423376 0 0.02681079411572853 -0.013850400690494605 0 0.027777007365691823 -0.013306157129017289 0 0.025584186338422122 -0.012931496218138917 0 0.024983369847330753 -0.014573178179644646 0 0.026609270125144937 -0.012946785255423376 0 0.02681079411572853 -0.013850400690494605 0 0.024984592861358523 -0.014625640190443406 0 0.026698844027458028 -0.014706730183495767 0 0.02681079411572853 -0.013850400690494605 0 0.024984592861358523 -0.014625640190443406 0 0.026698844027458028 -0.014706730183495767 0 0.02681079411572853 -0.013850400690494605 0 0.027831493238835204 -0.014296800754721745 0 0.026698844027458028 -0.014706730183495767 0 0.027831493238835204 -0.014296800754721745 0 0.027391694909048431 -0.015374395230878296 0 0.02681079411572853 -0.013850400690494605 0 0.027831493238835204 -0.014296800754721745 0 0.027777007365691823 -0.013306157129017289 0 0.027831493238835204 -0.014296800754721745 0 0.028923058721217573 -0.013804653761879334 0 0.027777007365691823 -0.013306157129017289 0 0.027831493238835204 -0.014296800754721745 0 0.02883077095307569 -0.014402930690248216 0 0.028475024063794877 -0.015085717389815635 0 0.027831493238835204 -0.014296800754721745 0 0.028475024063794877 -0.015085717389815635 0 0.027391694909048431 -0.015374395230878296 0 0.030058601684719462 -0.014423647350876758 0 0.02883077095307569 -0.014402930690248216 0 0.028475024063794877 -0.015085717389815635 0 0.030058601684719462 -0.014423647350876758 0 0.02883077095307569 -0.014402930690248216 0 0.028923058721217573 -0.013804653761879334 0 0.027831493238835204 -0.014296800754721745 0 0.02883077095307569 -0.014402930690248216 0 0.028923058721217573 -0.013804653761879334 0 0.028923058721217573 -0.013804653761879334 0 0.029320321290513013 -0.013302995410134157 0 0.028865278701427504 -0.012935330009588441 0 0.030070947125377012 -0.013411609064543526 0 0.028923058721217573 -0.013804653761879334 0 0.029320321290513013 -0.013302995410134157 0 0.029676516340587225 -0.01283357735876533 0 0.029320321290513013 -0.013302995410134157 0 0.028865278701427504 -0.012935330009588441 0 0.028923058721217573 -0.013804653761879334 0 0.028865278701427504 -0.012935330009588441 0 0.027777007365691823 -0.013306157129017289 0 0.028637049154680023 -0.012027288404069929 0 0.028865278701427504 -0.012935330009588441 0 0.027777007365691823 -0.013306157129017289 0 0.030010752806664914 -0.012043238425522835 0 0.029676516340587225 -0.01283357735876533 0 0.028637049154680023 -0.012027288404069929 0 0.029676516340587225 -0.01283357735876533 0 0.028637049154680023 -0.012027288404069929 0 0.028865278701427504 -0.012935330009588441 0 0.014778718889476966 -0.010892189744791701 0 0.014226314118751901 -0.01090677064858497 0 0.015203314418678589 -0.011999477643586047 0 0.016840963129083768 -0.0091676724784430647 0 0.018889220150684661 -0.010072032784049953 0 0.016183397873948506 -0.012030110865464842 0 0.014778718889476966 -0.010892189744791701 0 0.014226314118751901 -0.01090677064858497 0 0.014224004062189464 -0.010558397746388996 0 0.014226314118751901 -0.01090677064858497 0 0.014224004062189464 -0.010558397746388996 0 0.013876494883722772 -0.010475101979995296 0 0.019312520345642112 -0.0099649400709713298 0 0.015409903693478033 -0.0097657113566364841 0 0.014487248589771125 -0.010392452348256224 0 0.014348401504252985 -0.010490238154189752 0 0.014778718889476966 -0.010892189744791701 0 0.014348401504252985 -0.010490238154189752 0 0.014778718889476966 -0.010892189744791701 0 0.014224004062189464 -0.010558397746388996 0 0.017505434685133634 -0.0063102604222879752 0 0.016840963129083768 -0.0091676724784430647 0 0.019188389055906304 -0.0078620172985008185 0 0.02442623185289091 -0.013111944744175369 0 0.024447397073121952 -0.012795955336349498 0 0.024561565318764758 -0.013041241996408609 0 0.02300806689923519 -0.011414263928296812 0 0.022081003403841778 -0.010523634546105675 0 0.021642929014169202 -0.010021028778440999 0 0.019188389055906304 -0.0078620172985008185 0 0.018889220150684661 -0.010072032784049953 0 0.016840963129083768 -0.0091676724784430647 0 0.019188389055906304 -0.0078620172985008185 0 0.018889220150684661 -0.010072032784049953 0 0.018889220150684661 -0.010072032784049953 0 0.018885969090660586 -0.012340735093419436 0 0.016183397873948506 -0.012030110865464842 0 0.021642929014169202 -0.010021028778440999 0 0.021901702776324056 -0.012408312320936378 0 0.018885969090660586 -0.012340735093419436 0 0.021642929014169202 -0.010021028778440999 0 0.018889220150684661 -0.010072032784049953 0 0.018885969090660586 -0.012340735093419436 0 0.018885969090660586 -0.012340735093419436 0 0.02105195410151901 -0.01400393870401455 0 0.01913365458546485 -0.014233987981609594 0 0.021901702776324056 -0.012408312320936378 0 0.018885969090660586 -0.012340735093419436 0 0.02105195410151901 -0.01400393870401455 0 0.018885969090660586 -0.012340735093419436 0 0.017449958599838212 -0.013948258498157224 0 0.01913365458546485 -0.014233987981609594 0 0.018885969090660586 -0.012340735093419436 0 0.016183397873948506 -0.012030110865464842 0 0.017449958599838212 -0.013948258498157224 0 0.016183397873948506 -0.012030110865464842 0 0.015382767472909141 -0.014505548538331237 0 0.017449958599838212 -0.013948258498157224 0 0.015716961521048095 -0.012155416750049206 0 0.015364256250540951 -0.014382717013336115 0 0.015409903693478033 -0.0097657113566364841 0 0.015716961521048095 -0.012155416750049206 0 0.014226314118751901 -0.01090677064858497 0 0.015203314418678589 -0.011999477643586047 0 0.01394297189168473 -0.011514251657070148 0 0.015203314418678589 -0.011999477643586047 0 0.014328506109242137 -0.012739976349761763 0 0.01394297189168473 -0.011514251657070148 0 0.015203314418678589 -0.011999477643586047 0 0.014328506109242137 -0.012739976349761763 0 0.015382767472909141 -0.014505548538331237 0 0.014328506109242137 -0.012739976349761763 0 0.013427254350686224 -0.01213434688970993 0 0.013403150328200313 -0.013489656222039417 0 0.012022506884826057 -0.0099420698763037166 0 0.012374640529907137 -0.0098724023588268161 0 0.01128595474002775 -0.0078262307944771854 0 0.011639477243984958 -0.0069472667054646794 0 0.011271000784904946 -0.0062097002062766801 0 0.013427254350686224 -0.01213434688970993 0 0.012570537179015814 -0.011916942160794437 0 0.013403150328200313 -0.013489656222039417 0 0.013147866222233306 -0.011201307408209122 0 0.013427254350686224 -0.01213434688970993 0 0.012570537179015814 -0.011916942160794437 0 0.013147866222233306 -0.011201307408209122 0 0.012570537179015814 -0.011916942160794437 0 0.012511713683627136 -0.010712065357046656 0 0.014328506109242137 -0.012739976349761763 0 0.013427254350686224 -0.01213434688970993 0 0.01394297189168473 -0.011514251657070148 0 0.013147866222233306 -0.011201307408209122 0 0.013427254350686224 -0.01213434688970993 0 0.01394297189168473 -0.011514251657070148 0 0.012144374729874292 -0.0081656925986970299 0 0.011986099872944592 -0.0087083295405528758 0 0.01226077745030754 -0.0084746346648263311 0 0.012144374729874292 -0.0081656925986970299 0 0.011878690111319501 -0.0078834757606418351 0 0.011986099872944592 -0.0087083295405528758 0 0.012144374729874292 -0.0081656925986970299 0 0.012068507977274377 -0.007678839317754713 0 0.011878690111319501 -0.0078834757606418351 0 0.012144374729874292 -0.0081656925986970299 0 0.012068507977274377 -0.007678839317754713 0 0.012153207592113165 -0.0077393389824910739 0 0.012068507977274377 -0.007678839317754713 0 0.012153207592113165 -0.0077393389824910739 0 0.012075816375924031 -0.0074691796598966324 0 0.012068507977274377 -0.007678839317754713 0 0.011878690111319501 -0.0078834757606418351 0 0.012154283856033057 -0.0072203698338656353 0 0.011878690111319501 -0.0078834757606418351 0 0.01128595474002775 -0.0078262307944771854 0 0.011639477243984958 -0.0069472667054646794 0 0.011878690111319501 -0.0078834757606418351 0 0.01128595474002775 -0.0078262307944771854 0 0.011986099872944592 -0.0087083295405528758 0 0.011878690111319501 -0.0078834757606418351 0 0.011639477243984958 -0.0069472667054646794 0 0.012154283856033057 -0.0072203698338656353 0 0.012022506884826057 -0.0099420698763037166 0 0.011989127364859494 -0.010128403045181767 0 0.012570537179015814 -0.011916942160794437 0 0.011892722181376492 -0.010093324268856138 0 0.012511713683627136 -0.010712065357046656 0 0.01128595474002775 -0.0078262307944771854 0 0.011986099872944592 -0.0087083295405528758 0 0.011892722181376492 -0.010093324268856138 0 0.011986099872944592 -0.0087083295405528758 0 0.011892722181376492 -0.010093324268856138 0 0.012244470873643151 -0.0089930252901665141 0 0.011892722181376492 -0.010093324268856138 0 0.012511713683627136 -0.010712065357046656 0 0.012257292866347681 -0.010421874360598262 0 0.011892722181376492 -0.010093324268856138 0 0.012257292866347681 -0.010421874360598262 0 0.011791577078617724 -0.010662392761374394 0 0.012511713683627136 -0.010712065357046656 0 0.012257292866347681 -0.010421874360598262 0 0.01297141734415511 -0.010579732044135155 0 0.012960242989364608 -0.0102475922421072 0 0.012257292866347681 -0.010421874360598262 0 0.01297141734415511 -0.010579732044135155 0 0.012257292866347681 -0.010421874360598262 0 0.011791577078617724 -0.010662392761374394 0 0.011843877721996113 -0.01010287741368962 0 0.012960242989364608 -0.0102475922421072 0 0.012257292866347681 -0.010421874360598262 0 0.012442987665483343 -0.010064368159343104 0 0.012257292866347681 -0.010421874360598262 0 0.012442987665483343 -0.010064368159343104 0 0.011843877721996113 -0.01010287741368962 0 0.014226314118751901 -0.01090677064858497 0 0.01394297189168473 -0.011514251657070148 0 0.013601734127968397 -0.010722226110642614 0 0.013147866222233306 -0.011201307408209122 0 0.01394297189168473 -0.011514251657070148 0 0.013601734127968397 -0.010722226110642614 0 0.013147866222233306 -0.011201307408209122 0 0.012511713683627136 -0.010712065357046656 0 0.01297141734415511 -0.010579732044135155 0 0.013147866222233306 -0.011201307408209122 0 0.013601734127968397 -0.010722226110642614 0 0.01297141734415511 -0.010579732044135155 0 0.013601734127968397 -0.010722226110642614 0 0.01297141734415511 -0.010579732044135155 0 0.013435975187495676 -0.010352141343491208 0 0.012960242989364608 -0.0102475922421072 0 0.01297141734415511 -0.010579732044135155 0 0.013435975187495676 -0.010352141343491208 0 0.014226314118751901 -0.01090677064858497 0 0.013601734127968397 -0.010722226110642614 0 0.013876494883722772 -0.010475101979995296 0 0.013601734127968397 -0.010722226110642614 0 0.013435975187495676 -0.010352141343491208 0 0.013876494883722772 -0.010475101979995296 0 0.013999976736662246 -0.010411463691845171 0 0.013876494883722772 -0.010475101979995296 0 0.013690492025007142 -0.010329037962348899 0 0.013435975187495676 -0.010352141343491208 0 0.013876494883722772 -0.010475101979995296 0 0.013690492025007142 -0.010329037962348899 0 0.01378454569466713 -0.010554303399769097 0 0.013999976736662246 -0.010411463691845171 0 0.013690492025007142 -0.010329037962348899 0 0.01378454569466713 -0.010554303399769097 0 0.013690492025007142 -0.010329037962348899 0 0.013814179657234669 -0.010674080076150776 0 0.013690492025007142 -0.010329037962348899 0 0.013738459157982807 -0.010485034910385086 0 0.013814179657234669 -0.010674080076150776 0 0.013435975187495676 -0.010352141343491208 0 0.013690492025007142 -0.010329037962348899 0 0.013555214456406693 -0.010130319884292773 0 0.013690492025007142 -0.010329037962348899 0 0.013738459157982807 -0.010485034910385086 0 0.013555214456406693 -0.010130319884292773 0 0.012960242989364608 -0.0102475922421072 0 0.013435975187495676 -0.010352141343491208 0 0.013555214456406693 -0.010130319884292773 0 0.012776460743274654 -0.0098148665427564129 0 0.013555214456406693 -0.010130319884292773 0 0.012613055862854463 -0.0086643344412067214 0 0.012960242989364608 -0.0102475922421072 0 0.012776460743274654 -0.0098148665427564129 0 0.012442987665483343 -0.010064368159343104 0 0.012960242989364608 -0.0102475922421072 0 0.012776460743274654 -0.0098148665427564129 0 0.013555214456406693 -0.010130319884292773 0 0.012442987665483343 -0.010064368159343104 0 0.012116457028875146 -0.009447670284956881 0 0.011843877721996113 -0.01010287741368962 0 0.012776460743274654 -0.0098148665427564129 0 0.012442987665483343 -0.010064368159343104 0 0.012116457028875146 -0.009447670284956881 0 0.012776460743274654 -0.0098148665427564129 0 0.012116457028875146 -0.009447670284956881 0 0.012613055862854463 -0.0086643344412067214 0 0.012613055862854463 -0.0086643344412067214 0 0.011397161073841559 -0.0073517945216110036 0 0.011664904784856656 -0.008616642034841384 0 0.012880331058852465 -0.0097042332078606172 0 0.011368791778489262 -0.0087676720367935428 0 0.012116457028875146 -0.009447670284956881 0 0.012613055862854463 -0.0086643344412067214 0 0.011664904784856656 -0.008616642034841384 0 0.013314837115820948 -0.010808227110943544 0 0.013754023327135814 -0.010589602310310944 0 0.012703644432728796 -0.01019448283002683 0 0.013452342922180624 -0.010058171338550123 0 0.012880331058852465 -0.0097042332078606172 0 0.013555214456406693 -0.010130319884292773 0 0.013314837115820948 -0.010808227110943544 0 0.013754023327135814 -0.010589602310310944 0 0.013738459157982807 -0.010485034910385086 0 0.013754023327135814 -0.010589602310310944 0 0.014103553743190273 -0.010947705638529145 0 0.013738459157982807 -0.010485034910385086 0 0.013555214456406693 -0.010130319884292773 0 0.013754023327135814 -0.010589602310310944 0 0.013754023327135814 -0.010589602310310944 0 0.014103553743190273 -0.010947705638529145 0 0.014862854832366898 -0.011297087777950281 0 0.013812731474172491 -0.010592266855785029 0 0.014014311584302167 -0.010614477126094587 0 0.013314837115820948 -0.010808227110943544 0 0.012703644432728796 -0.01019448283002683 0 0.011472896109437528 -0.010401325184798863 0 0.012703644432728796 -0.01019448283002683 0 0.013088538166331576 -0.0095723990110450474 0 0.011543406599856322 -0.0094336654794422315 0 0.013754023327135814 -0.010589602310310944 0 0.012703644432728796 -0.01019448283002683 0 0.013088538166331576 -0.0095723990110450474 0 0.011816784934362869 -0.0085979986713170045 0 0.013088538166331576 -0.0095723990110450474 0 0.011543406599856322 -0.0094336654794422315 0 0.012585033247685198 -0.007968859097732317 0 0.011816784934362869 -0.0085979986713170045 0 0.013088538166331576 -0.0095723990110450474 0 0.013641495068781788 -0.0096513301047618759 0 0.014014311584302167 -0.010614477126094587 0 0.01540575534473617 -0.012482243735575667 0 0.014862854832366898 -0.011297087777950281 0 0.01456562843156955 -0.011762876346054461 0 0.014103553743190273 -0.010947705638529145 0 0.014862854832366898 -0.011297087777950281 0 0.01456562843156955 -0.011762876346054461 0 0.014741605081254796 -0.012656097961505984 0 0.01456562843156955 -0.011762876346054461 0 0.01388274788316652 -0.011512470638860538 0 0.014103553743190273 -0.010947705638529145 0 0.01456562843156955 -0.011762876346054461 0 0.01388274788316652 -0.011512470638860538 0 0.019383853040011917 -0.012097180814728428 0 0.019493906788184644 -0.012555124254916108 0 0.01378454569466713 -0.010554303399769097 0 0.01388274788316652 -0.011512470638860538 0 0.013814179657234669 -0.010674080076150776 0 0.014103553743190273 -0.010947705638529145 0 0.01388274788316652 -0.011512470638860538 0 0.013814179657234669 -0.010674080076150776 0 0.013738459157982807 -0.010485034910385086 0 0.014103553743190273 -0.010947705638529145 0 0.013814179657234669 -0.010674080076150776 0 0.0090057887415194021 -0.0069774300709039474 0 0.0078386829599138008 -0.0073833984003495541 0 0.0081303050192655397 -0.0054903244117812658 0 0.0090057887415194021 -0.0069774300709039474 0 0.0081303050192655397 -0.0054903244117812658 0 0.0097403855757193705 -0.0060007423921403591 0 0.0057651472348555803 -0.0070313134179481006 0 0.0067983669334429854 -0.0064159765126537115 0 0.0066384683034690223 -0.0079414388469561184 0 0.0078386829599138008 -0.0073833984003495541 0 0.0067983669334429854 -0.0064159765126537115 0 0.0081303050192655397 -0.0054903244117812658 0 0.0078386829599138008 -0.0073833984003495541 0 0.0067983669334429854 -0.0064159765126537115 0 0.0066384683034690223 -0.0079414388469561184 0 0.0057651472348555803 -0.0070313134179481006 0 0.0055715427311765825 -0.0061101868573932329 0 0.0067983669334429854 -0.0064159765126537115 0 0.0047288591043208768 -0.0072625330869965235 0 0.0072037901937311629 -0.007929662590858531 0 0.0070252484267427874 -0.0068426021868552983 0 0.0067983669334429854 -0.0064159765126537115 0 0.0064457425730324565 -0.0050016778337150522 0 0.0081303050192655397 -0.0054903244117812658 0 0.004157169010881168 -0.0069571093465524035 0 0.00777331534955271 -0.0067695357019451384 0 0.0055715427311765825 -0.0061101868573932329 0 0.0067983669334429854 -0.0064159765126537115 0 0.0064457425730324565 -0.0050016778337150522 0 0.0037763188066667602 -0.0074802061901730063 0 0.0036998829815515629 -0.0083732115877847273 0 0.0048487062003610649 -0.0081705419773805809 0 0.004157169010881168 -0.0069571093465524035 0 0.0068096064189218479 -0.0084291406744329885 0 0.0088870358322413936 -0.0088543728965070085 0 0.0099142745112270787 -0.0086767158479073587 0 0.0099889893893890646 -0.0095676632739073522 0 0.00777331534955271 -0.0067695357019451384 0 0.0098048410356234815 -0.0084150272700708791 0 0.0072037901937311629 -0.007929662590858531 0 0.0070252484267427874 -0.0068426021868552983 0 0.0096718409779324391 -0.0085939815158436635 0 0.0068096064189218479 -0.0084291406744329885 0 0.0098048410356234815 -0.0084150272700708791 0 0.0068096064189218479 -0.0084291406744329885 0 0.0092966377075646301 -0.0088630314117109053 0 0.0099142745112270787 -0.0086767158479073587 0 0.010414897612630036 -0.0090840107901733122 0 0.0099889893893890646 -0.0095676632739073522 0 0.010713683629629335 -0.0085375265407672367 0 0.0099142745112270787 -0.0086767158479073587 0 0.010414897612630036 -0.0090840107901733122 0 0.010414897612630036 -0.0090840107901733122 0 0.0099889893893890646 -0.0095676632739073522 0 0.010574531582602442 -0.0097308507178144529 0 0.011816784934362869 -0.0085979986713170045 0 0.010713683629629335 -0.0085375265407672367 0 0.011543406599856322 -0.0094336654794422315 0 0.010713683629629335 -0.0085375265407672367 0 0.010414897612630036 -0.0090840107901733122 0 0.011543406599856322 -0.0094336654794422315 0 0.010414897612630036 -0.0090840107901733122 0 0.011543406599856322 -0.0094336654794422315 0 0.010574531582602442 -0.0097308507178144529 0 0.012703644432728796 -0.01019448283002683 0 0.011543406599856322 -0.0094336654794422315 0 0.011472896109437528 -0.010401325184798863 0 0.011543406599856322 -0.0094336654794422315 0 0.011472896109437528 -0.010401325184798863 0 0.010574531582602442 -0.0097308507178144529 0 0.0097403855757193705 -0.0060007423921403591 0 0.011397161073841559 -0.0073517945216110036 0 0.010017856650575486 -0.0075132475094582072 0 0.0098801218550450803 -0.0096103396795420362 0 0.011472896109437528 -0.010401325184798863 0 0.010574531582602442 -0.0097308507178144529 0 0.0098048410356234815 -0.0084150272700708791 0 0.011368791778489262 -0.0087676720367935428 0 0.0098048410356234815 -0.0084150272700708791 0 0.010506800451838272 -0.0091540817361875915 0 0.0090057887415194021 -0.0069774300709039474 0 0.0097403855757193705 -0.0060007423921403591 0 0.010017856650575486 -0.0075132475094582072 0 0.010017856650575486 -0.0075132475094582072 0 0.0092723228583037887 -0.0083868734553011522 0 0.010811393261688985 -0.008338998081839126 0 0.0090057887415194021 -0.0069774300709039474 0 0.010017856650575486 -0.0075132475094582072 0 0.0092723228583037887 -0.0083868734553011522 0 0.0092723228583037887 -0.0083868734553011522 0 0.010811393261688985 -0.008338998081839126 0 0.010259287391449089 -0.0090916822958410099 0 0.011397161073841559 -0.0073517945216110036 0 0.010811393261688985 -0.008338998081839126 0 0.011664904784856656 -0.008616642034841384 0 0.011397161073841559 -0.0073517945216110036 0 0.010017856650575486 -0.0075132475094582072 0 0.010811393261688985 -0.008338998081839126 0 0.010811393261688985 -0.008338998081839126 0 0.011664904784856656 -0.008616642034841384 0 0.01125647025175922 -0.0092517455885701254 0 0.010811393261688985 -0.008338998081839126 0 0.01125647025175922 -0.0092517455885701254 0 0.010259287391449089 -0.0090916822958410099 0 0.01125647025175922 -0.0092517455885701254 0 0.010663656315933193 -0.0099762580078821324 0 0.011843877721996113 -0.01010287741368962 0 0.012116457028875146 -0.009447670284956881 0 0.011664904784856656 -0.008616642034841384 0 0.01125647025175922 -0.0092517455885701254 0 0.012116457028875146 -0.009447670284956881 0 0.01125647025175922 -0.0092517455885701254 0 0.011843877721996113 -0.01010287741368962 0 0.0092723228583037887 -0.0083868734553011522 0 0.010259287391449089 -0.0090916822958410099 0 0.009260446712592775 -0.0096272230603661312 0 0.01125647025175922 -0.0092517455885701254 0 0.010259287391449089 -0.0090916822958410099 0 0.010663656315933193 -0.0099762580078821324 0 0.010663656315933193 -0.0099762580078821324 0 0.009260446712592775 -0.0096272230603661312 0 0.0094096796220139948 -0.010816629300126002 0 0.010259287391449089 -0.0090916822958410099 0 0.010663656315933193 -0.0099762580078821324 0 0.009260446712592775 -0.0096272230603661312 0 0.009260446712592775 -0.0096272230603661312 0 0.0077126934648405372 -0.0089959714091662098 0 0.0080962309507750709 -0.010514877184529576 0 0.0092723228583037887 -0.0083868734553011522 0 0.009260446712592775 -0.0096272230603661312 0 0.0077126934648405372 -0.0089959714091662098 0 0.0078386829599138008 -0.0073833984003495541 0 0.0092723228583037887 -0.0083868734553011522 0 0.0077126934648405372 -0.0089959714091662098 0 0.0090057887415194021 -0.0069774300709039474 0 0.0078386829599138008 -0.0073833984003495541 0 0.0092723228583037887 -0.0083868734553011522 0 0.0078386829599138008 -0.0073833984003495541 0 0.0077126934648405372 -0.0089959714091662098 0 0.0066384683034690223 -0.0079414388469561184 0 0.0077126934648405372 -0.0089959714091662098 0 0.0066384683034690223 -0.0079414388469561184 0 0.0061754123389400157 -0.0090855053070651205 0 0.0052545047964500094 -0.0080517849220271311 0 0.0066384683034690223 -0.0079414388469561184 0 0.0061754123389400157 -0.0090855053070651205 0 0.0077126934648405372 -0.0089959714091662098 0 0.0068729287415674979 -0.010084285664865114 0 0.0080962309507750709 -0.010514877184529576 0 0.0077126934648405372 -0.0089959714091662098 0 0.0061754123389400157 -0.0090855053070651205 0 0.0068729287415674979 -0.010084285664865114 0 0.0053408599279565153 -0.010203455177514103 0 0.0061754123389400157 -0.0090855053070651205 0 0.0068729287415674979 -0.010084285664865114 0 0.0053408599279565153 -0.010203455177514103 0 0.0068729287415674979 -0.010084285664865114 0 0.0060304386841377585 -0.011110008363217627 0 0.0068729287415674979 -0.010084285664865114 0 0.0074494125722244144 -0.011610549091722887 0 0.0080962309507750709 -0.010514877184529576 0 0.0068729287415674979 -0.010084285664865114 0 0.0060304386841377585 -0.011110008363217627 0 0.0074494125722244144 -0.011610549091722887 0 0.0058100913645371477 -0.012290705254974235 0 0.0060304386841377585 -0.011110008363217627 0 0.0074494125722244144 -0.011610549091722887 0 0.0074494125722244144 -0.011610549091722887 0 0.0092742511273485803 -0.012622892365026448 0 0.0094096796220139948 -0.010816629300126002 0 0.0074494125722244144 -0.011610549091722887 0 0.0080962309507750709 -0.010514877184529576 0 0.0094096796220139948 -0.010816629300126002 0 0.009260446712592775 -0.0096272230603661312 0 0.0080962309507750709 -0.010514877184529576 0 0.0094096796220139948 -0.010816629300126002 0 0.0074494125722244144 -0.011610549091722887 0 0.0092742511273485803 -0.012622892365026448 0 0.0067843835848437357 -0.013813967698483247 0 0.010902334394356544 -0.010963067481000236 0 0.010213321388199722 -0.011740681059178391 0 0.0058100913645371477 -0.012290705254974235 0 0.0074494125722244144 -0.011610549091722887 0 0.0067843835848437357 -0.013813967698483247 0 0.010663656315933193 -0.0099762580078821324 0 0.011791577078617724 -0.010662392761374394 0 0.011843877721996113 -0.01010287741368962 0 0.010663656315933193 -0.0099762580078821324 0 0.011791577078617724 -0.010662392761374394 0 0.0094096796220139948 -0.010816629300126002 0 0.012787778672762463 -0.0093730929946329675 0 0.011791577078617724 -0.010662392761374394 0 0.012133042837144491 -0.0097326759388255014 0 0.012787778672762463 -0.0093730929946329675 0 0.012133042837144491 -0.0097326759388255014 0 0.012511418106305149 -0.0090843875163933024 0 0.010902334394356544 -0.010963067481000236 0 0.011689330067822317 -0.010726870378648536 0 0.0092742511273485803 -0.012622892365026448 0 0.011791577078617724 -0.010662392761374394 0 0.0094096796220139948 -0.010816629300126002 0 0.011892722181376492 -0.010093324268856138 0 0.011791577078617724 -0.010662392761374394 0 0.012133042837144491 -0.0097326759388255014 0 0.012244470873643151 -0.0089930252901665141 0 0.01258084719053211 -0.008614769043148925 0 0.012435991133437817 -0.0083334695738002257 0 0.011892722181376492 -0.010093324268856138 0 0.012133042837144491 -0.0097326759388255014 0 0.012244470873643151 -0.0089930252901665141 0 0.011986099872944592 -0.0087083295405528758 0 0.012244470873643151 -0.0089930252901665141 0 0.01226077745030754 -0.0084746346648263311 0 0.012133042837144491 -0.0097326759388255014 0 0.012244470873643151 -0.0089930252901665141 0 0.012511418106305149 -0.0090843875163933024 0 0.012244470873643151 -0.0089930252901665141 0 0.012435991133437817 -0.0083334695738002257 0 0.01226077745030754 -0.0084746346648263311 0 0.012787778672762463 -0.0093730929946329675 0 0.012511418106305149 -0.0090843875163933024 0 0.012655779194012642 -0.008735772075745574 0 0.012244470873643151 -0.0089930252901665141 0 0.01258084719053211 -0.008614769043148925 0 0.012511418106305149 -0.0090843875163933024 0 0.01258084719053211 -0.008614769043148925 0 0.012511418106305149 -0.0090843875163933024 0 0.012655779194012642 -0.008735772075745574 0 0.01258084719053211 -0.008614769043148925 0 0.012709743537440763 -0.0081412178103922438 0 0.012655779194012642 -0.008735772075745574 0 0.012709743537440763 -0.0081412178103922438 0 0.013115524917923258 -0.0080991993786650833 0 0.012967010775230575 -0.007516250961756627 0 0.012709743537440763 -0.0081412178103922438 0 0.012465671887809646 -0.0079019507051813678 0 0.012569746201707461 -0.0075017503105461293 0 0.012709743537440763 -0.0081412178103922438 0 0.012435991133437817 -0.0083334695738002257 0 0.012465671887809646 -0.0079019507051813678 0 0.01258084719053211 -0.008614769043148925 0 0.012709743537440763 -0.0081412178103922438 0 0.012435991133437817 -0.0083334695738002257 0 0.012435991133437817 -0.0083334695738002257 0 0.012283590265039673 -0.0080396272555635379 0 0.01226077745030754 -0.0084746346648263311 0 0.012435991133437817 -0.0083334695738002257 0 0.012465671887809646 -0.0079019507051813678 0 0.012283590265039673 -0.0080396272555635379 0 0.012465671887809646 -0.0079019507051813678 0 0.012283590265039673 -0.0080396272555635379 0 0.012287098633558664 -0.0076630594209999318 0 0.012144374729874292 -0.0081656925986970299 0 0.012283590265039673 -0.0080396272555635379 0 0.012153207592113165 -0.0077393389824910739 0 0.012283590265039673 -0.0080396272555635379 0 0.012153207592113165 -0.0077393389824910739 0 0.012287098633558664 -0.0076630594209999318 0 0.012144374729874292 -0.0081656925986970299 0 0.012283590265039673 -0.0080396272555635379 0 0.01226077745030754 -0.0084746346648263311 0 0.012866199998929271 -0.0087578782847482738 0 0.012655779194012642 -0.008735772075745574 0 0.012558363219701376 -0.008215161088372681 0 0.012787778672762463 -0.0093730929946329675 0 0.012866199998929271 -0.0087578782847482738 0 0.012655779194012642 -0.008735772075745574 0 0.011887209882606458 -0.0078977285384851294 0 0.012558363219701376 -0.008215161088372681 0 0.012330870813434761 -0.0070418537780422355 0 0.012655779194012642 -0.008735772075745574 0 0.011887209882606458 -0.0078977285384851294 0 0.012558363219701376 -0.008215161088372681 0 0.012709743537440763 -0.0081412178103922438 0 0.012655779194012642 -0.008735772075745574 0 0.013115524917923258 -0.0080991993786650833 0 0.012597800968620249 -0.0083079993865618311 0 0.012244612361158046 -0.0086153443187206649 0 0.013110643219839077 -0.0079468999442840523 0 0.012866199998929271 -0.0087578782847482738 0 0.012558363219701376 -0.008215161088372681 0 0.0055114549938683087 -0.0016516026446708951 0 0.0051214145876894365 -0.0016680772444461775 0 0.0042995026286781835 -0.001117723708849569 0 0.013110643219839077 -0.0079468999442840523 0 0.012558363219701376 -0.008215161088372681 0 0.012330870813434761 -0.0070418537780422355 0 0.010271363375755441 -0.0057987947456581215 0 0.0047531433187374466 0.0025102884248247265 0 0.0051214145876894365 -0.0016680772444461775 0 0.0051442460117185453 -0.0018356425789832619 0 0.0042995026286781835 -0.001117723708849569 0 -1.6732051557501847e-05 0.012862627853383992 0 -0.00013675740036005706 0.012716012418148768 0 -2.2545884211253297e-05 0.012957168387721122 0 -0.00010598188645375395 0.012943714920161574 0 -0.00013675740036005706 0.012716012418148768 0 -2.2545884211253297e-05 0.012957168387721122 0 0.0029784986765728173 0.0045298699855045423 0 0.0047531433187374466 0.0025102884248247265 0 -0.00010598188645375395 0.012943714920161574 0 -0.0002722385854901819 0.013073480818381115 0 -2.249086443615346e-05 0.013107190191640162 0 -0.00010598188645375395 0.012943714920161574 0 -2.249086443615346e-05 0.013107190191640162 0 -2.2545884211253297e-05 0.012957168387721122 0 -0.00010598188645375395 0.012943714920161574 0 -0.0002722385854901819 0.013073480818381115 0 -0.00013675740036005706 0.012716012418148768 0 -0.0002722385854901819 0.013073480818381115 0 -0.00013675740036005706 0.012716012418148768 0 -0.00054171056982889917 0.012817199233165825 0 0.011887209882606458 -0.0078977285384851294 0 0.012330870813434761 -0.0070418537780422355 0 0.011397124064853492 -0.0065613639873574048 0 0.0047531433187374466 0.0025102884248247265 0 0.0087324120939004015 -0.0016324711044421499 0 0.013115524917923258 -0.0080991993786650833 0 0.012967010775230575 -0.007516250961756627 0 0.013315209307778101 -0.0072499442250554018 0 0.012244612361158046 -0.0086153443187206649 0 0.0087324120939004015 -0.0016324711044421499 0 0.01306870052756833 -0.0072593940717769678 0 0.013311146878227953 -0.0070366612347311655 0 0.012908827554471432 -0.0071144663141181896 0 0.012967010775230575 -0.007516250961756627 0 0.01306870052756833 -0.0072593940717769678 0 0.012908827554471432 -0.0071144663141181896 0 0.012967010775230575 -0.007516250961756627 0 0.01306870052756833 -0.0072593940717769678 0 0.013315209307778101 -0.0072499442250554018 0 0.01306870052756833 -0.0072593940717769678 0 0.013315209307778101 -0.0072499442250554018 0 0.013311146878227953 -0.0070366612347311655 0 0.0087324120939004015 -0.0016324711044421499 0 0.007026033023987039 0.0043820015742247241 0 0.0049584888572358175 0.0051050640844665608 0 0.006504899668885164 0.0040483648830186101 0 0.0062839998033700981 0.0034439687352495751 0 0.0047531433187374466 0.0025102884248247265 0 0.007026033023987039 0.0043820015742247241 0 0.0091177058887121649 0.0035950705368336566 0 0.008706006288831062 0.003940407538204997 0 0.0092182274607574416 0.0046450608647105951 0 0.007026033023987039 0.0043820015742247241 0 0.0036507784086435456 0.0099847037489453581 0 -0.00054171056982889917 0.012817199233165825 0 -0.00047138583555241843 0.013364978548355673 0 -0.0006788377539360211 0.013799400121782776 0 -0.00054171056982889917 0.012817199233165825 0 -0.0006788377539360211 0.013799400121782776 0 -0.0011127167137090137 0.014304853055416837 0 0.007026033023987039 0.0043820015742247241 0 0.011922282507768301 -0.0022701561660879851 0 0.013311146878227953 -0.0070366612347311655 0 0.012908827554471432 -0.0071144663141181896 0 0.012810164267805449 -0.0068103872321138041 0 -0.00036249066641411208 0.013599166935973739 0 -0.00047138583555241843 0.013364978548355673 0 -0.0006788377539360211 0.013799400121782776 0 -0.00036249066641411208 0.013599166935973739 0 -5.8283906207045348e-05 0.013412401414418183 0 -0.00019529413616033969 0.013958399601784204 0 -0.0002722385854901819 0.013073480818381115 0 -0.00036249066641411208 0.013599166935973739 0 -5.8283906207045348e-05 0.013412401414418183 0 -0.0002722385854901819 0.013073480818381115 0 -5.8283906207045348e-05 0.013412401414418183 0 -2.249086443615346e-05 0.013107190191640162 0 -0.0002722385854901819 0.013073480818381115 0 -0.00054171056982889917 0.012817199233165825 0 -0.00047138583555241843 0.013364978548355673 0 -0.0002722385854901819 0.013073480818381115 0 -0.00036249066641411208 0.013599166935973739 0 -0.00047138583555241843 0.013364978548355673 0 0.012118006146604902 -0.0074625451761967752 0 0.012285885809681435 -0.0073186738398749712 0 0.012081759471056228 -0.0070377092464127579 0 0.012118006146604902 -0.0074625451761967752 0 0.012287098633558664 -0.0076630594209999318 0 0.012285885809681435 -0.0073186738398749712 0 0.012153207592113165 -0.0077393389824910739 0 0.012118006146604902 -0.0074625451761967752 0 0.012287098633558664 -0.0076630594209999318 0 0.012465671887809646 -0.0079019507051813678 0 0.012287098633558664 -0.0076630594209999318 0 0.012569746201707461 -0.0075017503105461293 0 0.012287098633558664 -0.0076630594209999318 0 0.012285885809681435 -0.0073186738398749712 0 0.012569746201707461 -0.0075017503105461293 0 0.012285885809681435 -0.0073186738398749712 0 0.012569746201707461 -0.0075017503105461293 0 0.012480616611478033 -0.0070054716970779241 0 0.012569746201707461 -0.0075017503105461293 0 0.012908827554471432 -0.0071144663141181896 0 0.012480616611478033 -0.0070054716970779241 0 0.012709743537440763 -0.0081412178103922438 0 0.012967010775230575 -0.007516250961756627 0 0.012569746201707461 -0.0075017503105461293 0 0.012967010775230575 -0.007516250961756627 0 0.012569746201707461 -0.0075017503105461293 0 0.012908827554471432 -0.0071144663141181896 0 0.012908827554471432 -0.0071144663141181896 0 0.012810164267805449 -0.0068103872321138041 0 0.012480616611478033 -0.0070054716970779241 0 0.012810164267805449 -0.0068103872321138041 0 0.012480616611478033 -0.0070054716970779241 0 0.012382220876199388 -0.0064624947436375327 0 0.011922282507768301 -0.0022701561660879851 0 0.009822363656344613 0.0014251612397583509 0 0.012285885809681435 -0.0073186738398749712 0 0.012480616611478033 -0.0070054716970779241 0 0.012081759471056228 -0.0070377092464127579 0 0.012480616611478033 -0.0070054716970779241 0 0.012081759471056228 -0.0070377092464127579 0 0.012382220876199388 -0.0064624947436375327 0 0.011120863107174727 -0.0054187090473912305 0 0.009822363656344613 0.0014251612397583509 0 0.010664802213978317 -0.003086431439454901 0 0.011999336499636895 -0.0014507904656653116 0 0.010170621912246032 -0.00134289570763161 0 0.011999336499636895 -0.0014507904656653116 0 0.0097515839161866798 0.00040350299827776647 0 0.010170621912246032 -0.00134289570763161 0 0.009822363656344613 0.0014251612397583509 0 0.0079773477622894114 0.0049758937429169574 0 0.007033488985265607 0.0082015854066680004 0 0.0070273559752448006 0.0081049148185725946 0 0.0071930585672251145 0.0081505275489745978 0 0.009822363656344613 0.0014251612397583509 0 0.0056714833110650632 0.0094872675589630032 0 0.007033488985265607 0.0082015854066680004 0 0.0068873319250712748 0.0081110154339062088 0 0.0070273559752448006 0.0081049148185725946 0 0.0082859842139167902 0.0042872446858874596 0 0.0087478582833884194 0.0044706063863453266 0 0.0087849631199572245 0.0050152610326447394 0 0.008706006288831062 0.003940407538204997 0 0.0082859842139167902 0.0042872446858874596 0 0.0087478582833884194 0.0044706063863453266 0 0.0056714833110650632 0.0094872675589630032 0 0.0027167516954949714 0.012114603361077513 0 0.0038395390421201232 0.011339162954104079 0 0.0039580517444717809 0.011483349643073385 0 0.0028346403391681135 0.012202886295377005 0 0.0068873319250712748 0.0081110154339062088 0 0.0070273559752448006 0.0081049148185725946 0 0.0070319779410592236 0.0079667391935656709 0 0.0070273559752448006 0.0081049148185725946 0 0.0071892210818333049 0.0079952444123478437 0 0.0071930585672251145 0.0081505275489745978 0 -0.00088348714133456522 0.014257132769310957 0 -0.00084923780347393233 0.014434752717276365 0 -0.0010663800693313044 0.014536250858732959 0 -0.0012468482744236104 0.014651384477142154 0 0.00076701308842189522 0.01331592882712858 0 -0.00088348714133456522 0.014257132769310957 0 -0.00084923780347393233 0.014434752717276365 0 -0.00057268875752718574 0.014084695051617826 0 -0.00084923780347393233 0.014434752717276365 0 -0.00042706440219610059 0.01452235078006414 0 -0.00069609664214988448 0.014872052703264495 0 -0.00084923780347393233 0.014434752717276365 0 -0.00042706440219610059 0.01452235078006414 0 -0.00057268875752718574 0.014084695051617826 0 -0.00042706440219610059 0.01452235078006414 0 -0.00057268875752718574 0.014084695051617826 0 -0.00019529413616033969 0.013958399601784204 0 -0.00036249066641411208 0.013599166935973739 0 -0.00057268875752718574 0.014084695051617826 0 -0.00019529413616033969 0.013958399601784204 0 -0.00036249066641411208 0.013599166935973739 0 -0.00057268875752718574 0.014084695051617826 0 -0.0006788377539360211 0.013799400121782776 0 -0.00088348714133456522 0.014257132769310957 0 -0.0006788377539360211 0.013799400121782776 0 -0.0011127167137090137 0.014304853055416837 0 -0.00088348714133456522 0.014257132769310957 0 -0.00057268875752718574 0.014084695051617826 0 -0.0006788377539360211 0.013799400121782776 0 0.008706006288831062 0.003940407538204997 0 0.0087478582833884194 0.0044706063863453266 0 0.0092182274607574416 0.0046450608647105951 0 0.0087478582833884194 0.0044706063863453266 0 0.0087849631199572245 0.0050152610326447394 0 0.0092182274607574416 0.0046450608647105951 0 -0.00088348714133456522 0.014257132769310957 0 -0.0011127167137090137 0.014304853055416837 0 -0.0010663800693313044 0.014536250858732959 0 0.0036507784086435456 0.0099847037489453581 0 0.00076701308842189522 0.01331592882712858 0 0.00057361860462116208 0.013362915037337794 0 -6.7567491660596564e-06 0.013727172538951483 0 0.00070783092356985851 0.01459723688665103 0 0.00076701308842189522 0.01331592882712858 0 -0.00078632534916808956 0.015694032872257391 0 0.0030391890813292076 0.010935222891087313 0 0.0024403044606267138 0.0111055164949632 0 0.0029239322332320528 0.010805180386181956 0 0.0056714833110650632 0.0094872675589630032 0 0.0036507784086435456 0.0099847037489453581 0 0.00076701308842189522 0.01331592882712858 0 0.001592049163371682 0.012553538548094913 0 0.0030391890813292076 0.010935222891087313 0 0.0024786784700461706 0.011401341011177308 0 0.0024403044606267138 0.0111055164949632 0 0.0056714833110650632 0.0094872675589630032 0 0.001592049163371682 0.012553538548094913 0 -0.0015917797907471099 0.014975358598694146 0 -0.0010179921292886827 0.015737923640832027 0 -0.0012882989968697738 0.016218881737022718 0 -0.0015917797907471099 0.014975358598694146 0 -0.0010179921292886827 0.015737923640832027 0 -0.00098006277388347951 0.015120861074131884 0 -0.00084923780347393233 0.014434752717276365 0 -0.0015917797907471099 0.014975358598694146 0 -0.00098006277388347951 0.015120861074131884 0 -0.00084923780347393233 0.014434752717276365 0 -0.00098006277388347951 0.015120861074131884 0 -0.00069609664214988448 0.014872052703264495 0 -0.00098006277388347951 0.015120861074131884 0 -0.00069609664214988448 0.014872052703264495 0 -0.00078907501942101469 0.015478494714221414 0 -0.00069609664214988448 0.014872052703264495 0 -0.00078907501942101469 0.015478494714221414 0 -0.00042237033715155958 0.015104557483667643 0 -0.00042706440219610059 0.01452235078006414 0 -0.00069609664214988448 0.014872052703264495 0 -0.00042237033715155958 0.015104557483667643 0 -0.00078907501942101469 0.015478494714221414 0 -0.00061705214108325824 0.015590910241858557 0 -0.00078619608111614306 0.015956731888108817 0 -0.0010179921292886827 0.015737923640832027 0 -0.00098006277388347951 0.015120861074131884 0 -0.00078907501942101469 0.015478494714221414 0 -0.0010179921292886827 0.015737923640832027 0 -0.00078907501942101469 0.015478494714221414 0 -0.00078619608111614306 0.015956731888108817 0 -0.0010179921292886827 0.015737923640832027 0 -0.00099194902406647819 0.016283361351771358 0 -0.00078619608111614306 0.015956731888108817 0 -0.0010179921292886827 0.015737923640832027 0 -0.00099194902406647819 0.016283361351771358 0 -0.0012882989968697738 0.016218881737022718 0 -0.0052827334996119555 0.019572893740120716 0 -0.0052924614229314252 0.01943476916752393 0 -0.0013167278945132406 0.01594002342749987 0 -0.0010529741555879205 0.016178882296669968 0 -0.0013960920262605832 0.01624732543197047 0 -0.0012025057800470187 0.016205814864736767 0 -0.00078632534916808956 0.015694032872257391 0 -0.0010529741555879205 0.016178882296669968 0 -0.0013960920262605832 0.01624732543197047 0 -0.00091757390791569735 0.016122273881006906 0 -0.00099194902406647819 0.016283361351771358 0 -0.0010529741555879205 0.016178882296669968 0 -0.0012882989968697738 0.016218881737022718 0 -0.0013167278945132406 0.01594002342749987 0 -0.0010529741555879205 0.016178882296669968 0 -0.0013270377431945295 0.015794740407549381 0 -0.0014719484011041502 0.016002716729225944 0 -0.0015740423940127717 0.016029215145957215 0 -0.0013960920262605832 0.01624732543197047 0 -0.0013167278945132406 0.01594002342749987 0 -0.0014719484011041502 0.016002716729225944 0 -0.0013960920262605832 0.01624732543197047 0 -0.0013167278945132406 0.01594002342749987 0 -0.0014719484011041502 0.016002716729225944 0 -0.0014361104981858702 0.015906289288186326 0 -0.0014719484011041502 0.016002716729225944 0 -0.0014361104981858702 0.015906289288186326 0 -0.0015536866412124654 0.015931001713179984 0 -0.0014542780687241896 0.015692162074557241 0 -0.0013307313525258173 0.015854473470622035 0 -0.0014903762551143973 0.015837143837169311 0 0.001592049163371682 0.012553538548094913 0 -0.00078632534916808956 0.015694032872257391 0 -0.0014361104981858702 0.015906289288186326 0 -0.0013307313525258173 0.015854473470622035 0 -0.0014903762551143973 0.015837143837169311 0 -0.0013167278945132406 0.01594002342749987 0 -0.0014361104981858702 0.015906289288186326 0 -0.0013307313525258173 0.015854473470622035 0 -0.00098555775059457279 0.015845362208521396 0 -0.00078632534916808956 0.015694032872257391 0 0.001592049163371682 0.012553538548094913 0 0.0027167516954949714 0.012114603361077513 0 -0.0014542780687241896 0.015692162074557241 0 -0.0014903762551143973 0.015837143837169311 0 -0.0016271076624480177 0.015868187826357495 0 -0.0014903762551143973 0.015837143837169311 0 -0.0016271076624480177 0.015868187826357495 0 -0.0015536866412124654 0.015931001713179984 0 -0.0014361104981858702 0.015906289288186326 0 -0.0014903762551143973 0.015837143837169311 0 -0.0015536866412124654 0.015931001713179984 0 0.0070273559752448006 0.0081049148185725946 0 0.0070319779410592236 0.0079667391935656709 0 0.0071892210818333049 0.0079952444123478437 0 0.0070319779410592236 0.0079667391935656709 0 0.0071341615299562065 0.0078589074879888993 0 0.0071892210818333049 0.0079952444123478437 0 0.003331550518797475 0.011890785751201069 0 0.0011150053389855441 0.013827694609824361 0 0.00083385635645963786 0.013515953050116658 0 -0.0016271076624480177 0.015868187826357495 0 -0.0016210649724935759 0.01592127640333553 0 -0.0015800454971654676 0.015948000058844301 0 0.0027167516954949714 0.012114603361077513 0 0.0041248894392653277 0.010654816828069097 0 0.0027167516954949714 0.012114603361077513 0 -0.00059932461553618077 0.015133055678813319 0 -0.0016271076624480177 0.015868187826357495 0 -0.0016210649724935759 0.01592127640333553 0 -0.0016338520601973843 0.015953172543959105 0 -0.0016210649724935759 0.01592127640333553 0 -0.0016338520601973843 0.015953172543959105 0 -0.0016134682787913698 0.015896822705442508 0 -0.0016210649724935759 0.01592127640333553 0 -0.0016134682787913698 0.015896822705442508 0 -0.0015800454971654676 0.015948000058844301 0 -0.0016338520601973843 0.015953172543959105 0 -0.0016134682787913698 0.015896822705442508 0 -0.0016124071884241636 0.015910050885595699 0 -0.0016271076624480177 0.015868187826357495 0 -0.0016338520601973843 0.015953172543959105 0 -0.0015536866412124654 0.015931001713179984 0 -0.0014719484011041502 0.016002716729225944 0 -0.0015536866412124654 0.015931001713179984 0 -0.0015740423940127717 0.016029215145957215 0 -0.0016338520601973843 0.015953172543959105 0 -0.0015536866412124654 0.015931001713179984 0 -0.0015740423940127717 0.016029215145957215 0 -0.0071059199142401623 0.020001036341703023 0 -0.0052827334996119555 0.019572893740120716 0 -0.0016338520601973843 0.015953172543959105 0 -0.0015740423940127717 0.016029215145957215 0 -0.0017061978259947075 0.016041452324582581 0 -0.0015740423940127717 0.016029215145957215 0 -0.0017061978259947075 0.016041452324582581 0 -0.0013960920262605832 0.01624732543197047 0 -0.0017061978259947075 0.016041452324582581 0 -0.0016124071884241636 0.015910050885595699 0 -0.0016681402991667298 0.016108321336172071 0 -0.0016338520601973843 0.015953172543959105 0 -0.0017061978259947075 0.016041452324582581 0 -0.0016124071884241636 0.015910050885595699 0 -0.0071059199142401623 0.020001036341703023 0 -0.00013067038269577624 0.018793494748823848 0 -0.0099774543526949637 0.023382960548431121 0 -0.010102577687900171 0.023613881385264202 0 -0.0099824955157784608 0.023482441180139434 0 -0.0099774543526949637 0.023382960548431121 0 -0.010102577687900171 0.023613881385264202 0 -0.010032578602546655 0.023589389581900506 0 -0.0099774543526949637 0.023382960548431121 0 -0.010032578602546655 0.023589389581900506 0 -0.0099154611310071604 0.023486952087175276 0 -0.010102577687900171 0.023613881385264202 0 -0.010032578602546655 0.023589389581900506 0 -0.010113509366935999 0.023775800367699062 0 -0.0099154611310071604 0.023486952087175276 0 -0.0097776210871766533 0.023353110083700737 0 -0.009809916006471792 0.023090031987375508 0 -0.0099154611310071604 0.023486952087175276 0 -0.0097099505752592536 0.023541351522901426 0 -0.0097776210871766533 0.023353110083700737 0 -0.0097099505752592536 0.023541351522901426 0 -0.0097776210871766533 0.023353110083700737 0 -0.0096403332944661486 0.023188229929322422 0 -0.009809916006471792 0.023090031987375508 0 -0.0094646298664464359 0.022686818264119838 0 -0.0095919574554819836 0.022975184592502702 0 -0.0096403332944661486 0.023188229929322422 0 -0.009809916006471792 0.023090031987375508 0 -0.0095919574554819836 0.022975184592502702 0 -0.0097776210871766533 0.023353110083700737 0 -0.0096403332944661486 0.023188229929322422 0 -0.009809916006471792 0.023090031987375508 0 -0.0099774543526949637 0.023382960548431121 0 -0.0099154611310071604 0.023486952087175276 0 -0.009809916006471792 0.023090031987375508 0 0.0073096954799088858 0.0084381054711664197 0 0.0073556771839753303 0.0089663817291491827 0 0.0075249289469952272 0.0086135556524786685 0 0.0073096954799088858 0.0084381054711664197 0 0.0069769780795207693 0.0087945107649509777 0 0.0065111441919480624 0.0083621451241592849 0 0.0073096954799088858 0.0084381054711664197 0 0.0071629390409927241 0.007723916942642131 0 0.0065111441919480624 0.0083621451241592849 0 0.0069769780795207693 0.0087945107649509777 0 0.0065111441919480624 0.0083621451241592849 0 0.0067119616430146613 0.0092465763041686255 0 0.0065120102117722581 0.018495811479734312 0 0.0051313113646350803 0.018758454545504753 0 0.0069769780795207693 0.0087945107649509777 0 0.0073556771839753303 0.0089663817291491827 0 0.0067119616430146613 0.0092465763041686255 0 0.0073096954799088858 0.0084381054711664197 0 0.0069769780795207693 0.0087945107649509777 0 0.0073556771839753303 0.0089663817291491827 0 0.0065120102117722581 0.018495811479734312 0 -0.00013067038269577624 0.018793494748823848 0 0.0033220723253408807 0.028385519911419164 0 0.0021502034191582479 0.028514301366980608 0 0.0027159211040395227 0.027743561552524075 0 0.0073556771839753303 0.0089663817291491827 0 0.0076997456000576095 0.0088041771822149478 0 0.0075249289469952272 0.0086135556524786685 0 -0.010102577687900171 0.023613881385264202 0 -0.0099824955157784608 0.023482441180139434 0 -0.010231456824682487 0.023749248023979052 0 -0.00013067038269577624 0.018793494748823848 0 -0.0042524559087493722 0.0266805829232157 0 -0.0016124071884241636 0.015910050885595699 0 -0.0016681402991667298 0.016108321336172071 0 -0.0013745095938792085 0.015593931057016792 0 -0.0016681402991667298 0.016108321336172071 0 -0.0014550427686443425 0.015403675058379902 0 -0.0013745095938792085 0.015593931057016792 0 -0.00013067038269577624 0.018793494748823848 0 0.0051057753153328465 0.01008127083157582 0 0.0073096954799088858 0.0084381054711664197 0 0.0075249289469952272 0.0086135556524786685 0 0.0075860573307264308 0.0084126605304197695 0 0.0076997456000576095 0.0088041771822149478 0 0.0075249289469952272 0.0086135556524786685 0 0.0075860573307264308 0.0084126605304197695 0 0.0083441263533369676 0.0076834221704661062 0 0.0051057753153328465 0.01008127083157582 0 0.0076325826004493141 0.0077938382747420641 0 0.0076015202877007439 0.007773324375195091 0 0.007465036340066177 0.0079650777696187083 0 0.0073096954799088858 0.0084381054711664197 0 0.0076325826004493141 0.0077938382747420641 0 0.007465036340066177 0.0079650777696187083 0 0.0051057753153328465 0.01008127083157582 0 0.0051650807380203756 0.0098298379997994664 0 0.0076325826004493141 0.0077938382747420641 0 0.0075586924949038433 0.0077800371449146082 0 0.0076015202877007439 0.007773324375195091 0 0.0075586924949038433 0.0077800371449146082 0 0.0075935976570486495 0.0077424241555050285 0 0.0076015202877007439 0.007773324375195091 0 0.0075586924949038433 0.0077800371449146082 0 0.0075935976570486495 0.0077424241555050285 0 0.0074285075021494427 0.0078318652494870269 0 0.0076015202877007439 0.007773324375195091 0 0.0077296723600859723 0.007620304609575408 0 0.007465036340066177 0.0079650777696187083 0 0.0075935976570486495 0.0077424241555050285 0 0.0076015202877007439 0.007773324375195091 0 0.0077296723600859723 0.007620304609575408 0 -0.0016124071884241636 0.015910050885595699 0 -0.0015588829236813284 0.015826582696800894 0 -0.0013745095938792085 0.015593931057016792 0 -0.0016134682787913698 0.015896822705442508 0 -0.0016124071884241636 0.015910050885595699 0 -0.0015588829236813284 0.015826582696800894 0 -0.0015588829236813284 0.015826582696800894 0 -0.0013745095938792085 0.015593931057016792 0 -0.0015800454971654676 0.015948000058844301 0 -0.0014550427686443425 0.015403675058379902 0 -0.0013745095938792085 0.015593931057016792 0 0.00083385635645963786 0.013515953050116658 0 -0.0010910685073058717 0.015444539139501504 0 -0.00059932461553618077 0.015133055678813319 0 0.0075586924949038433 0.0077800371449146082 0 0.0071341615299562065 0.0078589074879888993 0 0.0074285075021494427 0.0078318652494870269 0 0.0051057753153328465 0.01008127083157582 0 0.0041248894392653277 0.010654816828069097 0 0.0075086371083390559 0.0077582419334576548 0 0.0075586924949038433 0.0077800371449146082 0 0.0071341615299562065 0.0078589074879888993 0 -0.0016134682787913698 0.015896822705442508 0 -0.0015588829236813284 0.015826582696800894 0 -0.0015800454971654676 0.015948000058844301 0 -0.0013745095938792085 0.015593931057016792 0 0.0011150053389855441 0.013827694609824361 0 0.00083385635645963786 0.013515953050116658 0 0.0071892210818333049 0.0079952444123478437 0 0.0074285075021494427 0.0078318652494870269 0 0.0075740239681413944 0.0079943702688821897 0 0.0071341615299562065 0.0078589074879888993 0 0.0071892210818333049 0.0079952444123478437 0 0.0074285075021494427 0.0078318652494870269 0 0.0075113202796852976 0.0084871431632467624 0 0.0089941569273354113 0.0028161417463771379 0 0.0075935976570486495 0.0077424241555050285 0 0.0077296723600859723 0.007620304609575408 0 0.0074285075021494427 0.0078318652494870269 0 0.0077296723600859723 0.007620304609575408 0 0.0074285075021494427 0.0078318652494870269 0 0.0075740239681413944 0.0079943702688821897 0 0.0089941569273354113 0.0028161417463771379 0 0.0096822495829269762 0.0022766146250518971 0 0.0077296723600859723 0.007620304609575408 0 0.0079773035606039624 0.0070089359968147462 0 0.0071629390409927241 0.007723916942642131 0 0.012360758975731198 -0.0036873257794138629 0 0.011425930636072307 -0.0037392325786190562 0 0.011423129893280292 -0.0025422918395969054 0 0.0073096954799088858 0.0084381054711664197 0 0.0071629390409927241 0.007723916942642131 0 0.007465036340066177 0.0079650777696187083 0 0.0077296723600859723 0.007620304609575408 0 0.0071629390409927241 0.007723916942642131 0 0.007465036340066177 0.0079650777696187083 0 0.011423129893280292 -0.0025422918395969054 0 0.010509870140900913 -0.0026899177401890385 0 0.010129686236429585 -0.0012584039337644787 0 0.0096822495829269762 0.0022766146250518971 0 0.0075865857031900278 0.0038803387896597283 0 0.011425930636072307 -0.0037392325786190562 0 0.011423129893280292 -0.0025422918395969054 0 0.010509870140900913 -0.0026899177401890385 0 0.011425930636072307 -0.0037392325786190562 0 0.010509870140900913 -0.0026899177401890385 0 0.01020541240328744 -0.003584836320422433 0 0.011425930636072307 -0.0037392325786190562 0 0.011448378383607931 -0.0048168654283586663 0 0.01020541240328744 -0.003584836320422433 0 0.011448378383607931 -0.0048168654283586663 0 0.01215068944517512 -0.0049253170023983144 0 0.012354056394551607 -0.0051073314094074651 0 0.011416000734437555 -0.0047197236555039561 0 0.011274878118278771 -0.0043013239006926916 0 0.012360758975731198 -0.0036873257794138629 0 0.011425930636072307 -0.0037392325786190562 0 0.011879389921083587 -0.0045086720148819169 0 0.011425930636072307 -0.0037392325786190562 0 0.011448378383607931 -0.0048168654283586663 0 0.011879389921083587 -0.0045086720148819169 0 0.011448378383607931 -0.0048168654283586663 0 0.011879389921083587 -0.0045086720148819169 0 0.011806041086664392 -0.0052551924561462212 0 0.011448378383607931 -0.0048168654283586663 0 0.011557207719088565 -0.0053798595736185345 0 0.011919783557762548 -0.0049876248436736947 0 0.011448378383607931 -0.0048168654283586663 0 0.011806041086664392 -0.0052551924561462212 0 0.011557207719088565 -0.0053798595736185345 0 0.0089941569273354113 0.0028161417463771379 0 0.0079773477622894114 0.0049758937429169574 0 0.0071892210818333049 0.0079952444123478437 0 0.0075740239681413944 0.0079943702688821897 0 0.0071930585672251145 0.0081505275489745978 0 0.012360758975731198 -0.0036873257794138629 0 0.011879389921083587 -0.0045086720148819169 0 0.012486427824065451 -0.004781894521228687 0 0.0075393899755536002 0.0022473521564516305 0 0.0097515839161866798 0.00040350299827776647 0 0.0081164945941770896 -5.496900541066128e-05 0 0.0089941569273354113 0.0028161417463771379 0 0.01047638451216717 -0.0031051446656621007 0 0.011806041086664392 -0.0052551924561462212 0 0.012486427824065451 -0.004781894521228687 0 0.012468538746364007 -0.0056586520219537194 0 0.011879389921083587 -0.0045086720148819169 0 0.011806041086664392 -0.0052551924561462212 0 0.012486427824065451 -0.004781894521228687 0 0.01047638451216717 -0.0031051446656621007 0 0.010522742236751715 -0.0037794757837325502 0 0.0097515839161866798 0.00040350299827776647 0 0.0081164945941770896 -5.496900541066128e-05 0 0.010170621912246032 -0.00134289570763161 0 0.0081164945941770896 -5.496900541066128e-05 0 0.010170621912246032 -0.00134289570763161 0 0.0087034990102737766 -0.0023776365858393044 0 0.010664802213978317 -0.003086431439454901 0 0.0087034990102737766 -0.0023776365858393044 0 0.0093144985568824386 -0.004723666560101418 0 0.010522742236751715 -0.0037794757837325502 0 0.011062897858121399 -0.0062958547894383888 0 0.010664802213978317 -0.003086431439454901 0 0.010170621912246032 -0.00134289570763161 0 0.0087034990102737766 -0.0023776365858393044 0 0.011806041086664392 -0.0052551924561462212 0 0.012468538746364007 -0.0056586520219537194 0 0.011674101422882987 -0.0060171245880778143 0 0.012468538746364007 -0.0056586520219537194 0 0.012048424646612493 -0.0065332315417961336 0 0.011674101422882987 -0.0060171245880778143 0 0.011639477243984958 -0.0069472667054646794 0 0.012048424646612493 -0.0065332315417961336 0 0.011674101422882987 -0.0060171245880778143 0 0.011639477243984958 -0.0069472667054646794 0 0.012048424646612493 -0.0065332315417961336 0 0.012154283856033057 -0.0072203698338656353 0 0.012468538746364007 -0.0056586520219537194 0 0.012048424646612493 -0.0065332315417961336 0 0.012502217295859699 -0.0068267833908907229 0 0.012048424646612493 -0.0065332315417961336 0 0.012154283856033057 -0.0072203698338656353 0 0.012502217295859699 -0.0068267833908907229 0 0.012068507977274377 -0.007678839317754713 0 0.012154283856033057 -0.0072203698338656353 0 0.012075816375924031 -0.0074691796598966324 0 0.012154283856033057 -0.0072203698338656353 0 0.012119166854239563 -0.007319321207511221 0 0.012075816375924031 -0.0074691796598966324 0 0.011344073282600491 -0.006480243627894418 0 0.011062897858121399 -0.0062958547894383888 0 0.011062897858121399 -0.0062958547894383888 0 0.011469527472739586 -0.0071384970743858436 0 0.012153207592113165 -0.0077393389824910739 0 0.012118006146604902 -0.0074625451761967752 0 0.012075816375924031 -0.0074691796598966324 0 0.012118006146604902 -0.0074625451761967752 0 0.011993932507649421 -0.0074452412545434133 0 0.012075816375924031 -0.0074691796598966324 0 0.011120863107174727 -0.0054187090473912305 0 0.011062897858121399 -0.0062958547894383888 0 0.012118006146604902 -0.0074625451761967752 0 0.012081759471056228 -0.0070377092464127579 0 0.011993932507649421 -0.0074452412545434133 0 0.011557207719088565 -0.0053798595736185345 0 0.011271000784904946 -0.0062097002062766801 0 0.011946371404480214 -0.0050923736443834987 0 0.011806041086664392 -0.0052551924561462212 0 0.011557207719088565 -0.0053798595736185345 0 0.011674101422882987 -0.0060171245880778143 0 0.011639477243984958 -0.0069472667054646794 0 0.011674101422882987 -0.0060171245880778143 0 0.011271000784904946 -0.0062097002062766801 0 0.011557207719088565 -0.0053798595736185345 0 0.011674101422882987 -0.0060171245880778143 0 0.011271000784904946 -0.0062097002062766801 0 0.013403150328200313 -0.013489656222039417 0 0.015382767472909141 -0.014505548538331237 0 0.015300878849787737 -0.015771564866981693 0 0.012374640529907137 -0.0098724023588268161 0 0.013900845639312988 -0.010650089286658443 0 0.014328506109242137 -0.012739976349761763 0 0.013403150328200313 -0.013489656222039417 0 0.015382767472909141 -0.014505548538331237 0 0.011557207719088565 -0.0053798595736185345 0 0.011946371404480214 -0.0050923736443834987 0 0.011919783557762548 -0.0049876248436736947 0 0.011946371404480214 -0.0050923736443834987 0 0.011919783557762548 -0.0049876248436736947 0 0.012363865249149829 -0.0048543240224911462 0 0.011946371404480214 -0.0050923736443834987 0 0.012673714586720661 -0.0046938501697723163 0 0.012363865249149829 -0.0048543240224911462 0 0.013900845639312988 -0.010650089286658443 0 0.01469650621930197 -0.0081753066262385456 0 0.015300878849787737 -0.015771564866981693 0 0.016916686062508894 -0.017236022262197278 0 0.016754361332985971 -0.015565819323414536 0 0.015382767472909141 -0.014505548538331237 0 0.016754361332985971 -0.015565819323414536 0 0.017449958599838212 -0.013948258498157224 0 0.015382767472909141 -0.014505548538331237 0 0.015300878849787737 -0.015771564866981693 0 0.016754361332985971 -0.015565819323414536 0 0.017449958599838212 -0.013948258498157224 0 0.01913365458546485 -0.014233987981609594 0 0.018336146841117566 -0.015548831190109309 0 0.016754361332985971 -0.015565819323414536 0 0.017449958599838212 -0.013948258498157224 0 0.018336146841117566 -0.015548831190109309 0 0.01913365458546485 -0.014233987981609594 0 0.018336146841117566 -0.015548831190109309 0 0.019990815067345815 -0.015350780405786321 0 0.019990815067345815 -0.015350780405786321 0 0.020165883636469754 -0.017112557252779988 0 0.021905732034683916 -0.015450806879309753 0 0.02105195410151901 -0.01400393870401455 0 0.019990815067345815 -0.015350780405786321 0 0.021905732034683916 -0.015450806879309753 0 0.02105195410151901 -0.01400393870401455 0 0.01913365458546485 -0.014233987981609594 0 0.019990815067345815 -0.015350780405786321 0 0.018336146841117566 -0.015548831190109309 0 0.019990815067345815 -0.015350780405786321 0 0.020165883636469754 -0.017112557252779988 0 0.012115392235985298 -0.003711330503358957 0 0.014877197482839747 -0.0028494989093636311 0 0.013093798057747939 -0.0044045676564620356 0 0.01469650621930197 -0.0081753066262385456 0 0.017461593654887118 -0.010249133183398476 0 0.016916686062508894 -0.017236022262197278 0 0.016754361332985971 -0.015565819323414536 0 0.018336146841117566 -0.015548831190109309 0 0.016916686062508894 -0.017236022262197278 0 0.018336146841117566 -0.015548831190109309 0 0.020165883636469754 -0.017112557252779988 0 0.01469650621930197 -0.0081753066262385456 0 0.012057900699637499 -0.0044972901667378502 0 0.013093798057747939 -0.0044045676564620356 0 0.013745128915597423 -0.0048078199085846186 0 0.01310330020517215 -0.0050979372021828836 0 0.013093798057747939 -0.0044045676564620356 0 0.013745128915597423 -0.0048078199085846186 0 0.014544980669379539 -0.0044756668945340576 0 0.013093798057747939 -0.0044045676564620356 0 0.01310330020517215 -0.0050979372021828836 0 0.012683482391539477 -0.0048584316532805961 0 0.014877197482839747 -0.0028494989093636311 0 0.013093798057747939 -0.0044045676564620356 0 0.014544980669379539 -0.0044756668945340576 0 0.014877197482839747 -0.0028494989093636311 0 0.015589539134893171 -0.0043645340756162682 0 0.016151943123559092 -0.0037483537783575649 0 0.014877197482839747 -0.0028494989093636311 0 0.014544980669379539 -0.0044756668945340576 0 0.015589539134893171 -0.0043645340756162682 0 0.014544980669379539 -0.0044756668945340576 0 0.015439101880091162 -0.0050240369321717642 0 0.014385923218228248 -0.0051863869847757604 0 0.013745128915597423 -0.0048078199085846186 0 0.014544980669379539 -0.0044756668945340576 0 0.014385923218228248 -0.0051863869847757604 0 0.014544980669379539 -0.0044756668945340576 0 0.015439101880091162 -0.0050240369321717642 0 0.015589539134893171 -0.0043645340756162682 0 0.013000732884444238 -0.0048843502359616408 0 0.013076023235023642 -0.0048544100849303657 0 0.01298355545307983 -0.0048601110256779713 0 0.014385923218228248 -0.0051863869847757604 0 0.014854032264331084 -0.006123921422500009 0 0.01310330020517215 -0.0050979372021828836 0 0.015439101880091162 -0.0050240369321717642 0 0.014385923218228248 -0.0051863869847757604 0 0.014854032264331084 -0.006123921422500009 0 0.015439101880091162 -0.0050240369321717642 0 0.014854032264331084 -0.006123921422500009 0 0.01653706400518334 -0.0054496676721041805 0 0.013000732884444238 -0.0048843502359616408 0 0.013091972899719032 -0.0048717271811234801 0 0.01298355545307983 -0.0048601110256779713 0 0.01310330020517215 -0.0050979372021828836 0 0.012776988229078504 -0.0049547061995773647 0 0.013286777997614983 -0.0046811216713715399 0 0.013000732884444238 -0.0048843502359616408 0 0.01310330020517215 -0.0050979372021828836 0 0.013091972899719032 -0.0048717271811234801 0 0.013779204352129735 -0.005499440501710225 0 0.013288621805150613 -0.005202016567796044 0 0.01310330020517215 -0.0050979372021828836 0 0.013091972899719032 -0.0048717271811234801 0 0.013286777997614983 -0.0046811216713715399 0 0.013745128915597423 -0.0048078199085846186 0 0.014385923218228248 -0.0051863869847757604 0 0.01310330020517215 -0.0050979372021828836 0 0.01310330020517215 -0.0050979372021828836 0 0.012776988229078504 -0.0049547061995773647 0 0.012683482391539477 -0.0048584316532805961 0 0.012776988229078504 -0.0049547061995773647 0 0.012306516012357341 -0.0049067058685671816 0 0.012683482391539477 -0.0048584316532805961 0 0.012776988229078504 -0.0049547061995773647 0 0.01215068944517512 -0.0049253170023983144 0 0.012306516012357341 -0.0049067058685671816 0 0.012776988229078504 -0.0049547061995773647 0 0.01215068944517512 -0.0049253170023983144 0 0.012354056394551607 -0.0051073314094074651 0 0.011448378383607931 -0.0048168654283586663 0 0.01215068944517512 -0.0049253170023983144 0 0.011919783557762548 -0.0049876248436736947 0 0.01215068944517512 -0.0049253170023983144 0 0.012306516012357341 -0.0049067058685671816 0 0.011919783557762548 -0.0049876248436736947 0 0.012306516012357341 -0.0049067058685671816 0 0.011919783557762548 -0.0049876248436736947 0 0.012363865249149829 -0.0048543240224911462 0 0.013093798057747939 -0.0044045676564620356 0 0.012363865249149829 -0.0048543240224911462 0 0.012683482391539477 -0.0048584316532805961 0 0.012673714586720661 -0.0046938501697723163 0 0.013093798057747939 -0.0044045676564620356 0 0.012363865249149829 -0.0048543240224911462 0 0.012306516012357341 -0.0049067058685671816 0 0.012363865249149829 -0.0048543240224911462 0 0.012683482391539477 -0.0048584316532805961 0 0.022458187300183036 -0.0026655565310873958 0 0.022465947636230655 -0.00084350828005738091 0 0.020785186725851796 -0.0033509425594905329 0 0.024039468905162613 -0.003336531870317344 0 0.020772098833653403 -0.0026405240367599618 0 0.022458187300183036 -0.0026655565310873958 0 0.023198441367762744 -0.0017656825730604521 0 0.02428732553940674 -0.0023441003419320382 0 0.022458187300183036 -0.0026655565310873958 0 0.023198441367762744 -0.0017656825730604521 0 0.022465947636230655 -0.00084350828005738091 0 0.023198441367762744 -0.0017656825730604521 0 0.022465947636230655 -0.00084350828005738091 0 0.024115249522071128 -0.0013612306635479856 0 0.030309332711183006 -0.012335273973166496 0 0.026344075069652747 -0.0076594646014058899 0 0.023707501008892642 -0.00059115850632039061 0 0.023489353977590353 -0.00092323188403735021 0 0.025231048350502352 -0.00052504091475611466 0 0.030058601684719462 -0.014423647350876758 0 0.028525043679604786 -0.016094267530826011 0 0.028475024063794877 -0.015085717389815635 0 0.026344075069652747 -0.0076594646014058899 0 0.024039468905162613 -0.003336531870317344 0 0.028525043679604786 -0.016094267530826011 0 0.028475024063794877 -0.015085717389815635 0 0.027933565016785199 -0.015733097859630479 0 0.028475024063794877 -0.015085717389815635 0 0.027933565016785199 -0.015733097859630479 0 0.027391694909048431 -0.015374395230878296 0 0.026344075069652747 -0.0076594646014058899 0 0.023021997086453229 -0.0062518449593180238 0 0.028525043679604786 -0.016094267530826011 0 0.027933565016785199 -0.015733097859630479 0 0.027039362209829179 -0.016684320242023976 0 0.02571637295183141 -0.0057691716788514352 0 0.025291249282664373 -0.0063819442598892981 0 0.023331302808807491 -0.0067257025586460904 0 0.024039468905162613 -0.003336531870317344 0 0.023021997086453229 -0.0062518449593180238 0 0.027933565016785199 -0.015733097859630479 0 0.027391694909048431 -0.015374395230878296 0 0.027039362209829179 -0.016684320242023976 0 0.027391694909048431 -0.015374395230878296 0 0.026307686435205542 -0.015431947491806939 0 0.027039362209829179 -0.016684320242023976 0 0.026698844027458028 -0.014706730183495767 0 0.027391694909048431 -0.015374395230878296 0 0.026307686435205542 -0.015431947491806939 0 0.026307686435205542 -0.015431947491806939 0 0.025115942713577883 -0.015937412253495025 0 0.024984592861358523 -0.014625640190443406 0 0.026698844027458028 -0.014706730183495767 0 0.026307686435205542 -0.015431947491806939 0 0.024984592861358523 -0.014625640190443406 0 0.026307686435205542 -0.015431947491806939 0 0.027039362209829179 -0.016684320242023976 0 0.025115942713577883 -0.015937412253495025 0 0.021054014451709329 -0.0014297462985436644 0 0.01996267397125789 -0.0025316998646709738 0 0.020785186725851796 -0.0033509425594905329 0 0.021054014451709329 -0.0014297462985436644 0 0.01996267397125789 -0.0025316998646709738 0 0.018264158563123412 -0.002619477157352394 0 0.023021997086453229 -0.0062518449593180238 0 0.018042965959148088 -0.0016075822870705832 0 0.022268643887549962 -0.0012209579972592968 0 0.021054014451709329 -0.0014297462985436644 0 0.020785186725851796 -0.0033509425594905329 0 0.01996267397125789 -0.0025316998646709738 0 0.019416847067091438 -0.0033408212144224502 0 0.020785186725851796 -0.0033509425594905329 0 0.021081855149962667 -0.0016935703473666636 0 0.018264158563123412 -0.002619477157352394 0 0.01792025903521317 -0.0020696370075778533 0 0.027039362209829179 -0.016684320242023976 0 0.023504449874509947 -0.017001027704930057 0 0.025115942713577883 -0.015937412253495025 0 0.023021997086453229 -0.0062518449593180238 0 0.020929077495873898 -0.0098364673151539652 0 0.01996267397125789 -0.0025316998646709738 0 0.019090981891833805 -0.002902519099512169 0 0.018264158563123412 -0.002619477157352394 0 0.01996267397125789 -0.0025316998646709738 0 0.019090981891833805 -0.002902519099512169 0 0.019416847067091438 -0.0033408212144224502 0 0.019090981891833805 -0.002902519099512169 0 0.018467232641640411 -0.0033251824900791126 0 0.019416847067091438 -0.0033408212144224502 0 0.019090981891833805 -0.002902519099512169 0 0.018264158563123412 -0.002619477157352394 0 0.018467232641640411 -0.0033251824900791126 0 0.018264158563123412 -0.002619477157352394 0 0.0176354237539945 -0.0032908088479385936 0 0.018467232641640411 -0.0033251824900791126 0 0.018264158563123412 -0.002619477157352394 0 0.017633097616838015 -0.0027794054735460045 0 0.0176354237539945 -0.0032908088479385936 0 0.018264158563123412 -0.002619477157352394 0 0.01792025903521317 -0.0020696370075778533 0 0.017633097616838015 -0.0027794054735460045 0 0.025115942713577883 -0.015937412253495025 0 0.024984592861358523 -0.014625640190443406 0 0.023715543127671216 -0.01547064719042778 0 0.022969607211869362 -0.014077362695051247 0 0.024984592861358523 -0.014625640190443406 0 0.023715543127671216 -0.01547064719042778 0 0.023504449874509947 -0.017001027704930057 0 0.025115942713577883 -0.015937412253495025 0 0.023715543127671216 -0.01547064719042778 0 0.023504449874509947 -0.017001027704930057 0 0.023715543127671216 -0.01547064719042778 0 0.021905732034683916 -0.015450806879309753 0 0.022969607211869362 -0.014077362695051247 0 0.023715543127671216 -0.01547064719042778 0 0.021905732034683916 -0.015450806879309753 0 0.022969607211869362 -0.014077362695051247 0 0.02105195410151901 -0.01400393870401455 0 0.021905732034683916 -0.015450806879309753 0 0.020165883636469754 -0.017112557252779988 0 0.023504449874509947 -0.017001027704930057 0 0.021905732034683916 -0.015450806879309753 0 0.014877197482839747 -0.0028494989093636311 0 0.01792025903521317 -0.0020696370075778533 0 0.016849144800323734 -0.0030800564765249799 0 0.017461593654887118 -0.010249133183398476 0 0.020929077495873898 -0.0098364673151539652 0 0.014877197482839747 -0.0028494989093636311 0 0.016849144800323734 -0.0030800564765249799 0 0.016151943123559092 -0.0037483537783575649 0 0.01792025903521317 -0.0020696370075778533 0 0.017633097616838015 -0.0027794054735460045 0 0.016849144800323734 -0.0030800564765249799 0 0.017633097616838015 -0.0027794054735460045 0 0.0176354237539945 -0.0032908088479385936 0 0.016849144800323734 -0.0030800564765249799 0 0.016151943123559092 -0.0037483537783575649 0 0.017048692247998376 -0.0039041097488167983 0 0.016434053305702502 -0.0045772963707243312 0 0.015589539134893171 -0.0043645340756162682 0 0.016151943123559092 -0.0037483537783575649 0 0.016434053305702502 -0.0045772963707243312 0 0.016849144800323734 -0.0030800564765249799 0 0.016151943123559092 -0.0037483537783575649 0 0.017048692247998376 -0.0039041097488167983 0 0.0176354237539945 -0.0032908088479385936 0 0.016849144800323734 -0.0030800564765249799 0 0.017048692247998376 -0.0039041097488167983 0 0.017048692247998376 -0.0039041097488167983 0 0.017402433714837479 -0.0048465442800391129 0 0.017887768565000677 -0.0039070478249278017 0 0.0176354237539945 -0.0032908088479385936 0 0.017048692247998376 -0.0039041097488167983 0 0.017887768565000677 -0.0039070478249278017 0 0.017402433714837479 -0.0048465442800391129 0 0.016434053305702502 -0.0045772963707243312 0 0.01653706400518334 -0.0054496676721041805 0 0.017048692247998376 -0.0039041097488167983 0 0.017402433714837479 -0.0048465442800391129 0 0.016434053305702502 -0.0045772963707243312 0 0.015439101880091162 -0.0050240369321717642 0 0.015589539134893171 -0.0043645340756162682 0 0.016434053305702502 -0.0045772963707243312 0 0.015439101880091162 -0.0050240369321717642 0 0.016434053305702502 -0.0045772963707243312 0 0.01653706400518334 -0.0054496676721041805 0 0.013779204352129735 -0.005499440501710225 0 0.016469001630409805 -0.0039826934645239209 0 0.014854032264331084 -0.006123921422500009 0 0.01653706400518334 -0.0054496676721041805 0 0.017042794561604943 -0.0067996917421271263 0 0.017042794561604943 -0.0067996917421271263 0 0.0173395548247075 -0.0056988144444226263 0 0.018375904258844947 -0.0057100094375345158 0 0.01653706400518334 -0.0054496676721041805 0 0.017042794561604943 -0.0067996917421271263 0 0.0173395548247075 -0.0056988144444226263 0 0.017402433714837479 -0.0048465442800391129 0 0.01653706400518334 -0.0054496676721041805 0 0.0173395548247075 -0.0056988144444226263 0 0.016469001630409805 -0.0039826934645239209 0 0.022934912029590478 -0.0021183290980926594 0 0.019690589045789814 -0.0011213870433644229 0 0.022847679414880997 -0.0006868456395286921 0 0.02376072203053544 -0.00019518786922288154 0 0.017042794561604943 -0.0067996917421271263 0 0.018375904258844947 -0.0057100094375345158 0 0.020689545455549248 -0.006130855521020934 0 0.019690589045789814 -0.0011213870433644229 0 0.022847679414880997 -0.0006868456395286921 0 0.023461714636440995 -0.0018716687183551318 0 0.018375904258844947 -0.0057100094375345158 0 0.019525256469951593 -0.0054168121193997583 0 0.020689545455549248 -0.006130855521020934 0 0.017402433714837479 -0.0048465442800391129 0 0.0173395548247075 -0.0056988144444226263 0 0.018375904258844947 -0.0057100094375345158 0 0.018375904258844947 -0.0057100094375345158 0 0.019525256469951593 -0.0054168121193997583 0 0.0188466304415538 -0.0048292663715040858 0 0.019525256469951593 -0.0054168121193997583 0 0.019516207142911517 -0.0047995036674783912 0 0.0188466304415538 -0.0048292663715040858 0 0.019516207142911517 -0.0047995036674783912 0 0.019448537480629698 -0.0042336945276266122 0 0.0188466304415538 -0.0048292663715040858 0 0.019448537480629698 -0.0042336945276266122 0 0.0188466304415538 -0.0048292663715040858 0 0.01865237842157948 -0.0040358450798495017 0 0.017402433714837479 -0.0048465442800391129 0 0.018172264198666018 -0.0045996038624383272 0 0.017887768565000677 -0.0039070478249278017 0 0.018375904258844947 -0.0057100094375345158 0 0.0188466304415538 -0.0048292663715040858 0 0.018172264198666018 -0.0045996038624383272 0 0.017402433714837479 -0.0048465442800391129 0 0.018375904258844947 -0.0057100094375345158 0 0.018172264198666018 -0.0045996038624383272 0 0.0188466304415538 -0.0048292663715040858 0 0.018172264198666018 -0.0045996038624383272 0 0.01865237842157948 -0.0040358450798495017 0 0.018172264198666018 -0.0045996038624383272 0 0.017887768565000677 -0.0039070478249278017 0 0.01865237842157948 -0.0040358450798495017 0 0.0176354237539945 -0.0032908088479385936 0 0.017887768565000677 -0.0039070478249278017 0 0.018467232641640411 -0.0033251824900791126 0 0.017887768565000677 -0.0039070478249278017 0 0.018467232641640411 -0.0033251824900791126 0 0.01865237842157948 -0.0040358450798495017 0 0.018467232641640411 -0.0033251824900791126 0 0.019416847067091438 -0.0033408212144224502 0 0.01865237842157948 -0.0040358450798495017 0 0.019448537480629698 -0.0042336945276266122 0 0.019416847067091438 -0.0033408212144224502 0 0.01865237842157948 -0.0040358450798495017 0 0.019448537480629698 -0.0042336945276266122 0 0.019416847067091438 -0.0033408212144224502 0 0.020785186725851796 -0.0033509425594905329 0 0.019448537480629698 -0.0042336945276266122 0 0.020785186725851796 -0.0033509425594905329 0 0.020246494019382645 -0.0047202770636624704 0 0.020785186725851796 -0.0033509425594905329 0 0.02101058446372148 -0.0048389738065315281 0 0.022055870852948814 -0.0045980888319057051 0 0.020785186725851796 -0.0033509425594905329 0 0.02101058446372148 -0.0048389738065315281 0 0.020246494019382645 -0.0047202770636624704 0 0.019516207142911517 -0.0047995036674783912 0 0.019448537480629698 -0.0042336945276266122 0 0.020246494019382645 -0.0047202770636624704 0 0.019525256469951593 -0.0054168121193997583 0 0.019516207142911517 -0.0047995036674783912 0 0.020246494019382645 -0.0047202770636624704 0 0.019525256469951593 -0.0054168121193997583 0 0.020246494019382645 -0.0047202770636624704 0 0.020689545455549248 -0.006130855521020934 0 0.022847679414880997 -0.0006868456395286921 0 0.023594941423246325 -0.00096653272698831014 0 0.023461714636440995 -0.0018716687183551318 0 0.023397530211654281 -0.0012868431437918274 0 0.022934912029590478 -0.0021183290980926594 0 0.022847679414880997 -0.0006868456395286921 0 0.023594941423246325 -0.00096653272698831014 0 0.023701634876483735 -0.00035778373144929293 0 0.02432636214562214 -0.00096682198122783713 0 0.023701634876483735 -0.00035778373144929293 0 0.02495786564729589 -0.00026881773727839651 0 0.02432636214562214 -0.00096682198122783713 0 0.023594941423246325 -0.00096653272698831014 0 0.023701634876483735 -0.00035778373144929293 0 0.02101058446372148 -0.0048389738065315281 0 0.020246494019382645 -0.0047202770636624704 0 0.020689545455549248 -0.006130855521020934 0 0.02101058446372148 -0.0048389738065315281 0 0.020689545455549248 -0.006130855521020934 0 0.022055870852948814 -0.0045980888319057051 0 0.022934912029590478 -0.0021183290980926594 0 0.024976564263243073 -0.0006795174180717192 0 0.0239766014029805 -0.00035648552401864111 0 0.02495786564729589 -0.00026881773727839651 0 0.026186098090777783 0.000404692507037831 0 0.02495786564729589 -0.00026881773727839651 0 0.025911996118676291 -0.00081617734946093303 0 0.026186098090777783 0.000404692507037831 0 0.022934912029590478 -0.0021183290980926594 0 0.024840754210033435 -0.0022275668989401426 0 0.02432636214562214 -0.00096682198122783713 0 0.02495786564729589 -0.00026881773727839651 0 0.025038779624621081 -0.00089297556979731215 0 0.02432636214562214 -0.00096682198122783713 0 0.025038779624621081 -0.00089297556979731215 0 0.025157460327948942 -0.0014071647869179928 0 0.025038779624621081 -0.00089297556979731215 0 0.025911996118676291 -0.00081617734946093303 0 0.025157460327948942 -0.0014071647869179928 0 0.02495786564729589 -0.00026881773727839651 0 0.025038779624621081 -0.00089297556979731215 0 0.025911996118676291 -0.00081617734946093303 0 0.020689545455549248 -0.006130855521020934 0 0.022055870852948814 -0.0045980888319057051 0 0.023889589864424778 -0.0044654881251285508 0 0.022458187300183036 -0.0026655565310873958 0 0.02428732553940674 -0.0023441003419320382 0 0.023889589864424778 -0.0044654881251285508 0 0.022458187300183036 -0.0026655565310873958 0 0.020785186725851796 -0.0033509425594905329 0 0.022055870852948814 -0.0045980888319057051 0 0.022458187300183036 -0.0026655565310873958 0 0.022055870852948814 -0.0045980888319057051 0 0.023889589864424778 -0.0044654881251285508 0 0.016266799003066049 -0.0042740986884760449 0 0.016553844563615441 -0.0047147983387368243 0 0.017076250377725883 -0.0040320795399384933 0 0.020382586303104123 -0.0037692209556720343 0 0.024012481280254905 -0.0021010685675527242 0 0.02479266694724391 -0.0021045068342021023 0 0.02554720948573044 -0.00097150647321079457 0 0.025600564637305617 -0.0018642393594239892 0 0.016266799003066049 -0.0042740986884760449 0 0.015770555612387112 -0.003837599086502812 0 0.017076250377725883 -0.0040320795399384933 0 0.025157460327948942 -0.0014071647869179928 0 0.023461714636440995 -0.0018716687183551318 0 0.026272608517936429 -0.0022242754376869804 0 0.019252352969178016 -0.0027476476336788661 0 0.024012481280254905 -0.0021010685675527242 0 0.025157460327948942 -0.0014071647869179928 0 0.026021112110601548 -0.0014441732614826491 0 0.026272608517936429 -0.0022242754376869804 0 0.025911996118676291 -0.00081617734946093303 0 0.025157460327948942 -0.0014071647869179928 0 0.026021112110601548 -0.0014441732614826491 0 0.02432636214562214 -0.00096682198122783713 0 0.025157460327948942 -0.0014071647869179928 0 0.023461714636440995 -0.0018716687183551318 0 0.016266799003066049 -0.0042740986884760449 0 0.015770555612387112 -0.003837599086502812 0 0.015706115995433031 -0.0045113180756769502 0 0.015770555612387112 -0.003837599086502812 0 0.015706115995433031 -0.0045113180756769502 0 0.015355524423665334 -0.0042216674417279313 0 0.02432636214562214 -0.00096682198122783713 0 0.023594941423246325 -0.00096653272698831014 0 0.023461714636440995 -0.0018716687183551318 0 0.016266799003066049 -0.0042740986884760449 0 0.016553844563615441 -0.0047147983387368243 0 0.015706115995433031 -0.0045113180756769502 0 0.016553844563615441 -0.0047147983387368243 0 0.015706115995433031 -0.0045113180756769502 0 0.016066542235198784 -0.0053056703738387492 0 0.015706115995433031 -0.0045113180756769502 0 0.015026388695719768 -0.0044433895359253014 0 0.015355524423665334 -0.0042216674417279313 0 0.015706115995433031 -0.0045113180756769502 0 0.015177469184294095 -0.0047980518502037375 0 0.015026388695719768 -0.0044433895359253014 0 0.015177469184294095 -0.0047980518502037375 0 0.015026388695719768 -0.0044433895359253014 0 0.01464928850404244 -0.0047151010353915709 0 0.0147004482394605 -0.0037872602660731303 0 0.015770555612387112 -0.003837599086502812 0 0.015024547461063105 -0.0041248141298110231 0 0.015770555612387112 -0.003837599086502812 0 0.015355524423665334 -0.0042216674417279313 0 0.015024547461063105 -0.0041248141298110231 0 0.016469001630409805 -0.0039826934645239209 0 0.019252352969178016 -0.0027476476336788661 0 0.015026388695719768 -0.0044433895359253014 0 0.015355524423665334 -0.0042216674417279313 0 0.015024547461063105 -0.0041248141298110231 0 0.015026388695719768 -0.0044433895359253014 0 0.015024547461063105 -0.0041248141298110231 0 0.014479970301499331 -0.0043436975880517042 0 0.016469001630409805 -0.0039826934645239209 0 0.013098036131913914 -0.004565086459010821 0 0.0147004482394605 -0.0037872602660731303 0 0.014479970301499331 -0.0043436975880517042 0 0.01407691618263558 -0.004060307262298858 0 0.0147004482394605 -0.0037872602660731303 0 0.015024547461063105 -0.0041248141298110231 0 0.014479970301499331 -0.0043436975880517042 0 0.014479970301499331 -0.0043436975880517042 0 0.01464928850404244 -0.0047151010353915709 0 0.014212867010995691 -0.0046551119582547472 0 0.015026388695719768 -0.0044433895359253014 0 0.014479970301499331 -0.0043436975880517042 0 0.01464928850404244 -0.0047151010353915709 0 0.01464928850404244 -0.0047151010353915709 0 0.014212867010995691 -0.0046551119582547472 0 0.014412012603321202 -0.0048456193277489476 0 0.016031823881790211 -0.0044177458671637764 0 0.014817281214478143 -0.004505669877484496 0 0.014726075763219691 -0.0051834990714206006 0 0.014412012603321202 -0.0048456193277489476 0 0.014423005737549618 -0.0045715763003502411 0 0.01464928850404244 -0.0047151010353915709 0 0.014726075763219691 -0.0051834990714206006 0 0.014412012603321202 -0.0048456193277489476 0 0.018339514663801897 -0.0034285814795159343 0 0.016767698245333723 -0.0050992584621843513 0 0.018546735944978958 -0.0053313742485404112 0 0.018339514663801897 -0.0034285814795159343 0 0.016767698245333723 -0.0050992584621843513 0 0.014423005737549618 -0.0045715763003502411 0 0.018339514663801897 -0.0034285814795159343 0 0.018546735944978958 -0.0053313742485404112 0 0.020180962307345965 -0.0050874991026616072 0 0.018339514663801897 -0.0034285814795159343 0 0.021482156482488888 -0.0032017532954011188 0 0.020180962307345965 -0.0050874991026616072 0 0.016031823881790211 -0.0044177458671637764 0 0.020897674911424424 -0.0037239842380197168 0 0.015177469184294095 -0.0047980518502037375 0 0.014726075763219691 -0.0051834990714206006 0 0.016066542235198784 -0.0053056703738387492 0 0.015177469184294095 -0.0047980518502037375 0 0.01464928850404244 -0.0047151010353915709 0 0.014726075763219691 -0.0051834990714206006 0 0.015706115995433031 -0.0045113180756769502 0 0.015177469184294095 -0.0047980518502037375 0 0.016066542235198784 -0.0053056703738387492 0 0.020897674911424424 -0.0037239842380197168 0 0.021096635834134094 -0.0044934410420478079 0 0.023255534266207779 -0.0026469211764484388 0 0.021657067502625093 -0.0042052563489107294 0 0.02327290624827414 -0.0043427247130551844 0 0.023255534266207779 -0.0026469211764484388 0 0.02327290624827414 -0.0043427247130551844 0 0.024572102283834156 -0.0039444134391642257 0 0.02327290624827414 -0.0043427247130551844 0 0.024572102283834156 -0.0039444134391642257 0 0.024070446321214717 -0.0054004167810037043 0 0.02479266694724391 -0.0021045068342021023 0 0.024057344452437349 -0.0031133848734228825 0 0.025696698091329111 -0.0029336066003054352 0 0.020897674911424424 -0.0037239842380197168 0 0.02664501744624766 -0.0027036024883141121 0 0.023255534266207779 -0.0026469211764484388 0 0.024572102283834156 -0.0039444134391642257 0 0.025696698091329111 -0.0029336066003054352 0 0.020382586303104123 -0.0037692209556720343 0 0.020897674911424424 -0.0037239842380197168 0 0.013263877358225274 -0.0048629034073453519 0 0.012982161998064122 -0.0049516415815336135 0 0.013114029958443768 -0.00484507890029572 0 0.013263877358225274 -0.0048629034073453519 0 0.013114029958443768 -0.00484507890029572 0 0.013517736218447813 -0.0047843000505171903 0 0.013263877358225274 -0.0048629034073453519 0 0.01352653561154638 -0.0048204705732082182 0 0.01344006998448553 -0.0048536735143201197 0 0.013263877358225274 -0.0048629034073453519 0 0.01352653561154638 -0.0048204705732082182 0 0.013517736218447813 -0.0047843000505171903 0 0.013263877358225274 -0.0048629034073453519 0 0.012982161998064122 -0.0049516415815336135 0 0.01344006998448553 -0.0048536735143201197 0 0.010509870140900913 -0.0026899177401890385 0 0.0093200960645129869 -0.0023088413341218277 0 0.010129686236429585 -0.0012584039337644787 0 0.010509870140900913 -0.0026899177401890385 0 0.0093200960645129869 -0.0023088413341218277 0 0.01020541240328744 -0.003584836320422433 0 0.012982161998064122 -0.0049516415815336135 0 0.012354056394551607 -0.0051073314094074651 0 0.013114029958443768 -0.00484507890029572 0 0.011095031170078705 -0.0035873647542360707 0 0.011274878118278771 -0.0043013239006926916 0 0.012776988229078504 -0.0049547061995773647 0 0.012354056394551607 -0.0051073314094074651 0 0.013114029958443768 -0.00484507890029572 0 0.012776988229078504 -0.0049547061995773647 0 0.013114029958443768 -0.00484507890029572 0 0.013286777997614983 -0.0046811216713715399 0 0.013091972899719032 -0.0048717271811234801 0 0.013286777997614983 -0.0046811216713715399 0 0.01298355545307983 -0.0048601110256779713 0 0.013286777997614983 -0.0046811216713715399 0 0.013487912858455884 -0.0047139690487495289 0 0.013811870286192504 -0.0045720746474727948 0 0.013114029958443768 -0.00484507890029572 0 0.013286777997614983 -0.0046811216713715399 0 0.013487912858455884 -0.0047139690487495289 0 0.013286777997614983 -0.0046811216713715399 0 0.01407691618263558 -0.004060307262298858 0 0.013811870286192504 -0.0045720746474727948 0 0.013505624125701719 -0.0045808569404255746 0 0.013098036131913914 -0.004565086459010821 0 0.01407691618263558 -0.004060307262298858 0 0.013811870286192504 -0.0045720746474727948 0 0.014151289270959128 -0.0044261541921562959 0 0.014479970301499331 -0.0043436975880517042 0 0.01407691618263558 -0.004060307262298858 0 0.014151289270959128 -0.0044261541921562959 0 0.014479970301499331 -0.0043436975880517042 0 0.014151289270959128 -0.0044261541921562959 0 0.014212867010995691 -0.0046551119582547472 0 0.013811870286192504 -0.0045720746474727948 0 0.014151289270959128 -0.0044261541921562959 0 0.014212867010995691 -0.0046551119582547472 0 0.013811870286192504 -0.0045720746474727948 0 0.014212867010995691 -0.0046551119582547472 0 0.013840620347494345 -0.0047218858323277236 0 0.014212867010995691 -0.0046551119582547472 0 0.013840620347494345 -0.0047218858323277236 0 0.014182751355253324 -0.0047703538986551422 0 0.014212867010995691 -0.0046551119582547472 0 0.014412012603321202 -0.0048456193277489476 0 0.014182751355253324 -0.0047703538986551422 0 0.013114029958443768 -0.00484507890029572 0 0.013487912858455884 -0.0047139690487495289 0 0.013517736218447813 -0.0047843000505171903 0 0.013487912858455884 -0.0047139690487495289 0 0.013811870286192504 -0.0045720746474727948 0 0.013840620347494345 -0.0047218858323277236 0 0.013487912858455884 -0.0047139690487495289 0 0.013840620347494345 -0.0047218858323277236 0 0.013517736218447813 -0.0047843000505171903 0 0.013840620347494345 -0.0047218858323277236 0 0.013517736218447813 -0.0047843000505171903 0 0.013867368927108581 -0.0047728600190776321 0 0.013840620347494345 -0.0047218858323277236 0 0.013867368927108581 -0.0047728600190776321 0 0.014182751355253324 -0.0047703538986551422 0 0.013517736218447813 -0.0047843000505171903 0 0.013644976092483491 -0.0047983542926847136 0 0.013867368927108581 -0.0047728600190776321 0 0.01352653561154638 -0.0048204705732082182 0 0.013517736218447813 -0.0047843000505171903 0 0.013644976092483491 -0.0047983542926847136 0 0.013673419635992641 -0.0048106580663546655 0 0.013867368927108581 -0.0047728600190776321 0 0.013892515860581062 -0.0047760315402669545 0 0.01352653561154638 -0.0048204705732082182 0 0.013644976092483491 -0.0047983542926847136 0 0.013673419635992641 -0.0048106580663546655 0 0.013673419635992641 -0.0048106580663546655 0 0.013704782771268379 -0.0048264694922350252 0 0.013596075122068282 -0.0048360751374109641 0 0.013644976092483491 -0.0047983542926847136 0 0.013673419635992641 -0.0048106580663546655 0 0.013867368927108581 -0.0047728600190776321 0 0.013867368927108581 -0.0047728600190776321 0 0.014182751355253324 -0.0047703538986551422 0 0.014423005737549618 -0.0045715763003502411 0 0.013892515860581062 -0.0047760315402669545 0 0.014423005737549618 -0.0045715763003502411 0 0.014087552296384358 -0.0048587455113904684 0 0.013867368927108581 -0.0047728600190776321 0 0.013892515860581062 -0.0047760315402669545 0 0.014423005737549618 -0.0045715763003502411 0 0.013750233005540938 -0.0049058855091659564 0 0.013892515860581062 -0.0047760315402669545 0 0.014087552296384358 -0.0048587455113904684 0 0.013750233005540938 -0.0049058855091659564 0 0.013704782771268379 -0.0048264694922350252 0 0.013892515860581062 -0.0047760315402669545 0 0.013673419635992641 -0.0048106580663546655 0 0.013704782771268379 -0.0048264694922350252 0 0.013892515860581062 -0.0047760315402669545 0 0.013750233005540938 -0.0049058855091659564 0 0.013704782771268379 -0.0048264694922350252 0 0.013609269937495363 -0.0048502411868203343 0 0.014412012603321202 -0.0048456193277489476 0 0.014182751355253324 -0.0047703538986551422 0 0.014423005737549618 -0.0045715763003502411 0 0.014423005737549618 -0.0045715763003502411 0 0.014347988357836796 -0.0051659352638457378 0 0.015393727602726811 -0.0056408911418754145 0 0.016767698245333723 -0.0050992584621843513 0 0.014423005737549618 -0.0045715763003502411 0 0.015393727602726811 -0.0056408911418754145 0 0.012928093361105293 -0.003510716324023124 0 0.01096242910182749 -0.0035501177357800846 0 0.013951865982932988 -0.0060480943792931173 0 0.010789275616229412 0.0038922584808277656 0 0.016213615726394646 0.00039675940856121589 0 0.013750233005540938 -0.0049058855091659564 0 0.013780753258111974 -0.0050465956102981168 0 0.014087552296384358 -0.0048587455113904684 0 0.014423005737549618 -0.0045715763003502411 0 0.014087552296384358 -0.0048587455113904684 0 0.014347988357836796 -0.0051659352638457378 0 0.013780753258111974 -0.0050465956102981168 0 0.014087552296384358 -0.0048587455113904684 0 0.014347988357836796 -0.0051659352638457378 0 0.013780753258111974 -0.0050465956102981168 0 0.014347988357836796 -0.0051659352638457378 0 0.01433210963320543 -0.0059142623438795125 0 0.014347988357836796 -0.0051659352638457378 0 0.01433210963320543 -0.0059142623438795125 0 0.015393727602726811 -0.0056408911418754145 0 0.012928093361105293 -0.003510716324023124 0 0.013951865982932988 -0.0060480943792931173 0 0.01433210963320543 -0.0059142623438795125 0 0.013398044018228349 -0.0044534460422436225 0 0.014177424206416982 -0.0056307445904261429 0 0.010789275616229412 0.0038922584808277656 0 0.0092467943533417613 0.018886421151753 0 0.010789275616229412 0.0038922584808277656 0 0.0098685325502149961 -0.00061190625994403522 0 0.012928093361105293 -0.003510716324023124 0 0.01096242910182749 -0.0035501177357800846 0 0.011375424235662193 -0.0011394309560479063 0 0.010789275616229412 0.0038922584808277656 0 0.011282571246076184 -0.0028600762826051455 0 0.013398044018228349 -0.0044534460422436225 0 0.011282571246076184 -0.0028600762826051455 0 0.012982161998064122 -0.0049516415815336135 0 0.013526305814904249 -0.004853406719795816 0 0.01344006998448553 -0.0048536735143201197 0 0.0086331560120450398 0.00012461198018031159 0 0.0087792249819371899 -0.00068775634219746988 0 0.010129686236429585 -0.0012584039337644787 0 0.0093200960645129869 -0.0023088413341218277 0 0.0084253320376676873 -0.00094740231451380288 0 0.0092309518428857484 -0.0013627673169295854 0 0.013750233005540938 -0.0049058855091659564 0 0.013780753258111974 -0.0050465956102981168 0 0.013526305814904249 -0.004853406719795816 0 0.011095031170078705 -0.0035873647542360707 0 0.011282571246076184 -0.0028600762826051455 0 0.013750233005540938 -0.0049058855091659564 0 0.013609269937495363 -0.0048502411868203343 0 0.013526305814904249 -0.004853406719795816 0 0.013609269937495363 -0.0048502411868203343 0 0.013596075122068282 -0.0048360751374109641 0 0.013549103826576687 -0.0048471005359462917 0 0.013609269937495363 -0.0048502411868203343 0 0.013526305814904249 -0.004853406719795816 0 0.013549103826576687 -0.0048471005359462917 0 0.013704782771268379 -0.0048264694922350252 0 0.013609269937495363 -0.0048502411868203343 0 0.013596075122068282 -0.0048360751374109641 0 0.0084253320376676873 -0.00094740231451380288 0 0.0087792249819371899 -0.00068775634219746988 0 0.0092309518428857484 -0.0013627673169295854 0 0.0086148565147500054 0.00018704555763200418 0 0.0084253320376676873 -0.00094740231451380288 0 0.0087792249819371899 -0.00068775634219746988 0 0.01352653561154638 -0.0048204705732082182 0 0.013673419635992641 -0.0048106580663546655 0 0.01344006998448553 -0.0048536735143201197 0 0.01344006998448553 -0.0048536735143201197 0 0.013596075122068282 -0.0048360751374109641 0 0.013549103826576687 -0.0048471005359462917 0 0.013673419635992641 -0.0048106580663546655 0 0.01344006998448553 -0.0048536735143201197 0 0.013596075122068282 -0.0048360751374109641 0 0.013526305814904249 -0.004853406719795816 0 0.01344006998448553 -0.0048536735143201197 0 0.013549103826576687 -0.0048471005359462917 0 0.010789275616229412 0.0038922584808277656 0 0.0075865857031900278 0.0038803387896597283 0 0.0087792249819371899 -0.00068775634219746988 0 0.010129686236429585 -0.0012584039337644787 0 0.0092309518428857484 -0.0013627673169295854 0 0.0093200960645129869 -0.0023088413341218277 0 0.010129686236429585 -0.0012584039337644787 0 0.0092309518428857484 -0.0013627673169295854 0 0.0059197524944038299 0.0089288835195368167 0 0.0060081720128291041 0.0095038613647729191 0 0.0067119616430146613 0.0092465763041686255 0 0.0059197524944038299 0.0089288835195368167 0 0.0065111441919480624 0.0083621451241592849 0 0.0067119616430146613 0.0092465763041686255 0 0.0055406374123579656 0.027879451715586145 0 0.0072980655823144175 0.026948075082941017 0 0.0073808080665066708 0.02748045405209305 0 0.0041522004622622805 0.028478195486848445 0 0.011733859196079874 0.026318798472842325 0 0.0055406374123579656 0.027879451715586145 0 0.0073808080665066708 0.02748045405209305 0 0.0050063700673902631 0.028147276693424667 0 0.0092467943533417613 0.018886421151753 0 0.0051313113646350803 0.018758454545504753 0 0.0055406374123579656 0.027879451715586145 0 0.0057210423078904874 0.027253329552103387 0 0.0068444749958721206 0.027299424209339264 0 0.0057210423078904874 0.027253329552103387 0 0.0056801506705085282 0.026508715487212078 0 0.0068444749958721206 0.027299424209339264 0 0.0057210423078904874 0.027253329552103387 0 0.0056801506705085282 0.026508715487212078 0 0.0047492761986045809 0.027310108646439353 0 0.0056801506705085282 0.026508715487212078 0 0.0068444749958721206 0.027299424209339264 0 0.0066107724807437009 0.025568812246442391 0 0.011733859196079874 0.026318798472842325 0 0.012595053632152879 0.026081151715687853 0 0.018665633386232131 0.028250606893778011 0 0.019910661395068429 0.027624975332486573 0 0.018296075625664342 0.025936856181647702 0 0.011733859196079874 0.026318798472842325 0 0.019931220371131885 0.024649688104439484 0 0.017524530657664156 0.018152189536245363 0 0.019931220371131885 0.024649688104439484 0 0.010789275616229412 0.0038922584808277656 0 0.017524530657664156 0.018152189536245363 0 0.01578195012319689 0.023153954841249776 0 0.013248459443046003 0.02240839835195067 0 0.016456643174079116 0.020760779839853114 0 0.01320172718006144 0.0071212694507593287 0 0.010090320671110932 0.017519442859902694 0 0.014786800790169054 0.016161880150390932 0 0.016197562008198073 0.01000300754256468 0 0.016705536858339174 0.0086101468936996238 0 0.017562362700577996 0.0090192802509274951 0 0.017524530657664156 0.018152189536245363 0 0.0092467943533417613 0.018886421151753 0 0.01578195012319689 0.023153954841249776 0 0.013248459443046003 0.02240839835195067 0 0.013486483488797555 0.023801193699801767 0 0.011733859196079874 0.026318798472842325 0 0.0092467943533417613 0.018886421151753 0 0.013951865982932988 -0.0060480943792931173 0 0.01433210963320543 -0.0059142623438795125 0 0.01581102918337934 -0.0073564928021275008 0 0.017524530657664156 0.018152189536245363 0 0.023203481834611669 0.012284817788105704 0 0.016705536858339174 0.0086101468936996238 0 0.017562362700577996 0.0090192802509274951 0 0.018871689743727389 0.0080526761266133048 0 0.01433210963320543 -0.0059142623438795125 0 0.015393727602726811 -0.0056408911418754145 0 0.01581102918337934 -0.0073564928021275008 0 0.016767698245333723 -0.0050992584621843513 0 0.015393727602726811 -0.0056408911418754145 0 0.017462597027610164 -0.0064821226669463695 0 0.016213615726394646 0.00039675940856121589 0 0.023203481834611669 0.012284817788105704 0 0.015393727602726811 -0.0056408911418754145 0 0.01581102918337934 -0.0073564928021275008 0 0.017462597027610164 -0.0064821226669463695 0 0.02452132932697703 0.024652009391735921 0 0.024424782693540356 0.023928017688058554 0 0.025900106400102058 0.02389227804562313 0 0.02452132932697703 0.024652009391735921 0 0.024424782693540356 0.023928017688058554 0 0.02303477100529875 0.024492477897127357 0 0.022864077456466937 0.025007387031110245 0 0.02452132932697703 0.024652009391735921 0 0.02303477100529875 0.024492477897127357 0 0.024459709993363232 0.0242050038741984 0 0.019931220371131885 0.024649688104439484 0 0.023587726202666363 0.024607849250496843 0 0.02139246920595023 0.025728117352358634 0 0.023068620615862134 0.023656024409320346 0 0.019931220371131885 0.024649688104439484 0 0.021435113763719055 0.024605434880164527 0 0.02139246920595023 0.025728117352358634 0 0.022099074385195972 0.023251601109067637 0 0.023068620615862134 0.023656024409320346 0 0.022099074385195972 0.023251601109067637 0 0.023068620615862134 0.023656024409320346 0 0.023350916754394109 0.022227539214922626 0 0.023587726202666363 0.024607849250496843 0 0.023068620615862134 0.023656024409320346 0 0.024304095404486928 0.023476416192712461 0 0.023068620615862134 0.023656024409320346 0 0.024304095404486928 0.023476416192712461 0 0.024140069212315301 0.022745956743808141 0 0.024304095404486928 0.023476416192712461 0 0.024140069212315301 0.022745956743808141 0 0.024871688344789943 0.023024580661191524 0 0.023068620615862134 0.023656024409320346 0 0.024140069212315301 0.022745956743808141 0 0.023350916754394109 0.022227539214922626 0 0.023350916754394109 0.022227539214922626 0 0.024289388374173514 0.021884193247356618 0 0.02372890483595276 0.021018800247441457 0 0.024140069212315301 0.022745956743808141 0 0.023350916754394109 0.022227539214922626 0 0.024289388374173514 0.021884193247356618 0 0.021435113763719055 0.024605434880164527 0 0.022169605699242836 0.021632658929671686 0 0.020688087736342071 0.025116897350096288 0 0.020002132553598676 0.02359563402645707 0 0.021548834273336225 0.022555611796158531 0 0.022099074385195972 0.023251601109067637 0 0.023350916754394109 0.022227539214922626 0 0.022811990387132247 0.020973743076812965 0 0.020002132553598676 0.02359563402645707 0 0.017880209044921561 0.023558859038908354 0 0.018296075625664342 0.025936856181647702 0 0.0063879924067657993 0.023755213042383368 0 0.0066107724807437009 0.025568812246442391 0 0.0055026875609666135 0.024950394559686184 0 0.011952359859671765 0.023547132417100911 0 0.012595053632152879 0.026081151715687853 0 0.0056801506705085282 0.026508715487212078 0 0.0066107724807437009 0.025568812246442391 0 0.0055026875609666135 0.024950394559686184 0 0.020688087736342071 0.025116897350096288 0 0.020002132553598676 0.02359563402645707 0 0.018296075625664342 0.025936856181647702 0 0.019910661395068429 0.027624975332486573 0 0.020688087736342071 0.025116897350096288 0 0.018296075625664342 0.025936856181647702 0 0.024425120269684502 -0.0069552592821770631 0 0.023542501882931798 -0.0065048807964200525 0 0.023576273638321387 -0.0079984313787990358 0 0.024425120269684502 -0.0069552592821770631 0 0.023542501882931798 -0.0065048807964200525 0 0.024706673699981523 -0.0061507404464008399 0 0.024425120269684502 -0.0069552592821770631 0 0.024706673699981523 -0.0061507404464008399 0 0.025645936019186584 -0.0062687398146764372 0 0.024706673699981523 -0.0061507404464008399 0 0.024070446321214717 -0.0054004167810037043 0 0.025563563183929362 -0.0052168317908488221 0 0.024572102283834156 -0.0039444134391642257 0 0.024070446321214717 -0.0054004167810037043 0 0.025563563183929362 -0.0052168317908488221 0 0.023542501882931798 -0.0065048807964200525 0 0.024070446321214717 -0.0054004167810037043 0 0.022703801017107981 -0.0056425822800543861 0 0.023542501882931798 -0.0065048807964200525 0 0.024706673699981523 -0.0061507404464008399 0 0.024070446321214717 -0.0054004167810037043 0 0.021657067502625093 -0.0042052563489107294 0 0.022703801017107981 -0.0056425822800543861 0 0.021157568232291465 -0.0069558842404192599 0 0.021657067502625093 -0.0042052563489107294 0 0.02327290624827414 -0.0043427247130551844 0 0.022703801017107981 -0.0056425822800543861 0 0.02327290624827414 -0.0043427247130551844 0 0.024070446321214717 -0.0054004167810037043 0 0.022703801017107981 -0.0056425822800543861 0 0.019516629149102641 -0.0080054945173662385 0 0.021157568232291465 -0.0069558842404192599 0 0.023576273638321387 -0.0079984313787990358 0 0.027705196664205848 0.0052873026004128659 0 0.030719115430624149 0.0056968825814751427 0 0.023542501882931798 -0.0065048807964200525 0 0.021157568232291465 -0.0069558842404192599 0 0.023576273638321387 -0.0079984313787990358 0 0.023542501882931798 -0.0065048807964200525 0 0.022703801017107981 -0.0056425822800543861 0 0.021157568232291465 -0.0069558842404192599 0 0.019516629149102641 -0.0080054945173662385 0 0.021157568232291465 -0.0069558842404192599 0 0.019349895069490915 -0.0066567691278133657 0 0.021657067502625093 -0.0042052563489107294 0 0.021157568232291465 -0.0069558842404192599 0 0.019349895069490915 -0.0066567691278133657 0 0.021096635834134094 -0.0044934410420478079 0 0.019394841263728771 -0.0066371951916950524 0 0.018546735944978958 -0.0053313742485404112 0 0.020180962307345965 -0.0050874991026616072 0 0.019349895069490915 -0.0066567691278133657 0 0.018546735944978958 -0.0053313742485404112 0 0.019349895069490915 -0.0066567691278133657 0 0.017462597027610164 -0.0064821226669463695 0 0.016767698245333723 -0.0050992584621843513 0 0.018546735944978958 -0.0053313742485404112 0 0.017462597027610164 -0.0064821226669463695 0 0.01581102918337934 -0.0073564928021275008 0 0.019516629149102641 -0.0080054945173662385 0 0.017462597027610164 -0.0064821226669463695 0 0.023203481834611669 0.012284817788105704 0 0.030702118329656657 0.022893892486648387 0 0.023203481834611669 0.012284817788105704 0 0.027705196664205848 0.0052873026004128659 0 0.031765677224736756 0.020944976615430315 0 0.035412989184647782 0.020108429154713732 0 0.034622057321557397 0.019021259239120757 0 0.019516629149102641 -0.0080054945173662385 0 0.019349895069490915 -0.0066567691278133657 0 0.017462597027610164 -0.0064821226669463695 0 0.024424782693540356 0.023928017688058554 0 0.025900106400102058 0.02389227804562313 0 0.025881478653294192 0.023351639531298592 0 0.024459709993363232 0.0242050038741984 0 0.025584370081719474 0.023458044949335722 0 0.023587726202666363 0.024607849250496843 0 0.024304095404486928 0.023476416192712461 0 0.025881478653294192 0.023351639531298592 0 0.024304095404486928 0.023476416192712461 0 0.025881478653294192 0.023351639531298592 0 0.024871688344789943 0.023024580661191524 0 0.024140069212315301 0.022745956743808141 0 0.024871688344789943 0.023024580661191524 0 0.025289694518211153 0.022285340323777297 0 0.024140069212315301 0.022745956743808141 0 0.024289388374173514 0.021884193247356618 0 0.025289694518211153 0.022285340323777297 0 0.024289388374173514 0.021884193247356618 0 0.025289694518211153 0.022285340323777297 0 0.025068468788210761 0.021057776347514608 0 0.025289694518211153 0.022285340323777297 0 0.026549294755002853 0.021563172367035536 0 0.025068468788210761 0.021057776347514608 0 0.025881478653294192 0.023351639531298592 0 0.025289694518211153 0.022285340323777297 0 0.026636738610433381 0.022658949962483781 0 0.025881478653294192 0.023351639531298592 0 0.024871688344789943 0.023024580661191524 0 0.025289694518211153 0.022285340323777297 0 0.027852011054234169 0.022516084253294114 0 0.027995099702243804 0.021012227584852477 0 0.026549294755002853 0.021563172367035536 0 0.025289694518211153 0.022285340323777297 0 0.026636738610433381 0.022658949962483781 0 0.026549294755002853 0.021563172367035536 0 0.026636738610433381 0.022658949962483781 0 0.027852011054234169 0.022516084253294114 0 0.026549294755002853 0.021563172367035536 0 0.034622057321557397 0.019021259239120757 0 0.036640083947914563 0.01890585715495105 0 0.037096411964022073 0.017741368277104087 0 0.035412989184647782 0.020108429154713732 0 0.034622057321557397 0.019021259239120757 0 0.036640083947914563 0.01890585715495105 0 0.025900106400102058 0.02389227804562313 0 0.025881478653294192 0.023351639531298592 0 0.026636738610433381 0.022658949962483781 0 0.025900106400102058 0.02389227804562313 0 0.026636738610433381 0.022658949962483781 0 0.027852011054234169 0.022516084253294114 0 0.030702118329656657 0.022893892486648387 0 0.032074171750306413 0.020013305621939616 0 0.036640083947914563 0.01890585715495105 0 0.037756487106218171 0.018449825486313843 0 0.038234384131928464 0.019110700168037828 0 0.035412989184647782 0.020108429154713732 0 0.036640083947914563 0.01890585715495105 0 0.038234384131928464 0.019110700168037828 0 0.037756487106218171 0.018449825486313843 0 0.038334614347840815 0.018401783700570728 0 0.038234384131928464 0.019110700168037828 0 0.036640083947914563 0.01890585715495105 0 0.037756487106218171 0.018449825486313843 0 0.037096411964022073 0.017741368277104087 0 0.032074171750306413 0.020013305621939616 0 0.036255880003661853 0.019428575040363234 0 0.037756487106218171 0.018449825486313843 0 0.037096411964022073 0.017741368277104087 0 0.038470453699128951 0.017935745136368 0 0.037096411964022073 0.017741368277104087 0 0.038470453699128951 0.017935745136368 0 0.038983713969815662 0.017231139326870738 0 0.038470453699128951 0.017935745136368 0 0.038844037551748575 0.01819809942413991 0 0.038334614347840815 0.018401783700570728 0 0.038470453699128951 0.017935745136368 0 0.038983713969815662 0.017231139326870738 0 0.039191529093626214 0.01753765886380065 0 0.038931795126252305 0.017864495368123838 0 0.039166389596947446 0.017752150384566276 0 0.039221714831971795 0.017864877024589915 0 0.038931795126252305 0.017864495368123838 0 0.039166389596947446 0.017752150384566276 0 0.039191529093626214 0.01753765886380065 0 0.038470453699128951 0.017935745136368 0 0.038931795126252305 0.017864495368123838 0 0.039191529093626214 0.01753765886380065 0 0.039166389596947446 0.017752150384566276 0 0.039191529093626214 0.01753765886380065 0 0.039289380698313996 0.017746667412860392 0 0.038931795126252305 0.017864495368123838 0 0.038844037551748575 0.01819809942413991 0 0.039221714831971795 0.017864877024589915 0 0.038470453699128951 0.017935745136368 0 0.038931795126252305 0.017864495368123838 0 0.038844037551748575 0.01819809942413991 0 0.030719115430624149 0.0056968825814751427 0 0.03294401863111112 0.0053832611975936943 0 0.024425120269684502 -0.0069552592821770631 0 0.023576273638321387 -0.0079984313787990358 0 0.026632698451278903 -0.0073471707664805796 0 0.038844037551748575 0.01819809942413991 0 0.038234384131928464 0.019110700168037828 0 0.039413436214562829 0.018091921020101438 0 0.037756487106218171 0.018449825486313843 0 0.038470453699128951 0.017935745136368 0 0.038334614347840815 0.018401783700570728 0 0.038844037551748575 0.01819809942413991 0 0.038334614347840815 0.018401783700570728 0 0.038234384131928464 0.019110700168037828 0 0.039609723045306224 0.017841233647697956 0 0.040410646147066888 0.018520872458239079 0 0.039487626634604943 0.018058742970079662 0 0.040410646147066888 0.018520872458239079 0 0.039487626634604943 0.018058742970079662 0 0.039528614172702252 0.018526477473572504 0 0.036255880003661853 0.019428575040363234 0 0.034266414948301807 0.019094211079429678 0 0.039609723045306224 0.017841233647697956 0 0.039722578542509046 0.017745373972759892 0 0.040410646147066888 0.018520872458239079 0 0.039609723045306224 0.017841233647697956 0 0.039385635627470904 0.017772334641213007 0 0.039487626634604943 0.018058742970079662 0 0.039609723045306224 0.017841233647697956 0 0.039191529093626214 0.01753765886380065 0 0.039385635627470904 0.017772334641213007 0 0.039609723045306224 0.017841233647697956 0 0.039578669918077257 0.017743196864613734 0 0.039191529093626214 0.01753765886380065 0 0.036255880003661853 0.019428575040363234 0 0.036871199696029908 0.018981647772425607 0 0.037279891013095139 0.018706438886269168 0 0.036255880003661853 0.019428575040363234 0 0.039191529093626214 0.01753765886380065 0 0.039289380698313996 0.017746667412860392 0 0.039385635627470904 0.017772334641213007 0 0.027852011054234169 0.022516084253294114 0 0.02945818426437416 0.021126699200708653 0 0.027995099702243804 0.021012227584852477 0 0.02945818426437416 0.021126699200708653 0 0.027995099702243804 0.021012227584852477 0 0.028482920305156458 0.019801468806966066 0 0.027995099702243804 0.021012227584852477 0 0.028482920305156458 0.019801468806966066 0 0.027354381791627549 0.020332616824132278 0 0.028482920305156458 0.019801468806966066 0 0.027354381791627549 0.020332616824132278 0 0.027158689248676583 0.019392043751606955 0 0.027354381791627549 0.020332616824132278 0 0.02654077911973509 0.020159375309091943 0 0.027158689248676583 0.019392043751606955 0 0.027995099702243804 0.021012227584852477 0 0.027354381791627549 0.020332616824132278 0 0.026549294755002853 0.021563172367035536 0 0.026547906733780886 0.021444115477729668 0 0.026136637157469101 0.019843377147303373 0 0.027354381791627549 0.020332616824132278 0 0.026549294755002853 0.021563172367035536 0 0.02654077911973509 0.020159375309091943 0 0.026549294755002853 0.021563172367035536 0 0.025068468788210761 0.021057776347514608 0 0.025718819610155253 0.01942294513612932 0 0.024289388374173514 0.021884193247356618 0 0.025068468788210761 0.021057776347514608 0 0.02372890483595276 0.021018800247441457 0 0.025068468788210761 0.021057776347514608 0 0.024619065223156097 0.019919338389412181 0 0.025718819610155253 0.01942294513612932 0 0.025068468788210761 0.021057776347514608 0 0.024619065223156097 0.019919338389412181 0 0.02372890483595276 0.021018800247441457 0 0.024619065223156097 0.019919338389412181 0 0.025718819610155253 0.01942294513612932 0 0.024824443525533695 0.018788295987333788 0 0.026136637157469101 0.019843377147303373 0 0.025785745668140327 0.01829065178630998 0 0.025718819610155253 0.01942294513612932 0 0.024824443525533695 0.018788295987333788 0 0.024997599013110168 0.017368225512099034 0 0.024619065223156097 0.019919338389412181 0 0.024824443525533695 0.018788295987333788 0 0.024142420475047083 0.018041500874875153 0 0.026470118420586133 0.019090754470119528 0 0.026822963451536102 0.018532712389929613 0 0.027158689248676583 0.019392043751606955 0 0.02654077911973509 0.020159375309091943 0 0.026470118420586133 0.019090754470119528 0 0.027158689248676583 0.019392043751606955 0 0.024997599013110168 0.017368225512099034 0 0.024142420475047083 0.018041500874875153 0 0.024415654474857346 0.015484097529267941 0 0.024824443525533695 0.018788295987333788 0 0.024997599013110168 0.017368225512099034 0 0.024142420475047083 0.018041500874875153 0 0.026470118420586133 0.019090754470119528 0 0.026822963451536102 0.018532712389929613 0 0.026367209765117791 0.018259397057988989 0 0.026822963451536102 0.018532712389929613 0 0.026367209765117791 0.018259397057988989 0 0.026744827252465412 0.017897180976576596 0 0.025785745668140327 0.01829065178630998 0 0.024815354005079945 0.016743297686003043 0 0.040999562715711049 0.019475270765479943 0 0.040789929873038686 0.020410508784703435 0 0.041273159060807446 0.020299689553869817 0 0.026822963451536102 0.018532712389929613 0 0.027741738741568454 0.018839200600399196 0 0.027218854019512424 0.018090219967380021 0 0.034426679344400905 0.019244691435866459 0 0.034040899038568204 0.018915616745710059 0 0.026822963451536102 0.018532712389929613 0 0.027158689248676583 0.019392043751606955 0 0.027741738741568454 0.018839200600399196 0 0.034266414948301807 0.019094211079429678 0 0.034426679344400905 0.019244691435866459 0 0.040410646147066888 0.018520872458239079 0 0.040999562715711049 0.019475270765479943 0 0.039971408628108086 0.01914234521494727 0 0.028482920305156458 0.019801468806966066 0 0.027158689248676583 0.019392043751606955 0 0.027741738741568454 0.018839200600399196 0 0.040999562715711049 0.019475270765479943 0 0.040328591506319601 0.019997816625393305 0 0.040789929873038686 0.020410508784703435 0 0.040999562715711049 0.019475270765479943 0 0.040328591506319601 0.019997816625393305 0 0.039971408628108086 0.01914234521494727 0 0.040328591506319601 0.019997816625393305 0 0.039971408628108086 0.01914234521494727 0 0.039523334612367456 0.019559032572847596 0 0.040410646147066888 0.018520872458239079 0 0.039971408628108086 0.01914234521494727 0 0.039528614172702252 0.018526477473572504 0 0.019642388805523648 0.020209055478896464 0 0.013441221052553489 0.021468980056379754 0 0.019311450093175201 0.020126168138114069 0 0.017413779619538255 0.021065141113069039 0 0.019108430745507193 0.022085397226693698 0 0.019311450093175201 0.020126168138114069 0 0.019108430745507193 0.022085397226693698 0 0.020316713080673121 0.021894923689613117 0 0.018856453764182681 0.020753578175594853 0 0.016298022020645425 0.022116514014884583 0 0.015917923983224062 0.02003443633876309 0 0.016512181760197087 0.023267845646259343 0 0.015917923983224062 0.02003443633876309 0 0.014143540369498062 0.021956168624610018 0 0.013441221052553489 0.021468980056379754 0 0.015792049981745541 0.020946332204592556 0 0.017880209044921561 0.023558859038908354 0 0.017413779619538255 0.021065141113069039 0 0.019108430745507193 0.022085397226693698 0 0.011952359859671765 0.023547132417100911 0 0.013441221052553489 0.021468980056379754 0 0.0063879924067657993 0.023755213042383368 0 0.0061355667885596068 0.021868738109284181 0 0.0045051466098399726 0.022667074485249902 0 0.020002132553598676 0.02359563402645707 0 0.017880209044921561 0.023558859038908354 0 0.019108430745507193 0.022085397226693698 0 0.020002132553598676 0.02359563402645707 0 0.019108430745507193 0.022085397226693698 0 0.020316713080673121 0.021894923689613117 0 0.020002132553598676 0.02359563402645707 0 0.021548834273336225 0.022555611796158531 0 0.020316713080673121 0.021894923689613117 0 0.021548834273336225 0.022555611796158531 0 0.020316713080673121 0.021894923689613117 0 0.021082170055350475 0.020904705546841519 0 0.022811990387132247 0.020973743076812965 0 0.02372890483595276 0.021018800247441457 0 0.022599851227792133 0.019692675099836212 0 0.023350916754394109 0.022227539214922626 0 0.022811990387132247 0.020973743076812965 0 0.02372890483595276 0.021018800247441457 0 0.02372890483595276 0.021018800247441457 0 0.023204530505960948 0.019609648990651648 0 0.022599851227792133 0.019692675099836212 0 0.024619065223156097 0.019919338389412181 0 0.02372890483595276 0.021018800247441457 0 0.024142420475047083 0.018041500874875153 0 0.023710581178714902 0.02101984024704889 0 0.023595469902632334 0.018691872290007339 0 0.022169605699242836 0.021632658929671686 0 0.022605724632208297 0.01980652986806615 0 0.021548834273336225 0.022555611796158531 0 0.021082170055350475 0.020904705546841519 0 0.022599851227792133 0.019692675099836212 0 0.019311450093175201 0.020126168138114069 0 0.020316713080673121 0.021894923689613117 0 0.021082170055350475 0.020904705546841519 0 0.019311450093175201 0.020126168138114069 0 0.021082170055350475 0.020904705546841519 0 0.021409554460889955 0.020047717383916561 0 0.021082170055350475 0.020904705546841519 0 0.021409554460889955 0.020047717383916561 0 0.022599851227792133 0.019692675099836212 0 0.019311450093175201 0.020126168138114069 0 0.021409554460889955 0.020047717383916561 0 0.021221544984708053 0.019272547450052479 0 0.018856453764182681 0.020753578175594853 0 0.021221544984708053 0.019272547450052479 0 0.019841550059919413 0.017925643692549946 0 0.019642388805523648 0.020209055478896464 0 0.020805984706778941 0.019506942839448389 0 0.021409554460889955 0.020047717383916561 0 0.021221544984708053 0.019272547450052479 0 0.022599851227792133 0.019692675099836212 0 0.021221544984708053 0.019272547450052479 0 0.022277584579138521 0.018965002598652799 0 0.021490348087287836 0.018133811981743509 0 0.021221544984708053 0.019272547450052479 0 0.019841550059919413 0.017925643692549946 0 0.021490348087287836 0.018133811981743509 0 0.021221544984708053 0.019272547450052479 0 0.022599851227792133 0.019692675099836212 0 0.022277584579138521 0.018965002598652799 0 0.023204530505960948 0.019609648990651648 0 0.022599851227792133 0.019692675099836212 0 0.022277584579138521 0.018965002598652799 0 0.022277584579138521 0.018965002598652799 0 0.022576824565189304 0.018045403327197566 0 0.021490348087287836 0.018133811981743509 0 0.023204530505960948 0.019609648990651648 0 0.022277584579138521 0.018965002598652799 0 0.022576824565189304 0.018045403327197566 0 0.023492410430231397 0.016563404042567578 0 0.022576824565189304 0.018045403327197566 0 0.021192538525051596 0.016794325633663253 0 0.023595469902632334 0.018691872290007339 0 0.024815354005079945 0.016743297686003043 0 0.023204530505960948 0.019609648990651648 0 0.023492410430231397 0.016563404042567578 0 0.022576824565189304 0.018045403327197566 0 0.022576824565189304 0.018045403327197566 0 0.021490348087287836 0.018133811981743509 0 0.021192538525051596 0.016794325633663253 0 0.019841550059919413 0.017925643692549946 0 0.021490348087287836 0.018133811981743509 0 0.021192538525051596 0.016794325633663253 0 0.019841550059919413 0.017925643692549946 0 0.021192538525051596 0.016794325633663253 0 0.020075682577486161 0.016165214665847933 0 0.019841550059919413 0.017925643692549946 0 0.017749534556804471 0.016437925699180102 0 0.017537010143658632 0.018772958762104917 0 0.019841550059919413 0.017925643692549946 0 0.017749534556804471 0.016437925699180102 0 0.020075682577486161 0.016165214665847933 0 0.018856453764182681 0.020753578175594853 0 0.019841550059919413 0.017925643692549946 0 0.017537010143658632 0.018772958762104917 0 0.018856453764182681 0.020753578175594853 0 0.015917923983224062 0.02003443633876309 0 0.017537010143658632 0.018772958762104917 0 0.015917923983224062 0.02003443633876309 0 0.01500210852267511 0.018788641464443732 0 0.014143540369498062 0.021956168624610018 0 0.015917923983224062 0.02003443633876309 0 0.017537010143658632 0.018772958762104917 0 0.01500210852267511 0.018788641464443732 0 0.016012913105561084 0.018000252515347943 0 0.012851361737219786 0.021230779535199647 0 0.013902586251525042 0.020183138761019979 0 0.0099020813899218969 0.020516313047978001 0 0.010887183027818478 0.023473999215076823 0 0.017749534556804471 0.016437925699180102 0 0.017537010143658632 0.018772958762104917 0 0.01500210852267511 0.018788641464443732 0 0.013902586251525042 0.020183138761019979 0 0.0099020813899218969 0.020516313047978001 0 0.013406096312435573 0.018690804149286918 0 0.0088137748596381574 0.024194225099058025 0 0.006974420442845298 0.024411145483917488 0 0.0049870768223859614 0.026701739411580685 0 0.0047924345156063596 0.026639580490419111 0 0.0047302930874804508 0.026813390259423822 0 0.0088137748596381574 0.024194225099058025 0 0.0050908702294392106 0.025623906077194752 0 0.0047302930874804508 0.026813390259423822 0 0.0045029619210457715 0.02692378612101377 0 0.0046019858838131722 0.026581976278228069 0 0.0047924345156063596 0.026639580490419111 0 0.0047302930874804508 0.026813390259423822 0 0.0046019858838131722 0.026581976278228069 0 0.007860690404847508 0.02320466490175525 0 0.006099397518967346 0.024111854545992004 0 0.0063492656284346296 0.025393755030045453 0 0.006099397518967346 0.024111854545992004 0 0.005324374819700395 0.025267531820329019 0 0.0042785552438439093 0.025061923515373844 0 0.0050908702294392106 0.025623906077194752 0 0.0041070868716352096 0.026298362648678925 0 0.006099397518967346 0.024111854545992004 0 0.005324374819700395 0.025267531820329019 0 0.0063492656284346296 0.025393755030045453 0 0.005324374819700395 0.025267531820329019 0 0.0063492656284346296 0.025393755030045453 0 0.0054759981786065741 0.025976402355182181 0 0.0054759981786065741 0.025976402355182181 0 0.0050003307686265147 0.026443911725154815 0 0.0049817956536539788 0.025724819044191386 0 0.005324374819700395 0.025267531820329019 0 0.0054759981786065741 0.025976402355182181 0 0.0049817956536539788 0.025724819044191386 0 0.0073535874700559134 0.024208603660284107 0 0.010887183027818478 0.023473999215076823 0 0.0078859767440894336 0.026710227856042653 0 0.0099020813899218969 0.020516313047978001 0 0.0073535874700559134 0.024208603660284107 0 0.010887183027818478 0.023473999215076823 0 0.012851361737219786 0.021230779535199647 0 0.0096786319521949635 0.02465670117546858 0 0.01500210852267511 0.018788641464443732 0 0.014143540369498062 0.021956168624610018 0 0.011180945007123379 0.022499998892031869 0 0.013441221052553489 0.021468980056379754 0 0.0080171758422584657 0.024230506764189731 0 0.014143540369498062 0.021956168624610018 0 0.011180945007123379 0.022499998892031869 0 0.012119184242234579 0.025501848851192076 0 0.016512181760197087 0.023267845646259343 0 0.014143540369498062 0.021956168624610018 0 0.012119184242234579 0.025501848851192076 0 0.0078859767440894336 0.026710227856042653 0 0.0049915828658286627 0.029704553387831054 0 0.0048972057204720379 0.02780384299683256 0 0.006974420442845298 0.024411145483917488 0 0.0049244635670332142 0.027778680975122216 0 0.0073535874700559134 0.024208603660284107 0 0.0078859767440894336 0.026710227856042653 0 0.0048972057204720379 0.02780384299683256 0 0.0063492656284346296 0.025393755030045453 0 0.0054759981786065741 0.025976402355182181 0 0.0048972057204720379 0.02780384299683256 0 0.0054759981786065741 0.025976402355182181 0 0.0048972057204720379 0.02780384299683256 0 0.0050003307686265147 0.026443911725154815 0 0.0080171758422584657 0.024230506764189731 0 0.0045742698110581648 0.025978395522091274 0 0.011180945007123379 0.022499998892031869 0 0.012119184242234579 0.025501848851192076 0 0.0073316330914102489 0.026661425028521573 0 0.012119184242234579 0.025501848851192076 0 0.0075094940991864041 0.027790163195392917 0 0.0073316330914102489 0.026661425028521573 0 0.0096786319521949635 0.02465670117546858 0 0.005022188449205366 0.027425052737194713 0 0.0045051466098399726 0.022667074485249902 0 0.0029225781207582588 0.02346291054388034 0 0.0043377048187885712 0.024183982627729111 0 0.0021135215483967617 0.026515390040443031 0 0.0021934392847314582 0.026503484750510186 0 0.0020844492017314605 0.026476335064326641 0 0.0021135215483967617 0.026515390040443031 0 0.0020578898311182409 0.026534514058429038 0 0.0020844492017314605 0.026476335064326641 0 0.0020578898311182409 0.026534514058429038 0 0.0020844492017314605 0.026476335064326641 0 0.0019347300749382942 0.026547994040589291 0 0.0021135215483967617 0.026515390040443031 0 0.0020578898311182409 0.026534514058429038 0 0.0021246501004641913 0.026533781656757661 0 0.0020578898311182409 0.026534514058429038 0 0.002050230108247932 0.026569858939956992 0 0.0021246501004641913 0.026533781656757661 0 0.0020578898311182409 0.026534514058429038 0 0.002050230108247932 0.026569858939956992 0 0.0019596775693210039 0.026580340015985568 0 0.002050230108247932 0.026569858939956992 0 0.0021246501004641913 0.026533781656757661 0 0.0021431966932404967 0.026551036369117542 0 0.0021246501004641913 0.026533781656757661 0 0.0021892026142902375 0.026523492553785374 0 0.0021431966932404967 0.026551036369117542 0 0.0021135215483967617 0.026515390040443031 0 0.0021246501004641913 0.026533781656757661 0 0.0021934392847314582 0.026503484750510186 0 0.0021246501004641913 0.026533781656757661 0 0.0021934392847314582 0.026503484750510186 0 0.0021892026142902375 0.026523492553785374 0 0.0021892026142902375 0.026523492553785374 0 0.0022502675993599755 0.026514322344233766 0 0.002237003786544131 0.02651768152791761 0 0.0021934392847314582 0.026503484750510186 0 0.0021892026142902375 0.026523492553785374 0 0.0022502675993599755 0.026514322344233766 0 0.0041556127053237442 0.026806306808916693 0 0.0023585483433557729 0.027123002097082325 0 0.0021934392847314582 0.026503484750510186 0 0.0023321511823086285 0.026493167964944213 0 0.0020844492017314605 0.026476335064326641 0 0.0021934392847314582 0.026503484750510186 0 0.0022736571766957992 0.026507943276511493 0 0.0023321511823086285 0.026493167964944213 0 0.004308203134251779 0.028775035152100864 0 0.0038175831834493376 0.028008431943349874 0 0.0027806032920947407 0.027592281522233631 0 0.0021934392847314582 0.026503484750510186 0 0.0022502675993599755 0.026514322344233766 0 0.0022736571766957992 0.026507943276511493 0 0.0022736571766957992 0.026507943276511493 0 0.0023321511823086285 0.026493167964944213 0 0.0022887835249348607 0.026516884362020522 0 0.004308203134251779 0.028775035152100864 0 0.0045195748133343072 0.028557258520465093 0 0.0038175831834493376 0.028008431943349874 0 0.00427739561657419 0.026259361534050275 0 0.0039202937394843445 0.02601857514208283 0 0.0032468181545634513 0.026766472823711616 0 0.0045742698110581648 0.025978395522091274 0 0.005022188449205366 0.027425052737194713 0 0.0048655958082680362 0.026545520505824736 0 0.0050721523374826685 0.02668685881478983 0 0.0049174973134435435 0.026861190216783477 0 0.0045742698110581648 0.025978395522091274 0 0.0041556127053237442 0.026806306808916693 0 0.0041556127053237442 0.026806306808916693 0 0.005022188449205366 0.027425052737194713 0 0.0045195748133343072 0.028557258520465093 0 0.0038175831834493376 0.028008431943349874 0 0.0040377728146748946 0.027698424532517415 0 0.0045195748133343072 0.028557258520465093 0 0.0040377728146748946 0.027698424532517415 0 0.0044179948056243508 0.027283099144284693 0 0.005022188449205366 0.027425052737194713 0 0.0045767711782913317 0.027519688976112063 0 0.0049915828658286627 0.029704553387831054 0 0.0048972057204720379 0.02780384299683256 0 0.0046265377908015657 0.027342544058314773 0 0.0034934086035342806 0.02745092768367239 0 0.0034229059066222252 0.026735592590903173 0 0.0038365220390158264 0.026183812221168272 0 0.0035655262481295831 0.02708271954677963 0 0.0041070868716352096 0.026298362648678925 0 0.0038175831834493376 0.028008431943349874 0 0.0034934086035342806 0.02745092768367239 0 0.0027806032920947407 0.027592281522233631 0 0.0034934086035342806 0.02745092768367239 0 0.0040596002448104818 0.027051401805761297 0 0.0042919668925820182 0.025673448681820005 0 0.0038175831834493376 0.028008431943349874 0 0.0034934086035342806 0.02745092768367239 0 0.0040377728146748946 0.027698424532517415 0 0.0034934086035342806 0.02745092768367239 0 0.0040596002448104818 0.027051401805761297 0 0.0040377728146748946 0.027698424532517415 0 0.0048972057204720379 0.02780384299683256 0 0.0046265377908015657 0.027342544058314773 0 0.0050003307686265147 0.026443911725154815 0 0.0040596002448104818 0.027051401805761297 0 0.0040377728146748946 0.027698424532517415 0 0.0044179948056243508 0.027283099144284693 0 0.0045767711782913317 0.027519688976112063 0 0.0043009027304807485 0.025823985962197721 0 0.0040596002448104818 0.027051401805761297 0 0.0044179948056243508 0.027283099144284693 0 0.0042919668925820182 0.025673448681820005 0 0.0046265377908015657 0.027342544058314773 0 0.0050003307686265147 0.026443911725154815 0 0.0042919668925820182 0.025673448681820005 0 0.0034934086035342806 0.02745092768367239 0 0.0031941480899034635 0.027022104114676034 0 0.0034229059066222252 0.026735592590903173 0 0.0028508839430546064 0.02709519976237958 0 0.0029498361271138077 0.026866046274941897 0 0.0031941480899034635 0.027022104114676034 0 0.0030151516078821272 0.026597113885627185 0 0.0034229059066222252 0.026735592590903173 0 0.0031941480899034635 0.027022104114676034 0 0.0027991234943246356 0.027212330389283928 0 0.0030151516078821272 0.026597113885627185 0 0.0027991234943246356 0.027212330389283928 0 0.0027237719811696939 0.027034014241580768 0 0.0028229659621817242 0.026978175990087574 0 0.0027806032920947407 0.027592281522233631 0 0.0027991234943246356 0.027212330389283928 0 0.00219880463002552 0.027084326817785376 0 0.0031941480899034635 0.027022104114676034 0 0.0030587485711796583 0.027323431050251801 0 0.0027991234943246356 0.027212330389283928 0 0.0034934086035342806 0.02745092768367239 0 0.0030587485711796583 0.027323431050251801 0 0.0027806032920947407 0.027592281522233631 0 0.0034934086035342806 0.02745092768367239 0 0.0031941480899034635 0.027022104114676034 0 0.0030587485711796583 0.027323431050251801 0 0.0030587485711796583 0.027323431050251801 0 0.0027806032920947407 0.027592281522233631 0 0.0027991234943246356 0.027212330389283928 0 0.0027991234943246356 0.027212330389283928 0 0.0027237719811696939 0.027034014241580768 0 0.0024573104979111753 0.02697384914560709 0 0.0029498361271138077 0.026866046274941897 0 0.0030654829187040031 0.026575240964302076 0 0.0027639177352812398 0.026984077170934269 0 0.0028546427772333446 0.026597599516739973 0 0.0026693736461384722 0.02673927378542304 0 0.0026565385607439387 0.026898663472035879 0 0.0025778085948173724 0.026821223305399034 0 0.0024573104979111753 0.02697384914560709 0 0.0026565385607439387 0.026898663472035879 0 0.0027237719811696939 0.027034014241580768 0 0.0024573104979111753 0.02697384914560709 0 0.0026565385607439387 0.026898663472035879 0 0.0027237719811696939 0.027034014241580768 0 0.0027639177352812398 0.026984077170934269 0 0.0028352401167435477 0.026933935805439325 0 0.0029498361271138077 0.026866046274941897 0 0.0026565385607439387 0.026898663472035879 0 0.0027639177352812398 0.026984077170934269 0 0.0026693736461384722 0.02673927378542304 0 0.0026565385607439387 0.026898663472035879 0 0.0025778085948173724 0.026821223305399034 0 0.0026693736461384722 0.02673927378542304 0 0.0025778085948173724 0.026821223305399034 0 0.0026693736461384722 0.02673927378542304 0 0.0024246656148873996 0.026693830850930259 0 0.0034934086035342806 0.02745092768367239 0 0.0042919668925820182 0.025673448681820005 0 0.0042785552438439093 0.025061923515373844 0 0.0032005425653528585 0.026740739703762218 0 0.0033220862908840279 0.026677651353860989 0 0.0032615063566279658 0.026550638520699426 0 0.0049817956536539788 0.025724819044191386 0 0.0047200907255805788 0.025430150361369308 0 0.0042919668925820182 0.025673448681820005 0 0.005324374819700395 0.025267531820329019 0 0.0049817956536539788 0.025724819044191386 0 0.0047200907255805788 0.025430150361369308 0 0.0050003307686265147 0.026443911725154815 0 0.0049817956536539788 0.025724819044191386 0 0.0042919668925820182 0.025673448681820005 0 0.0047200907255805788 0.025430150361369308 0 0.0042919668925820182 0.025673448681820005 0 0.0042785552438439093 0.025061923515373844 0 0.0030151516078821272 0.026597113885627185 0 0.0034229059066222252 0.026735592590903173 0 0.0038365220390158264 0.026183812221168272 0 0.0029498361271138077 0.026866046274941897 0 0.0041070868716352096 0.026298362648678925 0 0.005324374819700395 0.025267531820329019 0 0.0047200907255805788 0.025430150361369308 0 0.0042785552438439093 0.025061923515373844 0 0.0041070868716352096 0.026298362648678925 0 0.0039531842490081182 0.026630881578705724 0 0.0033220862908840279 0.026677651353860989 0 0.0032615063566279658 0.026550638520699426 0 0.0033874767607539762 0.026458756033122099 0 0.0026693736461384722 0.02673927378542304 0 0.0025927751801321274 0.026549722326342139 0 0.0024246656148873996 0.026693830850930259 0 0.0028546427772333446 0.026597599516739973 0 0.0026693736461384722 0.02673927378542304 0 0.0025927751801321274 0.026549722326342139 0 0.0028546427772333446 0.026597599516739973 0 0.0025927751801321274 0.026549722326342139 0 0.0027064425639040882 0.026414348275874685 0 0.0025927751801321274 0.026549722326342139 0 0.0024246656148873996 0.026693830850930259 0 0.0023121940034195143 0.026524244905597322 0 0.0024246656148873996 0.026693830850930259 0 0.0021571742399584355 0.026603509463996235 0 0.0023121940034195143 0.026524244905597322 0 0.0024246656148873996 0.026693830850930259 0 0.0021571742399584355 0.026603509463996235 0 0.002086557101149281 0.026739574277554554 0 0.0023121940034195143 0.026524244905597322 0 0.0020591156879320215 0.026498589058330361 0 0.0021727109236260754 0.026397003500647533 0 0.0021571742399584355 0.026603509463996235 0 0.0023121940034195143 0.026524244905597322 0 0.0020591156879320215 0.026498589058330361 0 0.0020591156879320215 0.026498589058330361 0 0.0019074358585711442 0.026455290033190179 0 0.0019991168775370938 0.026406549739139615 0 0.0020591156879320215 0.026498589058330361 0 0.0019074358585711442 0.026455290033190179 0 0.0019130499471063844 0.026569789872862969 0 0.0019074358585711442 0.026455290033190179 0 0.0019130499471063844 0.026569789872862969 0 0.0017291811771159118 0.026473631780714036 0 0.0021571742399584355 0.026603509463996235 0 0.0020591156879320215 0.026498589058330361 0 0.0019130499471063844 0.026569789872862969 0 0.0021571742399584355 0.026603509463996235 0 0.0019130499471063844 0.026569789872862969 0 0.002086557101149281 0.026739574277554554 0 0.0017418111268932958 0.026627577310274118 0 0.0018116028098707673 0.026545268642248994 0 0.0017118161777753939 0.026625835264500901 0 0.002086557101149281 0.026739574277554554 0 0.0017418111268932958 0.026627577310274118 0 0.00219880463002552 0.027084326817785376 0 0.00176257687683571 0.02664728667926624 0 0.0020324465305364206 0.026811593371086302 0 0.0019130499471063844 0.026569789872862969 0 0.002086557101149281 0.026739574277554554 0 0.0017418111268932958 0.026627577310274118 0 0.002086557101149281 0.026739574277554554 0 0.0024573104979111753 0.02697384914560709 0 0.00219880463002552 0.027084326817785376 0 0.0025778085948173724 0.026821223305399034 0 0.0024246656148873996 0.026693830850930259 0 0.0024573104979111753 0.02697384914560709 0 0.0024246656148873996 0.026693830850930259 0 0.002086557101149281 0.026739574277554554 0 0.0024573104979111753 0.02697384914560709 0 0.0010693852577065468 0.026560021555523457 0 0.0010270628788156047 0.02667872415296936 0 0.0010950484840689455 0.026662132052865085 0 0.00096239529559438957 0.026633465786538683 0 0.0010693852577065468 0.026560021555523457 0 0.0010950484840689455 0.026662132052865085 0 0.00096239529559438957 0.026633465786538683 0 0.0010693852577065468 0.026560021555523457 0 0.00077865800613950134 0.026592324885984595 0 0.0010693852577065468 0.026560021555523457 0 0.0010270628788156047 0.02667872415296936 0 0.0010078200098236761 0.026720325652810677 0 0.0019130499471063844 0.026569789872862969 0 0.0017291811771159118 0.026473631780714036 0 0.0017418111268932958 0.026627577310274118 0 0.001380110604957342 0.026591839321485615 0 0.0012313382645629926 0.026721369232000729 0 0.0017291811771159118 0.026473631780714036 0 0.0015970369446850902 0.026655294696207324 0 0.0012351806741531936 0.026702902137287706 0 0.0017291811771159118 0.026473631780714036 0 0.0017418111268932958 0.026627577310274118 0 0.0015970369446850902 0.026655294696207324 0 0.0017418111268932958 0.026627577310274118 0 0.0015970369446850902 0.026655294696207324 0 0.0017118161777753939 0.026625835264500901 0 0.0010270628788156047 0.02667872415296936 0 0.0010950484840689455 0.026662132052865085 0 0.0012351806741531936 0.026702902137287706 0 0.0010973799420547726 0.02672176255527758 0 0.0010950484840689455 0.026662132052865085 0 0.0012351806741531936 0.026702902137287706 0 0.0010973799420547726 0.02672176255527758 0 0.0011469915078002896 0.026811501484481914 0 0.00089747903645182394 0.026725820982018693 0 0.0010973799420547726 0.02672176255527758 0 0.0010950484840689455 0.026662132052865085 0 0.00089747903645182394 0.026725820982018693 0 0.00096239529559438957 0.026633465786538683 0 0.0010950484840689455 0.026662132052865085 0 0.00089747903645182394 0.026725820982018693 0 -0.0084927129388349728 0.026194822126089829 0 -0.0087780025684619858 0.025747917928130575 0 -0.0068854822564705098 0.027192781723177874 0 0.0011469915078002896 0.026811501484481914 0 0.0014109749184006448 0.026768816831296713 0 0.0015864974427723852 0.026770720766987464 0 0.0010973799420547726 0.02672176255527758 0 0.0011469915078002896 0.026811501484481914 0 0.0012351806741531936 0.026702902137287706 0 0.0012351806741531936 0.026702902137287706 0 0.0013085816632842811 0.026758287669616874 0 0.0014517879669777903 0.02672585137624435 0 0.0011469915078002896 0.026811501484481914 0 0.0012351806741531936 0.026702902137287706 0 0.0013085816632842811 0.026758287669616874 0 0.0011469915078002896 0.026811501484481914 0 0.0013085816632842811 0.026758287669616874 0 0.0014109749184006448 0.026768816831296713 0 0.0013085816632842811 0.026758287669616874 0 0.0014109749184006448 0.026768816831296713 0 0.0014517879669777903 0.02672585137624435 0 0.0014109749184006448 0.026768816831296713 0 0.0015150989821817768 0.026728110691941431 0 0.0015778809499892741 0.026736315422781536 0 0.0015150989821817768 0.026728110691941431 0 0.0014517879669777903 0.02672585137624435 0 0.0016189717525417115 0.026684228703820489 0 0.0014109749184006448 0.026768816831296713 0 0.0015150989821817768 0.026728110691941431 0 0.0014517879669777903 0.02672585137624435 0 0.0015970369446850902 0.026655294696207324 0 0.0012351806741531936 0.026702902137287706 0 0.0014517879669777903 0.02672585137624435 0 0.0015970369446850902 0.026655294696207324 0 0.0016189717525417115 0.026684228703820489 0 0.0017118161777753939 0.026625835264500901 0 0.0015970369446850902 0.026655294696207324 0 0.0014517879669777903 0.02672585137624435 0 0.0016189717525417115 0.026684228703820489 0 0.0016189717525417115 0.026684228703820489 0 0.0015778809499892741 0.026736315422781536 0 0.0016717314037133478 0.026694703295448673 0 0.0015150989821817768 0.026728110691941431 0 0.0016189717525417115 0.026684228703820489 0 0.0015778809499892741 0.026736315422781536 0 -0.0092453112868157612 0.025786729854021889 0 -0.0086985368309192412 0.026199055759209215 0 -0.0084927129388349728 0.026194822126089829 0 -0.0068854822564705098 0.027192781723177874 0 -0.0064786876486089542 0.027635110607451531 0 0.0015778809499892741 0.026736315422781536 0 0.0016483771665763553 0.026728645618096278 0 0.0015864974427723852 0.026770720766987464 0 0.0015778809499892741 0.026736315422781536 0 0.0016483771665763553 0.026728645618096278 0 0.0016717314037133478 0.026694703295448673 0 0.0016483771665763553 0.026728645618096278 0 0.0015864974427723852 0.026770720766987464 0 0.0017016868946054624 0.026728679944129276 0 0.0014109749184006448 0.026768816831296713 0 0.0015778809499892741 0.026736315422781536 0 0.0015864974427723852 0.026770720766987464 0 -0.010096673434125462 0.025315435192972975 0 -0.010078804613222114 0.025337583016469132 0 -0.010135330881409345 0.025357602067706427 0 -0.010096673434125462 0.025315435192972975 0 -0.010078804613222114 0.025337583016469132 0 -0.010146827423053888 0.0252470841966549 0 -0.0039444855370068194 0.026191558456198558 0 -0.0021238608272221393 0.027250908321478778 0 -0.010078804613222114 0.025337583016469132 0 -0.010135330881409345 0.025357602067706427 0 -0.010178122583328288 0.025418741989577734 0 -0.010078804613222114 0.025337583016469132 0 -0.0099604126862832352 0.025542004184949757 0 -0.010178122583328288 0.025418741989577734 0 -0.010135330881409345 0.025357602067706427 0 -0.010218641683591437 0.025339166575562573 0 -0.010178122583328288 0.025418741989577734 0 -0.010096673434125462 0.025315435192972975 0 -0.010135330881409345 0.025357602067706427 0 -0.010218641683591437 0.025339166575562573 0 0.0027991234943246356 0.027212330389283928 0 0.0024573104979111753 0.02697384914560709 0 0.00219880463002552 0.027084326817785376 0 0.0023585483433557729 0.027123002097082325 0 0.0020324465305364206 0.026811593371086302 0 0.0020844492017314605 0.026476335064326641 0 0.0018116028098707673 0.026545268642248994 0 0.0019347300749382942 0.026547994040589291 0 0.0018242370721501535 0.0265797583199253 0 0.0018814144501476022 0.026590586250557498 0 0.0019347300749382942 0.026547994040589291 0 0.0018242370721501535 0.0265797583199253 0 0.0018116028098707673 0.026545268642248994 0 0.0019347300749382942 0.026547994040589291 0 0.0018116028098707673 0.026545268642248994 0 0.0017118161777753939 0.026625835264500901 0 0.0017447993059319063 0.026622517349136243 0 0.0018242370721501535 0.0265797583199253 0 0.0018116028098707673 0.026545268642248994 0 0.0017447993059319063 0.026622517349136243 0 0.0016189717525417115 0.026684228703820489 0 0.0017118161777753939 0.026625835264500901 0 0.0017447993059319063 0.026622517349136243 0 0.0016189717525417115 0.026684228703820489 0 0.0017447993059319063 0.026622517349136243 0 0.0016717314037133478 0.026694703295448673 0 0.0018242370721501535 0.0265797583199253 0 0.0017447993059319063 0.026622517349136243 0 0.0017768059799319869 0.026642341930966724 0 0.0017768059799319869 0.026642341930966724 0 0.0016717314037133478 0.026694703295448673 0 0.001711843765584715 0.026697265484404153 0 0.0017447993059319063 0.026622517349136243 0 0.0017768059799319869 0.026642341930966724 0 0.0016717314037133478 0.026694703295448673 0 0.0016483771665763553 0.026728645618096278 0 0.0016717314037133478 0.026694703295448673 0 0.001711843765584715 0.026697265484404153 0 0.0016483771665763553 0.026728645618096278 0 0.001711843765584715 0.026697265484404153 0 0.0017016868946054624 0.026728679944129276 0 0.001711843765584715 0.026697265484404153 0 0.0017633014637367308 0.026689562520097663 0 0.0017016868946054624 0.026728679944129276 0 0.0017768059799319869 0.026642341930966724 0 0.0017633014637367308 0.026689562520097663 0 0.0018679320749547875 0.026633352058450268 0 0.0017768059799319869 0.026642341930966724 0 0.001711843765584715 0.026697265484404153 0 0.0017633014637367308 0.026689562520097663 0 0.0018679320749547875 0.026633352058450268 0 0.0018814144501476022 0.026590586250557498 0 0.0019596775693210039 0.026580340015985568 0 0.0018242370721501535 0.0265797583199253 0 0.0017768059799319869 0.026642341930966724 0 0.0018814144501476022 0.026590586250557498 0 0.0017768059799319869 0.026642341930966724 0 0.0018679320749547875 0.026633352058450268 0 0.0018814144501476022 0.026590586250557498 0 0.0018814144501476022 0.026590586250557498 0 0.0019347300749382942 0.026547994040589291 0 0.0019596775693210039 0.026580340015985568 0 0.0020578898311182409 0.026534514058429038 0 0.0019347300749382942 0.026547994040589291 0 0.0019596775693210039 0.026580340015985568 0 0.002050230108247932 0.026569858939956992 0 0.0019596775693210039 0.026580340015985568 0 0.0019565673252824834 0.026620114274127995 0 0.0018679320749547875 0.026633352058450268 0 0.0019596775693210039 0.026580340015985568 0 0.0019565673252824834 0.026620114274127995 0 0.0019565673252824834 0.026620114274127995 0 0.0019328540529276036 0.026676012593919517 0 0.0020720859116929169 0.026606218417191962 0 0.0019565673252824834 0.026620114274127995 0 0.0019328540529276036 0.026676012593919517 0 0.0018346509510073377 0.026684508809749787 0 0.0019328540529276036 0.026676012593919517 0 0.0018366958575215548 0.026718940178123235 0 0.0018346509510073377 0.026684508809749787 0 0.0018366958575215548 0.026718940178123235 0 0.0018346509510073377 0.026684508809749787 0 0.0017972569967966176 0.026718228208012184 0 0.0017633014637367308 0.026689562520097663 0 0.0018679320749547875 0.026633352058450268 0 0.0018346509510073377 0.026684508809749787 0 0.0018679320749547875 0.026633352058450268 0 0.0019565673252824834 0.026620114274127995 0 0.0018346509510073377 0.026684508809749787 0 -0.0021238608272221393 0.027250908321478778 0 -0.0044060604887374887 0.026956960929815917 0 0.0017633014637367308 0.026689562520097663 0 0.0018346509510073377 0.026684508809749787 0 0.0017556357193904788 0.026720765358592909 0 0.0018346509510073377 0.026684508809749787 0 0.0017556357193904788 0.026720765358592909 0 0.0017972569967966176 0.026718228208012184 0 0.0015864974427723852 0.026770720766987464 0 0.0017016868946054624 0.026728679944129276 0 0.0017657116508339337 0.026743009795193493 0 0.0017556357193904788 0.026720765358592909 0 0.0017016868946054624 0.026728679944129276 0 0.0017657116508339337 0.026743009795193493 0 0.0017633014637367308 0.026689562520097663 0 0.0017556357193904788 0.026720765358592909 0 0.0017016868946054624 0.026728679944129276 0 -0.010317188458275044 0.024748829282441591 0 -0.010146827423053888 0.0252470841966549 0 -0.010158138843159401 0.024849416908677761 0 -0.0044060604887374887 0.026956960929815917 0 -0.0086985368309192412 0.026199055759209215 0 0.0018366958575215548 0.026718940178123235 0 0.0017972569967966176 0.026718228208012184 0 0.0017657116508339337 0.026743009795193493 0 0.0017556357193904788 0.026720765358592909 0 0.0017972569967966176 0.026718228208012184 0 0.0017657116508339337 0.026743009795193493 0 -0.010317188458275044 0.024748829282441591 0 -0.010351447329631723 0.024535816028490628 0 -0.010158138843159401 0.024849416908677761 0 -0.010196538468816858 0.024520695237318445 0 -0.010351447329631723 0.024535816028490628 0 -0.010158138843159401 0.024849416908677761 0 -0.0044060604887374887 0.026956960929815917 0 -0.0048272176043263745 0.025550252645902383 0 -0.010196538468816858 0.024520695237318445 0 -0.010261378575878156 0.02439509012530126 0 -0.010165910482850869 0.024240824582627621 0 -0.010261378575878156 0.02439509012530126 0 -0.010351447329631723 0.024535816028490628 0 -0.0102737857560205 0.024223055895087591 0 -0.010196538468816858 0.024520695237318445 0 -0.010261378575878156 0.02439509012530126 0 -0.010351447329631723 0.024535816028490628 0 -0.0048272176043263745 0.025550252645902383 0 -0.0013793988688560828 0.025637814934877462 0 0.0017324457919934639 0.027487752869425775 0 -0.0013793988688560828 0.025637814934877462 0 0.0018829982070688782 0.026776558262594199 0 0.0018119929890135036 0.02677442629720235 0 0.0018753723591575131 0.026815607482445727 0 0.0018829982070688782 0.026776558262594199 0 0.0019328384431257844 0.027023158855629829 0 0.0021250513029386396 0.026776041874826819 0 0.0019328540529276036 0.026676012593919517 0 0.0018829982070688782 0.026776558262594199 0 0.0020565269156550391 0.026675250081455621 0 0.0018366958575215548 0.026718940178123235 0 0.0017657116508339337 0.026743009795193493 0 0.0018829982070688782 0.026776558262594199 0 0.0017657116508339337 0.026743009795193493 0 0.0018829982070688782 0.026776558262594199 0 0.0018119929890135036 0.02677442629720235 0 0.0019328540529276036 0.026676012593919517 0 0.0018366958575215548 0.026718940178123235 0 0.0018829982070688782 0.026776558262594199 0 -0.010078804613222114 0.025337583016469132 0 -0.010052226002838935 0.025097798966761446 0 -0.0099604126862832352 0.025542004184949757 0 -0.010052226002838935 0.025097798966761446 0 -0.0099619079254082456 0.024798881268451822 0 -0.0099604126862832352 0.025542004184949757 0 -0.010078804613222114 0.025337583016469132 0 -0.010052226002838935 0.025097798966761446 0 -0.010089336970011298 0.025221083982365174 0 -0.010078804613222114 0.025337583016469132 0 -0.010089336970011298 0.025221083982365174 0 -0.010146827423053888 0.0252470841966549 0 -0.0068854822564705098 0.027192781723177874 0 -0.0050518223402850589 0.028657278407928904 0 -0.0064786876486089542 0.027635110607451531 0 -0.010052226002838935 0.025097798966761446 0 -0.010102874316109307 0.025106695052241314 0 -0.010089336970011298 0.025221083982365174 0 -0.010052226002838935 0.025097798966761446 0 -0.010102874316109307 0.025106695052241314 0 -0.010158138843159401 0.024849416908677761 0 -0.010102874316109307 0.025106695052241314 0 -0.010089336970011298 0.025221083982365174 0 -0.010146827423053888 0.0252470841966549 0 -0.010102874316109307 0.025106695052241314 0 -0.010146827423053888 0.0252470841966549 0 -0.010158138843159401 0.024849416908677761 0 -0.010196538468816858 0.024520695237318445 0 -0.010158138843159401 0.024849416908677761 0 -0.010084723425220366 0.024594238052778484 0 -0.010196538468816858 0.024520695237318445 0 -0.010084723425220366 0.024594238052778484 0 -0.010125171063128605 0.024394336186741167 0 -0.010052226002838935 0.025097798966761446 0 -0.010158138843159401 0.024849416908677761 0 -0.010084723425220366 0.024594238052778484 0 -0.0099619079254082456 0.024798881268451822 0 -0.0099604126862832352 0.025542004184949757 0 -0.0097135279502138065 0.024508004333998523 0 -0.010052226002838935 0.025097798966761446 0 -0.010084723425220366 0.024594238052778484 0 -0.0099619079254082456 0.024798881268451822 0 -0.010084723425220366 0.024594238052778484 0 -0.0099619079254082456 0.024798881268451822 0 -0.0099176510092589838 0.024332195267694132 0 -0.0099619079254082456 0.024798881268451822 0 -0.0099176510092589838 0.024332195267694132 0 -0.0097135279502138065 0.024508004333998523 0 -0.0099176510092589838 0.024332195267694132 0 -0.009623954504339496 0.023929778227942004 0 -0.0097135279502138065 0.024508004333998523 0 -0.0099176510092589838 0.024332195267694132 0 -0.0098818923080125805 0.023882227416232304 0 -0.009623954504339496 0.023929778227942004 0 -0.0099176510092589838 0.024332195267694132 0 -0.010041618841097198 0.024220893521870523 0 -0.0098818923080125805 0.023882227416232304 0 -0.010084723425220366 0.024594238052778484 0 -0.0099176510092589838 0.024332195267694132 0 -0.010041618841097198 0.024220893521870523 0 -0.010084723425220366 0.024594238052778484 0 -0.010125171063128605 0.024394336186741167 0 -0.010041618841097198 0.024220893521870523 0 -0.010125171063128605 0.024394336186741167 0 -0.010041618841097198 0.024220893521870523 0 -0.010165910482850869 0.024240824582627621 0 -0.010041618841097198 0.024220893521870523 0 -0.010165910482850869 0.024240824582627621 0 -0.010059065254103177 0.023876307902422539 0 -0.0099154611310071604 0.023486952087175276 0 -0.0098818923080125805 0.023882227416232304 0 -0.010059065254103177 0.023876307902422539 0 -0.010041618841097198 0.024220893521870523 0 -0.0098818923080125805 0.023882227416232304 0 -0.010059065254103177 0.023876307902422539 0 -0.0099154611310071604 0.023486952087175276 0 -0.0097099505752592536 0.023541351522901426 0 -0.0098818923080125805 0.023882227416232304 0 -0.0097099505752592536 0.023541351522901426 0 -0.0098818923080125805 0.023882227416232304 0 -0.009623954504339496 0.023929778227942004 0 -0.010365481751190479 0.024148000100254148 0 -0.0102737857560205 0.024223055895087591 0 -0.010218176609969942 0.023901435894080177 0 -0.0102737857560205 0.024223055895087591 0 -0.010170000564584699 0.023999463444215146 0 -0.010218176609969942 0.023901435894080177 0 -0.010351447329631723 0.024535816028490628 0 -0.010365481751190479 0.024148000100254148 0 -0.0102737857560205 0.024223055895087591 0 -0.010261378575878156 0.02439509012530126 0 -0.0102737857560205 0.024223055895087591 0 -0.010165910482850869 0.024240824582627621 0 -0.010196538468816858 0.024520695237318445 0 -0.010125171063128605 0.024394336186741167 0 -0.010165910482850869 0.024240824582627621 0 -0.010165910482850869 0.024240824582627621 0 -0.010170000564584699 0.023999463444215146 0 -0.010059065254103177 0.023876307902422539 0 -0.0102737857560205 0.024223055895087591 0 -0.010165910482850869 0.024240824582627621 0 -0.010170000564584699 0.023999463444215146 0 -0.010170000564584699 0.023999463444215146 0 -0.010113509366935999 0.023775800367699062 0 -0.010218176609969942 0.023901435894080177 0 -0.010032578602546655 0.023589389581900506 0 -0.0099154611310071604 0.023486952087175276 0 -0.010059065254103177 0.023876307902422539 0 -0.010170000564584699 0.023999463444215146 0 -0.010059065254103177 0.023876307902422539 0 -0.010113509366935999 0.023775800367699062 0 -0.010032578602546655 0.023589389581900506 0 -0.010059065254103177 0.023876307902422539 0 -0.010113509366935999 0.023775800367699062 0 -0.010102577687900171 0.023613881385264202 0 -0.010113509366935999 0.023775800367699062 0 -0.010218176609969942 0.023901435894080177 0 -0.010365481751190479 0.024148000100254148 0 -0.010218176609969942 0.023901435894080177 0 -0.010231456824682487 0.023749248023979052 0 -0.010102577687900171 0.023613881385264202 0 -0.010218176609969942 0.023901435894080177 0 -0.010231456824682487 0.023749248023979052 0 -0.0013793988688560828 0.025637814934877462 0 -0.0042524559087493722 0.0266805829232157 0 0.0021502034191582479 0.028514301366980608 0 0.0019206431839290305 0.02770377511560175 0 0.002298422306146213 0.02758729045039994 0 0.0016167342885731637 0.026811980160575732 0 0.0019206431839290305 0.02770377511560175 0 0.0020685264569072145 0.027275568606107886 0 0.0019206431839290305 0.02770377511560175 0 0.002298422306146213 0.02758729045039994 0 0.0020685264569072145 0.027275568606107886 0 0.002298422306146213 0.02758729045039994 0 0.0020685264569072145 0.027275568606107886 0 0.0025194436766689714 0.027181868688748698 0 -0.0013793988688560828 0.025637814934877462 0 0.0022734227940709498 0.027931380551309653 0 0.0019328384431257844 0.027023158855629829 0 0.0020685264569072145 0.027275568606107886 0 0.0022807489624938476 0.026936862922881277 0 0.0020685264569072145 0.027275568606107886 0 0.0022807489624938476 0.026936862922881277 0 0.0025194436766689714 0.027181868688748698 0 0.0019328384431257844 0.027023158855629829 0 0.0022807489624938476 0.026936862922881277 0 0.0021250513029386396 0.026776041874826819 0 0.0026945633223635379 0.026836943337110036 0 0.0025194436766689714 0.027181868688748698 0 0.0034030730189657204 0.026983057207842071 0 0.0022807489624938476 0.026936862922881277 0 0.0026945633223635379 0.026836943337110036 0 0.0025194436766689714 0.027181868688748698 0 0.0025194436766689714 0.027181868688748698 0 0.0027159211040395227 0.027743561552524075 0 0.0034030730189657204 0.026983057207842071 0 0.0021502034191582479 0.028514301366980608 0 0.002298422306146213 0.02758729045039994 0 0.0027159211040395227 0.027743561552524075 0 0.002298422306146213 0.02758729045039994 0 0.0025194436766689714 0.027181868688748698 0 0.0027159211040395227 0.027743561552524075 0 0.0033220723253408807 0.028385519911419164 0 0.0027159211040395227 0.027743561552524075 0 0.0034030730189657204 0.026983057207842071 0 0.0033220723253408807 0.028385519911419164 0 0.0047492761986045809 0.027310108646439353 0 0.0034030730189657204 0.026983057207842071 0 0.0033220723253408807 0.028385519911419164 0 0.0050063700673902631 0.028147276693424667 0 0.0047492761986045809 0.027310108646439353 0 0.0055406374123579656 0.027879451715586145 0 0.0050063700673902631 0.028147276693424667 0 0.0047492761986045809 0.027310108646439353 0 0.0055406374123579656 0.027879451715586145 0 0.0057210423078904874 0.027253329552103387 0 0.0047492761986045809 0.027310108646439353 0 0.0056801506705085282 0.026508715487212078 0 0.0047492761986045809 0.027310108646439353 0 0.0044896534727997175 0.025823301551423029 0 0.0047492761986045809 0.027310108646439353 0 0.0034030730189657204 0.026983057207842071 0 0.0044896534727997175 0.025823301551423029 0 0.0026945633223635379 0.026836943337110036 0 0.0034030730189657204 0.026983057207842071 0 0.002809741300817526 0.026641415416058224 0 0.0033776412780408428 0.027055200577606069 0 0.0028554870383547277 0.025684698786016268 0 0.0031800323431495723 0.025186056752019605 0 0.0044896534727997175 0.025823301551423029 0 0.0043377048187885712 0.024183982627729111 0 0.0034030730189657204 0.026983057207842071 0 0.0031800323431495723 0.025186056752019605 0 0.0044896534727997175 0.025823301551423029 0 0.0055026875609666135 0.024950394559686184 0 0.0044896534727997175 0.025823301551423029 0 0.0043377048187885712 0.024183982627729111 0 0.0056801506705085282 0.026508715487212078 0 0.0055026875609666135 0.024950394559686184 0 0.0044896534727997175 0.025823301551423029 0 0.0063879924067657993 0.023755213042383368 0 0.0055026875609666135 0.024950394559686184 0 0.0043377048187885712 0.024183982627729111 0 0.0063879924067657993 0.023755213042383368 0 0.0045051466098399726 0.022667074485249902 0 0.0043377048187885712 0.024183982627729111 0 0.0045742698110581648 0.025978395522091274 0 0.0028554870383547277 0.025684698786016268 0 0.0029225781207582588 0.02346291054388034 0 0.0031800323431495723 0.025186056752019605 0 0.0043377048187885712 0.024183982627729111 0 0.0026105908602928412 0.026333910907954682 0 0.0025076211791424182 0.026519027049257415 0 0.0024215757789580444 0.026428638191810676 0 0.0045742698110581648 0.025978395522091274 0 0.0029662362861679562 0.026792895911639525 0 0.0026105908602928412 0.026333910907954682 0 0.002809741300817526 0.026641415416058224 0 0.0025076211791424182 0.026519027049257415 0 0.0041556127053237442 0.026806306808916693 0 0.0029662362861679562 0.026792895911639525 0 0.0025076211791424182 0.026519027049257415 0 0.0023667333329136712 0.026551578675757994 0 0.0024500037847456279 0.026677147025994909 0 0.0023667333329136712 0.026551578675757994 0 0.0022373749194791975 0.02660933297915296 0 0.0024500037847456279 0.026677147025994909 0 0.0023285195057143326 0.026476683418554543 0 0.0022780427588975439 0.02651279603243388 0 0.0022725158415973748 0.02654327904338653 0 0.0023667333329136712 0.026551578675757994 0 0.0023285195057143326 0.026476683418554543 0 0.0022725158415973748 0.02654327904338653 0 0.0023667333329136712 0.026551578675757994 0 0.0023285195057143326 0.026476683418554543 0 0.0024215757789580444 0.026428638191810676 0 0.0025076211791424182 0.026519027049257415 0 0.0023667333329136712 0.026551578675757994 0 0.0024215757789580444 0.026428638191810676 0 0.0028602685930368414 0.026802504517787432 0 0.0029662362861679562 0.026792895911639525 0 0.0022502675993599755 0.026514322344233766 0 0.0022736571766957992 0.026507943276511493 0 0.0022887835249348607 0.026516884362020522 0 0.0023285195057143326 0.026476683418554543 0 0.0022887835249348607 0.026516884362020522 0 0.0022797367983860102 0.026510365359863997 0 0.0022502675993599755 0.026514322344233766 0 0.0022887835249348607 0.026516884362020522 0 0.0022797367983860102 0.026510365359863997 0 0.0023285195057143326 0.026476683418554543 0 0.0022780427588975439 0.02651279603243388 0 0.0022797367983860102 0.026510365359863997 0 0.0022502675993599755 0.026514322344233766 0 0.0022797367983860102 0.026510365359863997 0 0.002237003786544131 0.02651768152791761 0 0.0021892026142902375 0.026523492553785374 0 0.002237003786544131 0.02651768152791761 0 0.0022262349463224576 0.026527940936773305 0 0.0022780427588975439 0.02651279603243388 0 0.0022797367983860102 0.026510365359863997 0 0.0022262349463224576 0.026527940936773305 0 0.0022797367983860102 0.026510365359863997 0 0.002237003786544131 0.02651768152791761 0 0.0022262349463224576 0.026527940936773305 0 0.0021892026142902375 0.026523492553785374 0 0.0022262349463224576 0.026527940936773305 0 0.0021431966932404967 0.026551036369117542 0 0.0022262349463224576 0.026527940936773305 0 0.0021431966932404967 0.026551036369117542 0 0.002190600449036643 0.02656435198266827 0 0.0022780427588975439 0.02651279603243388 0 0.0022262349463224576 0.026527940936773305 0 0.0022725158415973748 0.02654327904338653 0 0.0022262349463224576 0.026527940936773305 0 0.002190600449036643 0.02656435198266827 0 0.0022725158415973748 0.02654327904338653 0 0.002050230108247932 0.026569858939956992 0 0.0021431966932404967 0.026551036369117542 0 0.0020720859116929169 0.026606218417191962 0 0.002050230108247932 0.026569858939956992 0 0.0019565673252824834 0.026620114274127995 0 0.0020720859116929169 0.026606218417191962 0 0.0021431966932404967 0.026551036369117542 0 0.002190600449036643 0.02656435198266827 0 0.0020720859116929169 0.026606218417191962 0 0.0020720859116929169 0.026606218417191962 0 0.0020565269156550391 0.026675250081455621 0 0.0022373749194791975 0.02660933297915296 0 0.0019328540529276036 0.026676012593919517 0 0.0020720859116929169 0.026606218417191962 0 0.0020565269156550391 0.026675250081455621 0 0.002190600449036643 0.02656435198266827 0 0.0020720859116929169 0.026606218417191962 0 0.0022373749194791975 0.02660933297915296 0 0.002190600449036643 0.02656435198266827 0 0.0022725158415973748 0.02654327904338653 0 0.0022373749194791975 0.02660933297915296 0 0.0023667333329136712 0.026551578675757994 0 0.0022725158415973748 0.02654327904338653 0 0.0022373749194791975 0.02660933297915296 0 0.0022373749194791975 0.02660933297915296 0 0.0021250513029386396 0.026776041874826819 0 0.0024500037847456279 0.026677147025994909 0 0.0018829982070688782 0.026776558262594199 0 0.0020565269156550391 0.026675250081455621 0 0.0021250513029386396 0.026776041874826819 0 0.0020565269156550391 0.026675250081455621 0 0.0022373749194791975 0.02660933297915296 0 0.0021250513029386396 0.026776041874826819 0 0.0022807489624938476 0.026936862922881277 0 0.0021250513029386396 0.026776041874826819 0 0.0024500037847456279 0.026677147025994909 0 0.0022807489624938476 0.026936862922881277 0 0.0026945633223635379 0.026836943337110036 0 0.0024500037847456279 0.026677147025994909 0 0.0026945633223635379 0.026836943337110036 0 0.002809741300817526 0.026641415416058224 0 0.0024500037847456279 0.026677147025994909 0 0.002809741300817526 0.026641415416058224 0 0.0025076211791424182 0.026519027049257415 0 0.0024500037847456279 0.026677147025994909 0 0.035724570053147497 0.0069394502731187609 0 0.035192250086556874 0.0079552032657035227 0 0.034999996820990385 0.0072886898693877182 0 0.035613659251028468 0.0080342140158202874 0 0.034999999745786999 0.0060609592175267357 0 0.035192250086556874 0.0079552032657035227 0 0.035000254139865884 0.0060608484012094959 0 0.036206292180483525 0.0067136746387267496 0 0.035456223157747567 0.007315346976748501 0 0.034999949768544605 0.006060147261123942 0 0.034999996820990385 0.0072886898693877182 0 0.035613659251028468 0.0080342140158202874 0 0.034999998157748152 0.0085164218897361178 0 0.035192250086556874 0.0079552032657035227 0 0.035000231520262742 0.0085160283453142253 0 0.035293815166357261 0.0071566340628203906 0 0.035204779896366313 0.008431103915102137 0 0.036547477066636289 0.0079729636427495493 0 0.034025726064073315 0.0081597915800976882 0 0.035204779896366313 0.008431103915102137 0 0.034619774097573247 0.010060707522683121 0 0.035293815166357261 0.0071566340628203906 0 0.034025726064073315 0.0081597915800976882 0 0.035204779896366313 0.008431103915102137 0 0.036547477066636289 0.0079729636427495493 0 0.03698541645977102 0.0090161479778911001 0 0.035930402718030774 0.0092683048693547546 0 0.035204779896366313 0.008431103915102137 0 0.036547477066636289 0.0079729636427495493 0 0.035930402718030774 0.0092683048693547546 0 0.036547477066636289 0.0079729636427495493 0 0.038095933198319561 0.0084158927248830801 0 0.03698541645977102 0.0090161479778911001 0 0.036547477066636289 0.0079729636427495493 0 0.038095933198319561 0.0084158927248830801 0 0.036982634109075652 0.0070783077371710619 0 0.037124233173510192 -0.0013143195554672614 0 0.036833942991481149 -0.002383499372161947 0 0.036884199561808065 -0.0019315797591736203 0 0.038095933198319561 0.0084158927248830801 0 0.036982634109075652 0.0070783077371710619 0 0.037663400474872953 0.0062486675222564025 0 0.037491569226558059 0.0046808736178839804 0 0.037252804497479017 0.0020356388927806122 0 0.036886180743736889 0.00086701460579821535 0 0.037124233173510192 -0.0013143195554672614 0 0.036833942991481149 -0.002383499372161947 0 0.035724570053147497 0.0069394502731187609 0 0.036747517242697425 0.0061917285241929534 0 0.035293815166357261 0.0071566340628203906 0 0.036547477066636289 0.0079729636427495493 0 0.036982634109075652 0.0070783077371710619 0 0.035293815166357261 0.0071566340628203906 0 0.036982634109075652 0.0070783077371710619 0 0.036855202222979284 0.0061196528532623052 0 0.036982634109075652 0.0070783077371710619 0 0.036855202222979284 0.0061196528532623052 0 0.037663400474872953 0.0062486675222564025 0 0.036877359079785087 0.005438212024849177 0 0.037663400474872953 0.0062486675222564025 0 0.03734828427637199 0.0045920330980136481 0 0.036855202222979284 0.0061196528532623052 0 0.036877359079785087 0.005438212024849177 0 0.037663400474872953 0.0062486675222564025 0 0.036855202222979284 0.0061196528532623052 0 0.036877359079785087 0.005438212024849177 0 0.036306283952947244 0.0060023565236419054 0 0.036833942991481149 -0.002383499372161947 0 0.036989620210869455 -0.0016330716457443771 0 0.036884199561808065 -0.0019315797591736203 0 0.037252804497479017 0.0020356388927806122 0 0.037464030391022196 0.0015795857330044702 0 0.036833942991481149 -0.002383499372161947 0 0.036989620210869455 -0.0016330716457443771 0 0.037620072343925212 -0.0012341736866339748 0 0.036989620210869455 -0.0016330716457443771 0 0.037620072343925212 -0.0012341736866339748 0 0.037128194031256348 -0.00099428788196790274 0 0.036877359079785087 0.005438212024849177 0 0.03734828427637199 0.0045920330980136481 0 0.036294326568506299 0.0051725568193398252 0 0.03734828427637199 0.0045920330980136481 0 0.036294326568506299 0.0051725568193398252 0 0.036561439283389154 0.0038504373569157022 0 0.036294326568506299 0.0051725568193398252 0 0.035804168095295082 0.004445747158555201 0 0.036561439283389154 0.0038504373569157022 0 0.036877359079785087 0.005438212024849177 0 0.036294326568506299 0.0051725568193398252 0 0.036306283952947244 0.0060023565236419054 0 0.036294326568506299 0.0051725568193398252 0 0.036306283952947244 0.0060023565236419054 0 0.034999949768544605 0.006060147261123942 0 0.036206292180483525 0.0067136746387267496 0 0.036306283952947244 0.0060023565236419054 0 0.034999949768544605 0.006060147261123942 0 0.036206292180483525 0.0067136746387267496 0 0.036855202222979284 0.0061196528532623052 0 0.036306283952947244 0.0060023565236419054 0 0.036294326568506299 0.0051725568193398252 0 0.034999949768544605 0.006060147261123942 0 0.035804168095295082 0.004445747158555201 0 0.034999949768544605 0.006060147261123942 0 0.035804168095295082 0.004445747158555201 0 0.034999759525691877 0.0042003905048010222 0 0.035804168095295082 0.004445747158555201 0 0.034999759525691877 0.0042003905048010222 0 0.036038181355443608 0.0028145245525168839 0 0.035804168095295082 0.004445747158555201 0 0.036561439283389154 0.0038504373569157022 0 0.036038181355443608 0.0028145245525168839 0 0.03644506984246635 0.0040307291203059408 0 0.037196992260719812 0.0016781605157177243 0 0.036561439283389154 0.0038504373569157022 0 0.036038181355443608 0.0028145245525168839 0 0.037151713629706803 0.0027339467589953142 0 0.036038181355443608 0.0028145245525168839 0 0.036884344820176641 0.0019978283107754046 0 0.037151713629706803 0.0027339467589953142 0 0.036038181355443608 0.0028145245525168839 0 0.034999816374173792 0.0023391323781945771 0 0.035983412122959475 0.0014750135445672321 0 0.034999759525691877 0.0042003905048010222 0 0.036038181355443608 0.0028145245525168839 0 0.034999816374173792 0.0023391323781945771 0 0.034999816374173792 0.0023391323781945771 0 0.035983412122959475 0.0014750135445672321 0 0.034999859017002588 0.00047828814126275589 0 0.036038181355443608 0.0028145245525168839 0 0.035983412122959475 0.0014750135445672321 0 0.036884344820176641 0.0019978283107754046 0 0.035983412122959475 0.0014750135445672321 0 0.036851526595548766 0.0010271911427416438 0 0.036884344820176641 0.0019978283107754046 0 0.035983412122959475 0.0014750135445672321 0 0.036401507320723815 0.00010524816346160912 0 0.036851526595548766 0.0010271911427416438 0 0.035983412122959475 0.0014750135445672321 0 0.036401507320723815 0.00010524816346160912 0 0.034999859017002588 0.00047828814126275589 0 0.03757060070823337 -0.0003376062641368914 0 0.03754484402673107 0.00035890120607909412 0 0.037263083642139726 -0.00048571141512320464 0 0.0373643871595222 -0.00021014482714130887 0 0.037299009305349067 -0.00016899488561848591 0 0.037901612715922482 -0.00026066994987972224 0 0.037161132498009487 0.00021534250098137155 0 0.037637711405655874 0.0011889887116271448 0 0.037161132498009487 0.00021534250098137155 0 0.037637711405655874 0.0011889887116271448 0 0.036851526595548766 0.0010271911427416438 0 0.036401507320723815 0.00010524816346160912 0 0.037161132498009487 0.00021534250098137155 0 0.036851526595548766 0.0010271911427416438 0 0.03754484402673107 0.00035890120607909412 0 0.037196992260719812 0.0016781605157177243 0 0.037637711405655874 0.0011889887116271448 0 0.036884344820176641 0.0019978283107754046 0 0.037110316506145762 0.002606817489415198 0 0.037637711405655874 0.0011889887116271448 0 0.036851526595548766 0.0010271911427416438 0 0.036884344820176641 0.0019978283107754046 0 0.0373643871595222 -0.00021014482714130887 0 0.037299009305349067 -0.00016899488561848591 0 0.037391718890065657 -0.00037943672727950352 0 0.037299009305349067 -0.00016899488561848591 0 0.037391718890065657 -0.00037943672727950352 0 0.037197207841056838 -0.00052532415901757404 0 0.037391718890065657 -0.00037943672727950352 0 0.037197207841056838 -0.00052532415901757404 0 0.037417374639056984 -0.00069533283310428847 0 0.037391718890065657 -0.00037943672727950352 0 0.037738869027171919 -0.0004691030057554886 0 0.037417374639056984 -0.00069533283310428847 0 0.0373643871595222 -0.00021014482714130887 0 0.037391718890065657 -0.00037943672727950352 0 0.037738869027171919 -0.0004691030057554886 0 0.037134763932146854 0.0021966795558425308 0 0.037196992260719812 0.0016781605157177243 0 0.037464030391022196 0.0015795857330044702 0 0.037196992260719812 0.0016781605157177243 0 0.03734828427637199 0.0045920330980136481 0 0.036561439283389154 0.0038504373569157022 0 0.036969779386884227 0.0030510945507110157 0 0.037620072343925212 -0.0012341736866339748 0 0.037738869027171919 -0.0004691030057554886 0 0.037417374639056984 -0.00069533283310428847 0 0.037197207841056838 -0.00052532415901757404 0 0.037128194031256348 -0.00099428788196790274 0 0.037417374639056984 -0.00069533283310428847 0 0.037620072343925212 -0.0012341736866339748 0 0.037128194031256348 -0.00099428788196790274 0 0.037417374639056984 -0.00069533283310428847 0 0.037197207841056838 -0.00052532415901757404 0 0.037128194031256348 -0.00099428788196790274 0 0.036877990816650115 -0.00078864284326820167 0 0.037128194031256348 -0.00099428788196790274 0 0.036877990816650115 -0.00078864284326820167 0 0.036811655902991451 -0.0014123146487874264 0 0.036877990816650115 -0.00078864284326820167 0 0.036421500145398564 -0.0011855114265700109 0 0.036811655902991451 -0.0014123146487874264 0 0.036534393966636276 -0.00066682962462578726 0 0.035637200264370512 -0.00086945466601165498 0 0.036421500145398564 -0.0011855114265700109 0 0.036877990816650115 -0.00078864284326820167 0 0.036534393966636276 -0.00066682962462578726 0 0.036421500145398564 -0.0011855114265700109 0 0.036877990816650115 -0.00078864284326820167 0 0.036534393966636276 -0.00066682962462578726 0 0.036997000560263803 -0.0003787815871806173 0 0.036534393966636276 -0.00066682962462578726 0 0.036554774410554242 -0.00037128872871078616 0 0.036997000560263803 -0.0003787815871806173 0 0.037197207841056838 -0.00052532415901757404 0 0.036877990816650115 -0.00078864284326820167 0 0.036997000560263803 -0.0003787815871806173 0 0.037299009305349067 -0.00016899488561848591 0 0.037197207841056838 -0.00052532415901757404 0 0.036997000560263803 -0.0003787815871806173 0 0.037299009305349067 -0.00016899488561848591 0 0.036997000560263803 -0.0003787815871806173 0 0.037285810988422874 2.6086033983218336e-05 0 0.036554774410554242 -0.00037128872871078616 0 0.037285810988422874 2.6086033983218336e-05 0 0.036025389723465917 0.00017971612498844634 0 0.036554774410554242 -0.00037128872871078616 0 0.036997000560263803 -0.0003787815871806173 0 0.037285810988422874 2.6086033983218336e-05 0 0.037363722432598612 5.9914682756368324e-05 0 0.037443227060145218 0.00032209947720399193 0 0.037285810988422874 2.6086033983218336e-05 0 0.036616683009904512 0.0013812393972599533 0 0.036025389723465917 0.00017971612498844634 0 0.037285810988422874 2.6086033983218336e-05 0 0.038294280737418279 -0.00057160206859116014 0 0.037596864763359723 -0.00046615037398024676 0 0.037263083642139726 -0.00048571141512320464 0 0.037299009305349067 -0.00016899488561848591 0 0.037596864763359723 -0.00046615037398024676 0 0.037299009305349067 -0.00016899488561848591 0 0.037285810988422874 2.6086033983218336e-05 0 0.037596864763359723 -0.00046615037398024676 0 0.035037652761669057 0.0010162865081908793 0 0.03512094704657371 0.00012747766766963038 0 0.033956784213581614 0.00086447683173016421 0 0.036616683009904512 0.0013812393972599533 0 0.035037652761669057 0.0010162865081908793 0 0.036025389723465917 0.00017971612498844634 0 0.036025389723465917 0.00017971612498844634 0 0.03512094704657371 0.00012747766766963038 0 0.035740216290919301 -0.00075105960402589028 0 0.035037652761669057 0.0010162865081908793 0 0.036025389723465917 0.00017971612498844634 0 0.03512094704657371 0.00012747766766963038 0 0.035492300278733513 -0.00032351423276672853 0 0.034161081507055879 8.7404252910349448e-05 0 0.03512094704657371 0.00012747766766963038 0 0.035740216290919301 -0.00075105960402589028 0 0.034360947170052322 -0.00041841989658952203 0 0.035285324036104432 9.9784051702093323e-05 0 0.034190474565540231 -0.00089207453856110952 0 0.033953200722555657 0.00059033543383274728 0 0.036554774410554242 -0.00037128872871078616 0 0.036025389723465917 0.00017971612498844634 0 0.035740216290919301 -0.00075105960402589028 0 0.036429132292308083 -0.00063309100695029799 0 0.035492300278733513 -0.00032351423276672853 0 0.036534393966636276 -0.00066682962462578726 0 0.036554774410554242 -0.00037128872871078616 0 0.035740216290919301 -0.00075105960402589028 0 0.036534393966636276 -0.00066682962462578726 0 0.035285324036104432 9.9784051702093323e-05 0 0.035637200264370512 -0.00086945466601165498 0 0.035285324036104432 9.9784051702093323e-05 0 0.035637200264370512 -0.00086945466601165498 0 0.034190474565540231 -0.00089207453856110952 0 0.035637200264370512 -0.00086945466601165498 0 0.035453412739020453 -0.0015904652262324472 0 0.034190474565540231 -0.00089207453856110952 0 0.034630103973608793 -0.0021977408189776892 0 0.035453412739020453 -0.0015904652262324472 0 0.034190474565540231 -0.00089207453856110952 0 0.034630103973608793 -0.0021977408189776892 0 0.035745659776532455 -0.0022001724608433837 0 0.035453412739020453 -0.0015904652262324472 0 0.035745659776532455 -0.0022001724608433837 0 0.035453412739020453 -0.0015904652262324472 0 0.036386485800291003 -0.0017725964388425912 0 0.035637200264370512 -0.00086945466601165498 0 0.035453412739020453 -0.0015904652262324472 0 0.036421500145398564 -0.0011855114265700109 0 0.035453412739020453 -0.0015904652262324472 0 0.036421500145398564 -0.0011855114265700109 0 0.036386485800291003 -0.0017725964388425912 0 0.036421500145398564 -0.0011855114265700109 0 0.036811655902991451 -0.0014123146487874264 0 0.036386485800291003 -0.0017725964388425912 0 0.036989620210869455 -0.0016330716457443771 0 0.037128194031256348 -0.00099428788196790274 0 0.036811655902991451 -0.0014123146487874264 0 0.036989620210869455 -0.0016330716457443771 0 0.036811655902991451 -0.0014123146487874264 0 0.036884199561808065 -0.0019315797591736203 0 0.036811655902991451 -0.0014123146487874264 0 0.036884199561808065 -0.0019315797591736203 0 0.036386485800291003 -0.0017725964388425912 0 0.036884199561808065 -0.0019315797591736203 0 0.036386485800291003 -0.0017725964388425912 0 0.03652803859287209 -0.0021054775940234833 0 0.035745659776532455 -0.0022001724608433837 0 0.036386485800291003 -0.0017725964388425912 0 0.03652803859287209 -0.0021054775940234833 0 0.037124233173510192 -0.0013143195554672614 0 0.036884199561808065 -0.0019315797591736203 0 0.036844051721407256 -0.0018113727091759015 0 0.036884199561808065 -0.0019315797591736203 0 0.03652803859287209 -0.0021054775940234833 0 0.036844051721407256 -0.0018113727091759015 0 0.03652803859287209 -0.0021054775940234833 0 0.036844051721407256 -0.0018113727091759015 0 0.036754796211829997 -0.0020868916584093188 0 0.037124233173510192 -0.0013143195554672614 0 0.036844051721407256 -0.0018113727091759015 0 0.036754796211829997 -0.0020868916584093188 0 0.037098366672957031 -0.0012948463652129054 0 0.037414898832443776 -7.1546815379261176e-05 0 0.036754796211829997 -0.0020868916584093188 0 0.036373131824134187 -0.0025880036251381385 0 0.037030524072200838 -0.0029069006337021715 0 0.036886180743736889 0.00086701460579821535 0 0.037124233173510192 -0.0013143195554672614 0 0.03788184693291495 0.0029256012398861794 0 0.037124233173510192 -0.0013143195554672614 0 0.036754796211829997 -0.0020868916584093188 0 0.037030524072200838 -0.0029069006337021715 0 0.03652803859287209 -0.0021054775940234833 0 0.036754796211829997 -0.0020868916584093188 0 0.036373131824134187 -0.0025880036251381385 0 0.03652803859287209 -0.0021054775940234833 0 0.036373131824134187 -0.0025880036251381385 0 0.035501036976531522 -0.0023215096317018677 0 0.036373131824134187 -0.0025880036251381385 0 0.035501036976531522 -0.0023215096317018677 0 0.035927881941224815 -0.0031505131145413744 0 0.035393741819823979 -0.0036017647884668126 0 0.033982317703376015 -0.0031701719131584571 0 0.033988110006127677 -0.004776910263297727 0 0.035421855308837603 -0.0029637931889511201 0 0.034103191761910595 -0.0038620831017455101 0 0.034630103973608793 -0.0021977408189776892 0 0.035393741819823979 -0.0036017647884668126 0 0.033982317703376015 -0.0031701719131584571 0 0.034630103973608793 -0.0021977408189776892 0 0.035745659776532455 -0.0022001724608433837 0 0.035393741819823979 -0.0036017647884668126 0 0.036441274025682188 -0.0021952089540237716 0 0.035421855308837603 -0.0029637931889511201 0 0.035745659776532455 -0.0022001724608433837 0 0.03652803859287209 -0.0021054775940234833 0 0.035393741819823979 -0.0036017647884668126 0 0.032644610654172075 -0.0033561329597366117 0 0.033982317703376015 -0.0031701719131584571 0 0.03323626195065417 -0.0020529121467261408 0 0.032644610654172075 -0.0033561329597366117 0 0.033982317703376015 -0.0031701719131584571 0 0.033988110006127677 -0.004776910263297727 0 0.032644610654172075 -0.0033561329597366117 0 0.032029083928752811 -0.0046187176945661646 0 0.033988110006127677 -0.004776910263297727 0 0.032644610654172075 -0.0033561329597366117 0 0.032029083928752811 -0.0046187176945661646 0 0.031443808948968907 -0.0033570545814159596 0 0.032029083928752811 -0.0046187176945661646 0 0.031443808948968907 -0.0033570545814159596 0 0.030196513592285128 -0.0041287101975678317 0 0.031443808948968907 -0.0033570545814159596 0 0.030553118794355669 -0.0026256268697216778 0 0.030196513592285128 -0.0041287101975678317 0 0.031443808948968907 -0.0033570545814159596 0 0.031779225531097334 -0.0022400583412578272 0 0.030553118794355669 -0.0026256268697216778 0 0.030317425959478485 -0.0026382228578186056 0 0.030208217187982726 -0.0040445867305207378 0 0.032644610654172075 -0.0033561329597366117 0 0.031443808948968907 -0.0033570545814159596 0 0.031779225531097334 -0.0022400583412578272 0 0.031779225531097334 -0.0022400583412578272 0 0.030553118794355669 -0.0026256268697216778 0 0.030787633058571635 -0.0013479827030375097 0 0.030317425959478485 -0.0026382228578186056 0 0.030444828191227902 -0.0013100178698633785 0 0.031779225531097334 -0.0022400583412578272 0 0.030787633058571635 -0.0013479827030375097 0 0.03225510029495296 -0.00088740647955746826 0 0.031779225531097334 -0.0022400583412578272 0 0.03323626195065417 -0.0020529121467261408 0 0.03225510029495296 -0.00088740647955746826 0 0.03323626195065417 -0.0020529121467261408 0 0.034190474565540231 -0.00089207453856110952 0 0.03225510029495296 -0.00088740647955746826 0 0.032644610654172075 -0.0033561329597366117 0 0.031779225531097334 -0.0022400583412578272 0 0.03323626195065417 -0.0020529121467261408 0 0.034630103973608793 -0.0021977408189776892 0 0.033982317703376015 -0.0031701719131584571 0 0.03323626195065417 -0.0020529121467261408 0 0.034630103973608793 -0.0021977408189776892 0 0.03323626195065417 -0.0020529121467261408 0 0.034190474565540231 -0.00089207453856110952 0 0.034190474565540231 -0.00089207453856110952 0 0.032921788637317602 3.2823149181520822e-05 0 0.03225510029495296 -0.00088740647955746826 0 0.032921788637317602 3.2823149181520822e-05 0 0.032592470267902685 0.00094312854363931087 0 0.031709104486499849 0.00038564186048962399 0 0.032921788637317602 3.2823149181520822e-05 0 0.033953200722555657 0.00059033543383274728 0 0.032592470267902685 0.00094312854363931087 0 0.034190474565540231 -0.00089207453856110952 0 0.032921788637317602 3.2823149181520822e-05 0 0.033953200722555657 0.00059033543383274728 0 0.034360947170052322 -0.00041841989658952203 0 0.03295266086877522 0.00013512721240012729 0 0.033956784213581614 0.00086447683173016421 0 0.03512094704657371 0.00012747766766963038 0 0.034360947170052322 -0.00041841989658952203 0 0.033956784213581614 0.00086447683173016421 0 0.034161081507055879 8.7404252910349448e-05 0 0.032774877111693718 0.0005495037729503834 0 0.03295266086877522 0.00013512721240012729 0 0.033956784213581614 0.00086447683173016421 0 0.03258618625904583 0.0012455692217160409 0 0.033217160469895951 0.0019562816842272658 0 0.033956784213581614 0.00086447683173016421 0 0.03258618625904583 0.0012455692217160409 0 0.034384486311493559 0.0016151504741043485 0 0.033217160469895951 0.0019562816842272658 0 0.033956784213581614 0.00086447683173016421 0 0.034384486311493559 0.0016151504741043485 0 0.035037652761669057 0.0010162865081908793 0 0.033956784213581614 0.00086447683173016421 0 0.031541017015912089 0.0011724187330345009 0 0.029542793055934279 0.00021278088607197811 0 0.03145871404863973 0.0018145687206460215 0 0.030826273500993432 0.00093292849867531217 0 0.03136593446222901 0.0010942250947255166 0 0.03145871404863973 0.0018145687206460215 0 0.030826273500993432 0.00093292849867531217 0 0.029639735033843078 0.001470681542939897 0 0.03145871404863973 0.0018145687206460215 0 0.03258618625904583 0.0012455692217160409 0 0.03136593446222901 0.0010942250947255166 0 0.033217160469895951 0.0019562816842272658 0 0.03145871404863973 0.0018145687206460215 0 0.03258618625904583 0.0012455692217160409 0 0.032592470267902685 0.00094312854363931087 0 0.03136593446222901 0.0010942250947255166 0 0.031709104486499849 0.00038564186048962399 0 0.03295266086877522 0.00013512721240012729 0 0.03258618625904583 0.0012455692217160409 0 0.03136593446222901 0.0010942250947255166 0 0.032774877111693718 0.0005495037729503834 0 0.031499497697900565 0.0010325946318208749 0 0.030826273500993432 0.00093292849867531217 0 0.03136593446222901 0.0010942250947255166 0 0.031709104486499849 0.00038564186048962399 0 0.030826273500993432 0.00093292849867531217 0 0.030300251783808994 -0.00013812293627142149 0 0.029771935450298801 0.0003417587366728101 0 0.030826273500993432 0.00093292849867531217 0 0.030902726089116428 -0.00016573778360415864 0 0.031709104486499849 0.00038564186048962399 0 0.030787750543067201 0.00089645023601214562 0 0.030613643694509255 -0.00011946947093537427 0 0.032921788637317602 3.2823149181520822e-05 0 0.031709104486499849 0.00038564186048962399 0 0.03225510029495296 -0.00088740647955746826 0 0.030902726089116428 -0.00016573778360415864 0 0.031709104486499849 0.00038564186048962399 0 0.03225510029495296 -0.00088740647955746826 0 0.030787633058571635 -0.0013479827030375097 0 0.030902726089116428 -0.00016573778360415864 0 0.03225510029495296 -0.00088740647955746826 0 0.030444828191227902 -0.0013100178698633785 0 0.030613643694509255 -0.00011946947093537427 0 0.030094363646080119 -0.0012602180125752757 0 0.030300251783808994 -0.00013812293627142149 0 0.029400119100053395 -0.00055711292182960106 0 0.029400119100053395 -0.00055711292182960106 0 0.028233888517169747 -0.00067700820981738633 0 0.028796231468648407 0.00025724984747637979 0 0.028233888517169747 -0.00067700820981738633 0 0.028796231468648407 0.00025724984747637979 0 0.027950385675164054 0.00095650436996948555 0 0.030300251783808994 -0.00013812293627142149 0 0.029400119100053395 -0.00055711292182960106 0 0.029771935450298801 0.0003417587366728101 0 0.029400119100053395 -0.00055711292182960106 0 0.028796231468648407 0.00025724984747637979 0 0.029771935450298801 0.0003417587366728101 0 0.030826273500993432 0.00093292849867531217 0 0.029771935450298801 0.0003417587366728101 0 0.029639735033843078 0.001470681542939897 0 0.028796231468648407 0.00025724984747637979 0 0.029771935450298801 0.0003417587366728101 0 0.029639735033843078 0.001470681542939897 0 0.028796231468648407 0.00025724984747637979 0 0.029639735033843078 0.001470681542939897 0 0.027950385675164054 0.00095650436996948555 0 0.02953121151441989 -0.00098682041976309691 0 0.02851554878453481 8.739386192409939e-05 0 0.02696709040589175 -0.0026369107558990297 0 0.029542793055934279 0.00021278088607197811 0 0.027473415565308284 -0.00081601129872417274 0 0.02851554878453481 8.739386192409939e-05 0 0.026989151834210658 -0.00013436796994234721 0 0.02696709040589175 -0.0026369107558990297 0 0.028476056623756959 0.001528118163958104 0 0.02851554878453481 8.739386192409939e-05 0 0.026989151834210658 -0.00013436796994234721 0 0.030090842329416036 0.00082819464846981775 0 0.02953121151441989 -0.00098682041976309691 0 0.02851554878453481 8.739386192409939e-05 0 0.030090842329416036 0.00082819464846981775 0 0.03168449334475032 0.00056473229941546288 0 0.02953121151441989 -0.00098682041976309691 0 0.023707501008892642 -0.00059115850632039061 0 0.025231048350502352 -0.00052504091475611466 0 0.026017943880658007 0.0004788089614153925 0 0.024039468905162613 -0.003336531870317344 0 0.024919648117131765 -0.00046919825753984214 0 0.022465947636230655 -0.00084350828005738091 0 0.024794826504006072 -0.00045434767384804607 0 0.024115249522071128 -0.0013612306635479856 0 0.030901092226348004 -0.0086338363077973247 0 0.030252499496631075 -0.0094555775932670377 0 0.031392675277044667 -0.0090077387560488394 0 0.026344075069652747 -0.0076594646014058899 0 0.028939531692149148 -0.0039016508170517479 0 0.028476056623756959 0.001528118163958104 0 0.026017943880658007 0.0004788089614153925 0 0.026989151834210658 -0.00013436796994234721 0 0.024794826504006072 -0.00045434767384804607 0 0.026989151834210658 -0.00013436796994234721 0 0.025769234452329291 -0.0013700093956081506 0 0.024919648117131765 -0.00046919825753984214 0 0.026804410139513981 -0.00016806716291491451 0 0.025231048350502352 -0.00052504091475611466 0 0.026017943880658007 0.0004788089614153925 0 0.026989151834210658 -0.00013436796994234721 0 0.026989151834210658 -0.00013436796994234721 0 0.025769234452329291 -0.0013700093956081506 0 0.02696709040589175 -0.0026369107558990297 0 0.025769234452329291 -0.0013700093956081506 0 0.02696709040589175 -0.0026369107558990297 0 0.02428732553940674 -0.0023441003419320382 0 0.024794826504006072 -0.00045434767384804607 0 0.025769234452329291 -0.0013700093956081506 0 0.024115249522071128 -0.0013612306635479856 0 0.025769234452329291 -0.0013700093956081506 0 0.024115249522071128 -0.0013612306635479856 0 0.02428732553940674 -0.0023441003419320382 0 0.023198441367762744 -0.0017656825730604521 0 0.024115249522071128 -0.0013612306635479856 0 0.02428732553940674 -0.0023441003419320382 0 0.027473415565308284 -0.00081601129872417274 0 0.024840754210033435 -0.0022275668989401426 0 0.02696709040589175 -0.0026369107558990297 0 0.02428732553940674 -0.0023441003419320382 0 0.023889589864424778 -0.0044654881251285508 0 0.027950385675164054 0.00095650436996948555 0 0.026186098090777783 0.000404692507037831 0 0.027124217150844752 -0.00040669586041407288 0 0.028233888517169747 -0.00067700820981738633 0 0.027950385675164054 0.00095650436996948555 0 0.027124217150844752 -0.00040669586041407288 0 0.028233888517169747 -0.00067700820981738633 0 0.027124217150844752 -0.00040669586041407288 0 0.027487482964194645 -0.0010534844450250517 0 0.025911996118676291 -0.00081617734946093303 0 0.026186098090777783 0.000404692507037831 0 0.027124217150844752 -0.00040669586041407288 0 0.025911996118676291 -0.00081617734946093303 0 0.027124217150844752 -0.00040669586041407288 0 0.026707655038109138 -0.0013822221718402933 0 0.027124217150844752 -0.00040669586041407288 0 0.026707655038109138 -0.0013822221718402933 0 0.027487482964194645 -0.0010534844450250517 0 0.026021112110601548 -0.0014441732614826491 0 0.026707655038109138 -0.0013822221718402933 0 0.026272608517936429 -0.0022242754376869804 0 0.026707655038109138 -0.0013822221718402933 0 0.026454676745268045 -0.0017374729799791483 0 0.027928636399341112 -0.0018188602899871602 0 0.025911996118676291 -0.00081617734946093303 0 0.026021112110601548 -0.0014441732614826491 0 0.026707655038109138 -0.0013822221718402933 0 0.0259348316409337 -0.0010583712114540489 0 0.024012481280254905 -0.0021010685675527242 0 0.02479266694724391 -0.0021045068342021023 0 0.025600564637305617 -0.0018642393594239892 0 0.025696698091329111 -0.0029336066003054352 0 0.02554720948573044 -0.00097150647321079457 0 0.025600564637305617 -0.0018642393594239892 0 0.026469755967934709 -0.00211466469164484 0 0.025600564637305617 -0.0018642393594239892 0 0.026469755967934709 -0.00211466469164484 0 0.025696698091329111 -0.0029336066003054352 0 0.026469755967934709 -0.00211466469164484 0 0.027928636399341112 -0.0018188602899871602 0 0.027280336237351859 -0.0031797469949656444 0 0.02554720948573044 -0.00097150647321079457 0 0.026469755967934709 -0.00211466469164484 0 0.027928636399341112 -0.0018188602899871602 0 0.024012481280254905 -0.0021010685675527242 0 0.028633334479680677 -0.0016592355597400627 0 0.028233888517169747 -0.00067700820981738633 0 0.027928636399341112 -0.0018188602899871602 0 0.027487482964194645 -0.0010534844450250517 0 0.026707655038109138 -0.0013822221718402933 0 0.027928636399341112 -0.0018188602899871602 0 0.027487482964194645 -0.0010534844450250517 0 0.029400119100053395 -0.00055711292182960106 0 0.028233888517169747 -0.00067700820981738633 0 0.029090527570783113 -0.0015678393596363725 0 0.028233888517169747 -0.00067700820981738633 0 0.027928636399341112 -0.0018188602899871602 0 0.029090527570783113 -0.0015678393596363725 0 0.030094363646080119 -0.0012602180125752757 0 0.029400119100053395 -0.00055711292182960106 0 0.029090527570783113 -0.0015678393596363725 0 0.03008688295626983 -0.0025500868876407487 0 0.030094363646080119 -0.0012602180125752757 0 0.029090527570783113 -0.0015678393596363725 0 0.03008688295626983 -0.0025500868876407487 0 0.029090527570783113 -0.0015678393596363725 0 0.028869483516788565 -0.0029014219515188931 0 0.027928636399341112 -0.0018188602899871602 0 0.029090527570783113 -0.0015678393596363725 0 0.028869483516788565 -0.0029014219515188931 0 0.028869483516788565 -0.0029014219515188931 0 0.028496819574625298 -0.0042547298385876798 0 0.027280336237351859 -0.0031797469949656444 0 0.027928636399341112 -0.0018188602899871602 0 0.028869483516788565 -0.0029014219515188931 0 0.027280336237351859 -0.0031797469949656444 0 0.03008688295626983 -0.0025500868876407487 0 0.028869483516788565 -0.0029014219515188931 0 0.030196513592285128 -0.0041287101975678317 0 0.030196513592285128 -0.0041287101975678317 0 0.028496819574625298 -0.0042547298385876798 0 0.029423362660691812 -0.0053277798581196608 0 0.028869483516788565 -0.0029014219515188931 0 0.030196513592285128 -0.0041287101975678317 0 0.028496819574625298 -0.0042547298385876798 0 0.028496819574625298 -0.0042547298385876798 0 0.026984521160529962 -0.0046339328947480963 0 0.028069512812738225 -0.0054189717488565027 0 0.028496819574625298 -0.0042547298385876798 0 0.026984521160529962 -0.0046339328947480963 0 0.027280336237351859 -0.0031797469949656444 0 0.026984521160529962 -0.0046339328947480963 0 0.02605163990323928 -0.0039589016081075816 0 0.027280336237351859 -0.0031797469949656444 0 0.026984521160529962 -0.0046339328947480963 0 0.02605163990323928 -0.0039589016081075816 0 0.025563563183929362 -0.0052168317908488221 0 0.024572102283834156 -0.0039444134391642257 0 0.02605163990323928 -0.0039589016081075816 0 0.025563563183929362 -0.0052168317908488221 0 0.024572102283834156 -0.0039444134391642257 0 0.02605163990323928 -0.0039589016081075816 0 0.025696698091329111 -0.0029336066003054352 0 0.026469755967934709 -0.00211466469164484 0 0.025696698091329111 -0.0029336066003054352 0 0.027280336237351859 -0.0031797469949656444 0 0.02605163990323928 -0.0039589016081075816 0 0.025696698091329111 -0.0029336066003054352 0 0.027280336237351859 -0.0031797469949656444 0 0.027266096474396966 -0.0059433771899200455 0 0.029498224026270406 -0.005560177146456801 0 0.02836649523976888 -0.0063038432987500333 0 0.026695029357441193 -0.007073424341758709 0 0.026807735518822009 -0.0058496540682782122 0 0.027832458113704914 -0.0063084987110057248 0 0.024642745771300101 -0.0068475970669520181 0 0.026990997114251493 -0.0065352523400985666 0 0.024425120269684502 -0.0069552592821770631 0 0.026695029357441193 -0.007073424341758709 0 0.025645936019186584 -0.0062687398146764372 0 0.026695029357441193 -0.007073424341758709 0 0.025645936019186584 -0.0062687398146764372 0 0.026807735518822009 -0.0058496540682782122 0 0.025645936019186584 -0.0062687398146764372 0 0.025563563183929362 -0.0052168317908488221 0 0.026807735518822009 -0.0058496540682782122 0 0.026984521160529962 -0.0046339328947480963 0 0.025563563183929362 -0.0052168317908488221 0 0.026807735518822009 -0.0058496540682782122 0 0.024706673699981523 -0.0061507404464008399 0 0.025645936019186584 -0.0062687398146764372 0 0.025563563183929362 -0.0052168317908488221 0 0.026807735518822009 -0.0058496540682782122 0 0.028069512812738225 -0.0054189717488565027 0 0.027832458113704914 -0.0063084987110057248 0 0.026984521160529962 -0.0046339328947480963 0 0.026807735518822009 -0.0058496540682782122 0 0.028069512812738225 -0.0054189717488565027 0 0.028496819574625298 -0.0042547298385876798 0 0.028069512812738225 -0.0054189717488565027 0 0.029423362660691812 -0.0053277798581196608 0 0.028069512812738225 -0.0054189717488565027 0 0.029423362660691812 -0.0053277798581196608 0 0.028748078820615378 -0.0061274494546569493 0 0.028069512812738225 -0.0054189717488565027 0 0.027832458113704914 -0.0063084987110057248 0 0.028748078820615378 -0.0061274494546569493 0 0.029423362660691812 -0.0053277798581196608 0 0.029720434405004503 -0.0062435110979344776 0 0.030846381654941517 -0.0056014534896100766 0 0.030196513592285128 -0.0041287101975678317 0 0.029423362660691812 -0.0053277798581196608 0 0.030846381654941517 -0.0056014534896100766 0 0.029423362660691812 -0.0053277798581196608 0 0.029720434405004503 -0.0062435110979344776 0 0.028748078820615378 -0.0061274494546569493 0 0.029720434405004503 -0.0062435110979344776 0 0.028804635139576755 -0.0070706262440834496 0 0.030747083300591987 -0.0070937896035922487 0 0.029082585495413302 -0.0064352410949379624 0 0.031087881647355407 -0.0054623749707923396 0 0.029720434405004503 -0.0062435110979344776 0 0.028748078820615378 -0.0061274494546569493 0 0.028804635139576755 -0.0070706262440834496 0 0.026695029357441193 -0.007073424341758709 0 0.027832458113704914 -0.0063084987110057248 0 0.028804635139576755 -0.0070706262440834496 0 0.026990997114251493 -0.0065352523400985666 0 0.029082585495413302 -0.0064352410949379624 0 0.027832458113704914 -0.0063084987110057248 0 0.028748078820615378 -0.0061274494546569493 0 0.028804635139576755 -0.0070706262440834496 0 0.029498224026270406 -0.005560177146456801 0 0.029273212068062604 -0.0061914974199126773 0 0.02836649523976888 -0.0063038432987500333 0 0.029498224026270406 -0.005560177146456801 0 0.029273212068062604 -0.0061914974199126773 0 0.029911581375664156 -0.0061238280553554498 0 0.029273212068062604 -0.0061914974199126773 0 0.029911581375664156 -0.0061238280553554498 0 0.029100919715885173 -0.00681764550930787 0 0.029273212068062604 -0.0061914974199126773 0 0.029100919715885173 -0.00681764550930787 0 0.02836649523976888 -0.0063038432987500333 0 0.030014613329473094 -0.005960909360590151 0 0.031087881647355407 -0.0054623749707923396 0 0.029498224026270406 -0.005560177146456801 0 0.029911581375664156 -0.0061238280553554498 0 0.030782309764639741 -0.0056099671902679589 0 0.039214914333675834 0.017759296789686088 0 0.039138414361765697 0.01793686932145688 0 0.039097536622616592 0.01769809591258439 0 0.034096996733801295 0.0054910237167087386 0 0.035040192717185649 0.0055885685376734981 0 0.029911581375664156 -0.0061238280553554498 0 0.031028242302531147 -0.0064827299619185513 0 0.031064527995327038 -0.0057816118170758816 0 0.029911581375664156 -0.0061238280553554498 0 0.029100919715885173 -0.00681764550930787 0 0.031028242302531147 -0.0064827299619185513 0 0.039214914333675834 0.017759296789686088 0 0.039327699115169694 0.017884662828114167 0 0.039413436214562829 0.018091921020101438 0 0.039327699115169694 0.017884662828114167 0 0.039257455207028648 0.017948490116847987 0 0.039328490128348471 0.017892226176824715 0 0.039214914333675834 0.017759296789686088 0 0.039327699115169694 0.017884662828114167 0 0.039257455207028648 0.017948490116847987 0 0.039327699115169694 0.017884662828114167 0 0.03934169899723524 0.017912599562906549 0 0.039328490128348471 0.017892226176824715 0 0.039327699115169694 0.017884662828114167 0 0.039413436214562829 0.018091921020101438 0 0.03934169899723524 0.017912599562906549 0 0.027266096474396966 -0.0059433771899200455 0 0.02836649523976888 -0.0063038432987500333 0 0.026632698451278903 -0.0073471707664805796 0 0.034096996733801295 0.0054910237167087386 0 0.03294401863111112 0.0053832611975936943 0 0.029100919715885173 -0.00681764550930787 0 0.02836649523976888 -0.0063038432987500333 0 0.026632698451278903 -0.0073471707664805796 0 0.038844037551748575 0.01819809942413991 0 0.039413436214562829 0.018091921020101438 0 0.039237733203126991 0.017998863693765622 0 0.024425120269684502 -0.0069552592821770631 0 0.027266096474396966 -0.0059433771899200455 0 0.026632698451278903 -0.0073471707664805796 0 0.038844037551748575 0.01819809942413991 0 0.039237733203126991 0.017998863693765622 0 0.039221714831971795 0.017864877024589915 0 0.039237733203126991 0.017998863693765622 0 0.03934169899723524 0.017912599562906549 0 0.039221714831971795 0.017864877024589915 0 0.039413436214562829 0.018091921020101438 0 0.039237733203126991 0.017998863693765622 0 0.03934169899723524 0.017912599562906549 0 0.03934169899723524 0.017912599562906549 0 0.039328096844758638 0.017842827717789819 0 0.039328490128348471 0.017892226176824715 0 0.03934169899723524 0.017912599562906549 0 0.039328096844758638 0.017842827717789819 0 0.039221714831971795 0.017864877024589915 0 0.039328096844758638 0.017842827717789819 0 0.039221714831971795 0.017864877024589915 0 0.039289380698313996 0.017746667412860392 0 0.039166389596947446 0.017752150384566276 0 0.039221714831971795 0.017864877024589915 0 0.039289380698313996 0.017746667412860392 0 0.039289380698313996 0.017746667412860392 0 0.039385635627470904 0.017772334641213007 0 0.039358648978666415 0.017844049650473266 0 0.039328096844758638 0.017842827717789819 0 0.039289380698313996 0.017746667412860392 0 0.039358648978666415 0.017844049650473266 0 0.039358648978666415 0.017844049650473266 0 0.039328490128348471 0.017892226176824715 0 0.039339323470343524 0.018081009441319556 0 0.039328096844758638 0.017842827717789819 0 0.039358648978666415 0.017844049650473266 0 0.039328490128348471 0.017892226176824715 0 0.039358648978666415 0.017844049650473266 0 0.039487626634604943 0.018058742970079662 0 0.039339323470343524 0.018081009441319556 0 0.039385635627470904 0.017772334641213007 0 0.039358648978666415 0.017844049650473266 0 0.039487626634604943 0.018058742970079662 0 0.039257455207028648 0.017948490116847987 0 0.039328490128348471 0.017892226176824715 0 0.039339323470343524 0.018081009441319556 0 0.039339323470343524 0.018081009441319556 0 0.039200887363789239 0.018432931778477945 0 0.039528614172702252 0.018526477473572504 0 0.039257455207028648 0.017948490116847987 0 0.039339323470343524 0.018081009441319556 0 0.039200887363789239 0.018432931778477945 0 0.039487626634604943 0.018058742970079662 0 0.039339323470343524 0.018081009441319556 0 0.039528614172702252 0.018526477473572504 0 0.039971408628108086 0.01914234521494727 0 0.039528614172702252 0.018526477473572504 0 0.039257959762054095 0.019082011202287859 0 0.039200887363789239 0.018432931778477945 0 0.039528614172702252 0.018526477473572504 0 0.039257959762054095 0.019082011202287859 0 0.039257959762054095 0.019082011202287859 0 0.039523334612367456 0.019559032572847596 0 0.039184569714969551 0.019351363782088134 0 0.039896254561163608 0.020114519618956512 0 0.039598700966840636 0.020162784202023203 0 0.040362691340163091 0.020014142344159349 0 0.039896254561163608 0.020114519618956512 0 0.039971408628108086 0.01914234521494727 0 0.039257959762054095 0.019082011202287859 0 0.039523334612367456 0.019559032572847596 0 0.039200887363789239 0.018432931778477945 0 0.039257959762054095 0.019082011202287859 0 0.03904659534619883 0.019152927362903575 0 0.039257959762054095 0.019082011202287859 0 0.039184569714969551 0.019351363782088134 0 0.03904659534619883 0.019152927362903575 0 0.039184569714969551 0.019351363782088134 0 0.03904659534619883 0.019152927362903575 0 0.039208638513147341 0.019430604083858851 0 0.03924398731848127 0.018428409783346658 0 0.03915440500458487 0.018540440202060585 0 0.039180497083902581 0.017950488265768502 0 0.039138414361765697 0.01793686932145688 0 0.039149159324073618 0.017781648294844698 0 0.039200887363789239 0.018432931778477945 0 0.039180497083902581 0.017950488265768502 0 0.039138414361765697 0.01793686932145688 0 0.039257455207028648 0.017948490116847987 0 0.039200887363789239 0.018432931778477945 0 0.039138414361765697 0.01793686932145688 0 0.039214914333675834 0.017759296789686088 0 0.039257455207028648 0.017948490116847987 0 0.039138414361765697 0.01793686932145688 0 0.039138414361765697 0.01793686932145688 0 0.039149159324073618 0.017781648294844698 0 0.039097536622616592 0.01769809591258439 0 0.039149159324073618 0.017781648294844698 0 0.039085215895313608 0.017445811362148424 0 0.039097536622616592 0.01769809591258439 0 0.039149159324073618 0.017781648294844698 0 0.039085215895313608 0.017445811362148424 0 0.039174464569607027 0.01771833908686787 0 0.039085215895313608 0.017445811362148424 0 0.039174464569607027 0.01771833908686787 0 0.039022051726788617 0.017481585113016774 0 0.039180497083902581 0.017950488265768502 0 0.039149159324073618 0.017781648294844698 0 0.039174464569607027 0.01771833908686787 0 0.03915440500458487 0.018540440202060585 0 0.039180187576698 0.018615020257733966 0 0.039180497083902581 0.017950488265768502 0 0.039174464569607027 0.01771833908686787 0 0.039262802874451559 0.017896324931700788 0 0.039174464569607027 0.01771833908686787 0 0.039262802874451559 0.017896324931700788 0 0.039091674177966641 0.017720944320814353 0 0.039172930970440223 0.019356275294021754 0 0.039124675736365043 0.019442094035231478 0 0.039453499595385751 0.019070051916285281 0 0.039124675736365043 0.019442094035231478 0 0.039091066785806212 0.020197539300211658 0 0.039208638513147341 0.019430604083858851 0 0.03904659534619883 0.019152927362903575 0 0.039172930970440223 0.019356275294021754 0 0.039124675736365043 0.019442094035231478 0 0.03904659534619883 0.019152927362903575 0 0.039124675736365043 0.019442094035231478 0 0.039208638513147341 0.019430604083858851 0 0.039078993684713854 0.018512293942759672 0 0.038851100226091936 0.017879966051875588 0 0.038338102937895718 0.01826542697209756 0 0.039078993684713854 0.018512293942759672 0 0.039091674177966641 0.017720944320814353 0 0.038851100226091936 0.017879966051875588 0 0.039172930970440223 0.019356275294021754 0 0.039078993684713854 0.018512293942759672 0 0.039453499595385751 0.019070051916285281 0 0.039180187576698 0.018615020257733966 0 0.039029534842449289 0.018561910872696478 0 0.039262802874451559 0.017896324931700788 0 0.039078993684713854 0.018512293942759672 0 0.039091674177966641 0.017720944320814353 0 0.039091674177966641 0.017720944320814353 0 0.038851100226091936 0.017879966051875588 0 0.038820940021338991 0.017447741731507718 0 0.038851100226091936 0.017879966051875588 0 0.038820940021338991 0.017447741731507718 0 0.038547717980611296 0.017544850102895051 0 0.038820940021338991 0.017447741731507718 0 0.038760306738513065 0.017119178879978554 0 0.038496873154830073 0.01717735047392115 0 0.038820940021338991 0.017447741731507718 0 0.039022051726788617 0.017481585113016774 0 0.038760306738513065 0.017119178879978554 0 0.039174464569607027 0.01771833908686787 0 0.039091674177966641 0.017720944320814353 0 0.039022051726788617 0.017481585113016774 0 0.039091674177966641 0.017720944320814353 0 0.038820940021338991 0.017447741731507718 0 0.039022051726788617 0.017481585113016774 0 0.039085215895313608 0.017445811362148424 0 0.039022051726788617 0.017481585113016774 0 0.038760306738513065 0.017119178879978554 0 0.035843739827334103 0.0056125809215153205 0 0.036664929744048461 0.004786951805397119 0 0.034292446036331997 -0.0064248792488531348 0 0.033381744092448075 -0.0055691508653500661 0 0.03452374464464382 -0.0053807338730904267 0 0.033845520740384924 -0.0046758858868291312 0 0.033381744092448075 -0.0055691508653500661 0 0.03452374464464382 -0.0053807338730904267 0 0.033845520740384924 -0.0046758858868291312 0 0.034979490736576919 -0.0045973176504727703 0 0.03452374464464382 -0.0053807338730904267 0 0.033902825490336644 -0.0046077930360482596 0 0.034903328553968931 -0.0046140500998039357 0 0.033902825490336644 -0.0046077930360482596 0 0.032826393933415451 -0.0045618063060711414 0 0.033845520740384924 -0.0046758858868291312 0 0.033381744092448075 -0.0055691508653500661 0 0.03264949033113209 -0.0047534486482711334 0 0.032793481526825513 -0.0063894721494151463 0 0.034292446036331997 -0.0064248792488531348 0 0.033381744092448075 -0.0055691508653500661 0 0.035843739827334103 0.0056125809215153205 0 0.035040192717185649 0.0055885685376734981 0 0.032793481526825513 -0.0063894721494151463 0 0.031028242302531147 -0.0064827299619185513 0 0.032008351066593409 -0.0056512367669178335 0 0.032793481526825513 -0.0063894721494151463 0 0.033381744092448075 -0.0055691508653500661 0 0.032008351066593409 -0.0056512367669178335 0 0.031028242302531147 -0.0064827299619185513 0 0.031064527995327038 -0.0057816118170758816 0 0.032008351066593409 -0.0056512367669178335 0 0.029911581375664156 -0.0061238280553554498 0 0.031064527995327038 -0.0057816118170758816 0 0.031287498368264194 -0.0047993795529942488 0 0.031064527995327038 -0.0057816118170758816 0 0.031287498368264194 -0.0047993795529942488 0 0.032008351066593409 -0.0056512367669178335 0 0.033381744092448075 -0.0055691508653500661 0 0.03264949033113209 -0.0047534486482711334 0 0.032008351066593409 -0.0056512367669178335 0 0.031087881647355407 -0.0054623749707923396 0 0.032826393933415451 -0.0045618063060711414 0 0.031287498368264194 -0.0047993795529942488 0 0.03264949033113209 -0.0047534486482711334 0 0.032008351066593409 -0.0056512367669178335 0 0.031087881647355407 -0.0054623749707923396 0 0.032730514593926979 -0.004828947318697401 0 0.03172334950136483 -0.0044008082598112324 0 0.03284960324913206 -0.0044753747891335075 0 0.032994799802335231 -0.0036484702900689467 0 0.030747083300591987 -0.0070937896035922487 0 0.030846381654941517 -0.0056014534896100766 0 0.032451541321368099 -0.005925128913357126 0 0.029720434405004503 -0.0062435110979344776 0 0.030747083300591987 -0.0070937896035922487 0 0.030846381654941517 -0.0056014534896100766 0 0.032029083928752811 -0.0046187176945661646 0 0.030196513592285128 -0.0041287101975678317 0 0.030846381654941517 -0.0056014534896100766 0 0.032029083928752811 -0.0046187176945661646 0 0.030846381654941517 -0.0056014534896100766 0 0.032451541321368099 -0.005925128913357126 0 0.03424625051366291 -0.0029403529967289982 0 0.033863148359830016 -0.0036944812869270332 0 0.032994799802335231 -0.0036484702900689467 0 0.034103191761910595 -0.0038620831017455101 0 0.032730514593926979 -0.004828947318697401 0 0.032029083928752811 -0.0046187176945661646 0 0.033988110006127677 -0.004776910263297727 0 0.032451541321368099 -0.005925128913357126 0 0.03424625051366291 -0.0029403529967289982 0 0.033863148359830016 -0.0036944812869270332 0 0.035106520559424349 -0.0034904670275559754 0 0.033940327178687467 -0.0045313296468295055 0 0.033863148359830016 -0.0036944812869270332 0 0.034979490736576919 -0.0045973176504727703 0 0.033940327178687467 -0.0045313296468295055 0 0.03284960324913206 -0.0044753747891335075 0 0.033863148359830016 -0.0036944812869270332 0 0.03284960324913206 -0.0044753747891335075 0 0.033863148359830016 -0.0036944812869270332 0 0.032994799802335231 -0.0036484702900689467 0 0.035863244963048858 -0.0038961409386816842 0 0.035106520559424349 -0.0034904670275559754 0 0.035927881941224815 -0.0031505131145413744 0 0.035863244963048858 -0.0038961409386816842 0 0.035106520559424349 -0.0034904670275559754 0 0.034979490736576919 -0.0045973176504727703 0 0.033863148359830016 -0.0036944812869270332 0 0.035106520559424349 -0.0034904670275559754 0 0.034979490736576919 -0.0045973176504727703 0 0.035501036976531522 -0.0023215096317018677 0 0.03424625051366291 -0.0029403529967289982 0 0.035106520559424349 -0.0034904670275559754 0 0.035863244963048858 -0.0038961409386816842 0 0.035927881941224815 -0.0031505131145413744 0 0.036383861884189093 -0.0033186902061780477 0 0.035501036976531522 -0.0023215096317018677 0 0.035106520559424349 -0.0034904670275559754 0 0.035927881941224815 -0.0031505131145413744 0 0.036383861884189093 -0.0033186902061780477 0 0.037030524072200838 -0.0029069006337021715 0 0.036675935885541605 -0.0040888474053379859 0 0.036373131824134187 -0.0025880036251381385 0 0.035927881941224815 -0.0031505131145413744 0 0.036383861884189093 -0.0033186902061780477 0 0.036373131824134187 -0.0025880036251381385 0 0.036383861884189093 -0.0033186902061780477 0 0.037030524072200838 -0.0029069006337021715 0 0.038095933198319561 0.0084158927248830801 0 0.038341768586447382 0.010442344193476788 0 0.037515384834835803 0.0097158273558617218 0 0.036886180743736889 0.00086701460579821535 0 0.03788184693291495 0.0029256012398861794 0 0.037467415084888191 0.0062358571100827667 0 0.037491569226558059 0.0046808736178839804 0 0.037945860683736225 0.0083932683073764617 0 0.038341768586447382 0.010442344193476788 0 0.037817560517801253 0.011468323461719301 0 0.037359856497729035 0.010778649171292938 0 0.037467415084888191 0.0062358571100827667 0 0.039154883366467663 0.008561091591509579 0 0.038586286541536521 0.011746116523138677 0 0.03788184693291495 0.0029256012398861794 0 0.037467415084888191 0.0062358571100827667 0 0.039154883366467663 0.008561091591509579 0 0.037414898832443776 -7.1546815379261176e-05 0 0.03790577862642442 0.0023730719287606088 0 0.035863244963048858 -0.0038961409386816842 0 0.036675935885541605 -0.0040888474053379859 0 0.035890468709927542 -0.004620224365465604 0 0.035863244963048858 -0.0038961409386816842 0 0.036383861884189093 -0.0033186902061780477 0 0.036675935885541605 -0.0040888474053379859 0 0.03790577862642442 0.0023730719287606088 0 0.038050145755331409 0.0028919511313010293 0 0.039154883366467663 0.008561091591509579 0 0.038586286541536521 0.011746116523138677 0 0.039838228097438845 0.0131618159534525 0 0.036675935885541605 -0.0040888474053379859 0 0.036181607341743173 -0.005395181775051809 0 0.035890468709927542 -0.004620224365465604 0 0.037945860683736225 0.0083932683073764617 0 0.038606858602247385 0.011577013801971441 0 0.038341768586447382 0.010442344193476788 0 0.038586286541536521 0.011746116523138677 0 0.037817560517801253 0.011468323461719301 0 0.038586286541536521 0.011746116523138677 0 0.037817560517801253 0.011468323461719301 0 0.037588447869223003 0.012633539123159402 0 0.038586286541536521 0.011746116523138677 0 0.037588447869223003 0.012633539123159402 0 0.038373999828157833 0.013741539549453728 0 0.037588447869223003 0.012633539123159402 0 0.038373999828157833 0.013741539549453728 0 0.03744167717323351 0.014103662065989104 0 0.039838228097438845 0.0131618159534525 0 0.038373999828157833 0.013741539549453728 0 0.039076746780284111 0.014690904326832604 0 0.038586286541536521 0.011746116523138677 0 0.039838228097438845 0.0131618159534525 0 0.038373999828157833 0.013741539549453728 0 0.036181607341743173 -0.005395181775051809 0 0.035544158396516069 -0.0051844482849042429 0 0.035890468709927542 -0.004620224365465604 0 0.036181607341743173 -0.005395181775051809 0 0.035544158396516069 -0.0051844482849042429 0 0.035207415029749681 -0.0058092288377198072 0 0.035544158396516069 -0.0051844482849042429 0 0.035890468709927542 -0.004620224365465604 0 0.034979490736576919 -0.0045973176504727703 0 0.035863244963048858 -0.0038961409386816842 0 0.035890468709927542 -0.004620224365465604 0 0.034979490736576919 -0.0045973176504727703 0 0.035544158396516069 -0.0051844482849042429 0 0.034979490736576919 -0.0045973176504727703 0 0.03452374464464382 -0.0053807338730904267 0 0.034292446036331997 -0.0064248792488531348 0 0.035207415029749681 -0.0058092288377198072 0 0.03452374464464382 -0.0053807338730904267 0 0.035544158396516069 -0.0051844482849042429 0 0.035207415029749681 -0.0058092288377198072 0 0.03452374464464382 -0.0053807338730904267 0 0.034292446036331997 -0.0064248792488531348 0 0.035207415029749681 -0.0058092288377198072 0 0.035643517310711345 -0.0065766716094812399 0 0.036664929744048461 0.004786951805397119 0 0.036601966322367223 0.0090936550660979405 0 0.036181607341743173 -0.005395181775051809 0 0.035207415029749681 -0.0058092288377198072 0 0.035643517310711345 -0.0065766716094812399 0 0.039838228097438845 0.0131618159534525 0 0.040330987326696009 0.015566528558817612 0 0.039076746780284111 0.014690904326832604 0 0.038050145755331409 0.0028919511313010293 0 0.036601966322367223 0.0090936550660979405 0 0.038286299281871959 0.016894138033678223 0 0.038346804574125072 0.016636388162720964 0 0.038536078790924737 0.016177653742024133 0 0.036601966322367223 0.0090936550660979405 0 0.038605452068277368 0.015649690915805078 0 0.038304534553673643 0.016828214653260641 0 0.038286299281871959 0.016894138033678223 0 0.038346804574125072 0.016636388162720964 0 0.038304534553673643 0.016828214653260641 0 0.038290598235397724 0.016874207448703944 0 0.038286299281871959 0.016894138033678223 0 0.037182437835020392 0.010719326988485206 0 0.036601966322367223 0.0090936550660979405 0 0.038304534553673643 0.016828214653260641 0 0.038290598235397724 0.016874207448703944 0 0.038303774577707485 0.01697698668179173 0 0.038290598235397724 0.016874207448703944 0 0.038303774577707485 0.01697698668179173 0 0.038496873154830073 0.01717735047392115 0 0.038303774577707485 0.01697698668179173 0 0.038346804574125072 0.016636388162720964 0 0.038170953198658909 0.016867454499466378 0 0.038304534553673643 0.016828214653260641 0 0.038303774577707485 0.01697698668179173 0 0.038346804574125072 0.016636388162720964 0 0.038760306738513065 0.017119178879978554 0 0.038290598235397724 0.016874207448703944 0 0.038496873154830073 0.01717735047392115 0 0.038760306738513065 0.017119178879978554 0 0.038290598235397724 0.016874207448703944 0 0.038275667023450831 0.016833794832385209 0 0.038303774577707485 0.01697698668179173 0 0.038496873154830073 0.01717735047392115 0 0.038362269229749585 0.017332399012678443 0 0.038820940021338991 0.017447741731507718 0 0.038496873154830073 0.01717735047392115 0 0.038547717980611296 0.017544850102895051 0 0.038547717980611296 0.017544850102895051 0 0.038216912901316978 0.01767376524012132 0 0.038362269229749585 0.017332399012678443 0 0.038496873154830073 0.01717735047392115 0 0.038547717980611296 0.017544850102895051 0 0.038362269229749585 0.017332399012678443 0 0.038303774577707485 0.01697698668179173 0 0.038362269229749585 0.017332399012678443 0 0.038199679234791929 0.017236456872339382 0 0.038199679234791929 0.017236456872339382 0 0.037867070616420515 0.017492034119261653 0 0.038170953198658909 0.016867454499466378 0 0.038303774577707485 0.01697698668179173 0 0.038199679234791929 0.017236456872339382 0 0.038170953198658909 0.016867454499466378 0 0.038216912901316978 0.01767376524012132 0 0.038199679234791929 0.017236456872339382 0 0.037867070616420515 0.017492034119261653 0 0.038216912901316978 0.01767376524012132 0 0.038362269229749585 0.017332399012678443 0 0.038199679234791929 0.017236456872339382 0 0.038216912901316978 0.01767376524012132 0 0.037867070616420515 0.017492034119261653 0 0.037769940190592328 0.017998953785765458 0 0.037769940190592328 0.017998953785765458 0 0.038338102937895718 0.01826542697209756 0 0.037192427504951407 0.018688896428017941 0 0.038216912901316978 0.01767376524012132 0 0.037769940190592328 0.017998953785765458 0 0.038338102937895718 0.01826542697209756 0 0.037867070616420515 0.017492034119261653 0 0.037769940190592328 0.017998953785765458 0 0.037186659515188035 0.01806383492421898 0 0.037769940190592328 0.017998953785765458 0 0.037186659515188035 0.01806383492421898 0 0.037192427504951407 0.018688896428017941 0 0.038851100226091936 0.017879966051875588 0 0.038547717980611296 0.017544850102895051 0 0.038338102937895718 0.01826542697209756 0 0.038547717980611296 0.017544850102895051 0 0.038216912901316978 0.01767376524012132 0 0.038338102937895718 0.01826542697209756 0 0.036814953664407638 0.018034483702699673 0 0.037186659515188035 0.01806383492421898 0 0.037569362379794004 0.017247578334294394 0 0.037867070616420515 0.017492034119261653 0 0.037186659515188035 0.01806383492421898 0 0.037569362379794004 0.017247578334294394 0 0.037867070616420515 0.017492034119261653 0 0.037569362379794004 0.017247578334294394 0 0.038170953198658909 0.016867454499466378 0 0.037569362379794004 0.017247578334294394 0 0.038170953198658909 0.016867454499466378 0 0.037818324463476521 0.01648918642728783 0 0.036814953664407638 0.018034483702699673 0 0.037569362379794004 0.017247578334294394 0 0.03703634363965333 0.016460161591782884 0 0.037569362379794004 0.017247578334294394 0 0.037818324463476521 0.01648918642728783 0 0.03703634363965333 0.016460161591782884 0 0.037571269612320227 0.015444389855080561 0 0.037818324463476521 0.01648918642728783 0 0.03703634363965333 0.016460161591782884 0 0.037571269612320227 0.015444389855080561 0 0.037818324463476521 0.01648918642728783 0 0.038536078790924737 0.016177653742024133 0 0.037571269612320227 0.015444389855080561 0 0.038536078790924737 0.016177653742024133 0 0.038234697918175999 0.01491105235222159 0 0.038346804574125072 0.016636388162720964 0 0.038170953198658909 0.016867454499466378 0 0.038536078790924737 0.016177653742024133 0 0.038170953198658909 0.016867454499466378 0 0.037818324463476521 0.01648918642728783 0 0.038536078790924737 0.016177653742024133 0 0.040330987326696009 0.015566528558817612 0 0.038536078790924737 0.016177653742024133 0 0.039076746780284111 0.014690904326832604 0 0.038536078790924737 0.016177653742024133 0 0.039076746780284111 0.014690904326832604 0 0.038234697918175999 0.01491105235222159 0 0.038373999828157833 0.013741539549453728 0 0.039076746780284111 0.014690904326832604 0 0.038234697918175999 0.01491105235222159 0 0.037571269612320227 0.015444389855080561 0 0.038234697918175999 0.01491105235222159 0 0.03744167717323351 0.014103662065989104 0 0.038373999828157833 0.013741539549453728 0 0.038234697918175999 0.01491105235222159 0 0.03744167717323351 0.014103662065989104 0 0.03744167717323351 0.014103662065989104 0 0.036500719168268865 0.014371940650685498 0 0.036739586017568097 0.01314605466541372 0 0.037571269612320227 0.015444389855080561 0 0.03744167717323351 0.014103662065989104 0 0.036500719168268865 0.014371940650685498 0 0.036500719168268865 0.014371940650685498 0 0.036061923762442126 0.013460232959699451 0 0.036739586017568097 0.01314605466541372 0 0.036500719168268865 0.014371940650685498 0 0.035657563999099737 0.014739048572746839 0 0.036061923762442126 0.013460232959699451 0 0.036500719168268865 0.014371940650685498 0 0.03627173054136492 0.015382382884086674 0 0.035657563999099737 0.014739048572746839 0 0.037571269612320227 0.015444389855080561 0 0.036500719168268865 0.014371940650685498 0 0.03703634363965333 0.016460161591782884 0 0.036500719168268865 0.014371940650685498 0 0.03627173054136492 0.015382382884086674 0 0.03703634363965333 0.016460161591782884 0 0.03640201158647538 0.015802866899255308 0 0.037047765533344476 0.01633164498360291 0 0.036450290845605922 0.016197622295149205 0 0.03703634363965333 0.016460161591782884 0 0.036544911843729148 0.017197735061917303 0 0.036450290845605922 0.016197622295149205 0 0.036544911843729148 0.017197735061917303 0 0.036104244942941226 0.016957384302690282 0 0.036104244942941226 0.016957384302690282 0 0.035895714842909189 0.018185988301130874 0 0.036440439714832205 0.01816764092812953 0 0.036544911843729148 0.017197735061917303 0 0.036104244942941226 0.016957384302690282 0 0.036440439714832205 0.01816764092812953 0 0.036814953664407638 0.018034483702699673 0 0.036544911843729148 0.017197735061917303 0 0.036440439714832205 0.01816764092812953 0 0.036814953664407638 0.018034483702699673 0 0.03703634363965333 0.016460161591782884 0 0.036544911843729148 0.017197735061917303 0 0.03499974209636561 0.016539617202055868 0 0.036104244942941226 0.016957384302690282 0 0.035895714842909189 0.018185988301130874 0 0.036450290845605922 0.016197622295149205 0 0.036104244942941226 0.016957384302690282 0 0.035875991182718732 0.015485272452141827 0 0.03499974209636561 0.016539617202055868 0 0.036104244942941226 0.016957384302690282 0 0.035875991182718732 0.015485272452141827 0 0.034999611933350654 0.014534295930522296 0 0.035657563999099737 0.014739048572746839 0 0.035608793078987566 0.013455864258578665 0 0.03499974209636561 0.016539617202055868 0 0.034999637721215435 0.014536355644348572 0 0.035875991182718732 0.015485272452141827 0 0.035000046168589691 0.014535215159092285 0 0.035719186716181045 0.015118887114397206 0 0.03640201158647538 0.015802866899255308 0 0.035719186716181045 0.015118887114397206 0 0.035657563999099737 0.014739048572746839 0 0.035608793078987566 0.013455864258578665 0 0.036061923762442126 0.013460232959699451 0 0.034999611933350654 0.014534295930522296 0 0.035608793078987566 0.013455864258578665 0 0.034999551129088452 0.012529516542953334 0 0.035608793078987566 0.013455864258578665 0 0.034999551129088452 0.012529516542953334 0 0.036331183376563728 0.011649321122111684 0 0.034999551129088452 0.012529516542953334 0 0.036331183376563728 0.011649321122111684 0 0.034999909547640783 0.010522743351273272 0 0.03575877058927248 0.011738669752516091 0 0.036056331080724147 0.013289526023142447 0 0.035608793078987566 0.013455864258578665 0 0.036331183376563728 0.011649321122111684 0 0.036061923762442126 0.013460232959699451 0 0.036061923762442126 0.013460232959699451 0 0.036739586017568097 0.01314605466541372 0 0.036287152461641999 0.012366759415206497 0 0.03521399197263151 0.01186269226425345 0 0.036061923762442126 0.013460232959699451 0 0.036287152461641999 0.012366759415206497 0 0.037588447869223003 0.012633539123159402 0 0.03744167717323351 0.014103662065989104 0 0.036739586017568097 0.01314605466541372 0 0.037588447869223003 0.012633539123159402 0 0.036739586017568097 0.01314605466541372 0 0.037064558001667407 0.011882714800920213 0 0.036739586017568097 0.01314605466541372 0 0.037064558001667407 0.011882714800920213 0 0.036287152461641999 0.012366759415206497 0 0.037817560517801253 0.011468323461719301 0 0.037588447869223003 0.012633539123159402 0 0.037064558001667407 0.011882714800920213 0 0.037064558001667407 0.011882714800920213 0 0.036373210160983931 0.011228029354388897 0 0.037359856497729035 0.010778649171292938 0 0.037817560517801253 0.011468323461719301 0 0.037064558001667407 0.011882714800920213 0 0.037359856497729035 0.010778649171292938 0 0.03521399197263151 0.01186269226425345 0 0.036287152461641999 0.012366759415206497 0 0.036373210160983931 0.011228029354388897 0 0.037064558001667407 0.011882714800920213 0 0.036287152461641999 0.012366759415206497 0 0.036373210160983931 0.011228029354388897 0 0.03521399197263151 0.01186269226425345 0 0.035761995857758869 0.01049409421577961 0 0.036373210160983931 0.011228029354388897 0 0.035761995857758869 0.01049409421577961 0 0.036373210160983931 0.011228029354388897 0 0.036662760170093088 0.0099910010846538631 0 0.036373210160983931 0.011228029354388897 0 0.037359856497729035 0.010778649171292938 0 0.036662760170093088 0.0099910010846538631 0 0.038341768586447382 0.010442344193476788 0 0.037359856497729035 0.010778649171292938 0 0.037515384834835803 0.0097158273558617218 0 0.038095933198319561 0.0084158927248830801 0 0.037515384834835803 0.0097158273558617218 0 0.03698541645977102 0.0090161479778911001 0 0.037359856497729035 0.010778649171292938 0 0.037515384834835803 0.0097158273558617218 0 0.036662760170093088 0.0099910010846538631 0 0.037515384834835803 0.0097158273558617218 0 0.03698541645977102 0.0090161479778911001 0 0.036662760170093088 0.0099910010846538631 0 0.035761995857758869 0.01049409421577961 0 0.036662760170093088 0.0099910010846538631 0 0.035930402718030774 0.0092683048693547546 0 0.03698541645977102 0.0090161479778911001 0 0.036662760170093088 0.0099910010846538631 0 0.035930402718030774 0.0092683048693547546 0 0.035204779896366313 0.008431103915102137 0 0.035930402718030774 0.0092683048693547546 0 0.034619774097573247 0.010060707522683121 0 0.035761995857758869 0.01049409421577961 0 0.035930402718030774 0.0092683048693547546 0 0.034619774097573247 0.010060707522683121 0 0.035601315175704036 0.0080448655569254103 0 0.034999954508120837 0.0085165119207295577 0 0.0360672087083743 0.0097730108388663119 0 0.034999954508120837 0.0085165119207295577 0 0.0360672087083743 0.0097730108388663119 0 0.034999909547640783 0.010522743351273272 0 0.035192250086556874 0.0079552032657035227 0 0.035291788893409212 0.0099284239137416193 0 0.036331183376563728 0.011649321122111684 0 0.0360672087083743 0.0097730108388663119 0 0.034999909547640783 0.010522743351273272 0 0.03521399197263151 0.01186269226425345 0 0.035761995857758869 0.01049409421577961 0 0.034619774097573247 0.010060707522683121 0 0.03575877058927248 0.011738669752516091 0 0.035291788893409212 0.0099284239137416193 0 0.035996401129518595 0.024181555048286011 0 0.035712726108040903 0.025571091108702697 0 0.036749003523720167 0.025220067780112394 0 0.035996401129518595 0.024181555048286011 0 0.036749003523720167 0.025220067780112394 0 0.03659436085108779 0.02306943561721949 0 0.03412243282330446 0.026259793057422934 0 0.03648252643833283 0.021693787850335731 0 0.035996401129518595 0.024181555048286011 0 0.035000028038066747 0.024556323435478082 0 0.035712726108040903 0.025571091108702697 0 0.035000028038066747 0.024556323435478082 0 0.035712726108040903 0.025571091108702697 0 0.034999958930309993 0.026560608748698492 0 0.035712726108040903 0.025571091108702697 0 0.036749003523720167 0.025220067780112394 0 0.03579955346392303 0.026835799147863916 0 0.026734091619698738 0.030395405974776225 0 0.027868370784488658 0.031879910654582878 0 0.02717216233304659 0.032772391654181471 0 0.03412243282330446 0.026259793057422934 0 0.03369399460557692 0.029032601912972925 0 0.036485944278656451 0.025677390461457738 0 0.036567340678191652 0.026687371507561494 0 0.03579955346392303 0.026835799147863916 0 0.03412243282330446 0.026259793057422934 0 0.036614347917390259 0.026254409448457854 0 0.026734091619698738 0.030395405974776225 0 0.027868370784488658 0.031879910654582878 0 0.029015281594336421 0.03141134702902753 0 0.026734091619698738 0.030395405974776225 0 0.029015281594336421 0.03141134702902753 0 0.029783522429415194 0.029162042076926249 0 0.027868370784488658 0.031879910654582878 0 0.029015281594336421 0.03141134702902753 0 0.028319780502092301 0.0328624763753032 0 0.029015281594336421 0.03141134702902753 0 0.029783522429415194 0.029162042076926249 0 0.031620946993246218 0.032204188577638147 0 0.026734091619698738 0.030395405974776225 0 0.029783522429415194 0.029162042076926249 0 0.028273837255663341 0.027374076100070123 0 0.03412243282330446 0.026259793057422934 0 0.031907252393438307 0.024758827611411297 0 0.03640080378516386 0.021712172202900327 0 0.036255715383710641 0.020849186387746365 0 0.035773795341752117 0.021340577000269915 0 0.028273837255663341 0.027374076100070123 0 0.031221834733674337 0.027039320862142464 0 0.030349165050897558 0.024263344595542503 0 0.029783522429415194 0.029162042076926249 0 0.028273837255663341 0.027374076100070123 0 0.031221834733674337 0.027039320862142464 0 0.031907252393438307 0.024758827611411297 0 0.033625891459702614 0.022465829904885708 0 0.03640080378516386 0.021712172202900327 0 0.036787976574096784 0.020721333072449666 0 0.036255715383710641 0.020849186387746365 0 0.03648252643833283 0.021693787850335731 0 0.036005075043879994 0.020885333303666358 0 0.036255715383710641 0.020849186387746365 0 0.035773795341752117 0.021340577000269915 0 0.036077960471713785 0.020553476354730552 0 0.035706072566258948 0.022940105600222371 0 0.03640080378516386 0.021712172202900327 0 0.035773795341752117 0.021340577000269915 0 0.035996401129518595 0.024181555048286011 0 0.03659436085108779 0.02306943561721949 0 0.034999713487096344 0.022551733615975372 0 0.035996401129518595 0.024181555048286011 0 0.035000028038066747 0.024556323435478082 0 0.034999713487096344 0.022551733615975372 0 0.03659436085108779 0.02306943561721949 0 0.034999713487096344 0.022551733615975372 0 0.036077960471713785 0.020553476354730552 0 0.034999713487096344 0.022551733615975372 0 0.036077960471713785 0.020553476354730552 0 0.034999767821178404 0.020547133533883849 0 0.036077960471713785 0.020553476354730552 0 0.035788603091248497 0.019372149580028961 0 0.036402538605675154 0.019296867069425582 0 0.036077960471713785 0.020553476354730552 0 0.034999767821178404 0.020547133533883849 0 0.035788603091248497 0.019372149580028961 0 0.035788603091248497 0.019372149580028961 0 0.035895714842909189 0.018185988301130874 0 0.034999624798922872 0.018543625366153952 0 0.034999767821178404 0.020547133533883849 0 0.035788603091248497 0.019372149580028961 0 0.034999624798922872 0.018543625366153952 0 0.035788603091248497 0.019372149580028961 0 0.035895714842909189 0.018185988301130874 0 0.036402538605675154 0.019296867069425582 0 0.03499974209636561 0.016539617202055868 0 0.035895714842909189 0.018185988301130874 0 0.034999624798922872 0.018543625366153952 0 0.036814953664407638 0.018034483702699673 0 0.036440439714832205 0.01816764092812953 0 0.036628373809962089 0.018884327476630679 0 0.035895714842909189 0.018185988301130874 0 0.036440439714832205 0.01816764092812953 0 0.036402538605675154 0.019296867069425582 0 0.036402538605675154 0.019296867069425582 0 0.036628373809962089 0.018884327476630679 0 0.036889906169990563 0.019549236748593244 0 0.036440439714832205 0.01816764092812953 0 0.036402538605675154 0.019296867069425582 0 0.036628373809962089 0.018884327476630679 0 0.036402538605675154 0.019296867069425582 0 0.036476122892348153 0.020150678665238477 0 0.036889906169990563 0.019549236748593244 0 0.036077960471713785 0.020553476354730552 0 0.036402538605675154 0.019296867069425582 0 0.036476122892348153 0.020150678665238477 0 0.036255715383710641 0.020849186387746365 0 0.036077960471713785 0.020553476354730552 0 0.036476122892348153 0.020150678665238477 0 0.036787976574096784 0.020721333072449666 0 0.036255715383710641 0.020849186387746365 0 0.036476122892348153 0.020150678665238477 0 0.033625891459702614 0.022465829904885708 0 0.03481569841863448 0.020634379412064436 0 0.036787976574096784 0.020721333072449666 0 0.036476122892348153 0.020150678665238477 0 0.036889906169990563 0.019549236748593244 0 0.030349165050897558 0.024263344595542503 0 0.032807817991360531 0.021520624297277614 0 0.0340411328975668 0.024792684328089322 0 0.035845128280844456 0.021948442145057055 0 0.032807817991360531 0.021520624297277614 0 0.0340411328975668 0.024792684328089322 0 0.035845128280844456 0.021948442145057055 0 0.032807817991360531 0.021520624297277614 0 0.03607052590055105 0.019099370732243701 0 0.036628373809962089 0.018884327476630679 0 0.036889906169990563 0.019549236748593244 0 0.03607052590055105 0.019099370732243701 0 0.03481569841863448 0.020634379412064436 0 0.035904868766557206 0.01925772805460757 0 0.035845128280844456 0.021948442145057055 0 0.03607052590055105 0.019099370732243701 0 0.037513765935734945 0.019742227888884557 0 0.037186659515188035 0.01806383492421898 0 0.03607052590055105 0.019099370732243701 0 0.037192427504951407 0.018688896428017941 0 0.036814953664407638 0.018034483702699673 0 0.037186659515188035 0.01806383492421898 0 0.03607052590055105 0.019099370732243701 0 0.036814953664407638 0.018034483702699673 0 0.036628373809962089 0.018884327476630679 0 0.03607052590055105 0.019099370732243701 0 0.038338102937895718 0.01826542697209756 0 0.037513765935734945 0.019742227888884557 0 0.038802988473846368 0.019142428734833086 0 0.038338102937895718 0.01826542697209756 0 0.037192427504951407 0.018688896428017941 0 0.037513765935734945 0.019742227888884557 0 0.03607052590055105 0.019099370732243701 0 0.037192427504951407 0.018688896428017941 0 0.037513765935734945 0.019742227888884557 0 0.037513765935734945 0.019742227888884557 0 0.039152845505169433 0.020340697124423966 0 0.038802988473846368 0.019142428734833086 0 0.037408192208746437 0.022509082748978441 0 0.03847805140232035 0.021148433207461317 0 0.037513765935734945 0.019742227888884557 0 0.037357322320944013 0.022606855914275376 0 0.039152845505169433 0.020340697124423966 0 0.035845128280844456 0.021948442145057055 0 0.037513765935734945 0.019742227888884557 0 0.037357322320944013 0.022606855914275376 0 0.035845128280844456 0.021948442145057055 0 0.036461829945391919 0.024525122184679247 0 0.0340411328975668 0.024792684328089322 0 0.035845128280844456 0.021948442145057055 0 0.037357322320944013 0.022606855914275376 0 0.036461829945391919 0.024525122184679247 0 0.037357322320944013 0.022606855914275376 0 0.036461829945391919 0.024525122184679247 0 0.037503133350240109 0.025395172579573813 0 0.035922188645808532 0.026538728089627074 0 0.037004651801870625 0.026899821688964709 0 0.037503133350240109 0.025395172579573813 0 0.035922188645808532 0.026538728089627074 0 0.036461829945391919 0.024525122184679247 0 0.037503133350240109 0.025395172579573813 0 0.035922188645808532 0.026538728089627074 0 0.036461829945391919 0.024525122184679247 0 0.0340411328975668 0.024792684328089322 0 0.035922188645808532 0.026538728089627074 0 0.0340411328975668 0.024792684328089322 0 0.032869636047435528 0.029183183236682397 0 0.031221834733674337 0.027039320862142464 0 0.0340411328975668 0.024792684328089322 0 0.032869636047435528 0.029183183236682397 0 0.031221834733674337 0.027039320862142464 0 0.030349165050897558 0.024263344595542503 0 0.0340411328975668 0.024792684328089322 0 0.032735941390502572 0.029220730037334053 0 0.034191812129769274 0.030392712602759206 0 0.029783522429415194 0.029162042076926249 0 0.031221834733674337 0.027039320862142464 0 0.032869636047435528 0.029183183236682397 0 0.029783522429415194 0.029162042076926249 0 0.032869636047435528 0.029183183236682397 0 0.031620946993246218 0.032204188577638147 0 0.032869636047435528 0.029183183236682397 0 0.032800934129629263 0.032116230359669762 0 0.033108776247454744 0.032743615192130981 0 0.032869636047435528 0.029183183236682397 0 0.031620946993246218 0.032204188577638147 0 0.032800934129629263 0.032116230359669762 0 0.032800934129629263 0.032116230359669762 0 0.033108776247454744 0.032743615192130981 0 0.032699201154656819 0.03294443333961472 0 0.033108776247454744 0.032743615192130981 0 0.031909032813678455 0.03351268323853928 0 0.032699201154656819 0.03294443333961472 0 0.035866957960844 0.028251210230332526 0 0.037004651801870625 0.026899821688964709 0 0.037153738825823034 0.027369000083664885 0 0.034191812129769274 0.030392712602759206 0 0.033431920179242784 0.031044027326841656 0 0.033108776247454744 0.032743615192130981 0 0.031909032813678455 0.03351268323853928 0 0.030009588001948192 0.034882213028609561 0 0.035922188645808532 0.026538728089627074 0 0.035866957960844 0.028251210230332526 0 0.037004651801870625 0.026899821688964709 0 0.035922188645808532 0.026538728089627074 0 0.032869636047435528 0.029183183236682397 0 0.035866957960844 0.028251210230332526 0 0.03746010047570323 0.026674348247822686 0 0.037274437592618032 0.026906337538454259 0 0.037523464089342658 0.026145027898146794 0 0.03746010047570323 0.026674348247822686 0 0.037457827698717916 0.026559394783474192 0 0.037523464089342658 0.026145027898146794 0 0.037004651801870625 0.026899821688964709 0 0.037274437592618032 0.026906337538454259 0 0.037523464089342658 0.026145027898146794 0 0.037153738825823034 0.027369000083664885 0 0.037274437592618032 0.026906337538454259 0 0.037388268821596404 0.026868001155063173 0 0.037004651801870625 0.026899821688964709 0 0.037153738825823034 0.027369000083664885 0 0.037274437592618032 0.026906337538454259 0 0.03746010047570323 0.026674348247822686 0 0.037388268821596404 0.026868001155063173 0 0.03738274902835264 0.026633185424517154 0 0.03746010047570323 0.026674348247822686 0 0.037274437592618032 0.026906337538454259 0 0.037388268821596404 0.026868001155063173 0 0.03746010047570323 0.026674348247822686 0 0.03738274902835264 0.026633185424517154 0 0.037457827698717916 0.026559394783474192 0 0.03738274902835264 0.026633185424517154 0 0.037094391002086169 0.026572177224341843 0 0.037457827698717916 0.026559394783474192 0 0.037094391002086169 0.026572177224341843 0 0.037457827698717916 0.026559394783474192 0 0.037073536592323229 0.0269434855820243 0 0.037457827698717916 0.026559394783474192 0 0.037570358008455963 0.026083804592911434 0 0.037523464089342658 0.026145027898146794 0 0.037514186230436869 0.026133942402205738 0 0.037796229080404975 0.026405074265511284 0 0.037457827698717916 0.026559394783474192 0 0.037570358008455963 0.026083804592911434 0 0.037073536592323229 0.0269434855820243 0 0.037570358008455963 0.026083804592911434 0 0.038156026829539537 0.025279018550393335 0 0.038586540491998042 0.02595690158715425 0 0.037570358008455963 0.026083804592911434 0 0.038156026829539537 0.025279018550393335 0 0.037386500728911809 0.025318939761531049 0 0.038156026829539537 0.025279018550393335 0 0.037386500728911809 0.025318939761531049 0 0.038092680855432562 0.024226244160215925 0 0.038159589896398914 0.024455155148761062 0 0.03747124862487429 0.02531820369332536 0 0.037386500728911809 0.025318939761531049 0 0.037523464089342658 0.026145027898146794 0 0.037503133350240109 0.025395172579573813 0 0.037570358008455963 0.026083804592911434 0 0.037386500728911809 0.025318939761531049 0 0.037523464089342658 0.026145027898146794 0 0.037004651801870625 0.026899821688964709 0 0.037523464089342658 0.026145027898146794 0 0.037503133350240109 0.025395172579573813 0 0.038977564606956755 0.023562055692127631 0 0.037503133350240109 0.025395172579573813 0 0.038118824736075141 0.022903209352975254 0 0.037357322320944013 0.022606855914275376 0 0.037503133350240109 0.025395172579573813 0 0.038118824736075141 0.022903209352975254 0 0.038977564606956755 0.023562055692127631 0 0.038118824736075141 0.022903209352975254 0 0.038933560920089053 0.021992444546568846 0 0.038118824736075141 0.022903209352975254 0 0.037925414659750488 0.021897907097714487 0 0.038933560920089053 0.021992444546568846 0 0.037357322320944013 0.022606855914275376 0 0.038118824736075141 0.022903209352975254 0 0.037925414659750488 0.021897907097714487 0 0.039152845505169433 0.020340697124423966 0 0.039453499595385751 0.019070051916285281 0 0.038802988473846368 0.019142428734833086 0 0.037925414659750488 0.021897907097714487 0 0.038448918626835096 0.020930807707805994 0 0.038933560920089053 0.021992444546568846 0 0.03847805140232035 0.021148433207461317 0 0.038966888286299975 0.020009418039433544 0 0.039078993684713854 0.018512293942759672 0 0.038338102937895718 0.01826542697209756 0 0.038802988473846368 0.019142428734833086 0 0.039078993684713854 0.018512293942759672 0 0.039453499595385751 0.019070051916285281 0 0.038802988473846368 0.019142428734833086 0 0.039557729266476341 0.020983758762693129 0 0.039091066785806212 0.020197539300211658 0 0.039789489413975344 0.020860498522528421 0 0.039557729266476341 0.020983758762693129 0 0.039091066785806212 0.020197539300211658 0 0.039079707680515406 0.021258601810655288 0 0.039032542168154716 0.020199998026026001 0 0.039431822421413333 0.020157792368889482 0 0.038448918626835096 0.020930807707805994 0 0.039091066785806212 0.020197539300211658 0 0.039079707680515406 0.021258601810655288 0 0.039164604858462758 0.019463628552968432 0 0.038966888286299975 0.020009418039433544 0 0.039124675736365043 0.019442094035231478 0 0.038448918626835096 0.020930807707805994 0 0.039091066785806212 0.020197539300211658 0 0.039079707680515406 0.021258601810655288 0 0.039564986754299515 0.021541704277978916 0 0.038933560920089053 0.021992444546568846 0 0.038448918626835096 0.020930807707805994 0 0.039079707680515406 0.021258601810655288 0 0.038933560920089053 0.021992444546568846 0 0.039557729266476341 0.020983758762693129 0 0.039564986754299515 0.021541704277978916 0 0.039862716132884661 0.021244733053534682 0 0.039557729266476341 0.020983758762693129 0 0.039079707680515406 0.021258601810655288 0 0.039564986754299515 0.021541704277978916 0 0.039564986754299515 0.021541704277978916 0 0.038933560920089053 0.021992444546568846 0 0.039601198694996988 0.022529081268493317 0 0.039564986754299515 0.021541704277978916 0 0.039601198694996988 0.022529081268493317 0 0.039841167213128595 0.021590573993313031 0 0.038977564606956755 0.023562055692127631 0 0.038933560920089053 0.021992444546568846 0 0.039601198694996988 0.022529081268493317 0 0.038159589896398914 0.024455155148761062 0 0.03885292970513933 0.023378934105034291 0 0.038156026829539537 0.025279018550393335 0 0.038092680855432562 0.024226244160215925 0 0.038970512690385851 0.024574330690522547 0 0.038092680855432562 0.024226244160215925 0 0.039170034168244841 0.023047132951812817 0 0.038970512690385851 0.024574330690522547 0 0.039981375889221286 0.02323589471333232 0 0.039702477983861707 0.025146807322981676 0 0.038970512690385851 0.024574330690522547 0 0.039170034168244841 0.023047132951812817 0 0.039981375889221286 0.02323589471333232 0 0.038970512690385851 0.024574330690522547 0 0.039170034168244841 0.023047132951812817 0 0.039981375889221286 0.02323589471333232 0 0.040156211060905736 0.022770360259206184 0 0.039595091041769323 0.02242684599211894 0 0.040140823662186409 0.021996122270508095 0 0.039601198694996988 0.022529081268493317 0 0.039969106881479879 0.0217618987349655 0 0.039841167213128595 0.021590573993313031 0 0.039969106881479879 0.0217618987349655 0 0.039841167213128595 0.021590573993313031 0 0.039981998275979209 0.021685664761908859 0 0.03885292970513933 0.023378934105034291 0 0.039595091041769323 0.02242684599211894 0 0.039564986754299515 0.021541704277978916 0 0.039841167213128595 0.021590573993313031 0 0.039862716132884661 0.021244733053534682 0 0.039841167213128595 0.021590573993313031 0 0.039862716132884661 0.021244733053534682 0 0.039981998275979209 0.021685664761908859 0 0.039969106881479879 0.0217618987349655 0 0.039981998275979209 0.021685664761908859 0 0.040127074287412863 0.021995671306942011 0 0.039862716132884661 0.021244733053534682 0 0.039981998275979209 0.021685664761908859 0 0.03997171080938277 0.0213121269888151 0 0.039981998275979209 0.021685664761908859 0 0.03997171080938277 0.0213121269888151 0 0.04006830659722159 0.021661365230492492 0 0.039978837377502234 0.020987493938981392 0 0.03997171080938277 0.0213121269888151 0 0.040067638927116643 0.021106899793350231 0 0.039598700966840636 0.020162784202023203 0 0.039431822421413333 0.020157792368889482 0 0.039978837377502234 0.020987493938981392 0 0.039862716132884661 0.021244733053534682 0 0.03997171080938277 0.0213121269888151 0 0.039557729266476341 0.020983758762693129 0 0.039862716132884661 0.021244733053534682 0 0.039789489413975344 0.020860498522528421 0 0.039978837377502234 0.020987493938981392 0 0.039862716132884661 0.021244733053534682 0 0.039789489413975344 0.020860498522528421 0 0.040144261483065248 0.020699983924014394 0 0.040181211939447327 0.021013899508709549 0 0.040328115905512073 0.020644849270010215 0 0.040181211939447327 0.021013899508709549 0 0.040269655298503633 0.021001144620388192 0 0.040328115905512073 0.020644849270010215 0 0.040144261483065248 0.020699983924014394 0 0.040181211939447327 0.021013899508709549 0 0.040067638927116643 0.021106899793350231 0 0.040144261483065248 0.020699983924014394 0 0.039978837377502234 0.020987493938981392 0 0.040067638927116643 0.021106899793350231 0 0.040181211939447327 0.021013899508709549 0 0.040067638927116643 0.021106899793350231 0 0.04006830659722159 0.021661365230492492 0 0.039981998275979209 0.021685664761908859 0 0.04006830659722159 0.021661365230492492 0 0.040127074287412863 0.021995671306942011 0 0.04006830659722159 0.021661365230492492 0 0.040127074287412863 0.021995671306942011 0 0.040315922297915925 0.022798079162478311 0 0.03997171080938277 0.0213121269888151 0 0.040067638927116643 0.021106899793350231 0 0.04006830659722159 0.021661365230492492 0 0.040127074287412863 0.021995671306942011 0 0.040266305401563673 0.02258950742565196 0 0.040156211060905736 0.022770360259206184 0 0.040090789548538161 0.021713337093096356 0 0.039982706649266106 0.021857119502532604 0 0.040181211939447327 0.021013899508709549 0 0.04006830659722159 0.021661365230492492 0 0.040269655298503633 0.021001144620388192 0 0.040127074287412863 0.021995671306942011 0 0.040315922297915925 0.022798079162478311 0 0.040266305401563673 0.02258950742565196 0 0.040315922297915925 0.022798079162478311 0 0.040266305401563673 0.02258950742565196 0 0.040248141361665768 0.022795011755975141 0 0.040266305401563673 0.02258950742565196 0 0.040248141361665768 0.022795011755975141 0 0.040156211060905736 0.022770360259206184 0 0.040248141361665768 0.022795011755975141 0 0.039981375889221286 0.02323589471333232 0 0.040156211060905736 0.022770360259206184 0 0.039170034168244841 0.023047132951812817 0 0.040127074287412863 0.021995671306942011 0 0.040156211060905736 0.022770360259206184 0 0.040248141361665768 0.022795011755975141 0 0.039981375889221286 0.02323589471333232 0 0.040134082797793333 0.022996204223856082 0 0.039912356817994057 0.023275740373293514 0 0.040747064967309635 0.023918845851576734 0 0.039981375889221286 0.02323589471333232 0 0.040134082797793333 0.022996204223856082 0 0.04008798506230267 0.023032264820502676 0 0.040248141361665768 0.022795011755975141 0 0.040134082797793333 0.022996204223856082 0 0.040129187534861652 0.022776112164424826 0 0.040134082797793333 0.022996204223856082 0 0.04008798506230267 0.023032264820502676 0 0.040121242942896325 0.022980952630454316 0 0.04008798506230267 0.023032264820502676 0 0.040128427319622288 0.023076985569546793 0 0.040121242942896325 0.022980952630454316 0 0.04008798506230267 0.023032264820502676 0 0.040071951243962962 0.023159168070801442 0 0.040128427319622288 0.023076985569546793 0 0.040747064967309635 0.023918845851576734 0 0.038528726907337059 0.025557089704380871 0 0.040784686352439786 0.025008541745793204 0 0.039702477983861707 0.025146807322981676 0 0.039923942323439571 0.026157244356249339 0 0.040784686352439786 0.025008541745793204 0 0.039923942323439571 0.026157244356249339 0 0.041368136351001943 0.026398462050011163 0 0.039981375889221286 0.02323589471333232 0 0.040784686352439786 0.025008541745793204 0 0.039702477983861707 0.025146807322981676 0 0.039702477983861707 0.025146807322981676 0 0.038970512690385851 0.024574330690522547 0 0.038586540491998042 0.02595690158715425 0 0.038156026829539537 0.025279018550393335 0 0.038970512690385851 0.024574330690522547 0 0.038586540491998042 0.02595690158715425 0 0.039702477983861707 0.025146807322981676 0 0.038586540491998042 0.02595690158715425 0 0.039923942323439571 0.026157244356249339 0 0.037796229080404975 0.026405074265511284 0 0.037967875568012885 0.026841405189539654 0 0.037073536592323229 0.0269434855820243 0 0.036116758437308077 0.027215806451507021 0 0.036598252737432162 0.026731410211342777 0 0.036116758437308077 0.027215806451507021 0 0.036598252737432162 0.026731410211342777 0 0.035804464011953599 0.026544971007654711 0 0.037094391002086169 0.026572177224341843 0 0.037073536592323229 0.0269434855820243 0 0.036598252737432162 0.026731410211342777 0 0.037094391002086169 0.026572177224341843 0 0.036598252737432162 0.026731410211342777 0 0.036577785127530162 0.026290758142516135 0 0.036598252737432162 0.026731410211342777 0 0.035804464011953599 0.026544971007654711 0 0.036577785127530162 0.026290758142516135 0 0.035804464011953599 0.026544971007654711 0 0.03534943930325269 0.026531758209224293 0 0.035408322298129229 0.026290334287518341 0 0.03534943930325269 0.026531758209224293 0 0.035091248930337729 0.026516411820790866 0 0.035408322298129229 0.026290334287518341 0 0.035804464011953599 0.026544971007654711 0 0.03534943930325269 0.026531758209224293 0 0.035193204305053655 0.02683790152224854 0 0.03534943930325269 0.026531758209224293 0 0.035091248930337729 0.026516411820790866 0 0.035193204305053655 0.02683790152224854 0 0.035091248930337729 0.026516411820790866 0 0.035193204305053655 0.02683790152224854 0 0.034889818732505712 0.026634419915833228 0 0.035091248930337729 0.026516411820790866 0 0.034889818732505712 0.026634419915833228 0 0.034860982040125464 0.026404855461567865 0 0.035193204305053655 0.02683790152224854 0 0.034889818732505712 0.026634419915833228 0 0.034826414002270552 0.026710749488244083 0 0.035193204305053655 0.02683790152224854 0 0.035122516029509443 0.027186056673412441 0 0.034826414002270552 0.026710749488244083 0 0.038528726907337059 0.025557089704380871 0 0.035454542588971349 0.026676962772675932 0 0.036116758437308077 0.027215806451507021 0 0.035193204305053655 0.02683790152224854 0 0.035122516029509443 0.027186056673412441 0 0.036116758437308077 0.027215806451507021 0 0.035804464011953599 0.026544971007654711 0 0.035193204305053655 0.02683790152224854 0 0.037967875568012885 0.026841405189539654 0 0.038528726907337059 0.025557089704380871 0 0.035660531466345589 0.025609472241063535 0 0.03528094834455945 0.025911515764964997 0 0.035879663690753932 0.026027238725204911 0 0.035660531466345589 0.025609472241063535 0 0.034861967036452696 0.025485306534956974 0 0.03528094834455945 0.025911515764964997 0 0.034861967036452696 0.025485306534956974 0 0.034851771250118582 0.025896677831995032 0 0.03528094834455945 0.025911515764964997 0 0.03528094834455945 0.025911515764964997 0 0.035008733153047263 0.026218481281604464 0 0.035408322298129229 0.026290334287518341 0 0.034851771250118582 0.025896677831995032 0 0.035008733153047263 0.026218481281604464 0 0.034663244952660238 0.026176224468575569 0 0.034851771250118582 0.025896677831995032 0 0.03528094834455945 0.025911515764964997 0 0.035008733153047263 0.026218481281604464 0 0.035091248930337729 0.026516411820790866 0 0.035008733153047263 0.026218481281604464 0 0.034860982040125464 0.026404855461567865 0 0.035091248930337729 0.026516411820790866 0 0.035008733153047263 0.026218481281604464 0 0.035408322298129229 0.026290334287518341 0 0.035804464011953599 0.026544971007654711 0 0.035408322298129229 0.026290334287518341 0 0.035879663690753932 0.026027238725204911 0 0.03528094834455945 0.025911515764964997 0 0.035408322298129229 0.026290334287518341 0 0.035879663690753932 0.026027238725204911 0 0.035804464011953599 0.026544971007654711 0 0.035879663690753932 0.026027238725204911 0 0.036577785127530162 0.026290758142516135 0 0.028884524929122999 0.030622363827068101 0 0.030499881467708278 0.03103937091949624 0 0.021744376121853547 0.035768813053553873 0 0.023334103015663452 0.035179278728849066 0 0.023952829405586611 0.036085761689318659 0 0.036577785127530162 0.026290758142516135 0 0.036329811062580229 0.025536386382947605 0 0.037060783787114651 0.02603984298985201 0 0.035879663690753932 0.026027238725204911 0 0.036577785127530162 0.026290758142516135 0 0.036329811062580229 0.025536386382947605 0 0.035660531466345589 0.025609472241063535 0 0.035879663690753932 0.026027238725204911 0 0.036329811062580229 0.025536386382947605 0 0.021744376121853547 0.035768813053553873 0 0.021312579822430441 0.034995146022053655 0 0.020479749113622041 0.035280887934189854 0 0.028884524929122999 0.030622363827068101 0 0.028673367390613224 0.030111975474652053 0 0.021744376121853547 0.035768813053553873 0 0.022538487784379939 0.034673699737778493 0 0.023334103015663452 0.035179278728849066 0 0.021744376121853547 0.035768813053553873 0 0.022538487784379939 0.034673699737778493 0 0.021312579822430441 0.034995146022053655 0 0.022538487784379939 0.034673699737778493 0 0.021767523060424513 0.034664237281425155 0 0.022047126403743025 0.034246137343050695 0 0.022538487784379939 0.034673699737778493 0 0.021767523060424513 0.034664237281425155 0 0.021312579822430441 0.034995146022053655 0 0.021767523060424513 0.034664237281425155 0 0.021312579822430441 0.034995146022053655 0 0.021228215530438761 0.034707277546657207 0 0.021312579822430441 0.034995146022053655 0 0.020543209789183541 0.034981182591875798 0 0.021228215530438761 0.034707277546657207 0 0.020543209789183541 0.034981182591875798 0 0.020479749113622041 0.035280887934189854 0 0.020431473651259035 0.035082682086259087 0 0.021312579822430441 0.034995146022053655 0 0.020543209789183541 0.034981182591875798 0 0.020479749113622041 0.035280887934189854 0 0.035660531466345589 0.025609472241063535 0 0.036329811062580229 0.025536386382947605 0 0.035420995861033165 0.025105640539370144 0 0.035660531466345589 0.025609472241063535 0 0.034861967036452696 0.025485306534956974 0 0.035420995861033165 0.025105640539370144 0 0.034861967036452696 0.025485306534956974 0 0.035420995861033165 0.025105640539370144 0 0.034479920693354711 0.024786112197531341 0 0.028673367390613224 0.030111975474652053 0 0.023963485119646324 0.031367572244054197 0 0.020479749113622041 0.035280887934189854 0 0.020431473651259035 0.035082682086259087 0 0.020528925889232854 0.03504852201866622 0 0.020431473651259035 0.035082682086259087 0 0.020583242184741595 0.035215927358407888 0 0.020528925889232854 0.03504852201866622 0 0.020583242184741595 0.035215927358407888 0 0.020151256533559012 0.035231479801620745 0 0.019715442435595584 0.036341580210857843 0 0.0186412664197429 0.037987573129244744 0 0.020024698662644513 0.035941519452786272 0 0.020431473651259035 0.035082682086259087 0 0.020583242184741595 0.035215927358407888 0 0.020151256533559012 0.035231479801620745 0 0.020543209789183541 0.034981182591875798 0 0.020151256533559012 0.035231479801620745 0 0.020292986661408281 0.034813441201026224 0 0.020543209789183541 0.034981182591875798 0 0.020431473651259035 0.035082682086259087 0 0.020151256533559012 0.035231479801620745 0 0.020151256533559012 0.035231479801620745 0 0.019911782702389798 0.035837337551383165 0 0.020292986661408281 0.034813441201026224 0 0.020151256533559012 0.035231479801620745 0 0.019911782702389798 0.035837337551383165 0 0.019715442435595584 0.036341580210857843 0 0.019911782702389798 0.035837337551383165 0 0.019715442435595584 0.036341580210857843 0 0.01961311374944482 0.036088357113000798 0 0.019911782702389798 0.035837337551383165 0 0.01961311374944482 0.036088357113000798 0 0.019681915242502825 0.036072996926889568 0 0.019911782702389798 0.035837337551383165 0 0.019681915242502825 0.036072996926889568 0 0.019539493639642462 0.035975226241670127 0 0.01848403922015111 0.038326612468535907 0 0.019715442435595584 0.036341580210857843 0 0.018238930215115984 0.036527337350390064 0 0.019715442435595584 0.036341580210857843 0 0.018238930215115984 0.036527337350390064 0 0.019086844923120592 0.03594746979734019 0 0.018238930215115984 0.036527337350390064 0 0.019086844923120592 0.03594746979734019 0 0.017976019053294615 0.035661612283671103 0 0.019086844923120592 0.03594746979734019 0 0.019068862245470164 0.035535838091506497 0 0.017976019053294615 0.035661612283671103 0 0.01961311374944482 0.036088357113000798 0 0.019440851253353698 0.035814182439077705 0 0.019086844923120592 0.03594746979734019 0 0.019715442435595584 0.036341580210857843 0 0.01961311374944482 0.036088357113000798 0 0.019086844923120592 0.03594746979734019 0 0.01961311374944482 0.036088357113000798 0 0.019674886610522906 0.035935456686112636 0 0.019440851253353698 0.035814182439077705 0 0.01961311374944482 0.036088357113000798 0 0.019674886610522906 0.035935456686112636 0 0.019681915242502825 0.036072996926889568 0 0.019674886610522906 0.035935456686112636 0 0.019440851253353698 0.035814182439077705 0 0.019706527948767965 0.035812006400579535 0 0.019440851253353698 0.035814182439077705 0 0.01975794810115342 0.035679124437868782 0 0.019706527948767965 0.035812006400579535 0 0.019440851253353698 0.035814182439077705 0 0.019086844923120592 0.03594746979734019 0 0.019068862245470164 0.035535838091506497 0 0.019068862245470164 0.035535838091506497 0 0.018517552135582135 0.034999703284820473 0 0.02038612134739104 0.034999904766877289 0 0.019440851253353698 0.035814182439077705 0 0.019068862245470164 0.035535838091506497 0 0.01975794810115342 0.035679124437868782 0 0.017976019053294615 0.035661612283671103 0 0.018517552135582135 0.034999703284820473 0 0.016647676322813405 0.034999633490762919 0 0.019068862245470164 0.035535838091506497 0 0.017976019053294615 0.035661612283671103 0 0.018517552135582135 0.034999703284820473 0 0.021472873048585073 0.035748242050692366 0 0.020387094693929894 0.034999845691810451 0 0.022198021166235413 0.03499978450937212 0 0.02038612134739104 0.034999904766877289 0 0.01975794810115342 0.035679124437868782 0 0.020128928498750771 0.035894255959445981 0 0.02038631494865983 0.035002031128712481 0 0.022776232013232353 0.034226054892083191 0 0.021472873048585073 0.035748242050692366 0 0.020387094693929894 0.034999845691810451 0 0.020358121867104572 0.036034315927206267 0 0.019068862245470164 0.035535838091506497 0 0.02038612134739104 0.034999904766877289 0 0.01975794810115342 0.035679124437868782 0 0.020855073722347715 0.034389260274436471 0 0.022776232013232353 0.034226054892083191 0 0.019674886610522906 0.035935456686112636 0 0.019853298248782462 0.035807790489228372 0 0.019681915242502825 0.036072996926889568 0 0.027248775373544688 0.030583465457580672 0 0.027500047644103826 0.030955853000914732 0 0.027161460095387838 0.031132354217778151 0 0.019853298248782462 0.035807790489228372 0 0.019681915242502825 0.036072996926889568 0 0.019750472594318863 0.036127932952700406 0 0.022776232013232353 0.034226054892083191 0 0.021913822136065252 0.033922794246685387 0 0.019674886610522906 0.035935456686112636 0 0.019706527948767965 0.035812006400579535 0 0.019853298248782462 0.035807790489228372 0 0.01975794810115342 0.035679124437868782 0 0.019706527948767965 0.035812006400579535 0 0.019853298248782462 0.035807790489228372 0 0.022776232013232353 0.034226054892083191 0 0.025120968703732541 0.033770035270110084 0 0.027248775373544688 0.030583465457580672 0 0.027500047644103826 0.030955853000914732 0 0.027948647728718915 0.030969266677466984 0 0.021472873048585073 0.035748242050692366 0 0.022015114442225925 0.036781322433587768 0 0.022494343597115968 0.035874995985279136 0 0.021472873048585073 0.035748242050692366 0 0.020358121867104572 0.036034315927206267 0 0.022015114442225925 0.036781322433587768 0 0.027948647728718915 0.030969266677466984 0 0.027974903064700976 0.031241390374698086 0 0.02783212396846858 0.031262012353541611 0 0.027948647728718915 0.030969266677466984 0 0.027615851004809591 0.031147787064495985 0 0.02783212396846858 0.031262012353541611 0 0.027500047644103826 0.030955853000914732 0 0.027948647728718915 0.030969266677466984 0 0.027615851004809591 0.031147787064495985 0 0.027615851004809591 0.031147787064495985 0 0.02783212396846858 0.031262012353541611 0 0.027880868282058002 0.031428870517653425 0 0.027974903064700976 0.031241390374698086 0 0.02783212396846858 0.031262012353541611 0 0.028058063419842405 0.031394799041378284 0 0.02783212396846858 0.031262012353541611 0 0.027880868282058002 0.031428870517653425 0 0.028058063419842405 0.031394799041378284 0 0.027615851004809591 0.031147787064495985 0 0.027161460095387838 0.031132354217778151 0 0.027880868282058002 0.031428870517653425 0 0.021913822136065252 0.033922794246685387 0 0.025310313767127189 0.032792658067579743 0 0.021348216164740984 0.034335072351642418 0 0.021913822136065252 0.033922794246685387 0 0.027500047644103826 0.030955853000914732 0 0.027615851004809591 0.031147787064495985 0 0.027161460095387838 0.031132354217778151 0 0.021913822136065252 0.033922794246685387 0 0.020296457795834295 0.035270027675520593 0 0.019911782702389798 0.035837337551383165 0 0.019539493639642462 0.035975226241670127 0 0.020292986661408281 0.034813441201026224 0 0.020531680306331603 0.033839613310126582 0 0.021228215530438761 0.034707277546657207 0 0.022047126403743025 0.034246137343050695 0 0.020531680306331603 0.033839613310126582 0 0.020292986661408281 0.034813441201026224 0 0.021228215530438761 0.034707277546657207 0 0.020543209789183541 0.034981182591875798 0 0.020292986661408281 0.034813441201026224 0 0.021228215530438761 0.034707277546657207 0 0.027161460095387838 0.031132354217778151 0 0.027880868282058002 0.031428870517653425 0 0.027895760956694781 0.031625345274256006 0 0.021767523060424513 0.034664237281425155 0 0.021228215530438761 0.034707277546657207 0 0.022047126403743025 0.034246137343050695 0 0.027998620348190562 0.031428833864569516 0 0.028964739622438826 0.031661864196345993 0 0.027895760956694781 0.031625345274256006 0 0.029595107280893984 0.031550014897974203 0 0.029413029362799058 0.032510295307405977 0 0.028426430614021704 0.031712084485035312 0 0.028180433826560217 0.031337766855930128 0 0.028058063419842405 0.031394799041378284 0 0.027880868282058002 0.031428870517653425 0 0.027895760956694781 0.031625345274256006 0 0.029595107280893984 0.031550014897974203 0 0.027880868282058002 0.031428870517653425 0 0.028426430614021704 0.031712084485035312 0 0.028058063419842405 0.031394799041378284 0 0.028426430614021704 0.031712084485035312 0 0.028524732252160859 0.031358544566809789 0 0.028180433826560217 0.031337766855930128 0 0.028964739622438826 0.031661864196345993 0 0.030287194765342702 0.031816448170616157 0 0.028426430614021704 0.031712084485035312 0 0.028524732252160859 0.031358544566809789 0 0.02918736786394218 0.031807163970913155 0 0.023835333403544295 0.037263481129709765 0 0.02423812731387889 0.036696047787977137 0 0.023416838941822116 0.036377525827138768 0 0.023835333403544295 0.037263481129709765 0 0.02423812731387889 0.036696047787977137 0 0.024975718640432926 0.036986895423478605 0 0.022015114442225925 0.036781322433587768 0 0.023835333403544295 0.037263481129709765 0 0.023416838941822116 0.036377525827138768 0 0.025120968703732541 0.033770035270110084 0 0.026159333575819118 0.034292738105816713 0 0.027948647728718915 0.030969266677466984 0 0.028524732252160859 0.031358544566809789 0 0.028180433826560217 0.031337766855930128 0 0.027974903064700976 0.031241390374698086 0 0.028180433826560217 0.031337766855930128 0 0.028058063419842405 0.031394799041378284 0 0.027948647728718915 0.030969266677466984 0 0.027974903064700976 0.031241390374698086 0 0.028180433826560217 0.031337766855930128 0 0.022015114442225925 0.036781322433587768 0 0.022494343597115968 0.035874995985279136 0 0.023416838941822116 0.036377525827138768 0 0.022494343597115968 0.035874995985279136 0 0.023416838941822116 0.036377525827138768 0 0.023347549869131862 0.035645598423314148 0 0.023416838941822116 0.036377525827138768 0 0.023347549869131862 0.035645598423314148 0 0.024644641680832486 0.036181833982554437 0 0.02423812731387889 0.036696047787977137 0 0.023416838941822116 0.036377525827138768 0 0.024644641680832486 0.036181833982554437 0 0.023347549869131862 0.035645598423314148 0 0.024009327660082347 0.034999752763138187 0 0.022198021166235413 0.03499978450937212 0 0.023347549869131862 0.035645598423314148 0 0.024009327660082347 0.034999752763138187 0 0.024644641680832486 0.036181833982554437 0 0.021472873048585073 0.035748242050692366 0 0.022494343597115968 0.035874995985279136 0 0.022198021166235413 0.03499978450937212 0 0.022494343597115968 0.035874995985279136 0 0.023347549869131862 0.035645598423314148 0 0.022198021166235413 0.03499978450937212 0 0.025820137370335502 0.034999828862779761 0 0.025322231053277949 0.035700785940584248 0 0.026359972347586996 0.036150211935989073 0 0.024009327660082347 0.034999752763138187 0 0.025820137370335502 0.034999828862779761 0 0.025322231053277949 0.035700785940584248 0 0.024009327660082347 0.034999752763138187 0 0.025322231053277949 0.035700785940584248 0 0.024644641680832486 0.036181833982554437 0 0.025322231053277949 0.035700785940584248 0 0.024644641680832486 0.036181833982554437 0 0.025721568604988115 0.036227491307438853 0 0.025721568604988115 0.036227491307438853 0 0.025972830527442776 0.036659485743866814 0 0.026359972347586996 0.036150211935989073 0 0.025322231053277949 0.035700785940584248 0 0.025721568604988115 0.036227491307438853 0 0.026359972347586996 0.036150211935989073 0 0.025972830527442776 0.036659485743866814 0 0.027104621693528539 0.036511692856907627 0 0.027291483257202653 0.035535639379833325 0 0.026023611214492974 0.036653170792137847 0 0.026813981088159897 0.035843649353981433 0 0.025972830527442776 0.036659485743866814 0 0.026185950890952152 0.036976581199966038 0 0.027104621693528539 0.036511692856907627 0 0.024644641680832486 0.036181833982554437 0 0.025721568604988115 0.036227491307438853 0 0.024975718640432926 0.036986895423478605 0 0.025721568604988115 0.036227491307438853 0 0.025972830527442776 0.036659485743866814 0 0.024975718640432926 0.036986895423478605 0 0.02423812731387889 0.036696047787977137 0 0.024644641680832486 0.036181833982554437 0 0.024975718640432926 0.036986895423478605 0 0.025972830527442776 0.036659485743866814 0 0.024975718640432926 0.036986895423478605 0 0.025656588312159497 0.037019750198988018 0 0.023835333403544295 0.037263481129709765 0 0.024975718640432926 0.036986895423478605 0 0.025669592994519812 0.037437918963885555 0 0.028426430614021704 0.031712084485035312 0 0.02918736786394218 0.031807163970913155 0 0.029136227551607878 0.032010695803325349 0 0.026159333575819118 0.034292738105816713 0 0.02723511271487351 0.034624876300169 0 0.025656588312159497 0.037019750198988018 0 0.025669592994519812 0.037437918963885555 0 0.026185950890952152 0.036976581199966038 0 0.024975718640432926 0.036986895423478605 0 0.025656588312159497 0.037019750198988018 0 0.025669592994519812 0.037437918963885555 0 0.025669592994519812 0.037437918963885555 0 0.026771096401651481 0.037000619614309296 0 0.026915015036162733 0.037184688280558716 0 0.026185950890952152 0.036976581199966038 0 0.026771096401651481 0.037000619614309296 0 0.027104621693528539 0.036511692856907627 0 0.025972830527442776 0.036659485743866814 0 0.025656588312159497 0.037019750198988018 0 0.026185950890952152 0.036976581199966038 0 0.025669592994519812 0.037437918963885555 0 0.026185950890952152 0.036976581199966038 0 0.026771096401651481 0.037000619614309296 0 0.026771096401651481 0.037000619614309296 0 0.026915015036162733 0.037184688280558716 0 0.027274005754450045 0.036982588359453082 0 0.02723511271487351 0.034624876300169 0 0.029612775042529928 0.034193768929927225 0 0.031592975493953714 0.032475839592385362 0 0.031017684929156967 0.031957915198359388 0 0.031913984238969018 0.032416422091879962 0 0.025669592994519812 0.037437918963885555 0 0.026915015036162733 0.037184688280558716 0 0.027465571232059199 0.037253742550305911 0 0.02918736786394218 0.031807163970913155 0 0.029136227551607878 0.032010695803325349 0 0.029924155712008117 0.032323697687678822 0 0.030287194765342702 0.031816448170616157 0 0.029612775042529928 0.034193768929927225 0 0.031592975493953714 0.032475839592385362 0 0.031313383903167853 0.032722397813847955 0 0.031175428334150834 0.032375927572973716 0 0.031592975493953714 0.032475839592385362 0 0.031175428334150834 0.032375927572973716 0 0.031017684929156967 0.031957915198359388 0 0.031592975493953714 0.032475839592385362 0 0.031858929515716249 0.032805743796651236 0 0.031913984238969018 0.032416422091879962 0 0.031592975493953714 0.032475839592385362 0 0.031313383903167853 0.032722397813847955 0 0.031858929515716249 0.032805743796651236 0 0.031313383903167853 0.032722397813847955 0 0.031552664313037652 0.033035125829684417 0 0.031858929515716249 0.032805743796651236 0 0.031552664313037652 0.033035125829684417 0 0.03203921724048879 0.03308738869234229 0 0.031858929515716249 0.032805743796651236 0 0.031313383903167853 0.032722397813847955 0 0.031552664313037652 0.033035125829684417 0 0.030728895855108049 0.03315854786775204 0 0.031313383903167853 0.032722397813847955 0 0.030728895855108049 0.03315854786775204 0 0.030805975387108723 0.03253382066495171 0 0.030805975387108723 0.03253382066495171 0 0.030754590570587978 0.032229463427351231 0 0.030207890527175055 0.032153826436032887 0 0.030805975387108723 0.03253382066495171 0 0.030948314030359171 0.032272827682891608 0 0.030754590570587978 0.032229463427351231 0 0.031313383903167853 0.032722397813847955 0 0.030805975387108723 0.03253382066495171 0 0.031175428334150834 0.032375927572973716 0 0.030805975387108723 0.03253382066495171 0 0.031175428334150834 0.032375927572973716 0 0.030948314030359171 0.032272827682891608 0 0.031175428334150834 0.032375927572973716 0 0.030948314030359171 0.032272827682891608 0 0.031017684929156967 0.031957915198359388 0 0.030948314030359171 0.032272827682891608 0 0.031017684929156967 0.031957915198359388 0 0.030754590570587978 0.032229463427351231 0 0.031017684929156967 0.031957915198359388 0 0.030754590570587978 0.032229463427351231 0 0.030207890527175055 0.032153826436032887 0 0.030805975387108723 0.03253382066495171 0 0.030207890527175055 0.032153826436032887 0 0.029413029362799058 0.032510295307405977 0 0.029595107280893984 0.031550014897974203 0 0.030207890527175055 0.032153826436032887 0 0.029413029362799058 0.032510295307405977 0 0.029595107280893984 0.031550014897974203 0 0.031017684929156967 0.031957915198359388 0 0.030207890527175055 0.032153826436032887 0 0.025310313767127189 0.032792658067579743 0 0.02667784133511783 0.033434166506503528 0 0.022538487784379939 0.034673699737778493 0 0.0239646703769229 0.034272427874028566 0 0.023334103015663452 0.035179278728849066 0 0.022538487784379939 0.034673699737778493 0 0.022047126403743025 0.034246137343050695 0 0.0239646703769229 0.034272427874028566 0 0.030728895855108049 0.03315854786775204 0 0.030805975387108723 0.03253382066495171 0 0.029413029362799058 0.032510295307405977 0 0.026315358528096328 0.034615572150987067 0 0.0239646703769229 0.034272427874028566 0 0.023334103015663452 0.035179278728849066 0 0.028558055767407463 0.033905123249128248 0 0.02667784133511783 0.033434166506503528 0 0.026315358528096328 0.034615572150987067 0 0.023952829405586611 0.036085761689318659 0 0.026764812157965154 0.035993613675368498 0 0.026315358528096328 0.034615572150987067 0 0.023334103015663452 0.035179278728849066 0 0.023952829405586611 0.036085761689318659 0 0.037094391002086169 0.026572177224341843 0 0.036577785127530162 0.026290758142516135 0 0.037060783787114651 0.02603984298985201 0 0.03738274902835264 0.026633185424517154 0 0.037094391002086169 0.026572177224341843 0 0.037060783787114651 0.02603984298985201 0 0.03738274902835264 0.026633185424517154 0 0.037060783787114651 0.02603984298985201 0 0.037428757192052901 0.026589949845279747 0 0.030499881467708278 0.03103937091949624 0 0.031998168239580821 0.031225718282353276 0 0.037388268821596404 0.026868001155063173 0 0.03738274902835264 0.026633185424517154 0 0.037428757192052901 0.026589949845279747 0 0.037153738825823034 0.027369000083664885 0 0.037388268821596404 0.026868001155063173 0 0.037428757192052901 0.026589949845279747 0 0.033431920179242784 0.031044027326841656 0 0.031998168239580821 0.031225718282353276 0 0.030009588001948192 0.034882213028609561 0 0.026764812157965154 0.035993613675368498 0 0.028933569011847602 0.034818211630743223 0 0.031552664313037652 0.033035125829684417 0 0.031653591544454997 0.033356254664307937 0 0.03203921724048879 0.03308738869234229 0 0.031552664313037652 0.033035125829684417 0 0.030728895855108049 0.03315854786775204 0 0.031653591544454997 0.033356254664307937 0 0.026315358528096328 0.034615572150987067 0 0.026764812157965154 0.035993613675368498 0 0.028933569011847602 0.034818211630743223 0 0.028558055767407463 0.033905123249128248 0 0.03040345652483422 0.034090378553322226 0 0.032447073670174104 0.033185270562237919 0 0.03203921724048879 0.03308738869234229 0 0.032424958446794522 0.033054817048970911 0 0.032447073670174104 0.033185270562237919 0 0.032188366684069804 0.033157560475557873 0 0.032643697042380404 0.03298955476587153 0 0.031653591544454997 0.033356254664307937 0 0.03203921724048879 0.03308738869234229 0 0.032188366684069804 0.033157560475557873 0 0.032447073670174104 0.033185270562237919 0 0.03203921724048879 0.03308738869234229 0 0.032188366684069804 0.033157560475557873 0 0.031909032813678455 0.03351268323853928 0 0.031653591544454997 0.033356254664307937 0 0.032188366684069804 0.033157560475557873 0 0.031813766313677182 0.033789389492562133 0 0.03040345652483422 0.034090378553322226 0 0.031909032813678455 0.03351268323853928 0 0.030009588001948192 0.034882213028609561 0 0.028933569011847602 0.034818211630743223 0 0.031909032813678455 0.03351268323853928 0 0.032188366684069804 0.033157560475557873 0 0.032699201154656819 0.03294443333961472 0 0.032188366684069804 0.033157560475557873 0 0.032699201154656819 0.03294443333961472 0 0.032643697042380404 0.03298955476587153 0 0.032800934129629263 0.032116230359669762 0 0.032699201154656819 0.03294443333961472 0 0.032643697042380404 0.03298955476587153 0 0.031620946993246218 0.032204188577638147 0 0.032643697042380404 0.03298955476587153 0 0.032021598350539922 0.033783339863579918 0 0.031620946993246218 0.032204188577638147 0 0.032800934129629263 0.032116230359669762 0 0.032643697042380404 0.03298955476587153 0 0.031620946993246218 0.032204188577638147 0 0.032021598350539922 0.033783339863579918 0 0.029729905960050027 0.033708039999254466 0 0.030651832966802971 0.034501639269648471 0 0.029684614886787301 0.033728616949779154 0 0.032447073670174104 0.033185270562237919 0 0.032643697042380404 0.03298955476587153 0 0.032021598350539922 0.033783339863579918 0 0.032447073670174104 0.033185270562237919 0 0.032021598350539922 0.033783339863579918 0 0.032424958446794522 0.033054817048970911 0 0.029595630108012288 0.035437472114545003 0 0.029274367003677079 0.035961241869024323 0 0.028792830796757079 0.036486486572748042 0 0.030651832966802971 0.034501639269648471 0 0.03055463519199423 0.034832685099729192 0 0.029595630108012288 0.035437472114545003 0 0.029274367003677079 0.035961241869024323 0 0.029214710368368289 0.035567907111549966 0 0.029274367003677079 0.035961241869024323 0 0.028731540957377354 0.036308690654017969 0 0.029148176758212394 0.035963260859552801 0 0.029274367003677079 0.035961241869024323 0 0.028731540957377354 0.036308690654017969 0 0.028792830796757079 0.036486486572748042 0 0.028731540957377354 0.036308690654017969 0 0.028407181568813666 0.036580057441731678 0 0.028792830796757079 0.036486486572748042 0 0.028731540957377354 0.036308690654017969 0 0.028407181568813666 0.036580057441731678 0 0.028128546563115607 0.036571907431247608 0 0.028407181568813666 0.036580057441731678 0 0.028792830796757079 0.036486486572748042 0 0.027955065301549224 0.036883017432397781 0 0.028407181568813666 0.036580057441731678 0 0.027955065301549224 0.036883017432397781 0 0.028128546563115607 0.036571907431247608 0 0.032424958446794522 0.033054817048970911 0 0.031858929515716249 0.032805743796651236 0 0.031913984238969018 0.032416422091879962 0 0.03203921724048879 0.03308738869234229 0 0.032424958446794522 0.033054817048970911 0 0.031858929515716249 0.032805743796651236 0 0.03055463519199423 0.034832685099729192 0 0.029612775042529928 0.034193768929927225 0 0.028792830796757079 0.036486486572748042 0 0.027624566692665241 0.037148579788553765 0 0.027955065301549224 0.036883017432397781 0 0.028792830796757079 0.036486486572748042 0 0.027624566692665241 0.037148579788553765 0 0.027515565838045722 0.037218330532013483 0 0.029382795714463734 0.034292791100395202 0 0.029612775042529928 0.034193768929927225 0 0.027624566692665241 0.037148579788553765 0 0.027465571232059199 0.037253742550305911 0 0.027571664098083613 0.037108862680028734 0 0.027955065301549224 0.036883017432397781 0 0.027654879237237757 0.036798978983390886 0 0.028128546563115607 0.036571907431247608 0 0.027955065301549224 0.036883017432397781 0 0.027592893355775885 0.037001104850226951 0 0.027654879237237757 0.036798978983390886 0 0.027624566692665241 0.037148579788553765 0 0.027955065301549224 0.036883017432397781 0 0.027686528187751153 0.037037317092944472 0 0.027955065301549224 0.036883017432397781 0 0.027686528187751153 0.037037317092944472 0 0.027592893355775885 0.037001104850226951 0 0.026915015036162733 0.037184688280558716 0 0.027465571232059199 0.037253742550305911 0 0.027358681110414413 0.037109381277799738 0 0.027465571232059199 0.037253742550305911 0 0.027571664098083613 0.037108862680028734 0 0.027358681110414413 0.037109381277799738 0 0.027624566692665241 0.037148579788553765 0 0.027571664098083613 0.037108862680028734 0 0.027686528187751153 0.037037317092944472 0 0.027571664098083613 0.037108862680028734 0 0.027686528187751153 0.037037317092944472 0 0.027592893355775885 0.037001104850226951 0 0.027571664098083613 0.037108862680028734 0 0.027592893355775885 0.037001104850226951 0 0.027358681110414413 0.037109381277799738 0 0.027592893355775885 0.037001104850226951 0 0.027358681110414413 0.037109381277799738 0 0.027274005754450045 0.036982588359453082 0 0.026915015036162733 0.037184688280558716 0 0.027358681110414413 0.037109381277799738 0 0.027274005754450045 0.036982588359453082 0 0.026771096401651481 0.037000619614309296 0 0.027274005754450045 0.036982588359453082 0 0.027320915659531583 0.036761794756769842 0 0.027274005754450045 0.036982588359453082 0 0.027654879237237757 0.036798978983390886 0 0.027320915659531583 0.036761794756769842 0 0.027592893355775885 0.037001104850226951 0 0.027274005754450045 0.036982588359453082 0 0.027654879237237757 0.036798978983390886 0 0.027654879237237757 0.036798978983390886 0 0.027702664902109198 0.036514835307801197 0 0.028128546563115607 0.036571907431247608 0 0.027654879237237757 0.036798978983390886 0 0.027702664902109198 0.036514835307801197 0 0.027320915659531583 0.036761794756769842 0 0.026771096401651481 0.037000619614309296 0 0.027320915659531583 0.036761794756769842 0 0.027104621693528539 0.036511692856907627 0 0.027702664902109198 0.036514835307801197 0 0.027320915659531583 0.036761794756769842 0 0.027104621693528539 0.036511692856907627 0 0.028731540957377354 0.036308690654017969 0 0.028128546563115607 0.036571907431247608 0 0.028234742660858021 0.036359131426312509 0 0.027702664902109198 0.036514835307801197 0 0.028128546563115607 0.036571907431247608 0 0.028234742660858021 0.036359131426312509 0 0.028234742660858021 0.036359131426312509 0 0.028021010705465848 0.036016336250619924 0 0.02848149522221843 0.036256799690154336 0 0.027702664902109198 0.036514835307801197 0 0.028234742660858021 0.036359131426312509 0 0.028021010705465848 0.036016336250619924 0 0.027702664902109198 0.036514835307801197 0 0.028021010705465848 0.036016336250619924 0 0.027104621693528539 0.036511692856907627 0 0.028021010705465848 0.036016336250619924 0 0.027104621693528539 0.036511692856907627 0 0.027291483257202653 0.035535639379833325 0 0.028021010705465848 0.036016336250619924 0 0.028055010460265265 0.035534419442609808 0 0.028642921462516631 0.035750038158977544 0 0.028021010705465848 0.036016336250619924 0 0.027291483257202653 0.035535639379833325 0 0.028055010460265265 0.035534419442609808 0 0.027291483257202653 0.035535639379833325 0 0.028055010460265265 0.035534419442609808 0 0.027633013085407665 0.0349995639930403 0 0.028055010460265265 0.035534419442609808 0 0.027633013085407665 0.0349995639930403 0 0.029188830344615523 0.034999920666414421 0 0.025820137370335502 0.034999828862779761 0 0.026359972347586996 0.036150211935989073 0 0.027630771697442092 0.034999957305261675 0 0.026813981088159897 0.035843649353981433 0 0.027631090640284774 0.035000054151904055 0 0.029461688336708709 0.03541454185630924 0 0.029694970907175249 0.035000189871136192 0 0.029460052876681513 0.035521177163810314 0 0.029697676673986022 0.035000230419836735 0 0.029994247479281061 0.03563385998234795 0 0.029461688336708709 0.03541454185630924 0 0.029694970907175249 0.035000189871136192 0 0.029192254487034715 0.035000083754010466 0 0.029461688336708709 0.03541454185630924 0 0.029192254487034715 0.035000083754010466 0 0.029125742944490614 0.035576033617227484 0 0.028055010460265265 0.035534419442609808 0 0.029188830344615523 0.034999920666414421 0 0.028642921462516631 0.035750038158977544 0 0.02919048059154165 0.035000073784294275 0 0.028901597904940412 0.035630884575285231 0 0.029461688336708709 0.03541454185630924 0 0.029125742944490614 0.035576033617227484 0 0.029323066907144889 0.035703715299605344 0 0.029461688336708709 0.03541454185630924 0 0.029323066907144889 0.035703715299605344 0 0.029460052876681513 0.035521177163810314 0 0.029323066907144889 0.035703715299605344 0 0.028984364411447184 0.035780195053184527 0 0.029148176758212394 0.035963260859552801 0 0.028021010705465848 0.036016336250619924 0 0.028642921462516631 0.035750038158977544 0 0.02848149522221843 0.036256799690154336 0 0.029125742944490614 0.035576033617227484 0 0.029323066907144889 0.035703715299605344 0 0.028984364411447184 0.035780195053184527 0 0.028901597904940412 0.035630884575285231 0 0.028747465976664381 0.036041297610435827 0 0.028731540957377354 0.036308690654017969 0 0.028984364411447184 0.035780195053184527 0 0.029148176758212394 0.035963260859552801 0 0.028731540957377354 0.036308690654017969 0 0.028234742660858021 0.036359131426312509 0 0.02848149522221843 0.036256799690154336 0 0.028720225884146178 0.036313149673259132 0 0.028747465976664381 0.036041297610435827 0 0.029323066907144889 0.035703715299605344 0 0.029148176758212394 0.035963260859552801 0 0.02925146910983532 0.035915887927742148 0 0.029274367003677079 0.035961241869024323 0 0.029148176758212394 0.035963260859552801 0 0.02925146910983532 0.035915887927742148 0 0.02925146910983532 0.035915887927742148 0 0.029095573826863456 0.035880943170127778 0 0.029308688624212483 0.03577009179232464 0 0.029095573826863456 0.035880943170127778 0 0.029230672504621077 0.035842376290829182 0 0.028681291912402925 0.035769838643450624 0 0.029095573826863456 0.035880943170127778 0 0.029308688624212483 0.03577009179232464 0 0.029230672504621077 0.035842376290829182 0 0.029308688624212483 0.03577009179232464 0 0.029428944384300021 0.035668042902811233 0 0.029230672504621077 0.035842376290829182 0 0.029323066907144889 0.035703715299605344 0 0.02925146910983532 0.035915887927742148 0 0.029308688624212483 0.03577009179232464 0 0.029323066907144889 0.035703715299605344 0 0.029308688624212483 0.03577009179232464 0 0.029460052876681513 0.035521177163810314 0 0.029308688624212483 0.03577009179232464 0 0.029428944384300021 0.035668042902811233 0 0.029460052876681513 0.035521177163810314 0 0.03272064785196431 0.034999979943101923 0 0.03120898315487499 0.03499999314348657 0 0.031244339311689878 0.035671959982402621 0 0.033219943594699708 0.034657513202474038 0 0.032720968602477495 0.035000677372561691 0 0.032784533432766591 0.036328406965223894 0 0.03272064785196431 0.034999979943101923 0 0.031244339311689878 0.035671959982402621 0 0.033219943594699708 0.034657513202474038 0 0.029994247479281061 0.03563385998234795 0 0.029697268396905632 0.035000001752808728 0 0.03120898315487499 0.03499999314348657 0 0.031244339311689878 0.035671959982402621 0 0.032725110686433606 0.034999121228499935 0 0.034998236534900043 0.034998266752941633 0 0.034673601666481889 0.034121983561041951 0 0.034998236534900043 0.034998266752941633 0 0.034673601666481889 0.034121983561041951 0 0.034999097904355375 0.03267765883114504 0 0.033699542939033246 0.034574768854154878 0 0.032725110686433606 0.034999121228499935 0 0.034673601666481889 0.034121983561041951 0 0.037041771295279594 0.033575675616121153 0 0.036024604520118984 0.033111517578686127 0 0.036989733378141744 0.031890162473467688 0 0.033219943594699708 0.034657513202474038 0 0.035507639064135912 0.033632170211855932 0 0.035507639064135912 0.033632170211855932 0 0.03499956186862245 0.032673584638008256 0 0.036024604520118984 0.033111517578686127 0 0.03499995543501544 0.032673232730508386 0 0.035986040333629621 0.031693770243639292 0 0.036024604520118984 0.033111517578686127 0 0.036989733378141744 0.031890162473467688 0 0.035986040333629621 0.031693770243639292 0 0.033219943594699708 0.034657513202474038 0 0.033091085911418329 0.033841567135412184 0 0.033091085911418329 0.033841567135412184 0 0.032802529869373494 0.032889309564543716 0 0.036989733378141744 0.031890162473467688 0 0.035986040333629621 0.031693770243639292 0 0.036897783303105364 0.03014293619002625 0 0.035986040333629621 0.031693770243639292 0 0.034999914664519148 0.030619022899994301 0 0.036897783303105364 0.03014293619002625 0 0.03499995543501544 0.032673232730508386 0 0.035986040333629621 0.031693770243639292 0 0.034999914664519148 0.030619022899994301 0 0.034999914664519148 0.030619022899994301 0 0.035978734690813315 0.029310279183666962 0 0.036897783303105364 0.03014293619002625 0 0.035978734690813315 0.029310279183666962 0 0.035000004800934778 0.028565169957759956 0 0.035838294740434505 0.027769019501098433 0 0.034999914664519148 0.030619022899994301 0 0.035978734690813315 0.029310279183666962 0 0.035000004800934778 0.028565169957759956 0 0.032802529869373494 0.032889309564543716 0 0.032176871387723405 0.031800944214239547 0 0.035978734690813315 0.029310279183666962 0 0.036897783303105364 0.03014293619002625 0 0.036737589350234634 0.028473051428371369 0 0.029095573826863456 0.035880943170127778 0 0.028681291912402925 0.035769838643450624 0 0.029214710368368289 0.035567907111549966 0 0.02925146910983532 0.035915887927742148 0 0.029095573826863456 0.035880943170127778 0 0.029214710368368289 0.035567907111549966 0 0.029274367003677079 0.035961241869024323 0 0.02925146910983532 0.035915887927742148 0 0.029214710368368289 0.035567907111549966 0 0.028681291912402925 0.035769838643450624 0 0.029214710368368289 0.035567907111549966 0 0.02801170928223615 0.034887905311074351 0 0.028645802416695933 0.0341923316251148 0 0.02717216233304659 0.032772391654181471 0 0.02801170928223615 0.034887905311074351 0 0.029214710368368289 0.035567907111549966 0 0.028645802416695933 0.0341923316251148 0 0.02801170928223615 0.034887905311074351 0 0.029214710368368289 0.035567907111549966 0 0.028645802416695933 0.0341923316251148 0 0.029729905960050027 0.033708039999254466 0 0.029595630108012288 0.035437472114545003 0 0.029214710368368289 0.035567907111549966 0 0.029729905960050027 0.033708039999254466 0 0.029015281594336421 0.03141134702902753 0 0.031620946993246218 0.032204188577638147 0 0.029729905960050027 0.033708039999254466 0 0.029015281594336421 0.03141134702902753 0 0.029729905960050027 0.033708039999254466 0 0.028319780502092301 0.0328624763753032 0 0.028645802416695933 0.0341923316251148 0 0.029729905960050027 0.033708039999254466 0 0.028319780502092301 0.0328624763753032 0 0.028645802416695933 0.0341923316251148 0 0.028319780502092301 0.0328624763753032 0 0.02717216233304659 0.032772391654181471 0 0.027868370784488658 0.031879910654582878 0 0.028319780502092301 0.0328624763753032 0 0.02717216233304659 0.032772391654181471 0 0.036567340678191652 0.026687371507561494 0 0.03579955346392303 0.026835799147863916 0 0.035896843552716842 0.027553957919141194 0 0.03369399460557692 0.029032601912972925 0 0.036307843446855864 0.027206672856379635 0 0.035712726108040903 0.025571091108702697 0 0.034999958930309993 0.026560608748698492 0 0.03579955346392303 0.026835799147863916 0 0.034999958930309993 0.026560608748698492 0 0.03579955346392303 0.026835799147863916 0 0.035896843552716842 0.027553957919141194 0 0.035000000222123004 0.028564715675379264 0 0.034999958930309993 0.026560608748698492 0 0.035896843552716842 0.027553957919141194 0 0.034999767570266495 0.028565068256161681 0 0.036307843446855864 0.027206672856379635 0 0.036595659531991981 0.026962583454105668 0 0.035838294740434505 0.027769019501098433 0 0.036737589350234634 0.028473051428371369 0 0.035978734690813315 0.029310279183666962 0 0.035838294740434505 0.027769019501098433 0 0.036737589350234634 0.028473051428371369 0 0.03369399460557692 0.029032601912972925 0 0.032176871387723405 0.031800944214239547 0 0.002820616130067382 0.02508282513613096 0 0.0025819399459238424 0.025092524642323987 0 0.0025539342237431008 0.02530719896074856 0 0.002820616130067382 0.02508282513613096 0 0.0025539342237431008 0.02530719896074856 0 0.0027969214685027392 0.025393816842478423 0 0.002820616130067382 0.02508282513613096 0 0.0027969214685027392 0.025393816842478423 0 0.0030466983355164979 0.025345270972514544 0 0.0032303490387005939 0.025015099147765327 0 0.0033477892997301234 0.02536992015693048 0 0.0030466983355164979 0.025345270972514544 0 0.002820616130067382 0.02508282513613096 0 0.0032303490387005939 0.025015099147765327 0 0.0030466983355164979 0.025345270972514544 0 0.0032303490387005939 0.025015099147765327 0 0.0035184997632109367 0.024576337636923466 0 0.0030753479486173383 0.02454166500891352 0 0.002820616130067382 0.02508282513613096 0 0.0032303490387005939 0.025015099147765327 0 0.0030753479486173383 0.02454166500891352 0 0.002820616130067382 0.02508282513613096 0 0.0025891986301224286 0.024758010092319226 0 0.0030753479486173383 0.02454166500891352 0 0.002820616130067382 0.02508282513613096 0 0.0025891986301224286 0.024758010092319226 0 0.0025819399459238424 0.025092524642323987 0 0.0022452804643229465 0.025774089533777047 0 0.0021459150687181227 0.027007189725632416 0 0.0026621887502940676 0.026432266882332467 0 0.0025891986301224286 0.024758010092319226 0 0.0025819399459238424 0.025092524642323987 0 0.0023726258292175281 0.0252163199481188 0 0.0023726258292175281 0.0252163199481188 0 0.0022452804643229465 0.025774089533777047 0 0.0021885613782334935 0.024661541280911862 0 0.0025891986301224286 0.024758010092319226 0 0.0023726258292175281 0.0252163199481188 0 0.0021885613782334935 0.024661541280911862 0 0.0022389476954108129 0.025882478435533873 0 0.0021174170610148827 0.025638166734445623 0 0.0023726258292175281 0.0252163199481188 0 0.0024125986378451232 0.025478813409198869 0 0.0022452804643229465 0.025774089533777047 0 0.0025819399459238424 0.025092524642323987 0 0.0023726258292175281 0.0252163199481188 0 0.0025539342237431008 0.02530719896074856 0 0.0023726258292175281 0.0252163199481188 0 0.0025539342237431008 0.02530719896074856 0 0.0024125986378451232 0.025478813409198869 0 0.0025539342237431008 0.02530719896074856 0 0.0024933629886323173 0.025469737045515469 0 0.0024125986378451232 0.025478813409198869 0 0.0023951804704758018 0.025603228198752846 0 0.0025091782769314872 0.025607848916160188 0 0.0026157035466237025 0.02549058900252513 0 0.0024933629886323173 0.025469737045515469 0 0.0023951804704758018 0.025603228198752846 0 0.0026157035466237025 0.02549058900252513 0 0.0025539342237431008 0.02530719896074856 0 0.0024933629886323173 0.025469737045515469 0 0.0026157035466237025 0.02549058900252513 0 0.0024933629886323173 0.025469737045515469 0 0.0024125986378451232 0.025478813409198869 0 0.0023951804704758018 0.025603228198752846 0 0.0024125986378451232 0.025478813409198869 0 0.0023951804704758018 0.025603228198752846 0 0.0022452804643229465 0.025774089533777047 0 0.0023951804704758018 0.025603228198752846 0 0.0022104423793225026 0.025674851058945337 0 0.0022452804643229465 0.025774089533777047 0 0.0023951804704758018 0.025603228198752846 0 0.0022104423793225026 0.025674851058945337 0 0.0025091782769314872 0.025607848916160188 0 0.0022104423793225026 0.025674851058945337 0 0.0025091782769314872 0.025607848916160188 0 0.0025869955411227767 0.025691669398250148 0 0.0018361220631729553 0.025986831309089447 0 0.0017890148612236397 0.026055675329558707 0 0.0016501758709831043 0.026036461425887145 0 0.0017890148612236397 0.026055675329558707 0 0.0016501758709831043 0.026036461425887145 0 0.0017473357711806942 0.026104635157536946 0 0.0017890148612236397 0.026055675329558707 0 0.0018329538585180731 0.02609412512284965 0 0.0017473357711806942 0.026104635157536946 0 0.0018361220631729553 0.025986831309089447 0 0.0018765604005603637 0.026054450754808434 0 0.0019712426736843685 0.026056029076806504 0 0.0018361220631729553 0.025986831309089447 0 0.0017890148612236397 0.026055675329558707 0 0.0018765604005603637 0.026054450754808434 0 0.0018329538585180731 0.02609412512284965 0 0.0018765604005603637 0.026054450754808434 0 0.001898024626356778 0.026133735048039539 0 0.0017890148612236397 0.026055675329558707 0 0.0018329538585180731 0.02609412512284965 0 0.0018765604005603637 0.026054450754808434 0 0.0018765604005603637 0.026054450754808434 0 0.001935979807103594 0.026084623261516726 0 0.0019712426736843685 0.026056029076806504 0 0.0018765604005603637 0.026054450754808434 0 0.001935979807103594 0.026084623261516726 0 0.001898024626356778 0.026133735048039539 0 0.0020340975508874606 0.025866892140648877 0 0.0029947258645326501 0.025882659041620834 0 0.0022104423793225026 0.025674851058945337 0 0.0025869955411227767 0.025691669398250148 0 0.003381476170409689 0.025859532247761267 0 0.0028792199526739607 0.025698088575822592 0 0.0025869955411227767 0.025691669398250148 0 0.003381476170409689 0.025859532247761267 0 0.0022104423793225026 0.025674851058945337 0 0.003381476170409689 0.025859532247761267 0 0.0035207826732125821 0.025928964043054024 0 0.0018361220631729553 0.025986831309089447 0 0.0019712426736843685 0.026056029076806504 0 0.0022046930834551336 0.026091385837728815 0 0.001935979807103594 0.026084623261516726 0 0.0019712426736843685 0.026056029076806504 0 0.0019977435010783912 0.026094039846653663 0 0.0019712426736843685 0.026056029076806504 0 0.0019977435010783912 0.026094039846653663 0 0.0022046930834551336 0.026091385837728815 0 0.0028792199526739607 0.025698088575822592 0 0.0025869955411227767 0.025691669398250148 0 0.0027511643843177256 0.025565949911632344 0 0.0025091782769314872 0.025607848916160188 0 0.0027511643843177256 0.025565949911632344 0 0.0026157035466237025 0.02549058900252513 0 0.0025091782769314872 0.025607848916160188 0 0.0025869955411227767 0.025691669398250148 0 0.0027511643843177256 0.025565949911632344 0 0.0028792199526739607 0.025698088575822592 0 0.0027511643843177256 0.025565949911632344 0 0.0029397248873141808 0.025544882972602576 0 0.0028792199526739607 0.025698088575822592 0 0.0029397248873141808 0.025544882972602576 0 0.0030455855363907373 0.025630477745687705 0 0.0027511643843177256 0.025565949911632344 0 0.0029397248873141808 0.025544882972602576 0 0.0027969214685027392 0.025393816842478423 0 0.0029397248873141808 0.025544882972602576 0 0.0027969214685027392 0.025393816842478423 0 0.0030466983355164979 0.025345270972514544 0 0.0027511643843177256 0.025565949911632344 0 0.0027969214685027392 0.025393816842478423 0 0.0026157035466237025 0.02549058900252513 0 0.0025539342237431008 0.02530719896074856 0 0.0027969214685027392 0.025393816842478423 0 0.0026157035466237025 0.02549058900252513 0 0.0033477892997301234 0.02536992015693048 0 0.0030466983355164979 0.025345270972514544 0 0.003132682084805933 0.025535105133540639 0 0.0029397248873141808 0.025544882972602576 0 0.0030466983355164979 0.025345270972514544 0 0.003132682084805933 0.025535105133540639 0 0.0029397248873141808 0.025544882972602576 0 0.003132682084805933 0.025535105133540639 0 0.0030455855363907373 0.025630477745687705 0 0.003132682084805933 0.025535105133540639 0 0.0030455855363907373 0.025630477745687705 0 0.003173987599079579 0.025630716207051197 0 0.003132682084805933 0.025535105133540639 0 0.0033229388406771465 0.025587984163741639 0 0.003173987599079579 0.025630716207051197 0 0.0033477892997301234 0.02536992015693048 0 0.003132682084805933 0.025535105133540639 0 0.0033229388406771465 0.025587984163741639 0 0.003173987599079579 0.025630716207051197 0 0.0033038680653998784 0.02572220825210203 0 0.0031018893389521437 0.025699441064292221 0 0.0033229388406771465 0.025587984163741639 0 0.0033038680653998784 0.02572220825210203 0 0.0033980504890021436 0.025660161422730907 0 0.0033229388406771465 0.025587984163741639 0 0.003173987599079579 0.025630716207051197 0 0.0033038680653998784 0.02572220825210203 0 0.0033038680653998784 0.02572220825210203 0 0.0031018893389521437 0.025699441064292221 0 0.003381476170409689 0.025859532247761267 0 0.0028792199526739607 0.025698088575822592 0 0.0031018893389521437 0.025699441064292221 0 0.003381476170409689 0.025859532247761267 0 0.0028792199526739607 0.025698088575822592 0 0.0030455855363907373 0.025630477745687705 0 0.0031018893389521437 0.025699441064292221 0 0.0030455855363907373 0.025630477745687705 0 0.003173987599079579 0.025630716207051197 0 0.0031018893389521437 0.025699441064292221 0 0.0039281465494722086 0.025542650712910391 0 0.0037248822997464699 0.02539522297545959 0 0.0045509957781501654 0.025129170952375646 0 0.003381476170409689 0.025859532247761267 0 0.0035207826732125821 0.025928964043054024 0 0.0034897960805325831 0.025792149739618762 0 0.0033038680653998784 0.02572220825210203 0 0.003381476170409689 0.025859532247761267 0 0.0033968643897210942 0.025756945221617214 0 0.003381476170409689 0.025859532247761267 0 0.0034897960805325831 0.025792149739618762 0 0.0033968643897210942 0.025756945221617214 0 0.0033038680653998784 0.02572220825210203 0 0.0033968643897210942 0.025756945221617214 0 0.0033980504890021436 0.025660161422730907 0 0.0033968643897210942 0.025756945221617214 0 0.0035052719915845362 0.025679612995212063 0 0.0033980504890021436 0.025660161422730907 0 0.0034897960805325831 0.025792149739618762 0 0.0033968643897210942 0.025756945221617214 0 0.0035052719915845362 0.025679612995212063 0 0.0035052719915845362 0.025679612995212063 0 0.0033980504890021436 0.025660161422730907 0 0.0034817675095065214 0.025544921388218896 0 0.0033229388406771465 0.025587984163741639 0 0.0033980504890021436 0.025660161422730907 0 0.0034817675095065214 0.025544921388218896 0 0.0035052719915845362 0.025679612995212063 0 0.0036155159149491487 0.025578235419677599 0 0.003635185908702336 0.025706659780302354 0 0.0035052719915845362 0.025679612995212063 0 0.0036155159149491487 0.025578235419677599 0 0.0034817675095065214 0.025544921388218896 0 0.0034897960805325831 0.025792149739618762 0 0.0035052719915845362 0.025679612995212063 0 0.003635185908702336 0.025706659780302354 0 0.0035207826732125821 0.025928964043054024 0 0.0034897960805325831 0.025792149739618762 0 0.003635185908702336 0.025706659780302354 0 0.0029947258645326501 0.025882659041620834 0 0.0032165243907508996 0.025755862773062656 0 0.0036155159149491487 0.025578235419677599 0 0.003635185908702336 0.025706659780302354 0 0.0039281465494722086 0.025542650712910391 0 0.003635185908702336 0.025706659780302354 0 0.0039281465494722086 0.025542650712910391 0 0.0037430529360122189 0.02575872470838526 0 0.0036155159149491487 0.025578235419677599 0 0.0039281465494722086 0.025542650712910391 0 0.0037248822997464699 0.02539522297545959 0 0.0033477892997301234 0.02536992015693048 0 0.0037248822997464699 0.02539522297545959 0 0.0034817675095065214 0.025544921388218896 0 0.0033477892997301234 0.02536992015693048 0 0.0037248822997464699 0.02539522297545959 0 0.0036543501436817048 0.025081838186235647 0 0.0033477892997301234 0.02536992015693048 0 0.0033229388406771465 0.025587984163741639 0 0.0034817675095065214 0.025544921388218896 0 0.0036155159149491487 0.025578235419677599 0 0.0037248822997464699 0.02539522297545959 0 0.0034817675095065214 0.025544921388218896 0 0.0045509957781501654 0.025129170952375646 0 0.0046672510151406074 0.025725347745529092 0 0.0051348964735215994 0.025590958361874538 0 0.0039281465494722086 0.025542650712910391 0 0.0045509957781501654 0.025129170952375646 0 0.0038032077021653557 0.025941342195717986 0 0.0045317590931064911 0.025128753328547252 0 0.0042520056512859632 0.025794743633377918 0 0.0045509957781501654 0.025129170952375646 0 0.0039866989888969378 0.024714176775967548 0 0.0043836892862025413 0.024575680258085635 0 0.0045509957781501654 0.025129170952375646 0 0.0043836892862025413 0.024575680258085635 0 0.0049890946565338953 0.024613075185198768 0 0.0045509957781501654 0.025129170952375646 0 0.0036543501436817048 0.025081838186235647 0 0.0039866989888969378 0.024714176775967548 0 0.0037248822997464699 0.02539522297545959 0 0.0045509957781501654 0.025129170952375646 0 0.0036543501436817048 0.025081838186235647 0 0.0032303490387005939 0.025015099147765327 0 0.0033477892997301234 0.02536992015693048 0 0.0036543501436817048 0.025081838186235647 0 0.0032303490387005939 0.025015099147765327 0 0.0036543501436817048 0.025081838186235647 0 0.0035184997632109367 0.024576337636923466 0 0.0036543501436817048 0.025081838186235647 0 0.0039866989888969378 0.024714176775967548 0 0.0035184997632109367 0.024576337636923466 0 0.0035184997632109367 0.024576337636923466 0 0.0040423994267011019 0.024127142246268468 0 0.0034649884008528826 0.024133579159449112 0 0.0039866989888969378 0.024714176775967548 0 0.0040423994267011019 0.024127142246268468 0 0.0043836892862025413 0.024575680258085635 0 0.0039866989888969378 0.024714176775967548 0 0.0035184997632109367 0.024576337636923466 0 0.0040423994267011019 0.024127142246268468 0 0.0040423994267011019 0.024127142246268468 0 0.0034649884008528826 0.024133579159449112 0 0.0037365934008084323 0.02372626779398853 0 0.0046311141684795389 0.024318139828939912 0 0.0044934366331339202 0.023934430462672397 0 0.0052901547399926757 0.023885448969520804 0 0.0046311141684795389 0.024318139828939912 0 0.0043836892862025413 0.024575680258085635 0 0.0049890946565338953 0.024613075185198768 0 0.0040423994267011019 0.024127142246268468 0 0.0046311141684795389 0.024318139828939912 0 0.0043836892862025413 0.024575680258085635 0 0.0040423994267011019 0.024127142246268468 0 0.0046311141684795389 0.024318139828939912 0 0.0044934366331339202 0.023934430462672397 0 0.0040423994267011019 0.024127142246268468 0 0.0045103358478418565 0.023787155573560807 0 0.0044934366331339202 0.023934430462672397 0 0.009052108492023099 0.027258714525429703 0 0.0082385392188209731 0.027227750157300779 0 0.0089605862660458793 0.028231909957131589 0 0.0054480281516957616 0.026599000289723031 0 0.010149910539073149 0.029602594450057626 0 0.0045114437230163312 0.023810223329232227 0 0.0044934366331339202 0.023934430462672397 0 0.0052901547399926757 0.023885448969520804 0 0.0054282111636898434 0.028629151130257529 0 0.0059252989082411835 0.029332707513226437 0 0.0052705378337578081 0.029948115079040077 0 0.0054480281516957616 0.026599000289723031 0 0.0054180280724323389 0.025718354372017426 0 0.0054480281516957616 0.026599000289723031 0 0.0051314075287232624 0.026214442854258075 0 0.0040423994267011019 0.024127142246268468 0 0.0045103358478418565 0.023787155573560807 0 0.0037365934008084323 0.02372626779398853 0 0.0054282111636898434 0.028629151130257529 0 0.0063857897416455464 0.028684537558007189 0 0.0059252989082411835 0.029332707513226437 0 0.0063857897416455464 0.028684537558007189 0 0.0065273467834864977 0.029304750049067123 0 0.0073014170210437815 0.028716775511210765 0 0.0063857897416455464 0.028684537558007189 0 0.0059252989082411835 0.029332707513226437 0 0.0065273467834864977 0.029304750049067123 0 0.0041505978284384105 0.026428376159724425 0 0.0053004533971056306 0.030888196577383564 0 0.0034649884008528826 0.024133579159449112 0 0.0037365934008084323 0.02372626779398853 0 0.00293640195793001 0.023690924613541959 0 0.0051314075287232624 0.026214442854258075 0 0.0041505978284384105 0.026428376159724425 0 0.0038135428158037228 0.02877357819441792 0 0.0040404219544071243 0.029052563468773843 0 0.0036618045454704382 0.029334336602419714 0 0.0065273467834864977 0.029304750049067123 0 0.0073014170210437815 0.028716775511210765 0 0.0069870330640782819 0.029864448463047474 0 0.0034649884008528826 0.024133579159449112 0 0.00293640195793001 0.023690924613541959 0 0.0030753479486173383 0.02454166500891352 0 0.0025891986301224286 0.024758010092319226 0 0.00293640195793001 0.023690924613541959 0 0.0030753479486173383 0.02454166500891352 0 0.0025104359928527103 0.023809619889878092 0 0.0041505978284384105 0.026428376159724425 0 0.0035184997632109367 0.024576337636923466 0 0.0034649884008528826 0.024133579159449112 0 0.0030753479486173383 0.02454166500891352 0 0.0021174170610148827 0.025638166734445623 0 0.0030634476028973791 0.027131931788988609 0 0.0021459150687181227 0.027007189725632416 0 0.0022381442447330182 0.028179235871934709 0 0.0025132149742787269 0.027566076266198281 0 0.0025891986301224286 0.024758010092319226 0 0.0027452330826770888 0.024074712812180182 0 0.0024256164745783478 0.024380493996507609 0 0.0021885613782334935 0.024661541280911862 0 0.0024256164745783478 0.024380493996507609 0 0.0021888148631295993 0.024069348926656423 0 0.0025891986301224286 0.024758010092319226 0 0.0021885613782334935 0.024661541280911862 0 0.0024256164745783478 0.024380493996507609 0 0.0027452330826770888 0.024074712812180182 0 0.0024256164745783478 0.024380493996507609 0 0.0021888148631295993 0.024069348926656423 0 0.0043130116770268082 0.028791587856369139 0 0.0040404219544071243 0.029052563468773843 0 0.0043734480556043209 0.029309572846206146 0 0.0038135428158037228 0.02877357819441792 0 0.0043130116770268082 0.028791587856369139 0 0.0040404219544071243 0.029052563468773843 0 0.0030634476028973791 0.027131931788988609 0 0.0033701633328835768 0.031177081132608635 0 0.0041505978284384105 0.026428376159724425 0 0.0030634476028973791 0.027131931788988609 0 0.002861211070743551 0.028222128523823723 0 0.0027389598490177376 0.028857428223775392 0 0.0030898919370186823 0.028720739425081302 0 0.0025602712997846565 0.028227352091602941 0 0.002861211070743551 0.028222128523823723 0 0.0027389598490177376 0.028857428223775392 0 0.0030634476028973791 0.027131931788988609 0 0.0026749909520583496 0.027860762454909187 0 0.0022381442447330182 0.028179235871934709 0 0.002861211070743551 0.028222128523823723 0 0.0025132149742787269 0.027566076266198281 0 0.002861211070743551 0.028222128523823723 0 0.0033561252469598776 0.028083209364898668 0 0.0032008677763660587 0.027723123272594352 0 0.002861211070743551 0.028222128523823723 0 0.0033561252469598776 0.028083209364898668 0 0.0030898919370186823 0.028720739425081302 0 0.0033561252469598776 0.028083209364898668 0 0.0039469659393971167 0.028044642857106311 0 0.0030898919370186823 0.028720739425081302 0 0.0043809781986792256 0.02810307118416602 0 0.0028149547320477208 0.028947805593681607 0 0.0044768418250736904 0.028201083430115178 0 0.0039469659393971167 0.028044642857106311 0 0.0030898919370186823 0.028720739425081302 0 0.0033561252469598776 0.028083209364898668 0 0.0036973912033104231 0.027649373941433263 0 0.0039469659393971167 0.028044642857106311 0 0.0033561252469598776 0.028083209364898668 0 0.0032008677763660587 0.027723123272594352 0 0.0036973912033104231 0.027649373941433263 0 0.0032008677763660587 0.027723123272594352 0 0.0036973912033104231 0.027649373941433263 0 0.0033483785215943588 0.027141952748479178 0 0.0036973912033104231 0.027649373941433263 0 0.0039469659393971167 0.028044642857106311 0 0.0040009450727085767 0.027708420389410755 0 0.0036973912033104231 0.027649373941433263 0 0.0040009450727085767 0.027708420389410755 0 0.003977860104465521 0.027200127270194701 0 0.0036973912033104231 0.027649373941433263 0 0.0033483785215943588 0.027141952748479178 0 0.003977860104465521 0.027200127270194701 0 0.0032008677763660587 0.027723123272594352 0 0.0033483785215943588 0.027141952748479178 0 0.0029847559776940329 0.0272731450851765 0 0.0029847559776940329 0.0272731450851765 0 0.0026528744849318884 0.027009475953775081 0 0.0029558604854074935 0.026778777149528574 0 0.0033483785215943588 0.027141952748479178 0 0.0029847559776940329 0.0272731450851765 0 0.0029558604854074935 0.026778777149528574 0 0.0029847559776940329 0.0272731450851765 0 0.0026528744849318884 0.027009475953775081 0 0.0025132149742787269 0.027566076266198281 0 0.0021459150687181227 0.027007189725632416 0 0.0026528744849318884 0.027009475953775081 0 0.0025132149742787269 0.027566076266198281 0 0.002861211070743551 0.028222128523823723 0 0.0025132149742787269 0.027566076266198281 0 0.0028928067118112249 0.027693863423219577 0 0.0032008677763660587 0.027723123272594352 0 0.0029847559776940329 0.0272731450851765 0 0.0028928067118112249 0.027693863423219577 0 0.0029847559776940329 0.0272731450851765 0 0.0025132149742787269 0.027566076266198281 0 0.0028928067118112249 0.027693863423219577 0 0.002861211070743551 0.028222128523823723 0 0.0032008677763660587 0.027723123272594352 0 0.0028928067118112249 0.027693863423219577 0 0.0029667990356391162 0.029136787396722191 0 0.0030789056755558264 0.029178977805184299 0 0.0025799226172373824 0.029604504181467452 0 0.00222947894851846 0.029980586908222251 0 0.0018085242165027317 0.030038676187711933 0 0.002606617372115266 0.029651684185686106 0 0.0026449645143981396 0.029148722198813596 0 0.0024724688426067841 0.029736586053707041 0 0.0043809781986792256 0.02810307118416602 0 0.0017615272389171956 0.03210856928099852 0 0.0044768418250736904 0.028201083430115178 0 0.004947983821162856 0.027698542519653254 0 0.0055978738631044019 0.027792334345688372 0 0.00222947894851846 0.029980586908222251 0 0.0018085242165027317 0.030038676187711933 0 0.0020902713647124346 0.030140254187309107 0 0.00222947894851846 0.029980586908222251 0 0.0022409015768384303 0.030154828462968394 0 0.0023736428528316126 0.030067397269328288 0 0.00222947894851846 0.029980586908222251 0 0.0020902713647124346 0.030140254187309107 0 0.0022409015768384303 0.030154828462968394 0 0.0044768418250736904 0.028201083430115178 0 0.0045372773148454788 0.027779521579461421 0 0.004947983821162856 0.027698542519653254 0 0.0029667990356391162 0.029136787396722191 0 0.0030789056755558264 0.029178977805184299 0 0.0031809928382369474 0.028867996793936312 0 0.0044768418250736904 0.028201083430115178 0 0.0042855696379132746 0.027902002770944158 0 0.0045372773148454788 0.027779521579461421 0 0.0044768418250736904 0.028201083430115178 0 0.0042855696379132746 0.027902002770944158 0 0.0039469659393971167 0.028044642857106311 0 0.0042855696379132746 0.027902002770944158 0 0.0039469659393971167 0.028044642857106311 0 0.0040009450727085767 0.027708420389410755 0 0.0040009450727085767 0.027708420389410755 0 0.003977860104465521 0.027200127270194701 0 0.0043005442241735373 0.027623038377897816 0 0.0042855696379132746 0.027902002770944158 0 0.0040009450727085767 0.027708420389410755 0 0.0043005442241735373 0.027623038377897816 0 0.003977860104465521 0.027200127270194701 0 0.0043784046670572504 0.027328175500972218 0 0.0042809547888420377 0.027093757411905162 0 0.003977860104465521 0.027200127270194701 0 0.0043784046670572504 0.027328175500972218 0 0.0043005442241735373 0.027623038377897816 0 0.0043784046670572504 0.027328175500972218 0 0.0046320593343604785 0.027437119559470927 0 0.0044153276109698903 0.027028833654979517 0 0.0043784046670572504 0.027328175500972218 0 0.0043005442241735373 0.027623038377897816 0 0.0046320593343604785 0.027437119559470927 0 0.0043784046670572504 0.027328175500972218 0 0.0044153276109698903 0.027028833654979517 0 0.0042809547888420377 0.027093757411905162 0 0.0043005442241735373 0.027623038377897816 0 0.0045372773148454788 0.027779521579461421 0 0.0046320593343604785 0.027437119559470927 0 0.0042855696379132746 0.027902002770944158 0 0.0043005442241735373 0.027623038377897816 0 0.0045372773148454788 0.027779521579461421 0 0.0049779228712692157 0.027354919770674287 0 0.004947983821162856 0.027698542519653254 0 0.0055978738631044019 0.027792334345688372 0 0.0049779228712692157 0.027354919770674287 0 0.0051506827316636821 0.027037092205846956 0 0.0055978738631044019 0.027792334345688372 0 0.0045372773148454788 0.027779521579461421 0 0.0046320593343604785 0.027437119559470927 0 0.004947983821162856 0.027698542519653254 0 0.0046320593343604785 0.027437119559470927 0 0.0049779228712692157 0.027354919770674287 0 0.004947983821162856 0.027698542519653254 0 0.0046320593343604785 0.027437119559470927 0 0.0049779228712692157 0.027354919770674287 0 0.0044153276109698903 0.027028833654979517 0 0.0024074243533790591 0.028730461710977508 0 0.0030337261320474568 0.026820944873539972 0 0.0049779228712692157 0.027354919770674287 0 0.0051506827316636821 0.027037092205846956 0 0.0044153276109698903 0.027028833654979517 0 0.0024999560381703629 0.028046948034062224 0 0.0018731985020389269 0.02785707927678455 0 0.0019589224123065371 0.027196170033460417 0 0.0024074243533790591 0.028730461710977508 0 0.0011771876024509269 0.027306970987227314 0 0.0051506827316636821 0.027037092205846956 0 0.0044459781910328074 0.02677997307297976 0 0.0044153276109698903 0.027028833654979517 0 0.00446241305664998 0.026714226189844963 0 0.0044153276109698903 0.027028833654979517 0 0.0042809547888420377 0.027093757411905162 0 0.0030337261320474568 0.026820944873539972 0 0.0034701556459675277 0.026819597978514763 0 0.003977860104465521 0.027200127270194701 0 0.00446241305664998 0.026714226189844963 0 0.0042809547888420377 0.027093757411905162 0 0.0010523910437423721 0.026032260554392606 0 0.0013000306846800667 0.026084720742943938 0 0.0011215454364511537 0.026166570547218042 0 0.0012336354541186557 0.025943005492938414 0 0.0010523910437423721 0.026032260554392606 0 0.0013000306846800667 0.026084720742943938 0 0.0030337261320474568 0.026820944873539972 0 0.0011771876024509269 0.027306970987227314 0 0.0011055757368871994 0.025779421449526652 0 0.0012336354541186557 0.025943005492938414 0 0.0010523910437423721 0.026032260554392606 0 0.0011771876024509269 0.027306970987227314 0 0.00085876860612999818 0.026073153636898012 0 0.00091798107568126822 0.029844755290481629 0 0.00037614901503232851 0.029037732979136702 0 0.00087584417663244226 0.029018700694156883 0 0.00037614901503232851 0.029037732979136702 0 0.00087584417663244226 0.029018700694156883 0 0.00085045123068359279 0.028578585107939484 0 0.0022452804643229465 0.025774089533777047 0 0.0026621887502940676 0.026432266882332467 0 0.0032453428916466068 0.026219187232741834 0 0.0033483785215943588 0.027141952748479178 0 0.0029558604854074935 0.026778777149528574 0 0.0032453428916466068 0.026219187232741834 0 0.0026621887502940676 0.026432266882332467 0 0.0029558604854074935 0.026778777149528574 0 0.0032453428916466068 0.026219187232741834 0 0.0021459150687181227 0.027007189725632416 0 0.0026528744849318884 0.027009475953775081 0 0.0026621887502940676 0.026432266882332467 0 0.0026528744849318884 0.027009475953775081 0 0.0026621887502940676 0.026432266882332467 0 0.0029558604854074935 0.026778777149528574 0 0.0033483785215943588 0.027141952748479178 0 0.003977860104465521 0.027200127270194701 0 0.0032453428916466068 0.026219187232741834 0 0.0011055757368871994 0.025779421449526652 0 0.0012336354541186557 0.025943005492938414 0 0.0014755711803440422 0.025875745019597197 0 0.003977860104465521 0.027200127270194701 0 0.00446241305664998 0.026714226189844963 0 0.0032453428916466068 0.026219187232741834 0 0.0030337261320474568 0.026820944873539972 0 0.0022832972403267408 0.025956092481486497 0 0.0012336354541186557 0.025943005492938414 0 0.0014755711803440422 0.025875745019597197 0 0.0013000306846800667 0.026084720742943938 0 0.0014755711803440422 0.025875745019597197 0 0.0013000306846800667 0.026084720742943938 0 0.0015110612362331018 0.026108007008044224 0 0.0020340975508874606 0.025866892140648877 0 0.0022832972403267408 0.025956092481486497 0 0.0014755711803440422 0.025875745019597197 0 0.0016501758709831043 0.026036461425887145 0 0.0015110612362331018 0.026108007008044224 0 0.0018361220631729553 0.025986831309089447 0 0.0014755711803440422 0.025875745019597197 0 0.0016501758709831043 0.026036461425887145 0 0.0022104423793225026 0.025674851058945337 0 0.0022452804643229465 0.025774089533777047 0 0.0032453428916466068 0.026219187232741834 0 0.0016501758709831043 0.026036461425887145 0 0.0016610911019244038 0.026162931494793863 0 0.0017473357711806942 0.026104635157536946 0 0.0016610911019244038 0.026162931494793863 0 0.0017473357711806942 0.026104635157536946 0 0.0017496389983256483 0.026188802051691794 0 0.0016610911019244038 0.026162931494793863 0 0.0017542756550391618 0.026312370326273114 0 0.0017496389983256483 0.026188802051691794 0 0.0016610911019244038 0.026162931494793863 0 0.0015743252648943613 0.026265825051773418 0 0.0017542756550391618 0.026312370326273114 0 0.0016610911019244038 0.026162931494793863 0 0.0015743252648943613 0.026265825051773418 0 0.0015110612362331018 0.026108007008044224 0 0.0016501758709831043 0.026036461425887145 0 0.0016610911019244038 0.026162931494793863 0 0.0015110612362331018 0.026108007008044224 0 0.0013000306846800667 0.026084720742943938 0 0.0013979357304045763 0.026229509258525217 0 0.0012148264335748158 0.026327152907378124 0 0.0015743252648943613 0.026265825051773418 0 0.0015110612362331018 0.026108007008044224 0 0.0013979357304045763 0.026229509258525217 0 0.0013000306846800667 0.026084720742943938 0 0.0015110612362331018 0.026108007008044224 0 0.0013979357304045763 0.026229509258525217 0 0.0013979357304045763 0.026229509258525217 0 0.0014008084994636039 0.026372990426898398 0 0.0012148264335748158 0.026327152907378124 0 0.0015743252648943613 0.026265825051773418 0 0.0013979357304045763 0.026229509258525217 0 0.0014008084994636039 0.026372990426898398 0 0.0014008084994636039 0.026372990426898398 0 0.0012424353522512944 0.026499800599103191 0 0.0012148264335748158 0.026327152907378124 0 0.0012424353522512944 0.026499800599103191 0 0.0013591440090630345 0.026542916468370537 0 0.0012416647664901944 0.026648285624948205 0 0.0014008084994636039 0.026372990426898398 0 0.0012424353522512944 0.026499800599103191 0 0.0013591440090630345 0.026542916468370537 0 0.0014008084994636039 0.026372990426898398 0 0.0013591440090630345 0.026542916468370537 0 0.0016569033410854827 0.026403140109865473 0 0.0016569033410854827 0.026403140109865473 0 0.0016922137001406437 0.026379470540517636 0 0.0017542756550391618 0.026312370326273114 0 0.0015743252648943613 0.026265825051773418 0 0.0016569033410854827 0.026403140109865473 0 0.0017542756550391618 0.026312370326273114 0 0.0015743252648943613 0.026265825051773418 0 0.0014008084994636039 0.026372990426898398 0 0.0016569033410854827 0.026403140109865473 0 0.00037614901503232851 0.029037732979136702 0 0.00085045123068359279 0.028578585107939484 0 0.00051249456719747015 0.028011398529094414 0 0.0011771876024509269 0.027306970987227314 0 0.00068426408479641595 0.027276405398274282 0 0.00085045123068359279 0.028578585107939484 0 0.00051249456719747015 0.028011398529094414 0 0.0012788885301765157 0.028117017074154316 0 0.00087584417663244226 0.029018700694156883 0 0.00085045123068359279 0.028578585107939484 0 0.0012171198919531153 0.028681263255101345 0 0.0010331069678411148 0.026023685185564457 0 0.0011215454364511537 0.026166570547218042 0 0.00094179014247016551 0.026419319468710161 0 0.0011215454364511537 0.026166570547218042 0 0.0012148264335748158 0.026327152907378124 0 0.00094179014247016551 0.026419319468710161 0 0.0013000306846800667 0.026084720742943938 0 0.0011215454364511537 0.026166570547218042 0 0.0012148264335748158 0.026327152907378124 0 0.0012148264335748158 0.026327152907378124 0 0.0010833239937443145 0.026563310567485239 0 0.00094179014247016551 0.026419319468710161 0 0.0012424353522512944 0.026499800599103191 0 0.0012148264335748158 0.026327152907378124 0 0.0010833239937443145 0.026563310567485239 0 0.00051249456719747015 0.028011398529094414 0 0.001177023817594312 0.027451347765888652 0 0.0012788885301765157 0.028117017074154316 0 0.00090986734628234782 0.026879719240091336 0 0.0013134283536087126 0.026848484886651734 0 0.001177023817594312 0.027451347765888652 0 0.00051249456719747015 0.028011398529094414 0 0.00090986734628234782 0.026879719240091336 0 0.001177023817594312 0.027451347765888652 0 0.00068426408479641595 0.027276405398274282 0 0.00089280237368839777 0.026882169090506804 0 0.0010833239937443145 0.026563310567485239 0 0.00094179014247016551 0.026419319468710161 0 0.00090986734628234782 0.026879719240091336 0 0.0010833239937443145 0.026563310567485239 0 0.00090986734628234782 0.026879719240091336 0 0.0011218173316497417 0.026694797182439493 0 0.00090986734628234782 0.026879719240091336 0 0.0010578438348456721 0.026777404653218116 0 0.0011218173316497417 0.026694797182439493 0 0.0012424353522512944 0.026499800599103191 0 0.0010833239937443145 0.026563310567485239 0 0.0011218173316497417 0.026694797182439493 0 0.0011218173316497417 0.026694797182439493 0 0.001131449665274288 0.026760290941597365 0 0.0011883084072045458 0.026730361999304446 0 0.0010578438348456721 0.026777404653218116 0 0.0011218173316497417 0.026694797182439493 0 0.001131449665274288 0.026760290941597365 0 0.0010270628788156047 0.02667872415296936 0 0.0010653793469906862 0.026756837677170905 0 0.0010078200098236761 0.026720325652810677 0 0.0010270628788156047 0.02667872415296936 0 0.0010653793469906862 0.026756837677170905 0 0.0012252758796611318 0.02679838617506973 0 0.0010578438348456721 0.026777404653218116 0 0.001131449665274288 0.026760290941597365 0 0.0010653793469906862 0.026756837677170905 0 0.001131449665274288 0.026760290941597365 0 0.0010653793469906862 0.026756837677170905 0 0.0012252758796611318 0.02679838617506973 0 0.00090986734628234782 0.026879719240091336 0 0.0010653793469906862 0.026756837677170905 0 0.0010078200098236761 0.026720325652810677 0 0.00090986734628234782 0.026879719240091336 0 0.0010578438348456721 0.026777404653218116 0 0.0010653793469906862 0.026756837677170905 0 0.0010693852577065468 0.026560021555523457 0 0.00090986734628234782 0.026879719240091336 0 0.0010078200098236761 0.026720325652810677 0 0.0010693852577065468 0.026560021555523457 0 0.00090986734628234782 0.026879719240091336 0 0.0013134283536087126 0.026848484886651734 0 0.0016569033410854827 0.026403140109865473 0 0.0016922137001406437 0.026379470540517636 0 0.0019473489803998915 0.026296224105051981 0 0.0022794096879194033 0.026230038711416444 0 0.0024892218091470057 0.026031751166864976 0 0.0019458982364613784 0.026310091940852712 0 0.0020995050373358972 0.026216474700476916 0 0.0019396592516813639 0.026314927141484382 0 0.0022794096879194033 0.026230038711416444 0 0.0025157504182365584 0.026216344717269371 0 0.0023093802350596816 0.026317860018943474 0 0.0022794096879194033 0.026230038711416444 0 0.0025157504182365584 0.026216344717269371 0 0.0024892218091470057 0.026031751166864976 0 0.0013591440090630345 0.026542916468370537 0 0.0016569033410854827 0.026403140109865473 0 0.0012252758796611318 0.02679838617506973 0 0.0016666939945662108 0.026399980797948534 0 0.0015813497310936638 0.026523989894018885 0 0.0013591440090630345 0.026542916468370537 0 0.0012416647664901944 0.026648285624948205 0 0.0012252758796611318 0.02679838617506973 0 0.0016922137001406437 0.026379470540517636 0 0.0019473489803998915 0.026296224105051981 0 0.0019458982364613784 0.026310091940852712 0 0.0012424353522512944 0.026499800599103191 0 0.0011218173316497417 0.026694797182439493 0 0.0012416647664901944 0.026648285624948205 0 0.0011218173316497417 0.026694797182439493 0 0.0012416647664901944 0.026648285624948205 0 0.0011883084072045458 0.026730361999304446 0 0.0012416647664901944 0.026648285624948205 0 0.0011883084072045458 0.026730361999304446 0 0.0012252758796611318 0.02679838617506973 0 0.001131449665274288 0.026760290941597365 0 0.0011883084072045458 0.026730361999304446 0 0.0012252758796611318 0.02679838617506973 0 0.001380110604957342 0.026591839321485615 0 0.0015813497310936638 0.026523989894018885 0 0.0020595916120747077 0.026360299336888791 0 0.0021500947665113821 0.026324756574131285 0 0.0019458982364613784 0.026310091940852712 0 0.0022794096879194033 0.026230038711416444 0 0.0021500947665113821 0.026324756574131285 0 0.0019458982364613784 0.026310091940852712 0 0.0020595916120747077 0.026360299336888791 0 0.0019458982364613784 0.026310091940852712 0 0.0019991168775370938 0.026406549739139615 0 0.0019074358585711442 0.026455290033190179 0 0.0017291811771159118 0.026473631780714036 0 0.0019458982364613784 0.026310091940852712 0 0.0017291811771159118 0.026473631780714036 0 0.0019473489803998915 0.026296224105051981 0 0.0019458982364613784 0.026310091940852712 0 0.0020595916120747077 0.026360299336888791 0 0.0021500947665113821 0.026324756574131285 0 0.0021727109236260754 0.026397003500647533 0 0.0019074358585711442 0.026455290033190179 0 0.0019458982364613784 0.026310091940852712 0 0.0019991168775370938 0.026406549739139615 0 0.0020591156879320215 0.026498589058330361 0 0.0019991168775370938 0.026406549739139615 0 0.0021727109236260754 0.026397003500647533 0 0.0020595916120747077 0.026360299336888791 0 0.0019991168775370938 0.026406549739139615 0 0.0021727109236260754 0.026397003500647533 0 0.0023121940034195143 0.026524244905597322 0 0.0021727109236260754 0.026397003500647533 0 0.0024751584216078132 0.026377808498499519 0 0.0021727109236260754 0.026397003500647533 0 0.0023093802350596816 0.026317860018943474 0 0.0024751584216078132 0.026377808498499519 0 0.0021500947665113821 0.026324756574131285 0 0.0021727109236260754 0.026397003500647533 0 0.0023093802350596816 0.026317860018943474 0 0.0022794096879194033 0.026230038711416444 0 0.0021500947665113821 0.026324756574131285 0 0.0023093802350596816 0.026317860018943474 0 0.0025157504182365584 0.026216344717269371 0 0.0023093802350596816 0.026317860018943474 0 0.0024751584216078132 0.026377808498499519 0 0.0025927751801321274 0.026549722326342139 0 0.0023121940034195143 0.026524244905597322 0 0.0024751584216078132 0.026377808498499519 0 0.0028546427772333446 0.026597599516739973 0 0.0027064425639040882 0.026414348275874685 0 0.0028656449815336743 0.026334685193726483 0 0.0025927751801321274 0.026549722326342139 0 0.0024751584216078132 0.026377808498499519 0 0.0027064425639040882 0.026414348275874685 0 0.0027064425639040882 0.026414348275874685 0 0.0028656449815336743 0.026334685193726483 0 0.0027544687758483169 0.026238493291797973 0 0.0024751584216078132 0.026377808498499519 0 0.0027064425639040882 0.026414348275874685 0 0.0027544687758483169 0.026238493291797973 0 0.0025157504182365584 0.026216344717269371 0 0.0024751584216078132 0.026377808498499519 0 0.0027544687758483169 0.026238493291797973 0 0.0028546427772333446 0.026597599516739973 0 0.0028656449815336743 0.026334685193726483 0 0.0030359949675698153 0.026309134699019531 0 0.0032615063566279658 0.026550638520699426 0 0.0033137212030731251 0.026344155959748546 0 0.0033874767607539762 0.026458756033122099 0 0.0030654829187040031 0.026575240964302076 0 0.0031881190956230222 0.026314942114927353 0 0.0031881190956230222 0.026314942114927353 0 0.0033400696476830224 0.026078016211922048 0 0.0030359949675698153 0.026309134699019531 0 0.0029970069809017556 0.026133865337687783 0 0.0033641511474272173 0.026081385823614717 0 0.0028656449815336743 0.026334685193726483 0 0.0030359949675698153 0.026309134699019531 0 0.0029970069809017556 0.026133865337687783 0 0.0028656449815336743 0.026334685193726483 0 0.0029970069809017556 0.026133865337687783 0 0.0027544687758483169 0.026238493291797973 0 0.0025157504182365584 0.026216344717269371 0 0.0027544687758483169 0.026238493291797973 0 0.0027522689421107323 0.026097806164638856 0 0.0029970069809017556 0.026133865337687783 0 0.0027544687758483169 0.026238493291797973 0 0.0027522689421107323 0.026097806164638856 0 0.0025157504182365584 0.026216344717269371 0 0.0024892218091470057 0.026031751166864976 0 0.0027522689421107323 0.026097806164638856 0 0.0020995050373358972 0.026216474700476916 0 0.0024097916219729823 0.026120318580519792 0 0.0029970069809017556 0.026133865337687783 0 0.0027522689421107323 0.026097806164638856 0 0.0029844035949344143 0.025890183151450964 0 0.0016922137001406437 0.026379470540517636 0 0.0017542756550391618 0.026312370326273114 0 0.0018986157507581765 0.026324175220455243 0 0.0024892218091470057 0.026031751166864976 0 0.0027522689421107323 0.026097806164638856 0 0.0029844035949344143 0.025890183151450964 0 0.0029970069809017556 0.026133865337687783 0 0.0029844035949344143 0.025890183151450964 0 0.0032189647102337255 0.025987001429470441 0 0.0029970069809017556 0.026133865337687783 0 0.0032189647102337255 0.025987001429470441 0 0.0033641511474272173 0.026081385823614717 0 0.0032189647102337255 0.025987001429470441 0 0.0033478843146920599 0.025922970083080438 0 0.0034838320897076138 0.026008606755826658 0 0.0029844035949344143 0.025890183151450964 0 0.0032189647102337255 0.025987001429470441 0 0.0033478843146920599 0.025922970083080438 0 0.0035294001387619653 0.025732687222261828 0 0.0029844035949344143 0.025890183151450964 0 0.0034386037994694136 0.025851346532518485 0 0.0019977435010783912 0.026094039846653663 0 0.0022046930834551336 0.026091385837728815 0 0.0018986157507581765 0.026324175220455243 0 0.0019977435010783912 0.026094039846653663 0 0.0018986157507581765 0.026324175220455243 0 0.001898024626356778 0.026133735048039539 0 0.0029844035949344143 0.025890183151450964 0 0.0033478843146920599 0.025922970083080438 0 0.0034386037994694136 0.025851346532518485 0 0.0029947258645326501 0.025882659041620834 0 0.0024097916219729823 0.026120318580519792 0 0.001935979807103594 0.026084623261516726 0 0.0019977435010783912 0.026094039846653663 0 0.001898024626356778 0.026133735048039539 0 0.0018329538585180731 0.02609412512284965 0 0.001898024626356778 0.026133735048039539 0 0.001834054799596626 0.02617411267560333 0 0.0018329538585180731 0.02609412512284965 0 0.001834054799596626 0.02617411267560333 0 0.0017473357711806942 0.026104635157536946 0 0.001834054799596626 0.02617411267560333 0 0.0017473357711806942 0.026104635157536946 0 0.0017496389983256483 0.026188802051691794 0 0.0017542756550391618 0.026312370326273114 0 0.001834054799596626 0.02617411267560333 0 0.0017496389983256483 0.026188802051691794 0 0.0018986157507581765 0.026324175220455243 0 0.001898024626356778 0.026133735048039539 0 0.001834054799596626 0.02617411267560333 0 0.0017542756550391618 0.026312370326273114 0 0.0018986157507581765 0.026324175220455243 0 0.001834054799596626 0.02617411267560333 0 0.0046672510151406074 0.025725347745529092 0 0.004993751889337779 0.02606961613316117 0 0.0051348964735215994 0.025590958361874538 0 0.0039281465494722086 0.025542650712910391 0 0.0038032077021653557 0.025941342195717986 0 0.0037430529360122189 0.02575872470838526 0 0.0038032077021653557 0.025941342195717986 0 0.0037430529360122189 0.02575872470838526 0 0.0036294097785757335 0.02583038173495824 0 0.0038032077021653557 0.025941342195717986 0 0.0036294097785757335 0.02583038173495824 0 0.0035414884936200903 0.025911472516318302 0 0.003635185908702336 0.025706659780302354 0 0.0037430529360122189 0.02575872470838526 0 0.0036294097785757335 0.02583038173495824 0 0.0035294001387619653 0.025732687222261828 0 0.0035344196823003837 0.025787833629629168 0 0.0034386037994694136 0.025851346532518485 0 0.0035294001387619653 0.025732687222261828 0 0.0036294097785757335 0.02583038173495824 0 0.0035344196823003837 0.025787833629629168 0 0.0035294001387619653 0.025732687222261828 0 0.003635185908702336 0.025706659780302354 0 0.0036294097785757335 0.02583038173495824 0 0.0036294097785757335 0.02583038173495824 0 0.0035344196823003837 0.025787833629629168 0 0.0034386037994694136 0.025851346532518485 0 0.0033478843146920599 0.025922970083080438 0 0.0034386037994694136 0.025851346532518485 0 0.0035414884936200903 0.025911472516318302 0 0.0036294097785757335 0.02583038173495824 0 0.0034386037994694136 0.025851346532518485 0 0.0035414884936200903 0.025911472516318302 0 0.0033478843146920599 0.025922970083080438 0 0.0035414884936200903 0.025911472516318302 0 0.0034838320897076138 0.026008606755826658 0 0.0038032077021653557 0.025941342195717986 0 0.0035414884936200903 0.025911472516318302 0 0.0034838320897076138 0.026008606755826658 0 0.0038032077021653557 0.025941342195717986 0 0.0034838320897076138 0.026008606755826658 0 0.0034695941231456633 0.0261963258516155 0 0.0042520056512859632 0.025794743633377918 0 0.0040813905654399811 0.02617026764478356 0 0.0032189647102337255 0.025987001429470441 0 0.0034838320897076138 0.026008606755826658 0 0.0033641511474272173 0.026081385823614717 0 0.0034838320897076138 0.026008606755826658 0 0.0033641511474272173 0.026081385823614717 0 0.0034695941231456633 0.0261963258516155 0 0.0046672510151406074 0.025725347745529092 0 0.004993751889337779 0.02606961613316117 0 0.0046596663321529811 0.026201972209359149 0 0.004993751889337779 0.02606961613316117 0 0.0048877414926342165 0.02625725853574444 0 0.0046596663321529811 0.026201972209359149 0 0.004993751889337779 0.02606961613316117 0 0.0048877414926342165 0.02625725853574444 0 0.0052829131346632131 0.026374224865371297 0 0.0048877414926342165 0.02625725853574444 0 0.0046596663321529811 0.026201972209359149 0 0.0048579038867886974 0.026464175403665146 0 0.0048877414926342165 0.02625725853574444 0 0.0048579038867886974 0.026464175403665146 0 0.0052829131346632131 0.026374224865371297 0 0.0040813905654399811 0.02617026764478356 0 0.0039531842490081182 0.026630881578705724 0 0.0033137212030731251 0.026344155959748546 0 0.0033641511474272173 0.026081385823614717 0 0.0034695941231456633 0.0261963258516155 0 0.0033137212030731251 0.026344155959748546 0 0.0034695941231456633 0.0261963258516155 0 0.0033874767607539762 0.026458756033122099 0 0.0047924345156063596 0.026639580490419111 0 0.0046019858838131722 0.026581976278228069 0 0.0048579038867886974 0.026464175403665146 0 0.0046596663321529811 0.026201972209359149 0 0.0046019858838131722 0.026581976278228069 0 0.0048579038867886974 0.026464175403665146 0 0.0049870768223859614 0.026701739411580685 0 0.0047924345156063596 0.026639580490419111 0 0.0048579038867886974 0.026464175403665146 0 0.0049870768223859614 0.026701739411580685 0 0.0048579038867886974 0.026464175403665146 0 0.0052829131346632131 0.026374224865371297 0 0.011919857220067579 0.025582802656901816 0 0.013789788254550957 0.024660402343874007 0 0.013584710175538077 0.023339004833660061 0 0.0088137748596381574 0.024194225099058025 0 0.0093700939864496506 0.025282372470225054 0 0.0088137748596381574 0.024194225099058025 0 0.013607324445776515 0.021798809631081432 0 0.013584710175538077 0.023339004833660061 0 0.015562017132793699 0.023710048282569254 0 0.015140983561377391 0.021262036846762811 0 0.013789788254550957 0.024660402343874007 0 0.013584710175538077 0.023339004833660061 0 0.015562017132793699 0.023710048282569254 0 0.017749534556804471 0.016437925699180102 0 0.020075682577486161 0.016165214665847933 0 0.019939733571057123 0.014494797829709539 0 0.013607324445776515 0.021798809631081432 0 0.017715088711246888 0.017420360371697301 0 0.016012913105561084 0.018000252515347943 0 0.017715088711246888 0.017420360371697301 0 0.013902586251525042 0.020183138761019979 0 0.013406096312435573 0.018690804149286918 0 0.016929980131731387 0.01687258305023985 0 0.021192538525051596 0.016794325633663253 0 0.020075682577486161 0.016165214665847933 0 0.021512166775026893 0.015289710829529082 0 0.020075682577486161 0.016165214665847933 0 0.021512166775026893 0.015289710829529082 0 0.019939733571057123 0.014494797829709539 0 0.023492410430231397 0.016563404042567578 0 0.021512166775026893 0.015289710829529082 0 0.022695218646310612 0.014424332769889877 0 0.024815354005079945 0.016743297686003043 0 0.024304463155704295 0.015933105633149071 0 0.02523686391439145 0.016491885730115723 0 0.025795099347830804 0.018268615651020611 0 0.025046370605269347 0.018774142425286904 0 0.023492410430231397 0.016563404042567578 0 0.021192538525051596 0.016794325633663253 0 0.021512166775026893 0.015289710829529082 0 0.022695218646310612 0.014424332769889877 0 0.021427664136529505 0.013869772302771862 0 0.021994694437006013 0.012443684755116657 0 0.025795099347830804 0.018268615651020611 0 0.025671370341031466 0.018772822760327448 0 0.026328929156309761 0.020038798053599087 0 0.024304463155704295 0.015933105633149071 0 0.020362025513489684 0.019279212680683215 0 0.025795099347830804 0.018268615651020611 0 0.025671370341031466 0.018772822760327448 0 0.025046370605269347 0.018774142425286904 0 0.025808239346021101 0.019029241628815509 0 0.027376799685549083 0.019163376242134673 0 0.021512166775026893 0.015289710829529082 0 0.022695218646310612 0.014424332769889877 0 0.021427664136529505 0.013869772302771862 0 0.025671370341031466 0.018772822760327448 0 0.025591812299384842 0.019648420626541083 0 0.026328929156309761 0.020038798053599087 0 0.025671370341031466 0.018772822760327448 0 0.025591812299384842 0.019648420626541083 0 0.025056295700920762 0.018780906562011864 0 0.015562017132793699 0.023710048282569254 0 0.016087296801222464 0.021959302428752658 0 0.017178464807935098 0.02193636765334455 0 0.019985213069076864 0.014624630374062588 0 0.021427664136529505 0.013869772302771862 0 0.021994694437006013 0.012443684755116657 0 0.017715088711246888 0.017420360371697301 0 0.020362025513489684 0.019279212680683215 0 0.017715088711246888 0.017420360371697301 0 0.02209081680985725 0.013675871227529236 0 0.021512166775026893 0.015289710829529082 0 0.019939733571057123 0.014494797829709539 0 0.021427664136529505 0.013869772302771862 0 0.015562017132793699 0.023710048282569254 0 0.016087296801222464 0.021959302428752658 0 0.015140983561377391 0.021262036846762811 0 0.016087296801222464 0.021959302428752658 0 0.016953149266337023 0.021293569582735369 0 0.015140983561377391 0.021262036846762811 0 0.016087296801222464 0.021959302428752658 0 0.017178464807935098 0.02193636765334455 0 0.016953149266337023 0.021293569582735369 0 0.025591812299384842 0.019648420626541083 0 0.026328929156309761 0.020038798053599087 0 0.025534950578555125 0.021095544006839908 0 0.025591812299384842 0.019648420626541083 0 0.025534950578555125 0.021095544006839908 0 0.02495132842089387 0.020027970318656951 0 0.017177410593629532 0.021941718335638443 0 0.016953149266337023 0.021293569582735369 0 0.017911039662030174 0.021010155242944115 0 0.020362025513489684 0.019279212680683215 0 0.018977722102047279 0.02085212133237721 0 0.025444758850024497 0.022276643137100389 0 0.030933110379218309 0.021609192710870383 0 0.020362025513489684 0.019279212680683215 0 0.025444758850024497 0.022276643137100389 0 0.025444758850024497 0.022276643137100389 0 0.027302476098838308 0.022981162484387335 0 0.025444758850024497 0.022276643137100389 0 0.025704722001124735 0.024633607284742742 0 0.025491683717631129 0.023909619198112443 0 0.025436818217462482 0.024004486032079761 0 0.025465421415132229 0.023997943201510913 0 0.025667974833489766 0.024335178463761889 0 0.025633900665777625 0.024104498734385568 0 0.025465421415132229 0.023997943201510913 0 0.025444758850024497 0.022276643137100389 0 0.014840311094031824 0.023899218646217808 0 0.016953149266337023 0.021293569582735369 0 0.017911039662030174 0.021010155242944115 0 0.016582972121724451 0.019297497641041307 0 0.025667974833489766 0.024335178463761889 0 0.025633900665777625 0.024104498734385568 0 0.025738587066509288 0.024135327952638164 0 0.025633900665777625 0.024104498734385568 0 0.025738587066509288 0.024135327952638164 0 0.025698937393047266 0.024033016553818842 0 0.016953149266337023 0.021293569582735369 0 0.015140983561377391 0.021262036846762811 0 0.016582972121724451 0.019297497641041307 0 0.0057080797723747054 0.02595647173379971 0 0.0056586282707584623 0.025355924843043526 0 0.0062835825764938269 0.025351431824879391 0 0.0099527445108900693 0.023345742809213022 0 0.014840311094031824 0.023899218646217808 0 0.0051348964735215994 0.025590958361874538 0 0.0057080797723747054 0.02595647173379971 0 0.0056586282707584623 0.025355924843043526 0 0.004993751889337779 0.02606961613316117 0 0.0051348964735215994 0.025590958361874538 0 0.0057080797723747054 0.02595647173379971 0 0.004993751889337779 0.02606961613316117 0 0.0052829131346632131 0.026374224865371297 0 0.0057080797723747054 0.02595647173379971 0 0.0093700939864496506 0.025282372470225054 0 0.0099527445108900693 0.023345742809213022 0 0.039982706649266106 0.021857119502532604 0 0.04137922188944184 0.022219467427127132 0 0.040269655298503633 0.021001144620388192 0 0.040328115905512073 0.020644849270010215 0 0.040819644250856296 0.02089236184979136 0 0.040315922297915925 0.022798079162478311 0 0.039812285679907217 0.023122419255874646 0 0.040129187534861652 0.022776112164424826 0 0.040328591506319601 0.019997816625393305 0 0.040328115905512073 0.020644849270010215 0 0.040789929873038686 0.020410508784703435 0 0.040328591506319601 0.019997816625393305 0 0.040144261483065248 0.020699983924014394 0 0.040328115905512073 0.020644849270010215 0 0.040328115905512073 0.020644849270010215 0 0.040789929873038686 0.020410508784703435 0 0.040819644250856296 0.02089236184979136 0 0.040789929873038686 0.020410508784703435 0 0.040819644250856296 0.02089236184979136 0 0.041273159060807446 0.020299689553869817 0 0.039812285679907217 0.023122419255874646 0 0.039114591925296836 0.023216775205999973 0 0.039264870886976395 0.022937955030804501 0 0.040819644250856296 0.02089236184979136 0 0.041273159060807446 0.020299689553869817 0 0.041491747963265123 0.020840830697123228 0 0.04137922188944184 0.022219467427127132 0 0.035505022339985565 0.020212238852511062 0 0.034040899038568204 0.018915616745710059 0 0.035505022339985565 0.020212238852511062 0 0.024815354005079945 0.016743297686003043 0 0.027376799685549083 0.019163376242134673 0 0.026822963451536102 0.018532712389929613 0 0.027218854019512424 0.018090219967380021 0 0.026744827252465412 0.017897180976576596 0 0.026367209765117791 0.018259397057988989 0 0.026744827252465412 0.017897180976576596 0 0.026533269093761469 0.017433989752049659 0 0.027218854019512424 0.018090219967380021 0 0.026744827252465412 0.017897180976576596 0 0.026834948350994772 0.017437151219897421 0 0.026744827252465412 0.017897180976576596 0 0.026533269093761469 0.017433989752049659 0 0.026834948350994772 0.017437151219897421 0 0.027376799685549083 0.019163376242134673 0 0.035505022339985565 0.020212238852511062 0 0.025591812299384842 0.019648420626541083 0 0.025056295700920762 0.018780906562011864 0 0.02495132842089387 0.020027970318656951 0 0.035505022339985565 0.020212238852511062 0 0.030933110379218309 0.021609192710870383 0 0.03139403711514438 0.019949228436075741 0 0.031132331677786479 0.019949841849897326 0 0.031356319699339899 0.020386094334951393 0 0.027376799685549083 0.019163376242134673 0 0.030933110379218309 0.021609192710870383 0 0.028472435407291864 0.022578817956758666 0 0.02840224635322193 0.022383985989656598 0 0.028529582838139944 0.021830222775218618 0 0.038939430618855152 0.022929896202513091 0 0.038961248428094078 0.022578257050534453 0 0.039264870886976395 0.022937955030804501 0 0.030933110379218309 0.021609192710870383 0 0.029760359839971728 0.022765925739441421 0 0.039114591925296836 0.023216775205999973 0 0.038939430618855152 0.022929896202513091 0 0.039264870886976395 0.022937955030804501 0 0.02818913801846356 0.022119799334949064 0 0.028472435407291864 0.022578817956758666 0 0.02840224635322193 0.022383985989656598 0 0.025667974833489766 0.024335178463761889 0 0.02581126098712172 0.024207177921530869 0 0.025738587066509288 0.024135327952638164 0 0.025444758850024497 0.022276643137100389 0 0.029760359839971728 0.022765925739441421 0 0.028204567800350515 0.02212270137750072 0 0.02840224635322193 0.022383985989656598 0 0.028529582838139944 0.021830222775218618 0 0.029760359839971728 0.022765925739441421 0 0.027735333061048129 0.024267679567814747 0 0.02581126098712172 0.024207177921530869 0 0.025738587066509288 0.024135327952638164 0 0.025823017829350692 0.024072696567589057 0 0.029760359839971728 0.022765925739441421 0 0.032659923879388902 0.023128302755401325 0 0.025828087372741868 0.024175581968882993 0 0.026016567399862606 0.024019917003504507 0 0.025823017829350692 0.024072696567589057 0 0.038961248428094078 0.022578257050534453 0 0.039464489065321108 0.022524131261588944 0 0.039515439650774843 0.022796689456903288 0 0.038961248428094078 0.022578257050534453 0 0.039464489065321108 0.022524131261588944 0 0.03920612268622365 0.022357547183053897 0 0.038961248428094078 0.022578257050534453 0 0.039515439650774843 0.022796689456903288 0 0.039264870886976395 0.022937955030804501 0 0.039812285679907217 0.023122419255874646 0 0.039515439650774843 0.022796689456903288 0 0.039264870886976395 0.022937955030804501 0 0.039812285679907217 0.023122419255874646 0 0.039515439650774843 0.022796689456903288 0 0.040129187534861652 0.022776112164424826 0 0.039464489065321108 0.022524131261588944 0 0.039515439650774843 0.022796689456903288 0 0.040129187534861652 0.022776112164424826 0 0.039464489065321108 0.022524131261588944 0 0.040129187534861652 0.022776112164424826 0 0.039760495535350701 0.022392540919427922 0 0.040039489167650343 0.022722119729463846 0 0.040312665421476553 0.022747546716762938 0 0.040129187534861652 0.022776112164424826 0 0.040121242942896325 0.022980952630454316 0 0.040208389887129152 0.02298392987514954 0 0.040134082797793333 0.022996204223856082 0 0.040129187534861652 0.022776112164424826 0 0.040121242942896325 0.022980952630454316 0 0.040315922297915925 0.022798079162478311 0 0.040248141361665768 0.022795011755975141 0 0.040129187534861652 0.022776112164424826 0 0.040128427319622288 0.023076985569546793 0 0.040121242942896325 0.022980952630454316 0 0.040208389887129152 0.02298392987514954 0 0.040312665421476553 0.022747546716762938 0 0.035523633386265477 0.024090368107054914 0 0.039464489065321108 0.022524131261588944 0 0.039760495535350701 0.022392540919427922 0 0.039421489838214779 0.022118649447594174 0 0.040128427319622288 0.023076985569546793 0 0.040208389887129152 0.02298392987514954 0 0.040215547499030078 0.023085645406766452 0 0.040128427319622288 0.023076985569546793 0 0.040215547499030078 0.023085645406766452 0 0.040126979311285761 0.023184648166984761 0 0.035523633386265477 0.024090368107054914 0 0.036950372269347664 0.0258150251781466 0 0.026360401096548705 0.023780557879151325 0 0.025892829562578538 0.023797687446892105 0 0.026020853971101206 0.023312590411049782 0 0.035523633386265477 0.024090368107054914 0 0.027217537701318961 0.02541792917690773 0 0.039464489065321108 0.022524131261588944 0 0.039421489838214779 0.022118649447594174 0 0.03920612268622365 0.022357547183053897 0 0.035523633386265477 0.024090368107054914 0 0.032659923879388902 0.023128302755401325 0 0.026360401096548705 0.023780557879151325 0 0.026016567399862606 0.024019917003504507 0 0.025892829562578538 0.023797687446892105 0 0.026016567399862606 0.024019917003504507 0 0.025790228905090411 0.023953451455183461 0 0.025892829562578538 0.023797687446892105 0 0.026016567399862606 0.024019917003504507 0 0.025823017829350692 0.024072696567589057 0 0.025790228905090411 0.023953451455183461 0 0.025823017829350692 0.024072696567589057 0 0.025790228905090411 0.023953451455183461 0 0.025698937393047266 0.024033016553818842 0 0.025738587066509288 0.024135327952638164 0 0.025823017829350692 0.024072696567589057 0 0.025698937393047266 0.024033016553818842 0 0.025790228905090411 0.023953451455183461 0 0.025750132693463854 0.023842629208639575 0 0.025622873728602308 0.023945366944129621 0 0.025917976463899744 0.02324593051122148 0 0.027217537701318961 0.02541792917690773 0 0.025790228905090411 0.023953451455183461 0 0.025750132693463854 0.023842629208639575 0 0.025892829562578538 0.023797687446892105 0 0.025892829562578538 0.023797687446892105 0 0.025749739510954047 0.023815614333635528 0 0.025720144404470329 0.023841638689899084 0 0.025750132693463854 0.023842629208639575 0 0.025892829562578538 0.023797687446892105 0 0.025749739510954047 0.023815614333635528 0 0.025750132693463854 0.023842629208639575 0 0.025749739510954047 0.023815614333635528 0 0.025674762761133955 0.023806106779038674 0 0.020399090184529775 0.027050642855606967 0 0.019588705208007724 0.025161640326102821 0 0.025749739510954047 0.023815614333635528 0 0.025712861333730411 0.023892958546095043 0 0.025674762761133955 0.023806106779038674 0 0.025749739510954047 0.023815614333635528 0 0.025712861333730411 0.023892958546095043 0 0.025720144404470329 0.023841638689899084 0 0.020399090184529775 0.027050642855606967 0 0.027217537701318961 0.02541792917690773 0 0.020399090184529775 0.027050642855606967 0 0.015005456983390718 0.028600750293536134 0 0.027217537701318961 0.02541792917690773 0 0.024802324629338741 0.028005378837035022 0 0.0333156416212224 0.02715124335110445 0 0.033905044862279285 0.02703133933891819 0 0.033440135105860379 0.026349943803065021 0 0.024989214643538732 0.026752028156260221 0 0.024625977870649775 0.026168500899587856 0 0.024326913662060301 0.027734327499847011 0 0.020399090184529775 0.027050642855606967 0 0.024802324629338741 0.028005378837035022 0 0.033697374117327553 0.027648611151755379 0 0.0333156416212224 0.02715124335110445 0 0.033905044862279285 0.02703133933891819 0 0.033697374117327553 0.027648611151755379 0 0.033905044862279285 0.02703133933891819 0 0.03424970159873069 0.027081598171951288 0 0.03362286824648171 0.026508852948613437 0 0.036950372269347664 0.0258150251781466 0 0.033905044862279285 0.02703133933891819 0 0.034287884596400968 0.02671988004742263 0 0.034308586856513751 0.027124435100442688 0 0.033905044862279285 0.02703133933891819 0 0.033934199128991732 0.026443649101115851 0 0.033440135105860379 0.026349943803065021 0 0.033905044862279285 0.02703133933891819 0 0.034287884596400968 0.02671988004742263 0 0.033934199128991732 0.026443649101115851 0 0.034287884596400968 0.02671988004742263 0 0.034269625388686102 0.026245123193117451 0 0.033934199128991732 0.026443649101115851 0 0.034287884596400968 0.02671988004742263 0 0.034693520879393792 0.026734845495749626 0 0.034308586856513751 0.027124435100442688 0 0.034287884596400968 0.02671988004742263 0 0.034581049117573238 0.026471242430805966 0 0.034693520879393792 0.026734845495749626 0 0.034287884596400968 0.02671988004742263 0 0.034581049117573238 0.026471242430805966 0 0.034269625388686102 0.026245123193117451 0 0.034581049117573238 0.026471242430805966 0 0.034889818732505712 0.026634419915833228 0 0.034780717634507477 0.026757365355147625 0 0.034911895801446893 0.026402269604486901 0 0.035454542588971349 0.026676962772675932 0 0.034581049117573238 0.026471242430805966 0 0.034889818732505712 0.026634419915833228 0 0.034860982040125464 0.026404855461567865 0 0.035287052622149782 0.02676463801223266 0 0.035454542588971349 0.026676962772675932 0 0.037092065432424159 0.026073659798387726 0 0.037004270385585701 0.025912277306421254 0 0.036892101870876423 0.026038599266018893 0 0.040071951243962962 0.023159168070801442 0 0.040128427319622288 0.023076985569546793 0 0.040126979311285761 0.023184648166984761 0 0.038528726907337059 0.025557089704380871 0 0.036950372269347664 0.0258150251781466 0 0.035454542588971349 0.026676962772675932 0 0.036950372269347664 0.0258150251781466 0 0.005822666765075939 0.024708870239117137 0 0.0052548342014237413 0.02509292983532526 0 0.0056586282707584623 0.025355924843043526 0 0.005822666765075939 0.024708870239117137 0 0.0052548342014237413 0.02509292983532526 0 0.0049890946565338953 0.024613075185198768 0 0.0045509957781501654 0.025129170952375646 0 0.0052548342014237413 0.02509292983532526 0 0.0049890946565338953 0.024613075185198768 0 0.0051348964735215994 0.025590958361874538 0 0.0052548342014237413 0.02509292983532526 0 0.0056586282707584623 0.025355924843043526 0 0.0045509957781501654 0.025129170952375646 0 0.0051348964735215994 0.025590958361874538 0 0.0052548342014237413 0.02509292983532526 0 0.005822666765075939 0.024708870239117137 0 0.0056586282707584623 0.025355924843043526 0 0.0062835825764938269 0.025351431824879391 0 0.025436818217462482 0.024004486032079761 0 0.025622873728602308 0.023945366944129621 0 0.025674762761133955 0.023806106779038674 0 0.025790228905090411 0.023953451455183461 0 0.025698937393047266 0.024033016553818842 0 0.025622873728602308 0.023945366944129621 0 0.025633900665777625 0.024104498734385568 0 0.025698937393047266 0.024033016553818842 0 0.025590088206500539 0.024017578135407586 0 0.025698937393047266 0.024033016553818842 0 0.025590088206500539 0.024017578135407586 0 0.025622873728602308 0.023945366944129621 0 0.025436818217462482 0.024004486032079761 0 0.025465421415132229 0.023997943201510913 0 0.025622873728602308 0.023945366944129621 0 0.025590088206500539 0.024017578135407586 0 0.025465421415132229 0.023997943201510913 0 0.025622873728602308 0.023945366944129621 0 0.025633900665777625 0.024104498734385568 0 0.025590088206500539 0.024017578135407586 0 0.025465421415132229 0.023997943201510913 0 0.025750132693463854 0.023842629208639575 0 0.025622873728602308 0.023945366944129621 0 0.025674762761133955 0.023806106779038674 0 0.014840311094031824 0.023899218646217808 0 0.019588705208007724 0.025161640326102821 0 0.0084835969699537314 0.025748194511179739 0 0.014840311094031824 0.023899218646217808 0 0.012980294677286928 0.026860292618946482 0 0.012821566691410486 0.026535496902690543 0 0.012644834101946769 0.026830269380286965 0 0.012980294677286928 0.026860292618946482 0 0.012644834101946769 0.026830269380286965 0 0.012822225878536606 0.027184444508371916 0 0.012459824594229025 0.027147543842753738 0 0.012644834101946769 0.026830269380286965 0 0.012822225878536606 0.027184444508371916 0 0.012459824594229025 0.027147543842753738 0 0.012822225878536606 0.027184444508371916 0 0.012588861831825041 0.027583633783796777 0 0.01413473223949898 0.027456460931342866 0 0.01014499717106314 0.026261022385873214 0 0.012822225878536606 0.027184444508371916 0 0.013147060824937901 0.027268846235322157 0 0.012865427954559113 0.02754459156239232 0 0.012980294677286928 0.026860292618946482 0 0.012822225878536606 0.027184444508371916 0 0.013136391454649107 0.027147808559438574 0 0.0084835969699537314 0.025748194511179739 0 0.01014499717106314 0.026261022385873214 0 0.0046311141684795389 0.024318139828939912 0 0.0049890946565338953 0.024613075185198768 0 0.0052901547399926757 0.023885448969520804 0 0.005822666765075939 0.024708870239117137 0 0.0049890946565338953 0.024613075185198768 0 0.0052901547399926757 0.023885448969520804 0 0.01014499717106314 0.026261022385873214 0 0.010149910539073149 0.029602594450057626 0 0.0054480281516957616 0.026599000289723031 0 0.01014499717106314 0.026261022385873214 0 0.013147060824937901 0.027268846235322157 0 0.013136357823706969 0.027585611678017149 0 0.013374212300557875 0.02763585112320617 0 0.013136357823706969 0.027585611678017149 0 0.01319728325057308 0.027806016949479671 0 0.013374212300557875 0.02763585112320617 0 0.01319728325057308 0.027806016949479671 0 0.013080831491949408 0.027983163625625394 0 0.013303368905896973 0.028049773095924095 0 0.013136357823706969 0.027585611678017149 0 0.01319728325057308 0.027806016949479671 0 0.013030553884364941 0.027774638736173377 0 0.01319728325057308 0.027806016949479671 0 0.013030553884364941 0.027774638736173377 0 0.013080831491949408 0.027983163625625394 0 0.013030553884364941 0.027774638736173377 0 0.012750854289037371 0.028029115493014421 0 0.013080831491949408 0.027983163625625394 0 0.013147060824937901 0.027268846235322157 0 0.013136357823706969 0.027585611678017149 0 0.012865427954559113 0.02754459156239232 0 0.013136357823706969 0.027585611678017149 0 0.013030553884364941 0.027774638736173377 0 0.012865427954559113 0.02754459156239232 0 0.012822225878536606 0.027184444508371916 0 0.012865427954559113 0.02754459156239232 0 0.012588861831825041 0.027583633783796777 0 0.018813906820457808 0.029320213645748411 0 0.018148277985858576 0.028433671804987522 0 0.019060129300369679 0.028577673417261397 0 0.015005456983390718 0.028600750293536134 0 0.015551510431423388 0.028280568844268338 0 0.013030553884364941 0.027774638736173377 0 0.012865427954559113 0.02754459156239232 0 0.012750854289037371 0.028029115493014421 0 0.012865427954559113 0.02754459156239232 0 0.012588861831825041 0.027583633783796777 0 0.012750854289037371 0.028029115493014421 0 0.018148277985858576 0.028433671804987522 0 0.018774906382215156 0.027937232205409349 0 0.019060129300369679 0.028577673417261397 0 0.018148277985858576 0.028433671804987522 0 0.018774906382215156 0.027937232205409349 0 0.018249877177925186 0.027455802905497203 0 0.018774906382215156 0.027937232205409349 0 0.018249877177925186 0.027455802905497203 0 0.018897990936905456 0.027392008649171368 0 0.018148277985858576 0.028433671804987522 0 0.017484931757637399 0.027542847482165109 0 0.018249877177925186 0.027455802905497203 0 0.015551510431423388 0.028280568844268338 0 0.015338723156005584 0.027689850294121559 0 0.012750854289037371 0.028029115493014421 0 0.012948213572098067 0.028437880470656277 0 0.013060917958595054 0.028210977285622756 0 0.012948213572098067 0.028437880470656277 0 0.013097636639648799 0.028404675328843193 0 0.013060917958595054 0.028210977285622756 0 0.013060917958595054 0.028210977285622756 0 0.013080831491949408 0.027983163625625394 0 0.013303368905896973 0.028049773095924095 0 0.013097636639648799 0.028404675328843193 0 0.013060917958595054 0.028210977285622756 0 0.013303368905896973 0.028049773095924095 0 0.012750854289037371 0.028029115493014421 0 0.013060917958595054 0.028210977285622756 0 0.013080831491949408 0.027983163625625394 0 0.034861967036452696 0.025485306534956974 0 0.034412552273207608 0.025847037638692082 0 0.034153963264449874 0.02531194172899796 0 0.034861967036452696 0.025485306534956974 0 0.034851771250118582 0.025896677831995032 0 0.034412552273207608 0.025847037638692082 0 0.034851771250118582 0.025896677831995032 0 0.034412552273207608 0.025847037638692082 0 0.034663244952660238 0.026176224468575569 0 0.034581049117573238 0.026471242430805966 0 0.034663244952660238 0.026176224468575569 0 0.034860982040125464 0.026404855461567865 0 0.035008733153047263 0.026218481281604464 0 0.034663244952660238 0.026176224468575569 0 0.034860982040125464 0.026404855461567865 0 0.034581049117573238 0.026471242430805966 0 0.034663244952660238 0.026176224468575569 0 0.034269625388686102 0.026245123193117451 0 0.034412552273207608 0.025847037638692082 0 0.034663244952660238 0.026176224468575569 0 0.034269625388686102 0.026245123193117451 0 0.034269625388686102 0.026245123193117451 0 0.033934199128991732 0.026443649101115851 0 0.033799133361636133 0.02583054103986079 0 0.034412552273207608 0.025847037638692082 0 0.034269625388686102 0.026245123193117451 0 0.033799133361636133 0.02583054103986079 0 0.034412552273207608 0.025847037638692082 0 0.033799133361636133 0.02583054103986079 0 0.034153963264449874 0.02531194172899796 0 0.0272015022164767 0.027273543640699397 0 0.028141321894120278 0.025842785242195132 0 0.02039747253733238 0.028739446558434623 0 0.020177180699525645 0.028438224406670085 0 0.020767010930755479 0.028336779057496809 0 0.019649369065064787 0.028643150862962607 0 0.020000805757513441 0.02904008811536541 0 0.019440860344326061 0.029226402513253272 0 0.020216390402113447 0.029210012351521326 0 0.020214007153099334 0.02838875870108383 0 0.02039747253733238 0.028739446558434623 0 0.020285890000733789 0.028743439727394585 0 0.020177180699525645 0.028438224406670085 0 0.019649369065064787 0.028643150862962607 0 0.020000805757513441 0.02904008811536541 0 0.020177180699525645 0.028438224406670085 0 0.033934199128991732 0.026443649101115851 0 0.033799133361636133 0.02583054103986079 0 0.033440135105860379 0.026349943803065021 0 0.02039747253733238 0.028739446558434623 0 0.020285890000733789 0.028743439727394585 0 0.020306341405676928 0.028866417513978126 0 0.020216390402113447 0.029210012351521326 0 0.024802324629338741 0.028005378837035022 0 0.0272015022164767 0.027273543640699397 0 0.024802324629338741 0.028005378837035022 0 0.020000805757513441 0.02904008811536541 0 0.019876346508284452 0.02957085559085967 0 0.019440860344326061 0.029226402513253272 0 0.019445075409029497 0.030168214844797533 0 0.018813906820457808 0.029320213645748411 0 0.019440860344326061 0.029226402513253272 0 0.019445075409029497 0.030168214844797533 0 0.019876346508284452 0.02957085559085967 0 0.019440860344326061 0.029226402513253272 0 0.018813906820457808 0.029320213645748411 0 0.019440860344326061 0.029226402513253272 0 0.019060129300369679 0.028577673417261397 0 0.019649369065064787 0.028643150862962607 0 0.019440860344326061 0.029226402513253272 0 0.019060129300369679 0.028577673417261397 0 0.019649369065064787 0.028643150862962607 0 0.019060129300369679 0.028577673417261397 0 0.019589725604484878 0.027920652191586341 0 0.018774906382215156 0.027937232205409349 0 0.019060129300369679 0.028577673417261397 0 0.019589725604484878 0.027920652191586341 0 0.018774906382215156 0.027937232205409349 0 0.019589725604484878 0.027920652191586341 0 0.018897990936905456 0.027392008649171368 0 0.019589725604484878 0.027920652191586341 0 0.020346823477062907 0.027425114351484221 0 0.019449520817758307 0.027082659345394521 0 0.019589725604484878 0.027920652191586341 0 0.020424488012678588 0.027986415213138729 0 0.020346823477062907 0.027425114351484221 0 0.019589725604484878 0.027920652191586341 0 0.020177180699525645 0.028438224406670085 0 0.020424488012678588 0.027986415213138729 0 0.019649369065064787 0.028643150862962607 0 0.019589725604484878 0.027920652191586341 0 0.020177180699525645 0.028438224406670085 0 0.020177180699525645 0.028438224406670085 0 0.020767010930755479 0.028336779057496809 0 0.020424488012678588 0.027986415213138729 0 0.020767010930755479 0.028336779057496809 0 0.020424488012678588 0.027986415213138729 0 0.021204619887026478 0.027781238345824431 0 0.020424488012678588 0.027986415213138729 0 0.021204619887026478 0.027781238345824431 0 0.020346823477062907 0.027425114351484221 0 0.023963485119646324 0.031367572244054197 0 0.01724333324821839 0.033230696102823573 0 0.0186412664197429 0.037987573129244744 0 0.023963485119646324 0.031367572244054197 0 0.028141321894120278 0.025842785242195132 0 0.023963485119646324 0.031367572244054197 0 0.034861967036452696 0.025485306534956974 0 0.034153963264449874 0.02531194172899796 0 0.034479920693354711 0.024786112197531341 0 0.018238930215115984 0.036527337350390064 0 0.017036064696216307 0.037769831894959138 0 0.016835685683977135 0.036485239832434326 0 0.01848403922015111 0.038326612468535907 0 0.018238930215115984 0.036527337350390064 0 0.017036064696216307 0.037769831894959138 0 0.01848403922015111 0.038326612468535907 0 0.017570209608875131 0.039603720350190698 0 0.017036064696216307 0.037769831894959138 0 0.017570209608875131 0.039603720350190698 0 0.017036064696216307 0.037769831894959138 0 0.01574794822405157 0.038869986338731406 0 0.017036064696216307 0.037769831894959138 0 0.01574794822405157 0.038869986338731406 0 0.015511569339997077 0.03731334409976491 0 0.017036064696216307 0.037769831894959138 0 0.015511569339997077 0.03731334409976491 0 0.016835685683977135 0.036485239832434326 0 0.015511569339997077 0.03731334409976491 0 0.014103610887454276 0.038250722632573605 0 0.014070388875183448 0.036478525957032798 0 0.01724333324821839 0.033230696102823573 0 0.016929885041397766 0.032695646335162074 0 0.01574794822405157 0.038869986338731406 0 0.015511569339997077 0.03731334409976491 0 0.014103610887454276 0.038250722632573605 0 0.016929885041397766 0.032695646335162074 0 0.015496721043458861 0.032179940897102313 0 0.019589725604484878 0.027920652191586341 0 0.019449520817758307 0.027082659345394521 0 0.018897990936905456 0.027392008649171368 0 0.014103610887454276 0.038250722632573605 0 0.014070388875183448 0.036478525957032798 0 0.012510834946894072 0.037688262929274477 0 0.014070388875183448 0.036478525957032798 0 0.014777823289521333 0.034999809748742956 0 0.012908106101653296 0.034999892504945132 0 0.014070388875183448 0.036478525957032798 0 0.014777823289521333 0.034999809748742956 0 0.01554481886090441 0.03599899941573232 0 0.015511569339997077 0.03731334409976491 0 0.014070388875183448 0.036478525957032798 0 0.01554481886090441 0.03599899941573232 0 0.01554481886090441 0.03599899941573232 0 0.016647676322813405 0.034999633490762919 0 0.016835685683977135 0.036485239832434326 0 0.015511569339997077 0.03731334409976491 0 0.01554481886090441 0.03599899941573232 0 0.016835685683977135 0.036485239832434326 0 0.014777823289521333 0.034999809748742956 0 0.01554481886090441 0.03599899941573232 0 0.016647676322813405 0.034999633490762919 0 0.017976019053294615 0.035661612283671103 0 0.016647676322813405 0.034999633490762919 0 0.016835685683977135 0.036485239832434326 0 0.018238930215115984 0.036527337350390064 0 0.017976019053294615 0.035661612283671103 0 0.016835685683977135 0.036485239832434326 0 0.017484931757637399 0.027542847482165109 0 0.017370850841193757 0.026512008473172193 0 0.01682962111836862 0.026651038428578019 0 0.017609788426480647 0.026453470777515458 0 0.017355686557299188 0.026523704965911762 0 0.017755237257986934 0.026792115073397575 0 0.015315271307794261 0.02994165947381925 0 0.017013540486023195 0.027368526012015337 0 0.014014033545355412 0.032568626434405973 0 0.015315271307794261 0.02994165947381925 0 0.015315271307794261 0.02994165947381925 0 0.013707001042538816 0.029205934463271559 0 0.013215039110475821 0.032014837439103501 0 0.012269769554619376 0.032252338160936346 0 0.012236833809404607 0.031264863238030939 0 0.013707001042538816 0.029205934463271559 0 0.013410136767279245 0.030965695058539383 0 0.012948213572098067 0.028437880470656277 0 0.012998213962809554 0.028489896598648604 0 0.012775500664553975 0.028610038659546491 0 0.012948213572098067 0.028437880470656277 0 0.013097636639648799 0.028404675328843193 0 0.012775500664553975 0.028610038659546491 0 0.012513986951735527 0.030370094620105953 0 0.012775500664553975 0.028610038659546491 0 0.012435970559009529 0.029461792106880269 0 0.012767975380858854 0.029333078903060267 0 0.012802474931375802 0.028651768086735221 0 0.015338723156005584 0.027689850294121559 0 0.013707001042538816 0.029205934463271559 0 0.017484931757637399 0.027542847482165109 0 0.017370850841193757 0.026512008473172193 0 0.017755237257986934 0.026792115073397575 0 0.017484931757637399 0.027542847482165109 0 0.018249877177925186 0.027455802905497203 0 0.017755237257986934 0.026792115073397575 0 0.018249877177925186 0.027455802905497203 0 0.018551368659409314 0.026755154342674965 0 0.017755237257986934 0.026792115073397575 0 0.018249877177925186 0.027455802905497203 0 0.018897990936905456 0.027392008649171368 0 0.018551368659409314 0.026755154342674965 0 0.019449520817758307 0.027082659345394521 0 0.018897990936905456 0.027392008649171368 0 0.018551368659409314 0.026755154342674965 0 0.017609788426480647 0.026453470777515458 0 0.018551368659409314 0.026755154342674965 0 0.017755237257986934 0.026792115073397575 0 0.014014033545355412 0.032568626434405973 0 0.015496721043458861 0.032179940897102313 0 0.010838488236402976 0.037123545442968746 0 0.012510834946894072 0.037688262929274477 0 0.012009802613771251 0.036223534684748954 0 0.010838488236402976 0.037123545442968746 0 0.012009802613771251 0.036223534684748954 0 0.010613992031461317 0.036091962417991591 0 0.014070388875183448 0.036478525957032798 0 0.012510834946894072 0.037688262929274477 0 0.012009802613771251 0.036223534684748954 0 0.014070388875183448 0.036478525957032798 0 0.012009802613771251 0.036223534684748954 0 0.012908106101653296 0.034999892504945132 0 0.012009802613771251 0.036223534684748954 0 0.011038455433957085 0.03499994760088173 0 0.010613992031461317 0.036091962417991591 0 0.012009802613771251 0.036223534684748954 0 0.012908106101653296 0.034999892504945132 0 0.011038455433957085 0.03499994760088173 0 0.011038455433957085 0.03499994760088173 0 0.0091688252371107878 0.034999926346009576 0 0.0097554769406724383 0.035728195850544618 0 0.011038455433957085 0.03499994760088173 0 0.010613992031461317 0.036091962417991591 0 0.0097554769406724383 0.035728195850544618 0 0.010838488236402976 0.037123545442968746 0 0.010613992031461317 0.036091962417991591 0 0.0095221485301945335 0.036468468097706791 0 0.013943840781581271 0.033192292758021581 0 0.013358072076675239 0.033341312478201109 0 0.012037876290040677 0.032313163363622305 0 0.014014033545355412 0.032568626434405973 0 0.010718976372221934 0.034377483618361904 0 0.010127309283843949 0.036349547467684346 0 0.010079275640377958 0.03522548216880779 0 0.010613992031461317 0.036091962417991591 0 0.009142362632949548 0.036508157037602212 0 0.0097554769406724383 0.035728195850544618 0 0.010613992031461317 0.036091962417991591 0 0.0093777701000055721 0.036404826822536838 0 0.0095221485301945335 0.036468468097706791 0 0.011987427350126751 0.031837831060874094 0 0.012076136494860766 0.031200271783758886 0 0.012236833809404607 0.031264863238030939 0 0.012269769554619376 0.032252338160936346 0 0.011987427350126751 0.031837831060874094 0 0.012236833809404607 0.031264863238030939 0 0.011987427350126751 0.031837831060874094 0 0.012076136494860766 0.031200271783758886 0 0.011459661138097361 0.031366166923128727 0 0.015315271307794261 0.02994165947381925 0 0.010718976372221934 0.034377483618361904 0 0.009142362632949548 0.036508157037602212 0 0.0097554769406724383 0.035728195850544618 0 0.0087273367399765926 0.036105769069243163 0 0.010079275640377958 0.03522548216880779 0 0.009747340181632539 0.035259247375342306 0 0.010079275640377958 0.03522548216880779 0 0.010718976372221934 0.034377483618361904 0 0.010079275640377958 0.03522548216880779 0 0.0090754376635814177 0.035765706354738518 0 0.010079275640377958 0.03522548216880779 0 0.0090099322288048414 0.035863051151745429 0 0.0096435551703848588 0.035644938031811638 0 0.0093233987250915563 0.035510456197884226 0 0.0093733881024131577 0.035389772089030096 0 0.0091688252371107878 0.034999926346009576 0 0.0097554769406724383 0.035728195850544618 0 0.0087273367399765926 0.036105769069243163 0 0.0091684467974106568 0.035000603855752661 0 0.0090099322288048414 0.035863051151745429 0 0.0072814355602717051 0.035000300795489755 0 0.0090099322288048414 0.035863051151745429 0 0.0069618045340903963 0.035671893446439881 0 0.0090754376635814177 0.035765706354738518 0 0.0091686909336402504 0.034999994696447316 0 0.0072813814114998203 0.034999998319767356 0 0.0086955070700687892 0.036138716819912951 0 0.0070665973735391189 0.0356631592009456 0 0.0086199613677910708 0.036320720064438351 0 0.008697840052584142 0.036132886872944935 0 0.0072813732626375201 0.03499998935311939 0 0.0070665973735391189 0.0356631592009456 0 0.008697840052584142 0.036132886872944935 0 0.0072813732626375201 0.03499998935311939 0 0.0070665973735391189 0.0356631592009456 0 0.0055154477213506092 0.035000002326871379 0 0.0068066543368901326 0.03703902975730123 0 0.009747340181632539 0.035259247375342306 0 0.0075579876663070386 0.036396690594347234 0 0.0067462036120435323 0.037041040144899909 0 0.0083747496286462313 0.036614368137339474 0 0.0070000285956110693 0.035601735906371543 0 0.0075579876663070386 0.036396690594347234 0 0.0067462036120435323 0.037041040144899909 0 0.0070000285956110693 0.035601735906371543 0 0.0067462036120435323 0.037041040144899909 0 0.0058637567208384657 0.036249021784698472 0 0.0070000285956110693 0.035601735906371543 0 0.0075579876663070386 0.036396690594347234 0 0.0085318493050802417 0.036236037097484824 0 0.0075579876663070386 0.036396690594347234 0 0.0083747496286462313 0.036614368137339474 0 0.0085318493050802417 0.036236037097484824 0 0.0097475120144822382 0.03540420388248907 0 0.0094507865936452988 0.03548107524855465 0 0.0095224579303698591 0.035308291355421031 0 0.009747340181632539 0.035259247375342306 0 0.0090754376635814177 0.035765706354738518 0 0.0090754376635814177 0.035765706354738518 0 0.0090099322288048414 0.035863051151745429 0 0.0055154740625816684 0.034999997359169546 0 0.0058637567208384657 0.036249021784698472 0 0.004904420682613265 0.036174593880072686 0 0.0055154740625816684 0.034999997359169546 0 0.004904420682613265 0.036174593880072686 0 0.0038842243990922171 0.034999710295094126 0 0.0069618045340903963 0.035671893446439881 0 0.005515842024784545 0.035000134885789895 0 0.0070000285956110693 0.035601735906371543 0 0.0055154740625816684 0.034999997359169546 0 0.0058637567208384657 0.036249021784698472 0 0.0067462036120435323 0.037041040144899909 0 0.0058637567208384657 0.036249021784698472 0 0.0051538612670193867 0.037472842060518707 0 0.004904420682613265 0.036174593880072686 0 0.0051538612670193867 0.037472842060518707 0 0.004107925571005545 0.037233458165106918 0 0.004904420682613265 0.036174593880072686 0 0.004107925571005545 0.037233458165106918 0 0.0039300471300609315 0.036003482259291432 0 0.0058637567208384657 0.036249021784698472 0 0.004904420682613265 0.036174593880072686 0 0.0051538612670193867 0.037472842060518707 0 0.0032235624591032139 0.036968592078347434 0 0.0026046025606535034 0.036781805406490148 0 0.0026673652133610034 0.036302030551501947 0 0.0051538612670193867 0.037472842060518707 0 0.0052238566806274509 0.038718083018461739 0 0.004107925571005545 0.037233458165106918 0 0.0051538612670193867 0.037472842060518707 0 0.0059451112819605021 0.038051928515798077 0 0.0052238566806274509 0.038718083018461739 0 0.0053971154893853856 0.034964514010625398 0 0.0033822035174100595 0.037199197007216737 0 0.0068066543368901326 0.03703902975730123 0 0.0053650774564197312 0.037377327612504993 0 0.0072941650395842699 0.036724453819690889 0 0.0051538612670193867 0.037472842060518707 0 0.0059451112819605021 0.038051928515798077 0 0.0072941650395842699 0.036724453819690889 0 0.0059451112819605021 0.038051928515798077 0 0.0069641014708055398 0.038356287371569049 0 0.0099571953292417349 0.029030020585226399 0 0.0079422854264341921 0.029540362881337091 0 0.0099580236458123115 0.030300219055758304 0 0.0086664757158339337 0.033656575158870571 0 0.0053971154893853856 0.034964514010625398 0 0.0079422854264341921 0.029540362881337091 0 0.0099580236458123115 0.030300219055758304 0 0.009173381297835962 0.031190928687434574 0 0.0059451112819605021 0.038051928515798077 0 0.0069641014708055398 0.038356287371569049 0 0.0052238566806274509 0.038718083018461739 0 0.0053971154893853856 0.034964514010625398 0 0.0066026626978854435 0.03455589470683515 0 0.0033540988499049444 0.036923468121084747 0 0.0039691975864515816 0.037689848813200075 0 0.0032204558778034494 0.03749729236394362 0 0.0032235624591032139 0.036968592078347434 0 0.0029069359087899602 0.037056330830276873 0 0.0026046025606535034 0.036781805406490148 0 0.0033540988499049444 0.036923468121084747 0 0.0029069359087899602 0.037056330830276873 0 0.0032204558778034494 0.03749729236394362 0 0.0029069359087899602 0.037056330830276873 0 0.002870240855654827 0.037439176300398058 0 0.0032204558778034494 0.03749729236394362 0 0.0053971154893853856 0.034964514010625398 0 0.0028051044002047006 0.036380677152527796 0 0.012261552193683533 0.032249453522110096 0 0.011987427350126751 0.031837831060874094 0 0.010949593689682371 0.032582892884335954 0 0.011987427350126751 0.031837831060874094 0 0.011459661138097361 0.031366166923128727 0 0.010949593689682371 0.032582892884335954 0 0.013707001042538816 0.029205934463271559 0 0.010364716324712416 0.032433690805063684 0 0.0072941650395842699 0.036724453819690889 0 0.0095894823931406987 0.036076969645641527 0 0.0088350803382735103 0.037882752121969836 0 0.009747340181632539 0.035259247375342306 0 0.010364716324712416 0.032433690805063684 0 0.012998213962809554 0.028489896598648604 0 0.012775500664553975 0.028610038659546491 0 0.011897929741129834 0.028764100280967583 0 0.010364716324712416 0.032433690805063684 0 0.011185126648774722 0.0304192162093193 0 0.011897929741129834 0.028764100280967583 0 0.012298693538680803 0.029003112692434524 0 0.012093602034167556 0.02919045749133329 0 0.011897929741129834 0.028764100280967583 0 0.011665187933338915 0.029070253603626556 0 0.012093602034167556 0.02919045749133329 0 0.012775500664553975 0.028610038659546491 0 0.012298693538680803 0.029003112692434524 0 0.012435970559009529 0.029461792106880269 0 0.012775500664553975 0.028610038659546491 0 0.011897929741129834 0.028764100280967583 0 0.012298693538680803 0.029003112692434524 0 0.0086664757158339337 0.033656575158870571 0 0.010364716324712416 0.032433690805063684 0 0.0072941650395842699 0.036724453819690889 0 0.0069641014708055398 0.038356287371569049 0 0.0088350803382735103 0.037882752121969836 0 0.0099571953292417349 0.029030020585226399 0 0.011844223546833961 0.028652311391833156 0 0.011665187933338915 0.029070253603626556 0 0.0099571953292417349 0.029030020585226399 0 0.01128023501249785 0.029959865280748212 0 0.011665187933338915 0.029070253603626556 0 0.0099571953292417349 0.029030020585226399 0 0.0099580236458123115 0.030300219055758304 0 0.01128023501249785 0.029959865280748212 0 0.01128023501249785 0.029959865280748212 0 0.011886997400679779 0.029700468769251569 0 0.011805165044789859 0.030450473230647437 0 0.011886997400679779 0.029700468769251569 0 0.012155519403442677 0.029999084018394701 0 0.011805165044789859 0.030450473230647437 0 0.01128023501249785 0.029959865280748212 0 0.011886997400679779 0.029700468769251569 0 0.011665187933338915 0.029070253603626556 0 0.011886997400679779 0.029700468769251569 0 0.011665187933338915 0.029070253603626556 0 0.012093602034167556 0.02919045749133329 0 0.011886997400679779 0.029700468769251569 0 0.012093602034167556 0.02919045749133329 0 0.012435970559009529 0.029461792106880269 0 0.012298693538680803 0.029003112692434524 0 0.012093602034167556 0.02919045749133329 0 0.012435970559009529 0.029461792106880269 0 0.011886997400679779 0.029700468769251569 0 0.012435970559009529 0.029461792106880269 0 0.012155519403442677 0.029999084018394701 0 0.012513986951735527 0.030370094620105953 0 0.012435970559009529 0.029461792106880269 0 0.012155519403442677 0.029999084018394701 0 0.012513986951735527 0.030370094620105953 0 0.012155519403442677 0.029999084018394701 0 0.011805165044789859 0.030450473230647437 0 0.011805165044789859 0.030450473230647437 0 0.012166427036689914 0.030963665933841332 0 0.010819659943194893 0.031651728124256498 0 0.012767975380858854 0.029333078903060267 0 0.013007416714494522 0.02991645534421869 0 0.012513986951735527 0.030370094620105953 0 0.011805165044789859 0.030450473230647437 0 0.012166427036689914 0.030963665933841332 0 0.012513986951735527 0.030370094620105953 0 0.012166427036689914 0.030963665933841332 0 0.012183168976851028 0.03165221749855477 0 0.012166427036689914 0.030963665933841332 0 0.011761320346652003 0.031556632353466389 0 0.011042413752119855 0.03149467743725181 0 0.012166427036689914 0.030963665933841332 0 0.011761320346652003 0.031556632353466389 0 0.012183168976851028 0.03165221749855477 0 0.011761320346652003 0.031556632353466389 0 0.012183168976851028 0.03165221749855477 0 0.011607270937641054 0.032072974301473711 0 0.013260771854158302 0.030363429897647204 0 0.0081913124456604661 0.033279817626620245 0 0.011761320346652003 0.031556632353466389 0 0.011042413752119855 0.03149467743725181 0 0.011607270937641054 0.032072974301473711 0 0.012016349246868684 0.029555901726776614 0 0.0081913124456604661 0.033279817626620245 0 0.0099580236458123115 0.030300219055758304 0 0.01128023501249785 0.029959865280748212 0 0.010383053663886735 0.03304896316060129 0 0.01128023501249785 0.029959865280748212 0 0.011805165044789859 0.030450473230647437 0 0.010819659943194893 0.031651728124256498 0 0.0099580236458123115 0.030300219055758304 0 0.010383053663886735 0.03304896316060129 0 0.009173381297835962 0.031190928687434574 0 0.0039691975864515816 0.037689848813200075 0 0.0034491250402847377 0.03797640769868519 0 0.0039351577329008892 0.038337431424234618 0 0.002870240855654827 0.037439176300398058 0 0.0032204558778034494 0.03749729236394362 0 0.0028826011104743209 0.037894390893401395 0 0.0039691975864515816 0.037689848813200075 0 0.0032204558778034494 0.03749729236394362 0 0.0034491250402847377 0.03797640769868519 0 0.0034491250402847377 0.03797640769868519 0 0.0028826011104743209 0.037894390893401395 0 0.0032408218405009532 0.038467950873754625 0 0.0032204558778034494 0.03749729236394362 0 0.0034491250402847377 0.03797640769868519 0 0.0028826011104743209 0.037894390893401395 0 0.0032408218405009532 0.038467950873754625 0 0.0036435583769758215 0.038992491938411637 0 0.0026679607728277467 0.038829487565528696 0 0.0028826011104743209 0.037894390893401395 0 0.0032408218405009532 0.038467950873754625 0 0.0027652811700155512 0.038347784248870587 0 0.0034491250402847377 0.03797640769868519 0 0.0032408218405009532 0.038467950873754625 0 0.0039351577329008892 0.038337431424234618 0 0.0032408218405009532 0.038467950873754625 0 0.0026679607728277467 0.038829487565528696 0 0.0027652811700155512 0.038347784248870587 0 0.0045808921195281162 0.038526462605579424 0 0.0039691975864515816 0.037689848813200075 0 0.0039351577329008892 0.038337431424234618 0 0.0045808921195281162 0.038526462605579424 0 0.0039351577329008892 0.038337431424234618 0 0.0036435583769758215 0.038992491938411637 0 0.0081913124456604661 0.033279817626620245 0 0.0066026626978854435 0.03455589470683515 0 0.0081913124456604661 0.033279817626620245 0 0.0035339398568923438 0.036287753953714807 0 0.0032408218405009532 0.038467950873754625 0 0.0039351577329008892 0.038337431424234618 0 0.0036435583769758215 0.038992491938411637 0 0.0055314083341523835 0.032552190921971577 0 0.0045557688710374617 0.033005360649229348 0 0.0050760901453976636 0.034002888341836304 0 0.0045557688710374617 0.033005360649229348 0 0.0036683915622200405 0.034058881485284777 0 0.0035942583105406851 0.033458165929654733 0 0.0036435583769758215 0.038992491938411637 0 0.0027473520370350593 0.0394215956416126 0 0.0026679607728277467 0.038829487565528696 0 0.0035339398568923438 0.036287753953714807 0 0.0029314515348264174 0.036930595684095457 0 0.0040404219544071243 0.029052563468773843 0 0.0043734480556043209 0.029309572846206146 0 0.0036618045454704382 0.029334336602419714 0 0.0033701633328835768 0.031177081132608635 0 0.0053004533971056306 0.030888196577383564 0 0.0045557688710374617 0.033005360649229348 0 0.0036683915622200405 0.034058881485284777 0 0.0050760901453976636 0.034002888341836304 0 0.0065273467834864977 0.029304750049067123 0 0.0069870330640782819 0.029864448463047474 0 0.0060151934088652059 0.029939634319279585 0 0.0053004533971056306 0.030888196577383564 0 0.0067592481173261183 0.029885996707595393 0 0.0072430670083020012 0.02990629980750252 0 0.0060151934088652059 0.029939634319279585 0 0.0059151090968178914 0.030916279373564063 0 0.0059252989082411835 0.029332707513226437 0 0.0065273467834864977 0.029304750049067123 0 0.0060151934088652059 0.029939634319279585 0 0.0059252989082411835 0.029332707513226437 0 0.0060151934088652059 0.029939634319279585 0 0.0052705378337578081 0.029948115079040077 0 0.0060151934088652059 0.029939634319279585 0 0.0052705378337578081 0.029948115079040077 0 0.0059151090968178914 0.030916279373564063 0 0.010149910539073149 0.029602594450057626 0 0.008726753263354016 0.031408796473745275 0 0.012183168976851028 0.03165221749855477 0 0.011998263391085694 0.032591700068533021 0 0.011607270937641054 0.032072974301473711 0 0.01319728325057308 0.027806016949479671 0 0.013303368905896973 0.028049773095924095 0 0.013374212300557875 0.02763585112320617 0 0.013007416714494522 0.02991645534421869 0 0.010149910539073149 0.029602594450057626 0 0.0066977854352327157 0.031871638925951414 0 0.0072430670083020012 0.02990629980750252 0 0.0059151090968178914 0.030916279373564063 0 0.0081913124456604661 0.033279817626620245 0 0.008726753263354016 0.031408796473745275 0 0.0081913124456604661 0.033279817626620245 0 0.0053004533971056306 0.030888196577383564 0 0.00027669975324568863 0.039754550069732456 0 0.0010240241788096844 0.039384306340300608 0 0.0012393738968910861 0.04035022440697085 0 0.0010240241788096844 0.039384306340300608 0 0.00027661268197118588 0.03904940223182235 0 0.00090305267679440838 0.038649038080496918 0 0.00027669975324568863 0.039754550069732456 0 0.0010240241788096844 0.039384306340300608 0 0.00027661268197118588 0.03904940223182235 0 0.00027661268197118588 0.03904940223182235 0 -0.00058109510947896399 0.039503426525160021 0 -0.0003668882637166336 0.038587094949752786 0 0.00027669975324568863 0.039754550069732456 0 0.00027661268197118588 0.03904940223182235 0 -0.00058109510947896399 0.039503426525160021 0 0.00027669975324568863 0.039754550069732456 0 -0.00058109510947896399 0.039503426525160021 0 -0.0006444726399718934 0.040470913377682133 0 -0.00058109510947896399 0.039503426525160021 0 -0.0006444726399718934 0.040470913377682133 0 -0.0014558519650596368 0.039805896280230908 0 0.0020781959829223552 0.030387986118009185 0 0.0020902713647124346 0.030140254187309107 0 0.0022409015768384303 0.030154828462968394 0 0.0018085242165027317 0.030038676187711933 0 0.0020781959829223552 0.030387986118009185 0 0.0020902713647124346 0.030140254187309107 0 0.0026449645143981396 0.029148722198813596 0 0.0018252931203755903 0.033455692552567438 0 0.00027669975324568863 0.039754550069732456 0 -0.0006444726399718934 0.040470913377682133 0 0.0012393738968910861 0.04035022440697085 0 0.0018085242165027317 0.030038676187711933 0 0.0020781959829223552 0.030387986118009185 0 0.00097672583298255566 0.030512364950075199 0 0.00046978504917665864 0.035697128774315162 0 0.0018252931203755903 0.033455692552567438 0 0.0030789056755558264 0.029178977805184299 0 0.0031809928382369474 0.028867996793936312 0 0.0030898919370186823 0.028720739425081302 0 0.0027389598490177376 0.028857428223775392 0 0.0031809928382369474 0.028867996793936312 0 0.0030898919370186823 0.028720739425081302 0 0.0033701633328835768 0.031177081132608635 0 0.0018252931203755903 0.033455692552567438 0 0.0028808689036559673 0.033890841094020407 0 0.0023973832119558681 0.033902496190233077 0 0.0028570452209368781 0.03370496286724306 0 0.0018252931203755903 0.033455692552567438 0 0.0029314515348264174 0.036930595684095457 0 0.0033701633328835768 0.031177081132608635 0 0.0029314515348264174 0.036930595684095457 0 0.0027796590920760038 0.039547734852317398 0 0.0017705814239235467 0.039487501251952162 0 0.0021136306961792211 0.038946072883702713 0 0.0029314515348264174 0.036930595684095457 0 0.0028553822050580826 0.039502339216118551 0 0.0027796590920760038 0.039547734852317398 0 0.0026679607728277467 0.038829487565528696 0 0.0021136306961792211 0.038946072883702713 0 0.0012393738968910861 0.04035022440697085 0 0.0027796590920760038 0.039547734852317398 0 0.0017705814239235467 0.039487501251952162 0 0.0010240241788096844 0.039384306340300608 0 0.0012393738968910861 0.04035022440697085 0 0.0017705814239235467 0.039487501251952162 0 0.0017705814239235467 0.039487501251952162 0 0.0015026611089499278 0.038810431196906837 0 0.0021136306961792211 0.038946072883702713 0 0.0010240241788096844 0.039384306340300608 0 0.0017705814239235467 0.039487501251952162 0 0.0015026611089499278 0.038810431196906837 0 0.0010240241788096844 0.039384306340300608 0 0.0015026611089499278 0.038810431196906837 0 0.00090305267679440838 0.038649038080496918 0 0.0015026611089499278 0.038810431196906837 0 0.0017856547574520635 0.038317488875493383 0 0.0021136306961792211 0.038946072883702713 0 0.0015026611089499278 0.038810431196906837 0 0.0017856547574520635 0.038317488875493383 0 0.0012060751281807898 0.038085378652067181 0 0.0015026611089499278 0.038810431196906837 0 0.0012060751281807898 0.038085378652067181 0 0.00090305267679440838 0.038649038080496918 0 0.0026679607728277467 0.038829487565528696 0 0.0021136306961792211 0.038946072883702713 0 0.0023188936502218532 0.038281924675382883 0 0.0017856547574520635 0.038317488875493383 0 0.0021136306961792211 0.038946072883702713 0 0.0023188936502218532 0.038281924675382883 0 0.0023188936502218532 0.038281924675382883 0 0.0027652811700155512 0.038347784248870587 0 0.0024231010865211722 0.037865333996362729 0 0.0026679607728277467 0.038829487565528696 0 0.0023188936502218532 0.038281924675382883 0 0.0027652811700155512 0.038347784248870587 0 0.0028826011104743209 0.037894390893401395 0 0.0027652811700155512 0.038347784248870587 0 0.0024231010865211722 0.037865333996362729 0 0.0017856547574520635 0.038317488875493383 0 0.0023188936502218532 0.038281924675382883 0 0.0019294918054756367 0.03779412290374666 0 0.0023188936502218532 0.038281924675382883 0 0.0024231010865211722 0.037865333996362729 0 0.0019294918054756367 0.03779412290374666 0 0.0024231010865211722 0.037865333996362729 0 0.0024742841785264443 0.037455103212073466 0 0.0019294918054756367 0.03779412290374666 0 0.0024742841785264443 0.037455103212073466 0 0.0019294918054756367 0.03779412290374666 0 0.0020264290083443974 0.037346939294483218 0 0.0028826011104743209 0.037894390893401395 0 0.0024231010865211722 0.037865333996362729 0 0.0024742841785264443 0.037455103212073466 0 0.002870240855654827 0.037439176300398058 0 0.0028826011104743209 0.037894390893401395 0 0.0024742841785264443 0.037455103212073466 0 0.0012060751281807898 0.038085378652067181 0 0.0019294918054756367 0.03779412290374666 0 0.0014444033687870568 0.037354651830965292 0 0.0017856547574520635 0.038317488875493383 0 0.0012060751281807898 0.038085378652067181 0 0.0019294918054756367 0.03779412290374666 0 0.0019294918054756367 0.03779412290374666 0 0.0020264290083443974 0.037346939294483218 0 0.0014444033687870568 0.037354651830965292 0 0.0012060751281807898 0.038085378652067181 0 0.00055094521464259954 0.037580239694108973 0 0.0014444033687870568 0.037354651830965292 0 0.00055094521464259954 0.037580239694108973 0 0.00036897622478842537 0.038266697709852145 0 -0.00021306927586339805 0.037791634478581429 0 0.0012060751281807898 0.038085378652067181 0 0.00055094521464259954 0.037580239694108973 0 0.00036897622478842537 0.038266697709852145 0 0.0012060751281807898 0.038085378652067181 0 0.00036897622478842537 0.038266697709852145 0 0.00090305267679440838 0.038649038080496918 0 0.00027661268197118588 0.03904940223182235 0 0.00036897622478842537 0.038266697709852145 0 0.00090305267679440838 0.038649038080496918 0 0.00036897622478842537 0.038266697709852145 0 -0.0003668882637166336 0.038587094949752786 0 -0.00021306927586339805 0.037791634478581429 0 -0.0003668882637166336 0.038587094949752786 0 -0.00021306927586339805 0.037791634478581429 0 -0.00098487733945157134 0.038017119142936817 0 -0.00058109510947896399 0.039503426525160021 0 -0.0003668882637166336 0.038587094949752786 0 -0.0013417022193674185 0.038568521551338997 0 0.00027661268197118588 0.03904940223182235 0 0.00036897622478842537 0.038266697709852145 0 -0.0003668882637166336 0.038587094949752786 0 -0.0003668882637166336 0.038587094949752786 0 -0.0013417022193674185 0.038568521551338997 0 -0.00098487733945157134 0.038017119142936817 0 -0.00021306927586339805 0.037791634478581429 0 -0.0011564049413980378 0.037282322861995731 0 -0.00098487733945157134 0.038017119142936817 0 0.00055094521464259954 0.037580239694108973 0 -0.00021306927586339805 0.037791634478581429 0 -7.4871459131571353e-05 0.037205934712143139 0 -0.00021306927586339805 0.037791634478581429 0 -7.4871459131571353e-05 0.037205934712143139 0 -0.0011564049413980378 0.037282322861995731 0 -7.4871459131571353e-05 0.037205934712143139 0 -0.00033337418830770265 0.03670808688366576 0 -0.0011564049413980378 0.037282322861995731 0 -7.4871459131571353e-05 0.037205934712143139 0 0.00076754846774919122 0.036938318917385707 0 -0.00033337418830770265 0.03670808688366576 0 0.00055094521464259954 0.037580239694108973 0 -7.4871459131571353e-05 0.037205934712143139 0 0.00076754846774919122 0.036938318917385707 0 0.00055094521464259954 0.037580239694108973 0 0.00076754846774919122 0.036938318917385707 0 0.0014444033687870568 0.037354651830965292 0 0.00076754846774919122 0.036938318917385707 0 0.0014444033687870568 0.037354651830965292 0 0.0015642544605383398 0.036866242178593425 0 0.00060945187404517196 0.036473025332499423 0 0.0015430885176394265 0.036458272223415446 0 0.0016882015641007018 0.035953299087437329 0 0.00076754846774919122 0.036938318917385707 0 0.00060945187404517196 0.036473025332499423 0 0.0015430885176394265 0.036458272223415446 0 0.00076754846774919122 0.036938318917385707 0 0.0015642544605383398 0.036866242178593425 0 0.0015430885176394265 0.036458272223415446 0 0.00060945187404517196 0.036473025332499423 0 -0.00033337418830770265 0.03670808688366576 0 -0.00046850808586925612 0.036096862370656027 0 0.00076754846774919122 0.036938318917385707 0 0.00060945187404517196 0.036473025332499423 0 -0.00033337418830770265 0.03670808688366576 0 0.0029069359087899602 0.037056330830276873 0 0.0026046025606535034 0.036781805406490148 0 0.0025037911333163874 0.037107954073992137 0 0.0029069359087899602 0.037056330830276873 0 0.002870240855654827 0.037439176300398058 0 0.0025037911333163874 0.037107954073992137 0 0.002870240855654827 0.037439176300398058 0 0.0024742841785264443 0.037455103212073466 0 0.0025037911333163874 0.037107954073992137 0 0.0025037911333163874 0.037107954073992137 0 0.002085748298939938 0.036937300108941321 0 0.0020264290083443974 0.037346939294483218 0 0.0024742841785264443 0.037455103212073466 0 0.0025037911333163874 0.037107954073992137 0 0.0020264290083443974 0.037346939294483218 0 0.0026046025606535034 0.036781805406490148 0 0.0025037911333163874 0.037107954073992137 0 0.002085748298939938 0.036937300108941321 0 0.002085748298939938 0.036937300108941321 0 0.0020264290083443974 0.037346939294483218 0 0.0014444033687870568 0.037354651830965292 0 0.002085748298939938 0.036937300108941321 0 0.0014444033687870568 0.037354651830965292 0 0.0015642544605383398 0.036866242178593425 0 0.0015642544605383398 0.036866242178593425 0 0.0015430885176394265 0.036458272223415446 0 0.0021859936073387013 0.036515690451111811 0 0.0015430885176394265 0.036458272223415446 0 0.0021859936073387013 0.036515690451111811 0 0.0022378722740170895 0.036201541942430283 0 0.002085748298939938 0.036937300108941321 0 0.0015642544605383398 0.036866242178593425 0 0.0021859936073387013 0.036515690451111811 0 0.0021859936073387013 0.036515690451111811 0 0.0026673652133610034 0.036302030551501947 0 0.0022378722740170895 0.036201541942430283 0 0.0026046025606535034 0.036781805406490148 0 0.002085748298939938 0.036937300108941321 0 0.0021859936073387013 0.036515690451111811 0 0.0026046025606535034 0.036781805406490148 0 0.0021859936073387013 0.036515690451111811 0 0.0026673652133610034 0.036302030551501947 0 0.0026673652133610034 0.036302030551501947 0 0.0022378722740170895 0.036201541942430283 0 0.0027784459303399891 0.035719248060469326 0 0.004107925571005545 0.037233458165106918 0 0.0039300471300609315 0.036003482259291432 0 0.0027784459303399891 0.035719248060469326 0 0.0033822035174100595 0.037199197007216737 0 0.0027319802340278645 0.035608474921304888 0 0.0022378722740170895 0.036201541942430283 0 0.0027784459303399891 0.035719248060469326 0 0.0016882015641007018 0.035953299087437329 0 0.0015430885176394265 0.036458272223415446 0 0.0022378722740170895 0.036201541942430283 0 0.0016882015641007018 0.035953299087437329 0 0.0027784459303399891 0.035719248060469326 0 0.0022531278853497724 0.034999879582622871 0 0.0016882015641007018 0.035953299087437329 0 0.0027784459303399891 0.035719248060469326 0 0.0022531278853497724 0.034999879582622871 0 0.0038842243990922171 0.034999710295094126 0 0.004904420682613265 0.036174593880072686 0 0.0039300471300609315 0.036003482259291432 0 0.0038842243990922171 0.034999710295094126 0 0.0039300471300609315 0.036003482259291432 0 0.0027784459303399891 0.035719248060469326 0 0.0038842243990922171 0.034999710295094126 0 0.00060945187404517196 0.036473025332499423 0 0.00058607912199725495 0.035938007678838556 0 -0.00046850808586925612 0.036096862370656027 0 0.00058607912199725495 0.035938007678838556 0 -0.00016869612724892028 0.035551168825345453 0 -0.00046850808586925612 0.036096862370656027 0 0.00060945187404517196 0.036473025332499423 0 0.00058607912199725495 0.035938007678838556 0 0.0016882015641007018 0.035953299087437329 0 0.00058607912199725495 0.035938007678838556 0 0.0016882015641007018 0.035953299087437329 0 0.001276193027584841 0.035428043331384204 0 0.0022531278853497724 0.034999879582622871 0 0.0016882015641007018 0.035953299087437329 0 0.001276193027584841 0.035428043331384204 0 0.0022531278853497724 0.034999879582622871 0 0.001276193027584841 0.035428043331384204 0 0.00062243249105603483 0.034999650482252828 0 0.00058607912199725495 0.035938007678838556 0 0.001276193027584841 0.035428043331384204 0 -0.00016869612724892028 0.035551168825345453 0 0.001276193027584841 0.035428043331384204 0 0.00062243249105603483 0.034999650482252828 0 -0.00016869612724892028 0.035551168825345453 0 -0.0010073879778432473 0.034999750221038677 0 -0.00016869612724892028 0.035551168825345453 0 -0.001152842114973428 0.035799869508643799 0 0.00062243249105603483 0.034999650482252828 0 -0.0010073879778432473 0.034999750221038677 0 -0.00016869612724892028 0.035551168825345453 0 -0.00016869612724892028 0.035551168825345453 0 -0.00046850808586925612 0.036096862370656027 0 -0.001152842114973428 0.035799869508643799 0 -0.0017953761807517291 0.036115468460968775 0 -0.0033516571207539343 0.036204938075324135 0 -0.0023949232561047162 0.036920263243158426 0 -0.0010081427809627338 0.035000109378296583 0 -0.0014865615507414346 0.035919193413000615 0 -0.0010088900152733322 0.034999783740221058 0 -0.0017953761807517291 0.036115468460968775 0 -0.0026472187300574262 0.034999911467097661 0 -0.0017953761807517291 0.036115468460968775 0 -0.0026472187300574262 0.034999911467097661 0 -0.0033516571207539343 0.036204938075324135 0 -0.0026472187300574262 0.034999911467097661 0 -0.0042862201444004112 0.034999827858542804 0 -0.0033516571207539343 0.036204938075324135 0 -0.0042862201444004112 0.034999827858542804 0 -0.0033516571207539343 0.036204938075324135 0 -0.0047595029617050356 0.035928337354525594 0 -0.0033516571207539343 0.036204938075324135 0 -0.0047595029617050356 0.035928337354525594 0 -0.0043784729597707 0.036688944164280708 0 -0.0033516571207539343 0.036204938075324135 0 -0.003545912913546233 0.03711184532985258 0 -0.0023949232561047162 0.036920263243158426 0 -0.0033516571207539343 0.036204938075324135 0 -0.003545912913546233 0.03711184532985258 0 -0.0043784729597707 0.036688944164280708 0 -0.003545912913546233 0.03711184532985258 0 -0.0043784729597707 0.036688944164280708 0 -0.0047828427286453852 0.037369692210840383 0 -0.0036412255925881089 0.037121368039347007 0 -0.0042348518655046076 0.037894588376464637 0 -0.003545912913546233 0.03711184532985258 0 -0.0047828427286453852 0.037369692210840383 0 -0.0043406210652621527 0.038082658964064951 0 -0.003545912913546233 0.03711184532985258 0 -0.0023949232561047162 0.036920263243158426 0 -0.0027226351684695939 0.037368782611577667 0 -0.0011564049413980378 0.037282322861995731 0 -0.0017484862489182973 0.036465748995123962 0 -0.0027226351684695939 0.037368782611577667 0 -0.0020926756089623597 0.036722719248920982 0 -0.0025948662351630001 0.037366152632448038 0 -0.00033337418830770265 0.03670808688366576 0 -0.0011564049413980378 0.037282322861995731 0 -0.0017484862489182973 0.036465748995123962 0 -0.00033337418830770265 0.03670808688366576 0 -0.00046850808586925612 0.036096862370656027 0 -0.0017484862489182973 0.036465748995123962 0 -0.00046850808586925612 0.036096862370656027 0 -0.001152842114973428 0.035799869508643799 0 -0.0017484862489182973 0.036465748995123962 0 -0.0014865615507414346 0.035919193413000615 0 -0.0020926756089623597 0.036722719248920982 0 -0.008253816307483992 0.03637698958122032 0 -0.0079391741615199816 0.034999903933752199 0 -0.0095401430721661264 0.036066639503244957 0 -0.008253816307483992 0.03637698958122032 0 -0.0079391741615199816 0.034999903933752199 0 -0.0073221802225753663 0.035794974081117807 0 -0.0079391741615199816 0.034999903933752199 0 -0.0073221802225753663 0.035794974081117807 0 -0.0059263555353088228 0.034999833158013541 0 -0.008253816307483992 0.03637698958122032 0 -0.0073221802225753663 0.035794974081117807 0 -0.0073672260686043749 0.036489981483604682 0 -0.0061216626035376694 0.035969063659033365 0 -0.0062692959768428013 0.036952491165398546 0 -0.0073672260686043749 0.036489981483604682 0 -0.0066337647566726997 0.036068800562880192 0 -0.0071582179884981017 0.036925865635927375 0 -0.0056114218127137679 0.036036301263252281 0 -0.0050666483610338174 0.036504256292801025 0 -0.0054751157001331529 0.036921093740249565 0 -0.0073221802225753663 0.035794974081117807 0 -0.0073672260686043749 0.036489981483604682 0 -0.0066337647566726997 0.036068800562880192 0 -0.0061216626035376694 0.035969063659033365 0 -0.0059253002248715464 0.035000093690100334 0 -0.0073221802225753663 0.035794974081117807 0 -0.0066337647566726997 0.036068800562880192 0 -0.0059263555353088228 0.034999833158013541 0 -0.0056114218127137679 0.036036301263252281 0 -0.0059244160458470493 0.034999912855763232 0 -0.0047595029617050356 0.035928337354525594 0 -0.0042862201444004112 0.034999827858542804 0 -0.0059244160458470493 0.034999912855763232 0 -0.0047595029617050356 0.035928337354525594 0 -0.0056114218127137679 0.036036301263252281 0 -0.0047595029617050356 0.035928337354525594 0 -0.0050666483610338174 0.036504256292801025 0 -0.0047595029617050356 0.035928337354525594 0 -0.0050666483610338174 0.036504256292801025 0 -0.0043784729597707 0.036688944164280708 0 -0.0043784729597707 0.036688944164280708 0 -0.0049367240967984494 0.036875109930107147 0 -0.0047828427286453852 0.037369692210840383 0 -0.0050666483610338174 0.036504256292801025 0 -0.0043784729597707 0.036688944164280708 0 -0.0049367240967984494 0.036875109930107147 0 -0.0049367240967984494 0.036875109930107147 0 -0.0047828427286453852 0.037369692210840383 0 -0.0054751157001331529 0.036921093740249565 0 -0.0047828427286453852 0.037369692210840383 0 -0.0055001941699186433 0.03779145245375861 0 -0.0043406210652621527 0.038082658964064951 0 -0.0069240580144604011 0.037805451008609103 0 -0.0062692959768428013 0.036952491165398546 0 -0.0047828427286453852 0.037369692210840383 0 -0.0055001941699186433 0.03779145245375861 0 -0.0054751157001331529 0.036921093740249565 0 -0.0072408994137194722 0.038216402596051399 0 -0.0071582179884981017 0.036925865635927375 0 -0.0076897737562808439 0.037077314810994688 0 -0.0069240580144604011 0.037805451008609103 0 -0.0078247902621845326 0.03703242882271001 0 -0.0050666483610338174 0.036504256292801025 0 -0.0049367240967984494 0.036875109930107147 0 -0.0054751157001331529 0.036921093740249565 0 -0.0073672260686043749 0.036489981483604682 0 -0.0071582179884981017 0.036925865635927375 0 -0.0076897737562808439 0.037077314810994688 0 -0.008253816307483992 0.03637698958122032 0 -0.0073672260686043749 0.036489981483604682 0 -0.0079283438716983481 0.036817958345828836 0 -0.0073672260686043749 0.036489981483604682 0 -0.0079283438716983481 0.036817958345828836 0 -0.0076897737562808439 0.037077314810994688 0 -0.0079283438716983481 0.036817958345828836 0 -0.0080805787389383894 0.037109102125214677 0 -0.008345134458256586 0.037000849613159657 0 -0.0079283438716983481 0.036817958345828836 0 -0.0076897737562808439 0.037077314810994688 0 -0.0080805787389383894 0.037109102125214677 0 -0.008141102684376806 0.037340268279226527 0 -0.0076897737562808439 0.037077314810994688 0 -0.0081757069284157172 0.037290162383667447 0 -0.0076897737562808439 0.037077314810994688 0 -0.0081757069284157172 0.037290162383667447 0 -0.0080805787389383894 0.037109102125214677 0 -0.0081757069284157172 0.037290162383667447 0 -0.008545032492896185 0.037331745476315958 0 -0.0084474305882557953 0.037426364893630375 0 -0.0081757069284157172 0.037290162383667447 0 -0.0080805787389383894 0.037109102125214677 0 -0.008545032492896185 0.037331745476315958 0 -0.008545032492896185 0.037331745476315958 0 -0.0088505121006734692 0.037197227888009582 0 -0.008345134458256586 0.037000849613159657 0 -0.008545032492896185 0.037331745476315958 0 -0.0088505121006734692 0.037197227888009582 0 -0.0091390016111074501 0.037467820610122007 0 -0.0080805787389383894 0.037109102125214677 0 -0.008545032492896185 0.037331745476315958 0 -0.008345134458256586 0.037000849613159657 0 -0.0088505121006734692 0.037197227888009582 0 -0.008345134458256586 0.037000849613159657 0 -0.0092750729960726953 0.0369664175888023 0 -0.008253816307483992 0.03637698958122032 0 -0.008345134458256586 0.037000849613159657 0 -0.0092750729960726953 0.0369664175888023 0 -0.008253816307483992 0.03637698958122032 0 -0.0079283438716983481 0.036817958345828836 0 -0.008345134458256586 0.037000849613159657 0 -0.0087401973093119995 0.037465917986750155 0 -0.0086272172217150677 0.037390648063498032 0 -0.0090633045778192537 0.037527060489655074 0 -0.008545032492896185 0.037331745476315958 0 -0.0087401973093119995 0.037465917986750155 0 -0.0091390016111074501 0.037467820610122007 0 -0.008545032492896185 0.037331745476315958 0 -0.0087401973093119995 0.037465917986750155 0 -0.0084474305882557953 0.037426364893630375 0 -0.008141102684376806 0.037340268279226527 0 -0.0081757069284157172 0.037290162383667447 0 -0.0084474305882557953 0.037426364893630375 0 -0.0087401973093119995 0.037465917986750155 0 -0.0084474305882557953 0.037426364893630375 0 -0.0086272172217150677 0.037390648063498032 0 -0.0084474305882557953 0.037426364893630375 0 -0.0086272172217150677 0.037390648063498032 0 -0.008441138310289819 0.037421338105506498 0 -0.0086272172217150677 0.037390648063498032 0 -0.008441138310289819 0.037421338105506498 0 -0.0085933630401140142 0.037329472814572898 0 -0.0069324638625001198 0.037252744406551339 0 -0.0071720274175819604 0.037120381023758822 0 -0.0069162310468876241 0.03681156949776794 0 -0.0076978386842284259 0.037368062546513703 0 -0.0077409339304457762 0.036505566343879581 0 -0.0057672651226363348 0.03710224128249718 0 -0.0077409339304457762 0.036505566343879581 0 -0.0069531177030440613 0.037694543250326687 0 -0.0069324638625001198 0.037252744406551339 0 -0.0071720274175819604 0.037120381023758822 0 -0.008141102684376806 0.037340268279226527 0 -0.0084474305882557953 0.037426364893630375 0 -0.008441138310289819 0.037421338105506498 0 -0.0069240580144604011 0.037805451008609103 0 -0.0076978386842284259 0.037368062546513703 0 -0.0069240580144604011 0.037805451008609103 0 -0.0057672651226363348 0.03710224128249718 0 -0.0057672651226363348 0.03710224128249718 0 -0.0042348518655046076 0.037894588376464637 0 -0.0055001941699186433 0.03779145245375861 0 -0.0050661765032398746 0.038889135521804341 0 -0.0043406210652621527 0.038082658964064951 0 -0.0045981592630576678 0.037618015291099385 0 -0.0046406830635739374 0.037489756007528546 0 -0.0045315612795491589 0.037661033651431371 0 -0.0045981592630576678 0.037618015291099385 0 -0.0043083096612747881 0.037424679920488278 0 -0.0045315612795491589 0.037661033651431371 0 -0.0057672651226363348 0.03710224128249718 0 -0.0055475962618855481 0.036186530587170314 0 -0.0046406830635739374 0.037489756007528546 0 -0.005593087851337426 0.036780263823234613 0 -0.0048693005785994635 0.037455197074051566 0 -0.0046406830635739374 0.037489756007528546 0 -0.0045315612795491589 0.037661033651431371 0 -0.0048693005785994635 0.037455197074051566 0 -0.0055475962618855481 0.036186530587170314 0 -0.0054718001876702393 0.036837208243583788 0 -0.0062388242583701755 0.03522217994912194 0 -0.005593087851337426 0.036780263823234613 0 -0.0068331460444271573 0.035982633942090871 0 -0.005593087851337426 0.036780263823234613 0 -0.0068331460444271573 0.035982633942090871 0 -0.0068325667939285132 0.036754954721134998 0 -0.0080272511105317843 0.036577253664029995 0 -0.0079631581328403461 0.037001382934142422 0 -0.0084801034055147877 0.037088064482713838 0 -0.0084634542301585212 0.03705626749688154 0 -0.0079058134682221948 0.036945612443979134 0 -0.0068331460444271573 0.035982633942090871 0 -0.0076229898725083626 0.03615896908657909 0 -0.0075650212463428722 0.034986113743818111 0 -0.0068331460444271573 0.035982633942090871 0 -0.0076229898725083626 0.03615896908657909 0 -0.0068325667939285132 0.036754954721134998 0 -0.0062388242583701755 0.03522217994912194 0 -0.0068331460444271573 0.035982633942090871 0 -0.0075650212463428722 0.034986113743818111 0 -0.0077409339304457762 0.036505566343879581 0 -0.0086644454699161561 0.037381235095022385 0 -0.0067241317484357677 0.034044291630973597 0 -0.0062388242583701755 0.03522217994912194 0 -0.0075650212463428722 0.034986113743818111 0 -0.0084801034055147877 0.037088064482713838 0 -0.0085570166355350367 0.037174616558148257 0 -0.0085522994952379368 0.037168890168875764 0 -0.0080272511105317843 0.036577253664029995 0 -0.0077409339304457762 0.036505566343879581 0 -0.0086272172217150677 0.037390648063498032 0 -0.0085522994952379368 0.037168890168875764 0 -0.0086527688749541594 0.037180609764856168 0 -0.0086272172217150677 0.037390648063498032 0 -0.0085933630401140142 0.037329472814572898 0 -0.0085522994952379368 0.037168890168875764 0 -0.0084801034055147877 0.037088064482713838 0 -0.0085522994952379368 0.037168890168875764 0 -0.0084634542301585212 0.03705626749688154 0 -0.0084634542301585212 0.03705626749688154 0 -0.0085139964440181324 0.037023633387761726 0 -0.0086527688749541594 0.037180609764856168 0 -0.0085522994952379368 0.037168890168875764 0 -0.0084634542301585212 0.03705626749688154 0 -0.0086527688749541594 0.037180609764856168 0 -0.0086527688749541594 0.037180609764856168 0 -0.0087789999298907365 0.037101078358173958 0 -0.0088734460935879032 0.037314464960570289 0 -0.0087789999298907365 0.037101078358173958 0 -0.0088734460935879032 0.037314464960570289 0 -0.0090027154532763085 0.037235056052078781 0 -0.0085139964440181324 0.037023633387761726 0 -0.0086527688749541594 0.037180609764856168 0 -0.0087789999298907365 0.037101078358173958 0 -0.0086272172217150677 0.037390648063498032 0 -0.0088734460935879032 0.037314464960570289 0 -0.0090633045778192537 0.037527060489655074 0 -0.0086272172217150677 0.037390648063498032 0 -0.0086527688749541594 0.037180609764856168 0 -0.0088734460935879032 0.037314464960570289 0 -0.0029418398673961648 0.03820280383426531 0 -0.0013417022193674185 0.038568521551338997 0 -0.0015448101988587179 0.039400781387417198 0 -0.0029418398673961648 0.03820280383426531 0 -0.0013417022193674185 0.038568521551338997 0 -0.0018688663402017438 0.03784269565474549 0 -0.0013417022193674185 0.038568521551338997 0 -0.0018688663402017438 0.03784269565474549 0 -0.00098487733945157134 0.038017119142936817 0 -0.0011564049413980378 0.037282322861995731 0 -0.0018688663402017438 0.03784269565474549 0 -0.0027226351684695939 0.037368782611577667 0 -0.0011564049413980378 0.037282322861995731 0 -0.0018688663402017438 0.03784269565474549 0 -0.00098487733945157134 0.038017119142936817 0 -0.0029418398673961648 0.03820280383426531 0 -0.0018688663402017438 0.03784269565474549 0 -0.0027226351684695939 0.037368782611577667 0 -0.0029418398673961648 0.03820280383426531 0 -0.0027226351684695939 0.037368782611577667 0 -0.0038464592958165054 0.03758798728451887 0 -0.003545912913546233 0.03711184532985258 0 -0.0027226351684695939 0.037368782611577667 0 -0.0038464592958165054 0.03758798728451887 0 -0.0038464592958165054 0.03758798728451887 0 -0.0043083096612747881 0.037424679920488278 0 -0.0045315612795491589 0.037661033651431371 0 -0.003545912913546233 0.03711184532985258 0 -0.0038464592958165054 0.03758798728451887 0 -0.0043083096612747881 0.037424679920488278 0 -0.0038464592958165054 0.03758798728451887 0 -0.0043459646791844855 0.037715940012997939 0 -0.0045315612795491589 0.037661033651431371 0 -0.0029418398673961648 0.03820280383426531 0 -0.0038464592958165054 0.03758798728451887 0 -0.0043459646791844855 0.037715940012997939 0 -0.0029418398673961648 0.03820280383426531 0 -0.0043459646791844855 0.037715940012997939 0 -0.0044592782828980276 0.03768059269368431 0 -0.0044592782828980276 0.03768059269368431 0 -0.0048693005785994635 0.037455197074051566 0 -0.0049850371446121949 0.037324254689175732 0 -0.0043459646791844855 0.037715940012997939 0 -0.0044592782828980276 0.03768059269368431 0 -0.0048693005785994635 0.037455197074051566 0 -0.0043459646791844855 0.037715940012997939 0 -0.0045315612795491589 0.037661033651431371 0 -0.0048693005785994635 0.037455197074051566 0 -0.005593087851337426 0.036780263823234613 0 -0.0048693005785994635 0.037455197074051566 0 -0.0049850371446121949 0.037324254689175732 0 -0.005593087851337426 0.036780263823234613 0 -0.0049850371446121949 0.037324254689175732 0 -0.0054043587765324275 0.037127771918205023 0 -0.0049850371446121949 0.037324254689175732 0 -0.0052477355518729413 0.037211309755296899 0 -0.0054043587765324275 0.037127771918205023 0 -0.0044592782828980276 0.03768059269368431 0 -0.0049850371446121949 0.037324254689175732 0 -0.0044463373817678169 0.0376440857975118 0 -0.0049850371446121949 0.037324254689175732 0 -0.0044463373817678169 0.0376440857975118 0 -0.0052477355518729413 0.037211309755296899 0 -0.0035104487229565147 0.038501884475215263 0 -0.0040672750483824382 0.039064705202524794 0 -0.0028097678448546774 0.039858930767692494 0 -0.0025422357664796795 0.039926341988386974 0 -0.002418469407564182 0.039879644314881134 0 -0.0025963137051788622 0.040032061348948086 0 -0.0028097678448546774 0.039858930767692494 0 -0.0025422357664796795 0.039926341988386974 0 -0.0025963137051788622 0.040032061348948086 0 -0.0022785734276591072 0.039959950424477066 0 -0.0028097678448546774 0.039858930767692494 0 -0.0022785734276591072 0.039959950424477066 0 -0.0028097678448546774 0.039858930767692494 0 -0.0021445724899594649 0.03965891659131035 0 -0.0030586787255440784 0.038158982403856061 0 -0.0035104487229565147 0.038501884475215263 0 -0.0029418398673961648 0.03820280383426531 0 -0.0028097678448546774 0.039858930767692494 0 -0.0021445724899594649 0.03965891659131035 0 -0.0029418398673961648 0.03820280383426531 0 -0.0044592782828980276 0.03768059269368431 0 -0.0044463373817678169 0.0376440857975118 0 -0.0029418398673961648 0.03820280383426531 0 -0.0021445724899594649 0.03965891659131035 0 -0.0015448101988587179 0.039400781387417198 0 -0.00058109510947896399 0.039503426525160021 0 -0.0013417022193674185 0.038568521551338997 0 -0.0015448101988587179 0.039400781387417198 0 -0.0021445724899594649 0.03965891659131035 0 -0.0015448101988587179 0.039400781387417198 0 -0.0014558519650596368 0.039805896280230908 0 -0.00058109510947896399 0.039503426525160021 0 -0.0015448101988587179 0.039400781387417198 0 -0.0014558519650596368 0.039805896280230908 0 0.00046978504917665864 0.035697128774315162 0 0.00061709569745444859 0.034732834886900238 0 -0.0006444726399718934 0.040470913377682133 0 -0.0022785734276591072 0.039959950424477066 0 -0.0014558519650596368 0.039805896280230908 0 0.0030538939449834524 0.030269981764101405 0 0.0025562531707635614 0.030170488813299038 0 0.0025033202409952882 0.029914413927537093 0 -0.0006444726399718934 0.040470913377682133 0 -0.0025963137051788622 0.040032061348948086 0 -0.0022785734276591072 0.039959950424477066 0 0.0020781959829223552 0.030387986118009185 0 0.0030538939449834524 0.030269981764101405 0 0.0025562531707635614 0.030170488813299038 0 -0.0022785734276591072 0.039959950424477066 0 -0.0021445724899594649 0.03965891659131035 0 -0.0014558519650596368 0.039805896280230908 0 0.0022409015768384303 0.030154828462968394 0 0.0025562531707635614 0.030170488813299038 0 0.0023736428528316126 0.030067397269328288 0 0.0020781959829223552 0.030387986118009185 0 0.0022409015768384303 0.030154828462968394 0 0.0025562531707635614 0.030170488813299038 0 0.00222947894851846 0.029980586908222251 0 0.0025033202409952882 0.029914413927537093 0 0.002606617372115266 0.029651684185686106 0 0.0030538939449834524 0.030269981764101405 0 0.0025033202409952882 0.029914413927537093 0 0.002606617372115266 0.029651684185686106 0 0.00222947894851846 0.029980586908222251 0 0.0023736428528316126 0.030067397269328288 0 0.0025033202409952882 0.029914413927537093 0 0.0029667990356391162 0.029136787396722191 0 0.002606617372115266 0.029651684185686106 0 0.0025799226172373824 0.029604504181467452 0 0.0030538939449834524 0.030269981764101405 0 0.002606617372115266 0.029651684185686106 0 0.0025799226172373824 0.029604504181467452 0 0.0025562531707635614 0.030170488813299038 0 0.0023736428528316126 0.030067397269328288 0 0.0025033202409952882 0.029914413927537093 0 -0.0025963137051788622 0.040032061348948086 0 -0.002690383579056013 0.039747286673797864 0 -0.0028813183057906084 0.039546523026030019 0 0.00061709569745444859 0.034732834886900238 0 0.0017615272389171956 0.03210856928099852 0 -0.0025963137051788622 0.040032061348948086 0 -0.0025422357664796795 0.039926341988386974 0 -0.002622184035668882 0.039785630501709378 0 -0.0025422357664796795 0.039926341988386974 0 -0.002518481658858394 0.03966410933379072 0 -0.002418469407564182 0.039879644314881134 0 -0.0025422357664796795 0.039926341988386974 0 -0.002622184035668882 0.039785630501709378 0 -0.002518481658858394 0.03966410933379072 0 -0.0025963137051788622 0.040032061348948086 0 -0.002622184035668882 0.039785630501709378 0 -0.002690383579056013 0.039747286673797864 0 -0.002690383579056013 0.039747286673797864 0 -0.0026529641090636729 0.039598904147467695 0 -0.0028813183057906084 0.039546523026030019 0 -0.002622184035668882 0.039785630501709378 0 -0.002690383579056013 0.039747286673797864 0 -0.0026529641090636729 0.039598904147467695 0 -0.0026529641090636729 0.039598904147467695 0 -0.002518481658858394 0.03966410933379072 0 -0.0025453068844688408 0.039547856156481528 0 -0.002622184035668882 0.039785630501709378 0 -0.0026529641090636729 0.039598904147467695 0 -0.002518481658858394 0.03966410933379072 0 -0.00055495774041631476 0.034862608372530905 0 0.0017615272389171956 0.03210856928099852 0 -0.0026529641090636729 0.039598904147467695 0 -0.0025938772705928655 0.039432084838337524 0 -0.0028813183057906084 0.039546523026030019 0 0.0017457804702408505 0.03024539787066792 0 0.0018623054453183712 0.030146762007265841 0 0.0022261133805014143 0.030074291904001398 0 -0.0025453068844688408 0.039547856156481528 0 -0.0025938772705928655 0.039432084838337524 0 -0.0023936953210099998 0.039488661038395073 0 -0.002518481658858394 0.03966410933379072 0 -0.0025453068844688408 0.039547856156481528 0 -0.0023936953210099998 0.039488661038395073 0 -0.0026529641090636729 0.039598904147467695 0 -0.0025453068844688408 0.039547856156481528 0 -0.0025938772705928655 0.039432084838337524 0 0.0017457804702408505 0.03024539787066792 0 0.0018623054453183712 0.030146762007265841 0 0.0014524543632932832 0.030059677665531411 0 0.0018623054453183712 0.030146762007265841 0 0.0014149496598225258 0.029979826214444838 0 0.0017117754272555205 0.029834286297588764 0 0.0018614401111551801 0.03014418375723139 0 0.001294738499690948 0.029938979052616999 0 0.0018623054453183712 0.030146762007265841 0 0.0017117754272555205 0.029834286297588764 0 0.0019255304648332263 0.029905575975174955 0 0.0017457804702408505 0.03024539787066792 0 0.0013415647867715428 0.030390799957147427 0 0.0014524543632932832 0.030059677665531411 0 0.0024074243533790591 0.028730461710977508 0 0.0017615272389171956 0.03210856928099852 0 0.0010802683666135441 0.029941830075131286 0 0.0013415647867715428 0.030390799957147427 0 0.0014524543632932832 0.030059677665531411 0 0.00091798107568126822 0.029844755290481629 0 0.0014705839201122946 0.02959272445010748 0 0.0012376562944018418 0.029240204679817312 0 0.00091798107568126822 0.029844755290481629 0 0.0014149496598225258 0.029979826214444838 0 0.0014705839201122946 0.02959272445010748 0 0.0024074243533790591 0.028730461710977508 0 0.001294738499690948 0.029938979052616999 0 0.0014149496598225258 0.029979826214444838 0 0.0014705839201122946 0.02959272445010748 0 0.0017117754272555205 0.029834286297588764 0 0.0017117754272555205 0.029834286297588764 0 0.0017655751217807835 0.029580979228369778 0 0.0019708249727989429 0.029676304411965733 0 0.0017117754272555205 0.029834286297588764 0 0.0019255304648332263 0.029905575975174955 0 0.0019708249727989429 0.029676304411965733 0 0.0017655751217807835 0.029580979228369778 0 0.0019337355027716793 0.02944796160026927 0 0.0017078227108035676 0.029353733698105164 0 0.0017655751217807835 0.029580979228369778 0 0.0019337355027716793 0.02944796160026927 0 0.0019708249727989429 0.029676304411965733 0 0.0014705839201122946 0.02959272445010748 0 0.0017655751217807835 0.029580979228369778 0 0.0017078227108035676 0.029353733698105164 0 0.0014705839201122946 0.02959272445010748 0 0.0017117754272555205 0.029834286297588764 0 0.0017655751217807835 0.029580979228369778 0 0.0014705839201122946 0.02959272445010748 0 0.0017078227108035676 0.029353733698105164 0 0.0015027686923524547 0.029284973257991013 0 0.0017078227108035676 0.029353733698105164 0 0.001892630461021582 0.029210364708327496 0 0.0016911509839488831 0.029115655587782098 0 0.0017078227108035676 0.029353733698105164 0 0.0016911509839488831 0.029115655587782098 0 0.0015027686923524547 0.029284973257991013 0 0.0019337355027716793 0.02944796160026927 0 0.001892630461021582 0.029210364708327496 0 0.0021051009800744651 0.029314904226845687 0 0.0019337355027716793 0.02944796160026927 0 0.0017078227108035676 0.029353733698105164 0 0.001892630461021582 0.029210364708327496 0 0.001892630461021582 0.029210364708327496 0 0.0018522607388559568 0.028984366180240324 0 0.0020329526485329931 0.02908749508299318 0 0.001892630461021582 0.029210364708327496 0 0.0018522607388559568 0.028984366180240324 0 0.0016911509839488831 0.029115655587782098 0 0.0018522607388559568 0.028984366180240324 0 0.0020329526485329931 0.02908749508299318 0 0.0019677842159072636 0.028825614023873635 0 0.0016911509839488831 0.029115655587782098 0 0.001475163490253836 0.029022897758129954 0 0.0016973823678809875 0.028816613352179454 0 0.0018522607388559568 0.028984366180240324 0 0.0016911509839488831 0.029115655587782098 0 0.0016973823678809875 0.028816613352179454 0 0.0016911509839488831 0.029115655587782098 0 0.001475163490253836 0.029022897758129954 0 0.0015027686923524547 0.029284973257991013 0 0.00091798107568126822 0.029844755290481629 0 0.00087584417663244226 0.029018700694156883 0 0.0012376562944018418 0.029240204679817312 0 0.001475163490253836 0.029022897758129954 0 0.0012376562944018418 0.029240204679817312 0 0.0012171198919531153 0.028681263255101345 0 0.00087584417663244226 0.029018700694156883 0 0.0012376562944018418 0.029240204679817312 0 0.0012171198919531153 0.028681263255101345 0 0.0014705839201122946 0.02959272445010748 0 0.0012376562944018418 0.029240204679817312 0 0.0015027686923524547 0.029284973257991013 0 0.001475163490253836 0.029022897758129954 0 0.0012376562944018418 0.029240204679817312 0 0.0015027686923524547 0.029284973257991013 0 0.0022808674637108928 0.029345950519064513 0 0.0023418975244796345 0.029369745384693276 0 0.0021816291677507591 0.0294062939729112 0 -0.006786673333716557 0.037288819051203938 0 -0.0064856684604020047 0.037248893814877303 0 -0.00680747690757011 0.037335968585353041 0 -0.0019539627017542841 0.032820415183879612 0 -0.0024150482228552151 0.033973540869555521 0 -0.006786673333716557 0.037288819051203938 0 -0.0064856684604020047 0.037248893814877303 0 -0.0066311793608741943 0.037266046658838391 0 -0.0068573149108189938 0.037269596364151281 0 -0.006786673333716557 0.037288819051203938 0 -0.0066311793608741943 0.037266046658838391 0 -0.0068573149108189938 0.037269596364151281 0 -0.006786673333716557 0.037288819051203938 0 -0.0070874179737456149 0.03728295589269974 0 -0.006786673333716557 0.037288819051203938 0 -0.0070874179737456149 0.03728295589269974 0 -0.0069667585640933302 0.037339037852334785 0 0.0022808674637108928 0.029345950519064513 0 0.0022005409365485795 0.029229991944779789 0 0.0021642461324580553 0.028978971546527711 0 0.001892630461021582 0.029210364708327496 0 0.0020329526485329931 0.02908749508299318 0 0.0021051009800744651 0.029314904226845687 0 0.0022005409365485795 0.029229991944779789 0 0.0020329526485329931 0.02908749508299318 0 0.0021051009800744651 0.029314904226845687 0 0.0022005409365485795 0.029229991944779789 0 0.0020329526485329931 0.02908749508299318 0 0.0021642461324580553 0.028978971546527711 0 0.0022005409365485795 0.029229991944779789 0 0.0021051009800744651 0.029314904226845687 0 0.0023418975244796345 0.029369745384693276 0 0.0021051009800744651 0.029314904226845687 0 0.0023418975244796345 0.029369745384693276 0 0.0021490269015766368 0.029588888145189163 0 0.0022808674637108928 0.029345950519064513 0 0.0022005409365485795 0.029229991944779789 0 0.0023418975244796345 0.029369745384693276 0 -0.0019539627017542841 0.032820415183879612 0 -0.0021948424757696136 0.03571534472547256 0 -0.0064856684604020047 0.037248893814877303 0 -0.0060875274629557646 0.037271343796645734 0 -0.006131176460755141 0.037276780594117279 0 0.0023418975244796345 0.029369745384693276 0 0.0021490269015766368 0.029588888145189163 0 0.0022261133805014143 0.030074291904001398 0 0.0019337355027716793 0.02944796160026927 0 0.0021490269015766368 0.029588888145189163 0 0.0019708249727989429 0.029676304411965733 0 0.0019337355027716793 0.02944796160026927 0 0.0021051009800744651 0.029314904226845687 0 0.0021490269015766368 0.029588888145189163 0 0.0019255304648332263 0.029905575975174955 0 0.0020788618346647956 0.029807215375195303 0 0.0022261133805014143 0.030074291904001398 0 0.0021490269015766368 0.029588888145189163 0 0.0020788618346647956 0.029807215375195303 0 0.0022261133805014143 0.030074291904001398 0 0.0019255304648332263 0.029905575975174955 0 0.0019708249727989429 0.029676304411965733 0 0.0020788618346647956 0.029807215375195303 0 0.0021490269015766368 0.029588888145189163 0 0.0019708249727989429 0.029676304411965733 0 0.0020788618346647956 0.029807215375195303 0 -0.0064320610442126155 0.037264122598112535 0 -0.0063372891063964839 0.037257956662211551 0 -0.006131176460755141 0.037276780594117279 0 -0.0064856684604020047 0.037248893814877303 0 -0.0064320610442126155 0.037264122598112535 0 -0.006131176460755141 0.037276780594117279 0 -0.0064856684604020047 0.037248893814877303 0 -0.0064320610442126155 0.037264122598112535 0 -0.0066311793608741943 0.037266046658838391 0 -0.0068573149108189938 0.037269596364151281 0 -0.0066311793608741943 0.037266046658838391 0 -0.0066369206385045983 0.037258817050518513 0 -0.0064320610442126155 0.037264122598112535 0 -0.0066311793608741943 0.037266046658838391 0 -0.0066369206385045983 0.037258817050518513 0 -0.0064320610442126155 0.037264122598112535 0 -0.0063372891063964839 0.037257956662211551 0 -0.0066369206385045983 0.037258817050518513 0 -0.0063372891063964839 0.037257956662211551 0 -0.0066369206385045983 0.037258817050518513 0 -0.0064299578693881232 0.037227071552094239 0 -0.0063372891063964839 0.037257956662211551 0 -0.0064299578693881232 0.037227071552094239 0 -0.0060924935696626487 0.037222701899736546 0 -0.0063372891063964839 0.037257956662211551 0 -0.0060924935696626487 0.037222701899736546 0 -0.006131176460755141 0.037276780594117279 0 -0.0060924935696626487 0.037222701899736546 0 -0.006131176460755141 0.037276780594117279 0 -0.0058531588336123638 0.037218350009971785 0 -0.0060924935696626487 0.037222701899736546 0 -0.0058531588336123638 0.037218350009971785 0 -0.0057321947691446311 0.037156926534541682 0 -0.0060924935696626487 0.037222701899736546 0 -0.006102301653272954 0.037164112854020666 0 -0.0057321947691446311 0.037156926534541682 0 -0.0064299578693881232 0.037227071552094239 0 -0.0060924935696626487 0.037222701899736546 0 -0.006102301653272954 0.037164112854020666 0 -0.0064299578693881232 0.037227071552094239 0 -0.006102301653272954 0.037164112854020666 0 -0.0065633226580080646 0.037165383677186595 0 -0.0021948424757696136 0.03571534472547256 0 -0.0040672750483824382 0.039064705202524794 0 -0.00583412130441414 0.03728115748292312 0 -0.0058531588336123638 0.037218350009971785 0 -0.0052477355518729413 0.037211309755296899 0 -0.0021756169397749645 0.039251853815714687 0 -0.0023936953210099998 0.039488661038395073 0 -0.002418469407564182 0.039879644314881134 0 -0.0025938772705928655 0.039432084838337524 0 -0.0021756169397749645 0.039251853815714687 0 -0.0023936953210099998 0.039488661038395073 0 -0.00055495774041631476 0.034862608372530905 0 -0.0021948424757696136 0.03571534472547256 0 0.0018623054453183712 0.030146762007265841 0 0.0019255304648332263 0.029905575975174955 0 0.0022261133805014143 0.030074291904001398 0 -0.00583412130441414 0.03728115748292312 0 -0.006131176460755141 0.037276780594117279 0 -0.0058531588336123638 0.037218350009971785 0 -0.0021948424757696136 0.03571534472547256 0 -0.005403734892693305 0.036875480581041446 0 -0.0052477355518729413 0.037211309755296899 0 -0.0057321947691446311 0.037156926534541682 0 -0.0054043587765324275 0.037127771918205023 0 -0.0058531588336123638 0.037218350009971785 0 -0.0052477355518729413 0.037211309755296899 0 -0.0057321947691446311 0.037156926534541682 0 -0.002518481658858394 0.03966410933379072 0 -0.0023936953210099998 0.039488661038395073 0 -0.002418469407564182 0.039879644314881134 0 -0.006102301653272954 0.037164112854020666 0 -0.0057321947691446311 0.037156926534541682 0 -0.005870675880660578 0.037050077867436637 0 -0.006102301653272954 0.037164112854020666 0 -0.005870675880660578 0.037050077867436637 0 -0.0065633226580080646 0.037165383677186595 0 -0.0057321947691446311 0.037156926534541682 0 -0.0054043587765324275 0.037127771918205023 0 -0.005870675880660578 0.037050077867436637 0 -0.005593087851337426 0.036780263823234613 0 -0.0054043587765324275 0.037127771918205023 0 -0.005870675880660578 0.037050077867436637 0 -0.0068325667939285132 0.036754954721134998 0 -0.0072225821122017418 0.037071003836149252 0 -0.0065633226580080646 0.037165383677186595 0 -0.005870675880660578 0.037050077867436637 0 -0.0068325667939285132 0.036754954721134998 0 -0.0065633226580080646 0.037165383677186595 0 -0.005593087851337426 0.036780263823234613 0 -0.005870675880660578 0.037050077867436637 0 -0.0068325667939285132 0.036754954721134998 0 -0.0076229898725083626 0.03615896908657909 0 -0.0068325667939285132 0.036754954721134998 0 -0.0079058134682221948 0.036945612443979134 0 -0.0068325667939285132 0.036754954721134998 0 -0.0079058134682221948 0.036945612443979134 0 -0.0072225821122017418 0.037071003836149252 0 -0.0079058134682221948 0.036945612443979134 0 -0.0072225821122017418 0.037071003836149252 0 -0.0075776453261373368 0.037117757452246332 0 -0.0072225821122017418 0.037071003836149252 0 -0.0075776453261373368 0.037117757452246332 0 -0.006947465383475588 0.037211850575045481 0 -0.0064299578693881232 0.037227071552094239 0 -0.006947465383475588 0.037211850575045481 0 -0.0065633226580080646 0.037165383677186595 0 -0.0072225821122017418 0.037071003836149252 0 -0.006947465383475588 0.037211850575045481 0 -0.0065633226580080646 0.037165383677186595 0 -0.0087789999298907365 0.037101078358173958 0 -0.008776779403271609 0.03698649460202947 0 -0.0090207197392269331 0.037088274151727524 0 -0.0087789999298907365 0.037101078358173958 0 -0.008776779403271609 0.03698649460202947 0 -0.0085221230577041084 0.036991102309640859 0 -0.0085139964440181324 0.037023633387761726 0 -0.0087789999298907365 0.037101078358173958 0 -0.0085221230577041084 0.036991102309640859 0 -0.0085139964440181324 0.037023633387761726 0 -0.0079058134682221948 0.036945612443979134 0 -0.0085221230577041084 0.036991102309640859 0 -0.0079058134682221948 0.036945612443979134 0 -0.0085221230577041084 0.036991102309640859 0 -0.0083377691726545262 0.036994019080692588 0 -0.0084634542301585212 0.03705626749688154 0 -0.0085139964440181324 0.037023633387761726 0 -0.0079058134682221948 0.036945612443979134 0 -0.0075776453261373368 0.037117757452246332 0 -0.0083377691726545262 0.036994019080692588 0 -0.0079301724208173906 0.037074166278472612 0 -0.0079058134682221948 0.036945612443979134 0 -0.0075776453261373368 0.037117757452246332 0 -0.0083377691726545262 0.036994019080692588 0 -0.008776779403271609 0.03698649460202947 0 -0.0083377691726545262 0.036994019080692588 0 -0.0087249622477820615 0.036928703065565997 0 -0.008776779403271609 0.03698649460202947 0 -0.0085221230577041084 0.036991102309640859 0 -0.0083377691726545262 0.036994019080692588 0 -0.0083377691726545262 0.036994019080692588 0 -0.0087249622477820615 0.036928703065565997 0 -0.0084966764717142075 0.036935891942060553 0 -0.008776779403271609 0.03698649460202947 0 -0.0087249622477820615 0.036928703065565997 0 -0.0089923072839546998 0.036936055033909655 0 -0.0089002732950114478 0.036811387365804242 0 -0.0086534170973343889 0.036808761356325298 0 -0.0090688643301750551 0.036618512985329178 0 -0.0087249622477820615 0.036928703065565997 0 -0.0089002732950114478 0.036811387365804242 0 -0.0084966764717142075 0.036935891942060553 0 -0.0089002732950114478 0.036811387365804242 0 -0.0084966764717142075 0.036935891942060553 0 -0.0086534170973343889 0.036808761356325298 0 -0.0083377691726545262 0.036994019080692588 0 -0.0084966764717142075 0.036935891942060553 0 -0.0079301724208173906 0.037074166278472612 0 -0.0084966764717142075 0.036935891942060553 0 -0.0082007742373307255 0.03699678442037032 0 -0.0079301724208173906 0.037074166278472612 0 -0.0084966764717142075 0.036935891942060553 0 -0.0082007742373307255 0.03699678442037032 0 -0.0086534170973343889 0.036808761356325298 0 -0.0082007742373307255 0.03699678442037032 0 -0.0079301724208173906 0.037074166278472612 0 -0.0078147922789623403 0.037117696173899442 0 -0.0081719797525471784 0.037030894698493313 0 -0.0086534170973343889 0.036808761356325298 0 -0.0084908104266522219 0.036920726330828449 0 -0.0082007742373307255 0.03699678442037032 0 -0.0081719797525471784 0.037030894698493313 0 -0.0078147922789623403 0.037117696173899442 0 -0.0082007742373307255 0.03699678442037032 0 -0.0081719797525471784 0.037030894698493313 0 -0.0086534170973343889 0.036808761356325298 0 -0.0086534170973343889 0.036808761356325298 0 -0.0084908104266522219 0.036920726330828449 0 -0.0090196841927659629 0.036558576429726097 0 -0.0086534170973343889 0.036808761356325298 0 -0.0090196841927659629 0.036558576429726097 0 -0.0090688643301750551 0.036618512985329178 0 -0.0068573149108189938 0.037269596364151281 0 -0.0066369206385045983 0.037258817050518513 0 -0.0070569769632459608 0.037240914886850593 0 -0.0066369206385045983 0.037258817050518513 0 -0.006947465383475588 0.037211850575045481 0 -0.0070569769632459608 0.037240914886850593 0 -0.0066369206385045983 0.037258817050518513 0 -0.0064299578693881232 0.037227071552094239 0 -0.006947465383475588 0.037211850575045481 0 -0.006947465383475588 0.037211850575045481 0 -0.0070569769632459608 0.037240914886850593 0 -0.0073657504355829108 0.037188858873449679 0 -0.0075776453261373368 0.037117757452246332 0 -0.006947465383475588 0.037211850575045481 0 -0.0073657504355829108 0.037188858873449679 0 -0.0075776453261373368 0.037117757452246332 0 -0.0079301724208173906 0.037074166278472612 0 -0.0073657504355829108 0.037188858873449679 0 -0.0079301724208173906 0.037074166278472612 0 -0.0073657504355829108 0.037188858873449679 0 -0.0078147922789623403 0.037117696173899442 0 -0.0073657504355829108 0.037188858873449679 0 -0.0078147922789623403 0.037117696173899442 0 -0.0074187365582287883 0.037218775785561868 0 -0.0078147922789623403 0.037117696173899442 0 -0.0074187365582287883 0.037218775785561868 0 -0.007769451303142853 0.037192145761815114 0 -0.0081719797525471784 0.037030894698493313 0 -0.0078147922789623403 0.037117696173899442 0 -0.007769451303142853 0.037192145761815114 0 -0.0074187365582287883 0.037218775785561868 0 -0.0074017645134580468 0.037306265073994205 0 -0.007769451303142853 0.037192145761815114 0 -0.0074187365582287883 0.037218775785561868 0 -0.0070874179737456149 0.03728295589269974 0 -0.0074017645134580468 0.037306265073994205 0 -0.0070569769632459608 0.037240914886850593 0 -0.0074187365582287883 0.037218775785561868 0 -0.0070874179737456149 0.03728295589269974 0 -0.0070569769632459608 0.037240914886850593 0 -0.0073657504355829108 0.037188858873449679 0 -0.0074187365582287883 0.037218775785561868 0 -0.0068573149108189938 0.037269596364151281 0 -0.0070569769632459608 0.037240914886850593 0 -0.0070874179737456149 0.03728295589269974 0 -0.0070874179737456149 0.03728295589269974 0 -0.0071705676435932179 0.037376330188119172 0 -0.0069667585640933302 0.037339037852334785 0 -0.0071705676435932179 0.037376330188119172 0 -0.0069667585640933302 0.037339037852334785 0 -0.0070126808446942558 0.037434955322348827 0 -0.0071705676435932179 0.037376330188119172 0 -0.0073003364768535334 0.037477547585845303 0 -0.0070126808446942558 0.037434955322348827 0 -0.0071705676435932179 0.037376330188119172 0 -0.0074017645134580468 0.037306265073994205 0 -0.0073003364768535334 0.037477547585845303 0 -0.0074017645134580468 0.037306265073994205 0 -0.007676341280061681 0.037324374097721616 0 -0.0073003364768535334 0.037477547585845303 0 -0.0070874179737456149 0.03728295589269974 0 -0.0071705676435932179 0.037376330188119172 0 -0.0074017645134580468 0.037306265073994205 0 -0.0074017645134580468 0.037306265073994205 0 -0.007769451303142853 0.037192145761815114 0 -0.007676341280061681 0.037324374097721616 0 -0.007769451303142853 0.037192145761815114 0 -0.007676341280061681 0.037324374097721616 0 -0.0080595929490850128 0.037178121590106195 0 -0.007676341280061681 0.037324374097721616 0 -0.0077645040160668373 0.037511787576260454 0 -0.0080595929490850128 0.037178121590106195 0 -0.007676341280061681 0.037324374097721616 0 -0.0077645040160668373 0.037511787576260454 0 -0.0073003364768535334 0.037477547585845303 0 -0.0077645040160668373 0.037511787576260454 0 -0.0072764110911110388 0.037749812620579255 0 -0.0073003364768535334 0.037477547585845303 0 -0.0067682971191937811 0.037925849798727755 0 -0.009307088136634542 0.033933190764621007 0 -0.0081393063853238985 0.031559570688202865 0 -0.0080911503256239289 0.031560202220081171 0 -0.0081013898964056464 0.031535821103966806 0 -0.0072764110911110388 0.037749812620579255 0 -0.0073003364768535334 0.037477547585845303 0 -0.0071286017897745383 0.037664568245683289 0 -0.009307088136634542 0.033933190764621007 0 -0.0066240324952162345 0.033572032846053972 0 -0.0070736582223221633 0.037527572766277988 0 -0.0073003364768535334 0.037477547585845303 0 -0.0070591328987153687 0.037664926916810081 0 -0.0063565343819940168 0.037477512683627479 0 -0.0066240324952162345 0.033572032846053972 0 -0.0070736582223221633 0.037527572766277988 0 -0.0073003364768535334 0.037477547585845303 0 -0.0070126808446942558 0.037434955322348827 0 -0.0086637084285727962 0.036941977175053556 0 -0.0084908104266522219 0.036920726330828449 0 -0.0082449030049621206 0.037281149302366874 0 -0.0086637084285727962 0.036941977175053556 0 -0.0090196841927659629 0.036558576429726097 0 -0.0090842997819283282 0.036625554679068313 0 -0.0086637084285727962 0.036941977175053556 0 -0.0084908104266522219 0.036920726330828449 0 -0.0090196841927659629 0.036558576429726097 0 -0.0084908104266522219 0.036920726330828449 0 -0.0080595929490850128 0.037178121590106195 0 -0.0082449030049621206 0.037281149302366874 0 -0.0081719797525471784 0.037030894698493313 0 -0.0084908104266522219 0.036920726330828449 0 -0.0080595929490850128 0.037178121590106195 0 -0.0081719797525471784 0.037030894698493313 0 -0.007769451303142853 0.037192145761815114 0 -0.0080595929490850128 0.037178121590106195 0 -0.0077645040160668373 0.037511787576260454 0 -0.0080595929490850128 0.037178121590106195 0 -0.0082449030049621206 0.037281149302366874 0 -0.0077645040160668373 0.037511787576260454 0 -0.0082449030049621206 0.037281149302366874 0 -0.0081205437384989903 0.037570545476082601 0 -0.0082449030049621206 0.037281149302366874 0 -0.0084797575045444072 0.037524061687702004 0 -0.0081205437384989903 0.037570545476082601 0 -0.0086637084285727962 0.036941977175053556 0 -0.0082449030049621206 0.037281149302366874 0 -0.0087694121756079838 0.037156392891970522 0 -0.0082449030049621206 0.037281149302366874 0 -0.0087694121756079838 0.037156392891970522 0 -0.0084797575045444072 0.037524061687702004 0 -0.0086637084285727962 0.036941977175053556 0 -0.0087694121756079838 0.037156392891970522 0 -0.0090842997819283282 0.036625554679068313 0 -0.0087771621818422789 0.037814265716536982 0 -0.0084797575045444072 0.037524061687702004 0 -0.0090270715408698049 0.037462527029815236 0 -0.0087694121756079838 0.037156392891970522 0 -0.0084797575045444072 0.037524061687702004 0 -0.0090270715408698049 0.037462527029815236 0 -0.0087771621818422789 0.037814265716536982 0 -0.0084797575045444072 0.037524061687702004 0 -0.0083448550550007522 0.037931974593487426 0 -0.010690905134150287 0.033485951388778037 0 -0.010758757759748992 0.033245972569905413 0 -0.0081205437384989903 0.037570545476082601 0 -0.0083448550550007522 0.037931974593487426 0 -0.0078534888963728514 0.037699977153027364 0 -0.0084797575045444072 0.037524061687702004 0 -0.0081205437384989903 0.037570545476082601 0 -0.0083448550550007522 0.037931974593487426 0 -0.01297445733519839 0.028623117558462929 0 -0.013229960300480596 0.028219329024121401 0 -0.012906356338704652 0.02835279828620348 0 -0.01297445733519839 0.028623117558462929 0 -0.01337245413409827 0.028530943814835286 0 -0.013229960300480596 0.028219329024121401 0 -0.0087771621818422789 0.037814265716536982 0 -0.0083448550550007522 0.037931974593487426 0 -0.0089512472645334774 0.038207164009548454 0 -0.010690905134150287 0.033485951388778037 0 -0.011280740754440185 0.030624593053089209 0 -0.01297445733519839 0.028623117558462929 0 -0.012610749758257029 0.028438615273676169 0 -0.012906356338704652 0.02835279828620348 0 -0.013647295436152795 0.0289938001394205 0 -0.013584391151487301 0.028723640734991351 0 -0.013314770438651716 0.028811772069561644 0 -0.009307088136634542 0.033933190764621007 0 -0.0093911138881117105 0.027648131060501104 0 -0.013647295436152795 0.0289938001394205 0 -0.013584391151487301 0.028723640734991351 0 -0.013820666216203559 0.028917778698205412 0 -0.0077645040160668373 0.037511787576260454 0 -0.0076140750421097737 0.037551044071316077 0 -0.0078534888963728514 0.037699977153027364 0 -0.0077645040160668373 0.037511787576260454 0 -0.0081205437384989903 0.037570545476082601 0 -0.0078534888963728514 0.037699977153027364 0 -0.009307088136634542 0.033933190764621007 0 -0.010758757759748992 0.033245972569905413 0 -0.013584391151487301 0.028723640734991351 0 -0.013314770438651716 0.028811772069561644 0 -0.01337245413409827 0.028530943814835286 0 -0.01297445733519839 0.028623117558462929 0 -0.013314770438651716 0.028811772069561644 0 -0.01337245413409827 0.028530943814835286 0 -0.01337245413409827 0.028530943814835286 0 -0.013751433308445388 0.028373427164994611 0 -0.013229960300480596 0.028219329024121401 0 -0.013584391151487301 0.028723640734991351 0 -0.013751433308445388 0.028373427164994611 0 -0.013820666216203559 0.028917778698205412 0 -0.013671987095039534 0.025875117397847282 0 -0.0093911138881117105 0.027648131060501104 0 -0.013584391151487301 0.028723640734991351 0 -0.01337245413409827 0.028530943814835286 0 -0.013751433308445388 0.028373427164994611 0 -0.01263630281247384 0.023921712580929535 0 -0.012043883161525543 0.023671600361185114 0 -0.01227282012565537 0.023070969498930231 0 -0.012043883161525543 0.023671600361185114 0 -0.012088736442567589 0.023138475365495265 0 -0.01227282012565537 0.023070969498930231 0 -0.00060779805389310146 0.025655796583216216 0 -0.00044882703358946628 0.025556487611325601 0 -0.00024005824421328013 0.025604260928909949 0 -0.00044882703358946628 0.025556487611325601 0 -0.00060189497727568763 0.025526445208876376 0 -0.00046948504191969586 0.0254729869953241 0 -0.00044882703358946628 0.025556487611325601 0 -0.00033883340589079599 0.025510543687648296 0 -0.00046948504191969586 0.0254729869953241 0 -0.00060779805389310146 0.025655796583216216 0 -0.00044882703358946628 0.025556487611325601 0 -0.00060189497727568763 0.025526445208876376 0 -0.00060779805389310146 0.025655796583216216 0 -0.00060189497727568763 0.025526445208876376 0 -0.00074431655483559248 0.025525406520405317 0 -0.0057382226085982511 0.025712798638305626 0 -0.0065735445763786936 0.029015511833094587 0 -0.0067720685383022335 0.026538738412072389 0 -0.0065537979659045188 0.026792359216329244 0 -0.0065143037903046871 0.026646090665463775 0 -0.0065735445763786936 0.029015511833094587 0 -0.0093911138881117105 0.027648131060501104 0 -0.0080850405494393707 0.031546832753138042 0 -0.0080911503256239289 0.031560202220081171 0 -0.0081013898964056464 0.031535821103966806 0 -0.0057382226085982511 0.025712798638305626 0 -0.0093911138881117105 0.027648131060501104 0 -0.00060779805389310146 0.025655796583216216 0 -0.00024005824421328013 0.025604260928909949 0 -2.5748034905172345e-05 0.025797014868916734 0 -0.0057382226085982511 0.025712798638305626 0 0.0005391890213911339 0.025694638341631361 0 -0.0020412160057311762 0.024755952738716207 0 -0.00056898084635529809 0.025265419315078606 0 -0.00065503004814641917 0.026066840989882524 0 5.9778544443554721e-06 0.025533393852647485 0 -0.00024005824421328013 0.025604260928909949 0 -0.00024723816404395739 0.025396434182141006 0 5.9778544443554721e-06 0.025533393852647485 0 -0.00024005824421328013 0.025604260928909949 0 -2.5748034905172345e-05 0.025797014868916734 0 -0.00033883340589079599 0.025510543687648296 0 -0.00024005824421328013 0.025604260928909949 0 -0.00024723816404395739 0.025396434182141006 0 -0.00044882703358946628 0.025556487611325601 0 -0.00033883340589079599 0.025510543687648296 0 -0.00024005824421328013 0.025604260928909949 0 -0.0057382226085982511 0.025712798638305626 0 -0.0063736301992201785 0.024510890327040926 0 -0.012043883161525543 0.023671600361185114 0 -0.011443879984754698 0.023781721414966841 0 -0.011690486239131744 0.024031995263506887 0 -0.012043883161525543 0.023671600361185114 0 -0.012088736442567589 0.023138475365495265 0 -0.011443879984754698 0.023781721414966841 0 -2.5748034905172345e-05 0.025797014868916734 0 0.00050100511954500465 0.025870181287296116 0 0.00028146640169467678 0.025727735407398207 0 0.0005391890213911339 0.025694638341631361 0 0.0001071109472016957 0.02573556129855898 0 -0.00065503004814641917 0.026066840989882524 0 -5.8118172880929212e-05 0.025912919215004854 0 0.00012236060500506993 0.026255694110921154 0 -0.00056898084635529809 0.025265419315078606 0 -5.8118172880929212e-05 0.025912919215004854 0 0.00050100511954500465 0.025870181287296116 0 0.00026550492818207586 0.026043537262963223 0 0.00049001696658402855 0.026123274272173459 0 0.00012236060500506993 0.026255694110921154 0 -5.8118172880929212e-05 0.025912919215004854 0 0.00026550492818207586 0.026043537262963223 0 0.00012236060500506993 0.026255694110921154 0 -5.8118172880929212e-05 0.025912919215004854 0 0.00026550492818207586 0.026043537262963223 0 0.00050100511954500465 0.025870181287296116 0 -0.00056898084635529809 0.025265419315078606 0 -0.00065503004814641917 0.026066840989882524 0 -5.8118172880929212e-05 0.025912919215004854 0 0.0010540589797896796 0.026509987312694248 0 0.0010113885415634631 0.026396283429119118 0 0.0010693852577065468 0.026560021555523457 0 0.00065099626116486972 0.025809386992825558 0 0.00069138050177176055 0.026337131121671825 0 0.00049001696658402855 0.026123274272173459 0 0.00065099626116486972 0.025809386992825558 0 0.00069138050177176055 0.026337131121671825 0 0.00026550492818207586 0.026043537262963223 0 0.00049001696658402855 0.026123274272173459 0 0.00050100511954500465 0.025870181287296116 0 0.00050100511954500465 0.025870181287296116 0 0.00065099626116486972 0.025809386992825558 0 0.00028146640169467678 0.025727735407398207 0 0.00049001696658402855 0.026123274272173459 0 0.00050100511954500465 0.025870181287296116 0 0.00065099626116486972 0.025809386992825558 0 0.0013134283536087126 0.026848484886651734 0 0.001177023817594312 0.027451347765888652 0 0.0017864954560017174 0.027587187118116197 0 0.0010113885415634631 0.026396283429119118 0 0.00087840657603680309 0.026352593622842407 0 0.00065099626116486972 0.025809386992825558 0 0.00028146640169467678 0.025727735407398207 0 0.00027754384205929062 0.025480453048462144 0 5.9778544443554721e-06 0.025533393852647485 0 -2.5748034905172345e-05 0.025797014868916734 0 0.00028146640169467678 0.025727735407398207 0 5.9778544443554721e-06 0.025533393852647485 0 0.00028146640169467678 0.025727735407398207 0 0.00027754384205929062 0.025480453048462144 0 0.0017864954560017174 0.027587187118116197 0 0.0018130780778949191 0.028105682122220723 0 0.0022336144094366995 0.028439127874719354 0 5.9778544443554721e-06 0.025533393852647485 0 0.00027754384205929062 0.025480453048462144 0 -4.6865978436215579e-05 0.025051800169989796 0 0.00087840657603680309 0.026352593622842407 0 0.0019394617739681443 0.027494718511112674 0 0.0017864954560017174 0.027587187118116197 0 0.0018130780778949191 0.028105682122220723 0 0.0012788885301765157 0.028117017074154316 0 0.001177023817594312 0.027451347765888652 0 0.0017864954560017174 0.027587187118116197 0 0.0012788885301765157 0.028117017074154316 0 0.0018130780778949191 0.028105682122220723 0 0.0012788885301765157 0.028117017074154316 0 0.0016023254205154052 0.028488477779188691 0 0.00085045123068359279 0.028578585107939484 0 0.0012788885301765157 0.028117017074154316 0 0.0012171198919531153 0.028681263255101345 0 0.0012788885301765157 0.028117017074154316 0 0.0012171198919531153 0.028681263255101345 0 0.0016023254205154052 0.028488477779188691 0 0.001486038773783078 0.028757053919086915 0 0.0012171198919531153 0.028681263255101345 0 0.0016023254205154052 0.028488477779188691 0 0.001475163490253836 0.029022897758129954 0 0.001486038773783078 0.028757053919086915 0 0.0012171198919531153 0.028681263255101345 0 0.0018130780778949191 0.028105682122220723 0 0.0018937030162582756 0.028416848655591083 0 0.0022336144094366995 0.028439127874719354 0 0.002043778782058448 0.028552279780231962 0 0.0018937030162582756 0.028416848655591083 0 0.0022336144094366995 0.028439127874719354 0 0.0018281324779326278 0.028603492628521184 0 0.002043778782058448 0.028552279780231962 0 0.0018937030162582756 0.028416848655591083 0 0.0018130780778949191 0.028105682122220723 0 0.0018937030162582756 0.028416848655591083 0 0.0016023254205154052 0.028488477779188691 0 0.0018281324779326278 0.028603492628521184 0 0.0018937030162582756 0.028416848655591083 0 0.0016023254205154052 0.028488477779188691 0 0.0018281324779326278 0.028603492628521184 0 0.0016023254205154052 0.028488477779188691 0 0.0016973823678809875 0.028816613352179454 0 0.001486038773783078 0.028757053919086915 0 0.0016023254205154052 0.028488477779188691 0 0.0016973823678809875 0.028816613352179454 0 0.001475163490253836 0.029022897758129954 0 0.001486038773783078 0.028757053919086915 0 0.0016973823678809875 0.028816613352179454 0 0.0018522607388559568 0.028984366180240324 0 0.0016973823678809875 0.028816613352179454 0 0.0019677842159072636 0.028825614023873635 0 0.0018281324779326278 0.028603492628521184 0 0.0016973823678809875 0.028816613352179454 0 0.0019677842159072636 0.028825614023873635 0 0.0018281324779326278 0.028603492628521184 0 0.002043778782058448 0.028552279780231962 0 0.0019677842159072636 0.028825614023873635 0 0.002043778782058448 0.028552279780231962 0 0.0019677842159072636 0.028825614023873635 0 0.0020940775857171733 0.028706515010365263 0 0.0022808674637108928 0.029345950519064513 0 0.0024137048658665083 0.029510972454576512 0 0.0021816291677507591 0.0294062939729112 0 0.0025501633643367039 0.029789961994870301 0 0.0019394617739681443 0.027494718511112674 0 0.0020329526485329931 0.02908749508299318 0 0.0019677842159072636 0.028825614023873635 0 0.0021642461324580553 0.028978971546527711 0 0.0022808674637108928 0.029345950519064513 0 0.0021642461324580553 0.028978971546527711 0 0.0021850453095574557 0.02850464429169209 0 0.0021642461324580553 0.028978971546527711 0 0.0020940775857171733 0.028706515010365263 0 0.0021850453095574557 0.02850464429169209 0 0.0019677842159072636 0.028825614023873635 0 0.0021642461324580553 0.028978971546527711 0 0.0020940775857171733 0.028706515010365263 0 0.002043778782058448 0.028552279780231962 0 0.0020940775857171733 0.028706515010365263 0 0.0021850453095574557 0.02850464429169209 0 0.0018580504451698732 0.027757929021379225 0 0.0019394617739681443 0.027494718511112674 0 0.0024137048658665083 0.029510972454576512 0 0.0021816291677507591 0.0294062939729112 0 0.0020234649150149102 0.029751396758561102 0 -0.00680747690757011 0.037335968585353041 0 -0.0070126808446942558 0.037434955322348827 0 -0.0069579129098756541 0.037587819662583934 0 -0.0024150482228552151 0.033973540869555521 0 -0.0024952490203924518 0.030862239523441717 0 -0.006786673333716557 0.037288819051203938 0 -0.00680747690757011 0.037335968585353041 0 -0.0069667585640933302 0.037339037852334785 0 -0.00680747690757011 0.037335968585353041 0 -0.0069667585640933302 0.037339037852334785 0 -0.0070126808446942558 0.037434955322348827 0 -0.00068293501916375226 0.025349106409047632 0 -0.00046948504191969586 0.0254729869953241 0 -0.00024723816404395739 0.025396434182141006 0 -0.0070736582223221633 0.037527572766277988 0 -0.0070126808446942558 0.037434955322348827 0 -0.0069579129098756541 0.037587819662583934 0 -0.0070736582223221633 0.037527572766277988 0 -0.0069579129098756541 0.037587819662583934 0 -0.0070591328987153687 0.037664926916810081 0 -0.0024952490203924518 0.030862239523441717 0 -0.0066240324952162345 0.033572032846053972 0 -0.0065735445763786936 0.029015511833094587 0 -0.0024952490203924518 0.030862239523441717 0 -0.00060189497727568763 0.025526445208876376 0 -0.00074431655483559248 0.025525406520405317 0 -0.00068293501916375226 0.025349106409047632 0 -0.0065735445763786936 0.029015511833094587 0 -0.0066240324952162345 0.033572032846053972 0 -0.0050140145978766395 0.032062382719857715 0 -0.0048980122544568967 0.031683548104234044 0 -0.0052163448149838134 0.031845534570929729 0 -0.00060189497727568763 0.025526445208876376 0 -0.00068293501916375226 0.025349106409047632 0 -0.00046948504191969586 0.0254729869953241 0 5.9778544443554721e-06 0.025533393852647485 0 -4.6865978436215579e-05 0.025051800169989796 0 -0.00024723816404395739 0.025396434182141006 0 -4.6865978436215579e-05 0.025051800169989796 0 -0.00068293501916375226 0.025349106409047632 0 -0.00024723816404395739 0.025396434182141006 0 0.0019394617739681443 0.027494718511112674 0 -0.0024952490203924518 0.030862239523441717 0 -0.00033883340589079599 0.025510543687648296 0 -0.00046948504191969586 0.0254729869953241 0 -0.00024723816404395739 0.025396434182141006 0 -0.013881808656818059 0.031192065137316052 0 -0.014530323382596 0.030547933767067399 0 -0.013857418646085319 0.031012479780548847 0 -0.013330916989392786 0.031507254977446775 0 -0.013881808656818059 0.031192065137316052 0 -0.013309481796579085 0.031788644517627522 0 -0.013330916989392786 0.031507254977446775 0 -0.013881808656818059 0.031192065137316052 0 -0.013857418646085319 0.031012479780548847 0 -0.013881808656818059 0.031192065137316052 0 -0.013549769100666454 0.031525044368163488 0 -0.013890993111401293 0.0308922525146661 0 -0.013881808656818059 0.031192065137316052 0 -0.014407967000773224 0.030694432554271144 0 -0.014530323382596 0.030547933767067399 0 -0.013881808656818059 0.031192065137316052 0 -0.014407967000773224 0.030694432554271144 0 -0.014247865768159132 0.030728968323320772 0 -0.014968970187893829 0.030180217502469599 0 -0.014530323382596 0.030547933767067399 0 -0.014679289359526686 0.030476492346846965 0 -0.014407967000773224 0.030694432554271144 0 -0.014530323382596 0.030547933767067399 0 -0.014679289359526686 0.030476492346846965 0 -0.014968970187893829 0.030180217502469599 0 -0.014679289359526686 0.030476492346846965 0 -0.015185920007482491 0.029969249976563337 0 -0.014735642571246257 0.030444344768313376 0 -0.015098040065511617 0.030375233001319644 0 -0.014968970187893829 0.030180217502469599 0 -0.014530323382596 0.030547933767067399 0 -0.0148520982334573 0.030345191941745502 0 -0.014530323382596 0.030547933767067399 0 -0.0148520982334573 0.030345191941745502 0 -0.013857418646085319 0.031012479780548847 0 -0.0148520982334573 0.030345191941745502 0 -0.01532301800339915 0.029935107523209888 0 -0.015491055623103184 0.029776912752438815 0 -0.014968970187893829 0.030180217502469599 0 -0.0148520982334573 0.030345191941745502 0 -0.01532301800339915 0.029935107523209888 0 -0.0148520982334573 0.030345191941745502 0 -0.015491055623103184 0.029776912752438815 0 -0.014903158399088798 0.029958337721519446 0 -0.014764004138577357 0.030371819891339188 0 -0.014043743244612569 0.030590218443506335 0 -0.0148520982334573 0.030345191941745502 0 -0.014486160274041752 0.029714507507876138 0 -0.014903158399088798 0.029958337721519446 0 -0.0148520982334573 0.030345191941745502 0 -0.01364039577323198 0.031498989248303549 0 -0.013857418646085319 0.031012479780548847 0 -0.013330916989392786 0.031507254977446775 0 -0.013857418646085319 0.031012479780548847 0 -0.01327701136495878 0.031371518633363266 0 -0.01364039577323198 0.031498989248303549 0 -0.013857418646085319 0.031012479780548847 0 -0.01327701136495878 0.031371518633363266 0 -0.01364039577323198 0.031498989248303549 0 -0.01327701136495878 0.031371518633363266 0 -0.012994155781377968 0.031254063215430054 0 -0.01327701136495878 0.031371518633363266 0 -0.012994155781377968 0.031254063215430054 0 -0.013042681899339872 0.031520422128097088 0 -0.012994155781377968 0.031254063215430054 0 -0.013042681899339872 0.031520422128097088 0 -0.01306903963666747 0.031053976269012473 0 -0.013272367332928551 0.031365132776590206 0 -0.013042681899339872 0.031520422128097088 0 -0.01306903963666747 0.031053976269012473 0 -0.013272367332928551 0.031365132776590206 0 -0.013342682927024526 0.030890556398347931 0 -0.01306903963666747 0.031053976269012473 0 -0.013172688510151249 0.031758650879321004 0 -0.013042681899339872 0.031520422128097088 0 -0.012951691901531981 0.031977141447483322 0 -0.013272367332928551 0.031365132776590206 0 -0.013172688510151249 0.031758650879321004 0 -0.013042681899339872 0.031520422128097088 0 -0.013330916989392786 0.031507254977446775 0 -0.013042681899339872 0.031520422128097088 0 -0.012951691901531981 0.031977141447483322 0 -0.013330916989392786 0.031507254977446775 0 -0.01327701136495878 0.031371518633363266 0 -0.013042681899339872 0.031520422128097088 0 -0.012766872576604294 0.029068486022272428 0 -0.012415457284217255 0.028558867829264381 0 -0.012762062324189976 0.028356970015938236 0 -0.013040072440179948 0.028508131434223899 0 -0.012766872576604294 0.029068486022272428 0 -0.012762062324189976 0.028356970015938236 0 -0.011280740754440185 0.030624593053089209 0 -0.010777680922187961 0.033742521624801472 0 -0.0087771621818422789 0.037814265716536982 0 -0.0089512472645334774 0.038207164009548454 0 -0.0092370317898453763 0.037843451345338751 0 -0.011280740754440185 0.030624593053089209 0 -0.012030142084149915 0.029824054141062612 0 -0.013272367332928551 0.031365132776590206 0 -0.013699225040973042 0.031185494294404797 0 -0.013342682927024526 0.030890556398347931 0 -0.013272367332928551 0.031365132776590206 0 -0.013699225040973042 0.031185494294404797 0 -0.013449644728391615 0.031538252242600838 0 -0.013216195816575295 0.029269075277871037 0 -0.011274596785435647 0.033715322746015838 0 -0.013172688510151249 0.031758650879321004 0 -0.013660082359823141 0.031846012295094747 0 -0.013104986052839055 0.032056570410420579 0 -0.013699225040973042 0.031185494294404797 0 -0.013449644728391615 0.031538252242600838 0 -0.013660082359823141 0.031846012295094747 0 -0.013172688510151249 0.031758650879321004 0 -0.013449644728391615 0.031538252242600838 0 -0.013660082359823141 0.031846012295094747 0 -0.013272367332928551 0.031365132776590206 0 -0.013172688510151249 0.031758650879321004 0 -0.013449644728391615 0.031538252242600838 0 -0.012766872576604294 0.029068486022272428 0 -0.012415457284217255 0.028558867829264381 0 -0.012357244697353428 0.029721508187418175 0 -0.010777680922187961 0.033742521624801472 0 -0.011274596785435647 0.033715322746015838 0 -0.0092370317898453763 0.037843451345338751 0 -0.0096537395680526012 0.037392102836131057 0 -0.0090270715408698049 0.037462527029815236 0 -0.0096537395680526012 0.037392102836131057 0 -0.0090270715408698049 0.037462527029815236 0 -0.0091674375053308992 0.036961661861930478 0 -0.0087771621818422789 0.037814265716536982 0 -0.0092370317898453763 0.037843451345338751 0 -0.0090270715408698049 0.037462527029815236 0 -0.0096537395680526012 0.037392102836131057 0 -0.0091674375053308992 0.036961661861930478 0 -0.0095642180650451023 0.036167425174375503 0 -0.0087694121756079838 0.037156392891970522 0 -0.0091674375053308992 0.036961661861930478 0 -0.0090842997819283282 0.036625554679068313 0 -0.0087694121756079838 0.037156392891970522 0 -0.0090270715408698049 0.037462527029815236 0 -0.0091674375053308992 0.036961661861930478 0 -0.0091674375053308992 0.036961661861930478 0 -0.0095642180650451023 0.036167425174375503 0 -0.0090842997819283282 0.036625554679068313 0 -0.009687331359268022 0.036900816183998784 0 -0.010048317341407882 0.036352904369801348 0 -0.0095642180650451023 0.036167425174375503 0 -0.011274596785435647 0.033715322746015838 0 -0.0095572776570452996 0.037445980264752404 0 -0.010048317341407882 0.036352904369801348 0 -0.010319511972466274 0.034998072766882354 0 -0.0095642180650451023 0.036167425174375503 0 -0.011274596785435647 0.033715322746015838 0 -0.011647867510698353 0.034284878493303056 0 -0.013660082359823141 0.031846012295094747 0 -0.013363708671838876 0.032382463013109652 0 -0.013104986052839055 0.032056570410420579 0 -0.010319511972466274 0.034998072766882354 0 -0.0097670354686197718 0.035879493939086793 0 -0.0095370963794242595 0.036192943667851654 0 -0.011647867510698353 0.034284878493303056 0 -0.011899989422917638 0.033614256723144963 0 -0.010048317341407882 0.036352904369801348 0 -0.010319511972466274 0.034998072766882354 0 -0.011810025876406314 0.033503676652695803 0 -0.0097670354686197718 0.035879493939086793 0 -0.0093940014299598914 0.03622716216111168 0 -0.0094509079110865514 0.036333788681711714 0 -0.0097670354686197718 0.035879493939086793 0 -0.0095642180650451023 0.036167425174375503 0 -0.0093940014299598914 0.03622716216111168 0 -0.010319511972466274 0.034998072766882354 0 -0.0097670354686197718 0.035879493939086793 0 -0.0095642180650451023 0.036167425174375503 0 -0.0093940014299598914 0.03622716216111168 0 -0.0090196841927659629 0.036558576429726097 0 -0.0094509079110865514 0.036333788681711714 0 -0.0095642180650451023 0.036167425174375503 0 -0.0093940014299598914 0.03622716216111168 0 -0.0090842997819283282 0.036625554679068313 0 -0.0093940014299598914 0.03622716216111168 0 -0.0090196841927659629 0.036558576429726097 0 -0.0090842997819283282 0.036625554679068313 0 -0.013330916989392786 0.031507254977446775 0 -0.013309481796579085 0.031788644517627522 0 -0.012951691901531981 0.031977141447483322 0 -0.013309481796579085 0.031788644517627522 0 -0.012951691901531981 0.031977141447483322 0 -0.012868531307526507 0.032512567250440015 0 -0.012951691901531981 0.031977141447483322 0 -0.013104986052839055 0.032056570410420579 0 -0.012618125637067995 0.032550978997195716 0 -0.013172688510151249 0.031758650879321004 0 -0.012951691901531981 0.031977141447483322 0 -0.013104986052839055 0.032056570410420579 0 -0.013363708671838876 0.032382463013109652 0 -0.013104986052839055 0.032056570410420579 0 -0.012618125637067995 0.032550978997195716 0 -0.012951691901531981 0.031977141447483322 0 -0.012618125637067995 0.032550978997195716 0 -0.012868531307526507 0.032512567250440015 0 -0.010319511972466274 0.034998072766882354 0 -0.011810025876406314 0.033503676652695803 0 -0.013219303034379551 0.030659243774164152 0 -0.012868531307526507 0.032512567250440015 0 -0.011810025876406314 0.033503676652695803 0 -0.013219303034379551 0.030659243774164152 0 -0.010326096315495904 0.034923983340105644 0 -0.011063562965288177 0.033651595775562149 0 -0.013363708671838876 0.032382463013109652 0 -0.012618125637067995 0.032550978997195716 0 -0.011810025876406314 0.033503676652695803 0 -0.012618125637067995 0.032550978997195716 0 -0.012868531307526507 0.032512567250440015 0 -0.011810025876406314 0.033503676652695803 0 -0.013881808656818059 0.031192065137316052 0 -0.013309481796579085 0.031788644517627522 0 -0.013549769100666454 0.031525044368163488 0 -0.012868531307526507 0.032512567250440015 0 -0.013549769100666454 0.031525044368163488 0 -0.013219303034379551 0.030659243774164152 0 -0.013309481796579085 0.031788644517627522 0 -0.012868531307526507 0.032512567250440015 0 -0.013549769100666454 0.031525044368163488 0 -0.013549769100666454 0.031525044368163488 0 -0.013890993111401293 0.0308922525146661 0 -0.013219303034379551 0.030659243774164152 0 -0.010319511972466274 0.034998072766882354 0 -0.0089004131006825572 0.036454348234575329 0 -0.0095370963794242595 0.036192943667851654 0 -0.0089004131006825572 0.036454348234575329 0 -0.009155265494687247 0.036745216119558506 0 -0.0095370963794242595 0.036192943667851654 0 -0.0089004131006825572 0.036454348234575329 0 -0.009155265494687247 0.036745216119558506 0 -0.0090034113142762329 0.036886301038495578 0 -0.013890993111401293 0.0308922525146661 0 -0.013219303034379551 0.030659243774164152 0 -0.013971094119382273 0.030790835045573669 0 -0.011063562965288177 0.033651595775562149 0 -0.011491139317607155 0.033883865636475941 0 -0.0090688643301750551 0.036618512985329178 0 -0.0094509079110865514 0.036333788681711714 0 -0.0091730713286301141 0.036747748138296975 0 -0.0090196841927659629 0.036558576429726097 0 -0.0090688643301750551 0.036618512985329178 0 -0.0094509079110865514 0.036333788681711714 0 -0.009155265494687247 0.036745216119558506 0 -0.0094509079110865514 0.036333788681711714 0 -0.0095370963794242595 0.036192943667851654 0 -0.0097670354686197718 0.035879493939086793 0 -0.0094509079110865514 0.036333788681711714 0 -0.0095370963794242595 0.036192943667851654 0 -0.009155265494687247 0.036745216119558506 0 -0.0094509079110865514 0.036333788681711714 0 -0.0091730713286301141 0.036747748138296975 0 -0.009155265494687247 0.036745216119558506 0 -0.0091730713286301141 0.036747748138296975 0 -0.0091334951599427953 0.036931213789720987 0 -0.0089002732950114478 0.036811387365804242 0 -0.0091730713286301141 0.036747748138296975 0 -0.0089923072839546998 0.036936055033909655 0 -0.0089002732950114478 0.036811387365804242 0 -0.0090688643301750551 0.036618512985329178 0 -0.0091730713286301141 0.036747748138296975 0 -0.0091730713286301141 0.036747748138296975 0 -0.0089923072839546998 0.036936055033909655 0 -0.0091334951599427953 0.036931213789720987 0 -0.0089923072839546998 0.036936055033909655 0 -0.0091334951599427953 0.036931213789720987 0 -0.0090778315823710903 0.037006752417999805 0 -0.0087249622477820615 0.036928703065565997 0 -0.0089002732950114478 0.036811387365804242 0 -0.0089923072839546998 0.036936055033909655 0 -0.0091334951599427953 0.036931213789720987 0 -0.0091622287814927764 0.037087443216595524 0 -0.009132155370745269 0.036973030003032765 0 -0.0091622287814927764 0.037087443216595524 0 -0.0090778315823710903 0.037006752417999805 0 -0.0090207197392269331 0.037088274151727524 0 -0.0091622287814927764 0.037087443216595524 0 -0.0090207197392269331 0.037088274151727524 0 -0.0091848104629447067 0.037252308364289208 0 -0.0091334951599427953 0.036931213789720987 0 -0.0091622287814927764 0.037087443216595524 0 -0.0090778315823710903 0.037006752417999805 0 -0.0089923072839546998 0.036936055033909655 0 -0.0090778315823710903 0.037006752417999805 0 -0.0090207197392269331 0.037088274151727524 0 -0.008776779403271609 0.03698649460202947 0 -0.0089923072839546998 0.036936055033909655 0 -0.0090207197392269331 0.037088274151727524 0 -0.0090034113142762329 0.036886301038495578 0 -0.0091198007709746808 0.037037935671349255 0 -0.009098750754208372 0.03707219851926298 0 -0.0090034113142762329 0.036886301038495578 0 -0.009132155370745269 0.036973030003032765 0 -0.0091198007709746808 0.037037935671349255 0 -0.009155265494687247 0.036745216119558506 0 -0.0090034113142762329 0.036886301038495578 0 -0.009132155370745269 0.036973030003032765 0 -0.009155265494687247 0.036745216119558506 0 -0.0091334951599427953 0.036931213789720987 0 -0.009132155370745269 0.036973030003032765 0 -0.0091622287814927764 0.037087443216595524 0 -0.009132155370745269 0.036973030003032765 0 -0.0091808544287711267 0.037094138940562904 0 -0.009132155370745269 0.036973030003032765 0 -0.0091808544287711267 0.037094138940562904 0 -0.0091198007709746808 0.037037935671349255 0 -0.0091622287814927764 0.037087443216595524 0 -0.0091808544287711267 0.037094138940562904 0 -0.0092791523457827919 0.037237466638322544 0 -0.0091808544287711267 0.037094138940562904 0 -0.0091198007709746808 0.037037935671349255 0 -0.0091973880130449201 0.037156484770348983 0 -0.0091198007709746808 0.037037935671349255 0 -0.009098750754208372 0.03707219851926298 0 -0.0091973880130449201 0.037156484770348983 0 -0.0143997766802074 0.030467676047676872 0 -0.015546076876259703 0.030667274907291427 0 -0.014504977438572824 0.030998429078605175 0 -0.015546076876259703 0.030667274907291427 0 -0.014504977438572824 0.030998429078605175 0 -0.016384689246147308 0.032091213207301038 0 -0.014609308534449465 0.031058204600418794 0 -0.015474734012252963 0.031318741890308761 0 -0.014504977438572824 0.030998429078605175 0 -0.014362101400882541 0.030693703752643776 0 -0.014417557201488716 0.030607655128825201 0 -0.011491139317607155 0.033883865636475941 0 -0.011454018653939637 0.033343446997243356 0 -0.013971094119382273 0.030790835045573669 0 -0.0143997766802074 0.030467676047676872 0 -0.014504977438572824 0.030998429078605175 0 -0.013971094119382273 0.030790835045573669 0 -0.014504977438572824 0.030998429078605175 0 -0.014239198221356605 0.030790378855785436 0 -0.013890993111401293 0.0308922525146661 0 -0.013971094119382273 0.030790835045573669 0 -0.014239198221356605 0.030790378855785436 0 -0.013890993111401293 0.0308922525146661 0 -0.014239198221356605 0.030790378855785436 0 -0.014247865768159132 0.030728968323320772 0 -0.014504977438572824 0.030998429078605175 0 -0.014239198221356605 0.030790378855785436 0 -0.014362101400882541 0.030693703752643776 0 -0.014362101400882541 0.030693703752643776 0 -0.014247865768159132 0.030728968323320772 0 -0.014474105081966277 0.030591800835313203 0 -0.014362101400882541 0.030693703752643776 0 -0.014474105081966277 0.030591800835313203 0 -0.014417557201488716 0.030607655128825201 0 -0.014239198221356605 0.030790378855785436 0 -0.014362101400882541 0.030693703752643776 0 -0.014247865768159132 0.030728968323320772 0 -0.014407967000773224 0.030694432554271144 0 -0.014247865768159132 0.030728968323320772 0 -0.014474105081966277 0.030591800835313203 0 -0.013881808656818059 0.031192065137316052 0 -0.013890993111401293 0.0308922525146661 0 -0.014247865768159132 0.030728968323320772 0 -0.014679289359526686 0.030476492346846965 0 -0.014821925510712538 0.030523033542672377 0 -0.014840662164430337 0.030679792921313523 0 -0.014679289359526686 0.030476492346846965 0 -0.014821925510712538 0.030523033542672377 0 -0.014761194711816833 0.03046327439726983 0 -0.014407967000773224 0.030694432554271144 0 -0.014679289359526686 0.030476492346846965 0 -0.014474105081966277 0.030591800835313203 0 -0.015780518156756601 0.031219861050996355 0 -0.015474734012252963 0.031318741890308761 0 -0.014679289359526686 0.030476492346846965 0 -0.014474105081966277 0.030591800835313203 0 -0.014667785459839511 0.030457534187920764 0 -0.014474105081966277 0.030591800835313203 0 -0.014667785459839511 0.030457534187920764 0 -0.014417557201488716 0.030607655128825201 0 -0.014679289359526686 0.030476492346846965 0 -0.014667785459839511 0.030457534187920764 0 -0.014761194711816833 0.03046327439726983 0 -0.017567911107051384 0.032073574776357569 0 -0.01785031980599569 0.03168381239595227 0 -0.017591699375907276 0.031894508854157302 0 -0.017567911107051384 0.032073574776357569 0 -0.016384689246147308 0.032091213207301038 0 -0.01785031980599569 0.03168381239595227 0 -0.015546076876259703 0.030667274907291427 0 -0.016384689246147308 0.032091213207301038 0 -0.01785031980599569 0.03168381239595227 0 -0.015546076876259703 0.030667274907291427 0 -0.01785031980599569 0.03168381239595227 0 -0.016483141664536596 0.029931538127125377 0 -0.017876279802667722 0.031717988815149548 0 -0.017942841857446816 0.031017399245327006 0 -0.01785031980599569 0.03168381239595227 0 -0.017591699375907276 0.031894508854157302 0 -0.017442973910925228 0.032407651631163034 0 -0.01785031980599569 0.03168381239595227 0 -0.019163421197107306 0.03284949747411773 0 -0.017442973910925228 0.032407651631163034 0 -0.018837976525458999 0.034344766444290659 0 -0.019163421197107306 0.03284949747411773 0 -0.017563365051933615 0.033808103726084157 0 -0.019163421197107306 0.03284949747411773 0 -0.017563365051933615 0.033808103726084157 0 -0.017442973910925228 0.032407651631163034 0 -0.018837976525458999 0.034344766444290659 0 -0.018080763756825213 0.036007115928215108 0 -0.017563365051933615 0.033808103726084157 0 -0.018837976525458999 0.034344766444290659 0 -0.020312461180136063 0.033956532198258345 0 -0.019369967559942611 0.035710451216363653 0 -0.018837976525458999 0.034344766444290659 0 -0.019163421197107306 0.03284949747411773 0 -0.020312461180136063 0.033956532198258345 0 -0.015546076876259703 0.030667274907291427 0 -0.016483141664536596 0.029931538127125377 0 -0.015361932032658912 0.028957746719124339 0 -0.0143997766802074 0.030467676047676872 0 -0.015546076876259703 0.030667274907291427 0 -0.015361932032658912 0.028957746719124339 0 -0.017942841857446816 0.031017399245327006 0 -0.014806881275038122 0.035773408205589663 0 -0.009098750754208372 0.03707219851926298 0 -0.0091907313787009896 0.037285409452355769 0 -0.0091973880130449201 0.037156484770348983 0 -0.009098750754208372 0.03707219851926298 0 -0.0091907313787009896 0.037285409452355769 0 -0.0090003944803255485 0.037318076037605466 0 -0.011454018653939637 0.033343446997243356 0 -0.014806881275038122 0.035773408205589663 0 -0.0091907313787009896 0.037285409452355769 0 -0.0090003944803255485 0.037318076037605466 0 -0.0092856341360157378 0.03764303871280248 0 -0.014806881275038122 0.035773408205589663 0 -0.010644259439076488 0.039634497402729167 0 -0.014806881275038122 0.035773408205589663 0 -0.018063695045114292 0.038257553465685872 0 -0.012729952664064006 0.040419711318138964 0 -0.01345415277379684 0.038286463911127534 0 -0.016124042626721458 0.040113930595064372 0 -0.014709628092060886 0.042302887402267356 0 -0.012729952664064006 0.040419711318138964 0 -0.016124042626721458 0.040113930595064372 0 -0.01345415277379684 0.038286463911127534 0 -0.016124042626721458 0.040113930595064372 0 -0.01551444462361261 0.037729336847038358 0 -0.016124042626721458 0.040113930595064372 0 -0.017747102279258766 0.037460691356884748 0 -0.01551444462361261 0.037729336847038358 0 -0.018063695045114292 0.038257553465685872 0 -0.017713608800118973 0.037359587761304665 0 -0.018080763756825213 0.036007115928215108 0 -0.017747102279258766 0.037460691356884748 0 -0.017980557820471681 0.037125818626260444 0 -0.018080763756825213 0.036007115928215108 0 -0.019369967559942611 0.035710451216363653 0 -0.017747102279258766 0.037460691356884748 0 -0.018837976525458999 0.034344766444290659 0 -0.018080763756825213 0.036007115928215108 0 -0.019369967559942611 0.035710451216363653 0 -0.0088734460935879032 0.037314464960570289 0 -0.0091620216486448178 0.037403145846633602 0 -0.0090633045778192537 0.037527060489655074 0 -0.0088734460935879032 0.037314464960570289 0 -0.0091620216486448178 0.037403145846633602 0 -0.0090027154532763085 0.037235056052078781 0 -0.0090207197392269331 0.037088274151727524 0 -0.0090027154532763085 0.037235056052078781 0 -0.0091848104629447067 0.037252308364289208 0 -0.0087789999298907365 0.037101078358173958 0 -0.0090207197392269331 0.037088274151727524 0 -0.0090027154532763085 0.037235056052078781 0 -0.0091620216486448178 0.037403145846633602 0 -0.0090027154532763085 0.037235056052078781 0 -0.0091848104629447067 0.037252308364289208 0 -0.0091622287814927764 0.037087443216595524 0 -0.0091848104629447067 0.037252308364289208 0 -0.0092791523457827919 0.037237466638322544 0 -0.0091848104629447067 0.037252308364289208 0 -0.0093692957179414664 0.037384336165396825 0 -0.0092791523457827919 0.037237466638322544 0 -0.0091620216486448178 0.037403145846633602 0 -0.0093692957179414664 0.037384336165396825 0 -0.0094460230099741443 0.037554775312006433 0 -0.0091620216486448178 0.037403145846633602 0 -0.0091848104629447067 0.037252308364289208 0 -0.0093692957179414664 0.037384336165396825 0 -0.0093692957179414664 0.037384336165396825 0 -0.0097846749189251479 0.037661084121980555 0 -0.0094460230099741443 0.037554775312006433 0 -0.0093692957179414664 0.037384336165396825 0 -0.0094059860205291477 0.03735839411724514 0 -0.0097846749189251479 0.037661084121980555 0 -0.0093692957179414664 0.037384336165396825 0 -0.0092791523457827919 0.037237466638322544 0 -0.0094059860205291477 0.03735839411724514 0 -0.0091808544287711267 0.037094138940562904 0 -0.0092791523457827919 0.037237466638322544 0 -0.0091973880130449201 0.037156484770348983 0 -0.0092791523457827919 0.037237466638322544 0 -0.0091973880130449201 0.037156484770348983 0 -0.0094059860205291477 0.03735839411724514 0 -0.0091907313787009896 0.037285409452355769 0 -0.0091973880130449201 0.037156484770348983 0 -0.0094059860205291477 0.03735839411724514 0 -0.0091907313787009896 0.037285409452355769 0 -0.0092856341360157378 0.03764303871280248 0 -0.0094059860205291477 0.03735839411724514 0 -0.0092856341360157378 0.03764303871280248 0 -0.010514377292710347 0.038062580957385211 0 -0.0097846749189251479 0.037661084121980555 0 -0.0092856341360157378 0.03764303871280248 0 -0.0094059860205291477 0.03735839411724514 0 -0.0097846749189251479 0.037661084121980555 0 -0.012729952664064006 0.040419711318138964 0 -0.01345415277379684 0.038286463911127534 0 -0.010514377292710347 0.038062580957385211 0 -0.010644259439076488 0.039634497402729167 0 -0.01057131256582924 0.037917671402386798 0 -0.010514377292710347 0.038062580957385211 0 -0.0097846749189251479 0.037661084121980555 0 -0.0096861849820155284 0.037717233860657645 0 -0.010514377292710347 0.038062580957385211 0 -0.0096861849820155284 0.037717233860657645 0 -0.0099624417032281743 0.037447995250715384 0 -0.0094460230099741443 0.037554775312006433 0 -0.0096861849820155284 0.037717233860657645 0 -0.0090633045778192537 0.037527060489655074 0 -0.0097846749189251479 0.037661084121980555 0 -0.0094460230099741443 0.037554775312006433 0 -0.0096861849820155284 0.037717233860657645 0 -0.0096861849820155284 0.037717233860657645 0 -0.0091390016111074501 0.037467820610122007 0 -0.0099624417032281743 0.037447995250715384 0 -0.0087401973093119995 0.037465917986750155 0 -0.0091390016111074501 0.037467820610122007 0 -0.0090633045778192537 0.037527060489655074 0 -0.0096861849820155284 0.037717233860657645 0 -0.0091390016111074501 0.037467820610122007 0 -0.0090633045778192537 0.037527060489655074 0 -0.0091620216486448178 0.037403145846633602 0 -0.0094460230099741443 0.037554775312006433 0 -0.0090633045778192537 0.037527060489655074 0 -0.0092750729960726953 0.0369664175888023 0 -0.0099624417032281743 0.037447995250715384 0 -0.0111742660883602 0.036499953565942107 0 -0.0092750729960726953 0.0369664175888023 0 -0.0111742660883602 0.036499953565942107 0 -0.0095401430721661264 0.036066639503244957 0 -0.0088505121006734692 0.037197227888009582 0 -0.0091390016111074501 0.037467820610122007 0 -0.0092750729960726953 0.0369664175888023 0 -0.0091390016111074501 0.037467820610122007 0 -0.0092750729960726953 0.0369664175888023 0 -0.0099624417032281743 0.037447995250715384 0 -0.0099624417032281743 0.037447995250715384 0 -0.0111742660883602 0.036499953565942107 0 -0.011982818516704734 0.037117203532574937 0 -0.010514377292710347 0.038062580957385211 0 -0.0099624417032281743 0.037447995250715384 0 -0.011982818516704734 0.037117203532574937 0 -0.01345415277379684 0.038286463911127534 0 -0.010514377292710347 0.038062580957385211 0 -0.011982818516704734 0.037117203532574937 0 -0.0111742660883602 0.036499953565942107 0 -0.011982818516704734 0.037117203532574937 0 -0.012683881506369756 0.035940351503620231 0 -0.012683881506369756 0.035940351503620231 0 -0.01196573435889808 0.034999691668940042 0 -0.013979561366884437 0.034999473179540483 0 -0.012683881506369756 0.035940351503620231 0 -0.01196573435889808 0.034999691668940042 0 -0.010732890369033689 0.035739089489489111 0 -0.0111742660883602 0.036499953565942107 0 -0.012683881506369756 0.035940351503620231 0 -0.010732890369033689 0.035739089489489111 0 -0.0111742660883602 0.036499953565942107 0 -0.010732890369033689 0.035739089489489111 0 -0.0095401430721661264 0.036066639503244957 0 -0.01196573435889808 0.034999691668940042 0 -0.009952257767520593 0.034999716098047022 0 -0.010732890369033689 0.035739089489489111 0 -0.009952257767520593 0.034999716098047022 0 -0.010732890369033689 0.035739089489489111 0 -0.0095401430721661264 0.036066639503244957 0 -0.0079391741615199816 0.034999903933752199 0 -0.009952257767520593 0.034999716098047022 0 -0.0095401430721661264 0.036066639503244957 0 -0.008253816307483992 0.03637698958122032 0 -0.0092750729960726953 0.0369664175888023 0 -0.0095401430721661264 0.036066639503244957 0 -0.016507309778103902 0.036612914295872254 0 -0.017058628653036288 0.035696473751155949 0 -0.01800042831535564 0.036255053883453604 0 -0.016507309778103902 0.036612914295872254 0 -0.017875719940642781 0.036906613231777657 0 -0.01800042831535564 0.036255053883453604 0 -0.016507309778103902 0.036612914295872254 0 -0.017875719940642781 0.036906613231777657 0 -0.017747102279258766 0.037460691356884748 0 -0.017875719940642781 0.036906613231777657 0 -0.017747102279258766 0.037460691356884748 0 -0.017980557820471681 0.037125818626260444 0 -0.016507309778103902 0.036612914295872254 0 -0.017747102279258766 0.037460691356884748 0 -0.01551444462361261 0.037729336847038358 0 -0.01345415277379684 0.038286463911127534 0 -0.01551444462361261 0.037729336847038358 0 -0.014122290843819649 0.036807432466434753 0 -0.01345415277379684 0.038286463911127534 0 -0.011982818516704734 0.037117203532574937 0 -0.014122290843819649 0.036807432466434753 0 -0.011982818516704734 0.037117203532574937 0 -0.012683881506369756 0.035940351503620231 0 -0.014122290843819649 0.036807432466434753 0 -0.016507309778103902 0.036612914295872254 0 -0.01551444462361261 0.037729336847038358 0 -0.014122290843819649 0.036807432466434753 0 -0.016507309778103902 0.036612914295872254 0 -0.014122290843819649 0.036807432466434753 0 -0.015085061446902239 0.035784399049922103 0 -0.012683881506369756 0.035940351503620231 0 -0.014122290843819649 0.036807432466434753 0 -0.015085061446902239 0.035784399049922103 0 -0.012683881506369756 0.035940351503620231 0 -0.015085061446902239 0.035784399049922103 0 -0.013979561366884437 0.034999473179540483 0 -0.015085061446902239 0.035784399049922103 0 -0.013979561366884437 0.034999473179540483 0 -0.015993445106156627 0.03499942314448018 0 -0.015085061446902239 0.035784399049922103 0 -0.015993445106156627 0.03499942314448018 0 -0.017058628653036288 0.035696473751155949 0 -0.016507309778103902 0.036612914295872254 0 -0.015085061446902239 0.035784399049922103 0 -0.017058628653036288 0.035696473751155949 0 -0.015993445106156627 0.03499942314448018 0 -0.017058628653036288 0.035696473751155949 0 -0.018007371527749571 0.034999817216910901 0 -0.017058628653036288 0.035696473751155949 0 -0.018007371527749571 0.034999817216910901 0 -0.018442287448362554 0.035681639897282284 0 -0.018007371527749571 0.034999817216910901 0 -0.019756051875244908 0.035461170306058998 0 -0.018442287448362554 0.035681639897282284 0 -0.018007371527749571 0.034999817216910901 0 -0.019756051875244908 0.035461170306058998 0 -0.020019907260692024 0.034998280451964084 0 -0.019756051875244908 0.035461170306058998 0 -0.018442287448362554 0.035681639897282284 0 -0.019300699645750891 0.036033860849300006 0 -0.019756051875244908 0.035461170306058998 0 -0.019300699645750891 0.036033860849300006 0 -0.020222134891590582 0.035966639664148196 0 -0.018442287448362554 0.035681639897282284 0 -0.01800042831535564 0.036255053883453604 0 -0.019300699645750891 0.036033860849300006 0 -0.017058628653036288 0.035696473751155949 0 -0.018442287448362554 0.035681639897282284 0 -0.01800042831535564 0.036255053883453604 0 -0.01800042831535564 0.036255053883453604 0 -0.019300699645750891 0.036033860849300006 0 -0.018860760239541152 0.036560233215237631 0 -0.017875719940642781 0.036906613231777657 0 -0.01800042831535564 0.036255053883453604 0 -0.018860760239541152 0.036560233215237631 0 -0.019300699645750891 0.036033860849300006 0 -0.019782050893842027 0.036335886714882394 0 -0.020222134891590582 0.035966639664148196 0 -0.019300699645750891 0.036033860849300006 0 -0.019782050893842027 0.036335886714882394 0 -0.018860760239541152 0.036560233215237631 0 -0.019782050893842027 0.036335886714882394 0 -0.018860760239541152 0.036560233215237631 0 -0.019946972523270903 0.036759112091394812 0 -0.018860760239541152 0.036560233215237631 0 -0.019946972523270903 0.036759112091394812 0 -0.019106781658729817 0.036912982186264445 0 -0.017875719940642781 0.036906613231777657 0 -0.018860760239541152 0.036560233215237631 0 -0.017980557820471681 0.037125818626260444 0 -0.018860760239541152 0.036560233215237631 0 -0.019106781658729817 0.036912982186264445 0 -0.017980557820471681 0.037125818626260444 0 -0.021303968810472067 0.036324078056199943 0 -0.020820570771115415 0.036645251730787455 0 -0.021508006608653808 0.036703664627444149 0 -0.021303968810472067 0.036324078056199943 0 -0.022112532250994594 0.036166294984441336 0 -0.021508006608653808 0.036703664627444149 0 -0.021303968810472067 0.036324078056199943 0 -0.02053582070644205 0.036362087905662047 0 -0.02109763356978496 0.035994400253336195 0 -0.021303968810472067 0.036324078056199943 0 -0.02171744690863316 0.035972838959043116 0 -0.022112532250994594 0.036166294984441336 0 -0.021303968810472067 0.036324078056199943 0 -0.020820570771115415 0.036645251730787455 0 -0.02053582070644205 0.036362087905662047 0 -0.019946972523270903 0.036759112091394812 0 -0.020820570771115415 0.036645251730787455 0 -0.02053582070644205 0.036362087905662047 0 -0.019782050893842027 0.036335886714882394 0 -0.019946972523270903 0.036759112091394812 0 -0.02053582070644205 0.036362087905662047 0 -0.02053582070644205 0.036362087905662047 0 -0.020222134891590582 0.035966639664148196 0 -0.02109763356978496 0.035994400253336195 0 -0.019782050893842027 0.036335886714882394 0 -0.02053582070644205 0.036362087905662047 0 -0.020222134891590582 0.035966639664148196 0 -0.020222134891590582 0.035966639664148196 0 -0.02109763356978496 0.035994400253336195 0 -0.02085981306813791 0.035601418144798218 0 -0.02109763356978496 0.035994400253336195 0 -0.021374979829081809 0.035695549947177822 0 -0.02085981306813791 0.035601418144798218 0 -0.02109763356978496 0.035994400253336195 0 -0.02171744690863316 0.035972838959043116 0 -0.021374979829081809 0.035695549947177822 0 -0.021303968810472067 0.036324078056199943 0 -0.02109763356978496 0.035994400253336195 0 -0.02171744690863316 0.035972838959043116 0 -0.02171744690863316 0.035972838959043116 0 -0.021374979829081809 0.035695549947177822 0 -0.02191212502424068 0.035721592906979648 0 -0.021374979829081809 0.035695549947177822 0 -0.021631093516804298 0.035407891253291711 0 -0.02085981306813791 0.035601418144798218 0 -0.021374979829081809 0.035695549947177822 0 -0.021631093516804298 0.035407891253291711 0 -0.02191212502424068 0.035721592906979648 0 -0.021631093516804298 0.035407891253291711 0 -0.02085981306813791 0.035601418144798218 0 -0.020745971761944128 0.035168400474171753 0 -0.021631093516804298 0.035407891253291711 0 -0.020745971761944128 0.035168400474171753 0 -0.021594843275619988 0.034682665767139929 0 -0.019756051875244908 0.035461170306058998 0 -0.020222134891590582 0.035966639664148196 0 -0.02085981306813791 0.035601418144798218 0 -0.019756051875244908 0.035461170306058998 0 -0.02085981306813791 0.035601418144798218 0 -0.020745971761944128 0.035168400474171753 0 -0.019756051875244908 0.035461170306058998 0 -0.020745971761944128 0.035168400474171753 0 -0.020019907260692024 0.034998280451964084 0 -0.020745971761944128 0.035168400474171753 0 -0.020019907260692024 0.034998280451964084 0 -0.021594843275619988 0.034682665767139929 0 -0.020020356531676123 0.035000144556834513 0 -0.02205618448899143 0.034999666950977726 0 -0.022008325128984353 0.035728454310867359 0 -0.020020918473203256 0.035000006660923115 0 -0.021834234852810368 0.035214666311184542 0 -0.02205618448899143 0.034999666950977726 0 -0.022008325128984353 0.035728454310867359 0 -0.023141972899654438 0.035356280803864153 0 -0.022008325128984353 0.035728454310867359 0 -0.023141972899654438 0.035356280803864153 0 -0.023697801704657514 0.035537900067320743 0 -0.02205618448899143 0.034999666950977726 0 -0.023141972899654438 0.035356280803864153 0 -0.024090979694388639 0.034999694478512783 0 -0.023987208103284658 0.035296634739997945 0 -0.023141972899654438 0.035356280803864153 0 -0.024090979694388639 0.034999694478512783 0 -0.023697801704657514 0.035537900067320743 0 -0.022968767538988417 0.035514463712519512 0 -0.02245645650250859 0.035309544871206501 0 -0.023987208103284658 0.035296634739997945 0 -0.023141972899654438 0.035356280803864153 0 -0.023697801704657514 0.035537900067320743 0 -0.023987208103284658 0.035296634739997945 0 -0.023697801704657514 0.035537900067320743 0 -0.024306371740592927 0.035399245514394835 0 -0.023511480095041278 0.03563565493979589 0 -0.023697801704657514 0.035537900067320743 0 -0.024839634997789281 0.035535715733979678 0 -0.023511480095041278 0.03563565493979589 0 -0.023697801704657514 0.035537900067320743 0 -0.023301715648703671 0.035598334080182516 0 -0.023697801704657514 0.035537900067320743 0 -0.022968767538988417 0.035514463712519512 0 -0.023301715648703671 0.035598334080182516 0 -0.022968767538988417 0.035514463712519512 0 -0.023301715648703671 0.035598334080182516 0 -0.023172825153053671 0.035633477353247935 0 -0.023511480095041278 0.03563565493979589 0 -0.023301715648703671 0.035598334080182516 0 -0.023172825153053671 0.035633477353247935 0 -0.022968767538988417 0.035514463712519512 0 -0.022361614599322215 0.035584273739302598 0 -0.02245645650250859 0.035309544871206501 0 -0.021834234852810368 0.035214666311184542 0 -0.023540889784176375 0.0355461813093957 0 -0.021594843275619988 0.034682665767139929 0 -0.023697801704657514 0.035537900067320743 0 -0.02245645650250859 0.035309544871206501 0 -0.022968767538988417 0.035514463712519512 0 -0.022361614599322215 0.035584273739302598 0 -0.022791749732731664 0.035663537871317805 0 -0.021631093516804298 0.035407891253291711 0 -0.022361614599322215 0.035584273739302598 0 -0.02245645650250859 0.035309544871206501 0 -0.021631093516804298 0.035407891253291711 0 -0.022361614599322215 0.035584273739302598 0 -0.02191212502424068 0.035721592906979648 0 -0.021631093516804298 0.035407891253291711 0 -0.021594843275619988 0.034682665767139929 0 -0.02245645650250859 0.035309544871206501 0 -0.026127232479398643 0.034997408968025216 0 -0.024773791767325498 0.035211650297371964 0 -0.025783271262834313 0.035233872990909035 0 -0.026127232479398643 0.034997408968025216 0 -0.025783271262834313 0.035233872990909035 0 -0.026863841605844322 0.035080461453714733 0 -0.026127232479398643 0.034997408968025216 0 -0.024773791767325498 0.035211650297371964 0 -0.024090979694388639 0.034999694478512783 0 -0.023987208103284658 0.035296634739997945 0 -0.024773791767325498 0.035211650297371964 0 -0.024090979694388639 0.034999694478512783 0 -0.023987208103284658 0.035296634739997945 0 -0.024773791767325498 0.035211650297371964 0 -0.024306371740592927 0.035399245514394835 0 -0.023697801704657514 0.035537900067320743 0 -0.024306371740592927 0.035399245514394835 0 -0.024839634997789281 0.035535715733979678 0 -0.024773791767325498 0.035211650297371964 0 -0.024306371740592927 0.035399245514394835 0 -0.024839634997789281 0.035535715733979678 0 -0.024773791767325498 0.035211650297371964 0 -0.024839634997789281 0.035535715733979678 0 -0.025783271262834313 0.035233872990909035 0 -0.024839634997789281 0.035535715733979678 0 -0.025783271262834313 0.035233872990909035 0 -0.026472308403173397 0.035574988593264315 0 -0.025783271262834313 0.035233872990909035 0 -0.026472308403173397 0.035574988593264315 0 -0.026863841605844322 0.035080461453714733 0 -0.024839634997789281 0.035535715733979678 0 -0.026472308403173397 0.035574988593264315 0 -0.025799456065444024 0.036364922642043059 0 -0.026472308403173397 0.035574988593264315 0 -0.025799456065444024 0.036364922642043059 0 -0.027543905538051396 0.035764926404046264 0 -0.023927911666389745 0.035221241113972693 0 -0.02336388467680282 0.03558560093698214 0 -0.023090894200010766 0.035817059361076625 0 -0.023511480095041278 0.03563565493979589 0 -0.023927911666389745 0.035221241113972693 0 -0.02336388467680282 0.03558560093698214 0 -0.023631868392582401 0.035575044694203369 0 -0.024851856022293898 0.035755367240569269 0 -0.023511480095041278 0.03563565493979589 0 -0.024839634997789281 0.035535715733979678 0 -0.025799456065444024 0.036364922642043059 0 -0.023927911666389745 0.035221241113972693 0 -0.023090894200010766 0.035817059361076625 0 -0.02379046440326223 0.035741699412754166 0 -0.023927911666389745 0.035221241113972693 0 -0.024604041831346977 0.035518050324206907 0 -0.02379046440326223 0.035741699412754166 0 -0.023927911666389745 0.035221241113972693 0 -0.024604041831346977 0.035518050324206907 0 -0.025147779972593064 0.03506649638134441 0 -0.024851856022293898 0.035755367240569269 0 -0.026429356414420527 0.035704279537749767 0 -0.025799456065444024 0.036364922642043059 0 -0.027543905538051396 0.035764926404046264 0 -0.027759018377739857 0.036290532012812571 0 -0.022455916101140668 0.035844863829523843 0 -0.022791749732731664 0.035663537871317805 0 -0.02298244982096987 0.035700493762668789 0 -0.02171744690863316 0.035972838959043116 0 -0.022455916101140668 0.035844863829523843 0 -0.02191212502424068 0.035721592906979648 0 -0.02171744690863316 0.035972838959043116 0 -0.022455916101140668 0.035844863829523843 0 -0.022112532250994594 0.036166294984441336 0 -0.022361614599322215 0.035584273739302598 0 -0.022455916101140668 0.035844863829523843 0 -0.02191212502424068 0.035721592906979648 0 -0.022361614599322215 0.035584273739302598 0 -0.022455916101140668 0.035844863829523843 0 -0.022791749732731664 0.035663537871317805 0 -0.022968767538988417 0.035514463712519512 0 -0.022791749732731664 0.035663537871317805 0 -0.023172825153053671 0.035633477353247935 0 -0.023172825153053671 0.035633477353247935 0 -0.02336388467680282 0.03558560093698214 0 -0.02298244982096987 0.035700493762668789 0 -0.022791749732731664 0.035663537871317805 0 -0.023172825153053671 0.035633477353247935 0 -0.02298244982096987 0.035700493762668789 0 -0.023511480095041278 0.03563565493979589 0 -0.023172825153053671 0.035633477353247935 0 -0.02336388467680282 0.03558560093698214 0 -0.02336388467680282 0.03558560093698214 0 -0.02298244982096987 0.035700493762668789 0 -0.023090894200010766 0.035817059361076625 0 -0.022455916101140668 0.035844863829523843 0 -0.02298244982096987 0.035700493762668789 0 -0.023090894200010766 0.035817059361076625 0 -0.023090894200010766 0.035817059361076625 0 -0.022112532250994594 0.036166294984441336 0 -0.02232806498130584 0.036473500034191877 0 -0.022455916101140668 0.035844863829523843 0 -0.023090894200010766 0.035817059361076625 0 -0.022112532250994594 0.036166294984441336 0 -0.022112532250994594 0.036166294984441336 0 -0.02232806498130584 0.036473500034191877 0 -0.021508006608653808 0.036703664627444149 0 -0.02232806498130584 0.036473500034191877 0 -0.021508006608653808 0.036703664627444149 0 -0.021624424637645103 0.037157986360130971 0 -0.02232806498130584 0.036473500034191877 0 -0.023139679546918653 0.036262414107039759 0 -0.022435444757712291 0.036850756663654685 0 -0.023090894200010766 0.035817059361076625 0 -0.023139679546918653 0.036262414107039759 0 -0.02379046440326223 0.035741699412754166 0 -0.023090894200010766 0.035817059361076625 0 -0.02232806498130584 0.036473500034191877 0 -0.023139679546918653 0.036262414107039759 0 -0.023184902786455634 0.036750962467808249 0 -0.022435444757712291 0.036850756663654685 0 -0.022320134367312932 0.037365625455637368 0 -0.023139679546918653 0.036262414107039759 0 -0.023184902786455634 0.036750962467808249 0 -0.022435444757712291 0.036850756663654685 0 -0.02232806498130584 0.036473500034191877 0 -0.022435444757712291 0.036850756663654685 0 -0.021624424637645103 0.037157986360130971 0 -0.022435444757712291 0.036850756663654685 0 -0.022320134367312932 0.037365625455637368 0 -0.021624424637645103 0.037157986360130971 0 -0.024604041831346977 0.035518050324206907 0 -0.025116253603508672 0.035785012757032213 0 -0.025567464777395892 0.035352095123439203 0 -0.024604041831346977 0.035518050324206907 0 -0.02379046440326223 0.035741699412754166 0 -0.024050651657578036 0.036153790739051408 0 -0.023139679546918653 0.036262414107039759 0 -0.02379046440326223 0.035741699412754166 0 -0.024050651657578036 0.036153790739051408 0 -0.023139679546918653 0.036262414107039759 0 -0.023184902786455634 0.036750962467808249 0 -0.024050651657578036 0.036153790739051408 0 -0.024604041831346977 0.035518050324206907 0 -0.024050651657578036 0.036153790739051408 0 -0.025116253603508672 0.035785012757032213 0 -0.024050651657578036 0.036153790739051408 0 -0.025116253603508672 0.035785012757032213 0 -0.02421035186915256 0.036807982042803063 0 -0.025116253603508672 0.035785012757032213 0 -0.02421035186915256 0.036807982042803063 0 -0.025652840226614404 0.035932006239690055 0 -0.02421035186915256 0.036807982042803063 0 -0.025652840226614404 0.035932006239690055 0 -0.025514266748767007 0.037637750865722019 0 -0.023184902786455634 0.036750962467808249 0 -0.02421035186915256 0.036807982042803063 0 -0.023131362616475498 0.037384860756479156 0 -0.023184902786455634 0.036750962467808249 0 -0.024050651657578036 0.036153790739051408 0 -0.02421035186915256 0.036807982042803063 0 -0.02421035186915256 0.036807982042803063 0 -0.023576338111204548 0.037954396695480098 0 -0.023131362616475498 0.037384860756479156 0 -0.02421035186915256 0.036807982042803063 0 -0.023576338111204548 0.037954396695480098 0 -0.025514266748767007 0.037637750865722019 0 -0.022320134367312932 0.037365625455637368 0 -0.021458089501850481 0.037748248321900352 0 -0.021624424637645103 0.037157986360130971 0 -0.022320134367312932 0.037365625455637368 0 -0.022323405869804951 0.038014101618529014 0 -0.021458089501850481 0.037748248321900352 0 -0.023184902786455634 0.036750962467808249 0 -0.022320134367312932 0.037365625455637368 0 -0.023131362616475498 0.037384860756479156 0 -0.022320134367312932 0.037365625455637368 0 -0.023131362616475498 0.037384860756479156 0 -0.022323405869804951 0.038014101618529014 0 -0.023576338111204548 0.037954396695480098 0 -0.023131362616475498 0.037384860756479156 0 -0.022323405869804951 0.038014101618529014 0 -0.022323405869804951 0.038014101618529014 0 -0.021458089501850481 0.037748248321900352 0 -0.021251554367396435 0.038471676499123725 0 -0.021458089501850481 0.037748248321900352 0 -0.021624424637645103 0.037157986360130971 0 -0.020645977586584235 0.037478983967376915 0 -0.021458089501850481 0.037748248321900352 0 -0.020587137223242121 0.037928894496494892 0 -0.020645977586584235 0.037478983967376915 0 -0.021458089501850481 0.037748248321900352 0 -0.020587137223242121 0.037928894496494892 0 -0.021251554367396435 0.038471676499123725 0 -0.016274763980189694 0.033680231773871271 0 -0.016910161681361582 0.032724942880441026 0 -0.016337127989525441 0.032535722828046863 0 -0.018440756854738977 0.035851728555267394 0 -0.018800273007509312 0.035397964262659502 0 -0.016274763980189694 0.033680231773871271 0 -0.017563365051933615 0.033808103726084157 0 -0.016910161681361582 0.032724942880441026 0 -0.017563365051933615 0.033808103726084157 0 -0.017442973910925228 0.032407651631163034 0 -0.016910161681361582 0.032724942880441026 0 -0.016274763980189694 0.033680231773871271 0 -0.017563365051933615 0.033808103726084157 0 -0.016745796311883037 0.035415279157072314 0 -0.018440756854738977 0.035851728555267394 0 -0.018173771389898886 0.036489149026954708 0 -0.020587137223242121 0.037928894496494892 0 -0.019647668513634031 0.037629547512334001 0 -0.020645977586584235 0.037478983967376915 0 -0.019647668513634031 0.037629547512334001 0 -0.019763316358653294 0.037215976697905349 0 -0.020645977586584235 0.037478983967376915 0 -0.018080763756825213 0.036007115928215108 0 -0.017563365051933615 0.033808103726084157 0 -0.016745796311883037 0.035415279157072314 0 -0.018006833603929077 0.037006076567745606 0 -0.018173771389898886 0.036489149026954708 0 -0.018080763756825213 0.036007115928215108 0 -0.017980557820471681 0.037125818626260444 0 -0.016745796311883037 0.035415279157072314 0 -0.019106781658729817 0.036912982186264445 0 -0.017980557820471681 0.037125818626260444 0 -0.019763316358653294 0.037215976697905349 0 -0.017980557820471681 0.037125818626260444 0 -0.019647668513634031 0.037629547512334001 0 -0.019763316358653294 0.037215976697905349 0 -0.019946972523270903 0.036759112091394812 0 -0.019106781658729817 0.036912982186264445 0 -0.019763316358653294 0.037215976697905349 0 -0.019946972523270903 0.036759112091394812 0 -0.019763316358653294 0.037215976697905349 0 -0.020751663079046877 0.037041944715684748 0 -0.019763316358653294 0.037215976697905349 0 -0.020751663079046877 0.037041944715684748 0 -0.020645977586584235 0.037478983967376915 0 -0.019946972523270903 0.036759112091394812 0 -0.020820570771115415 0.036645251730787455 0 -0.020751663079046877 0.037041944715684748 0 -0.020751663079046877 0.037041944715684748 0 -0.021508006608653808 0.036703664627444149 0 -0.021624424637645103 0.037157986360130971 0 -0.020820570771115415 0.036645251730787455 0 -0.020751663079046877 0.037041944715684748 0 -0.021508006608653808 0.036703664627444149 0 -0.020751663079046877 0.037041944715684748 0 -0.021624424637645103 0.037157986360130971 0 -0.020645977586584235 0.037478983967376915 0 -0.03499639994844389 0.034998224529066257 0 -0.033097596700709601 0.034054625630604476 0 -0.030599551968208679 0.034996277566906757 0 -0.034997785603307199 0.030641857838192836 0 -0.034139576247069189 0.032859133572272596 0 -0.03499639994844389 0.034998224529066257 0 -0.034997785603307199 0.030641857838192836 0 -0.034139576247069189 0.032859133572272596 0 -0.034304958278816487 0.031525057072293257 0 -0.034139576247069189 0.032859133572272596 0 -0.03499639994844389 0.034998224529066257 0 -0.033097596700709601 0.034054625630604476 0 -0.033097596700709601 0.034054625630604476 0 -0.033309486854123341 0.033577287252560796 0 -0.030599551968208679 0.034996277566906757 0 -0.033097596700709601 0.034054625630604476 0 -0.033628389502842145 0.032700866050391367 0 -0.033309486854123341 0.033577287252560796 0 -0.033628389502842145 0.032700866050391367 0 -0.033452168274004573 0.031945893810835048 0 -0.033309486854123341 0.033577287252560796 0 -0.033254115190251787 0.032215384552800042 0 -0.032202255025161594 0.03390864332030781 0 -0.034139576247069189 0.032859133572272596 0 -0.033097596700709601 0.034054625630604476 0 -0.033628389502842145 0.032700866050391367 0 -0.034139576247069189 0.032859133572272596 0 -0.033628389502842145 0.032700866050391367 0 -0.034304958278816487 0.031525057072293257 0 -0.033628389502842145 0.032700866050391367 0 -0.033452168274004573 0.031945893810835048 0 -0.034304958278816487 0.031525057072293257 0 -0.033452168274004573 0.031945893810835048 0 -0.033225902603780541 0.032194892171544753 0 -0.032690805317050445 0.03293283617718798 0 -0.030523785095736784 0.034464116301679643 0 -0.028747905736899417 0.035673393926182462 0 -0.03179121234301692 0.033221869515837513 0 -0.033225902603780541 0.032194892171544753 0 -0.033334522051801221 0.033648133191119062 0 -0.032690805317050445 0.03293283617718798 0 -0.030523785095736784 0.034464116301679643 0 -0.029090700502570274 0.035063360427824146 0 -0.028587531137936328 0.035281823509404869 0 -0.031990131746806455 0.03336633145937179 0 -0.031439748426964211 0.034462195987987977 0 -0.033452168274004573 0.031945893810835048 0 -0.032690805317050445 0.03293283617718798 0 -0.031097953674251617 0.034401650504068543 0 -0.033334522051801221 0.033648133191119062 0 -0.032690805317050445 0.03293283617718798 0 -0.031097953674251617 0.034401650504068543 0 -0.033334522051801221 0.033648133191119062 0 -0.03101636356737706 0.035103199394351726 0 -0.031097953674251617 0.034401650504068543 0 -0.032202255025161594 0.03390864332030781 0 -0.030590359800372162 0.034999394149308007 0 -0.03101636356737706 0.035103199394351726 0 -0.03058919517411679 0.035000928447173243 0 -0.029300476431054219 0.034998940117664967 0 -0.03101636356737706 0.035103199394351726 0 -0.031097953674251617 0.034401650504068543 0 -0.03058919517411679 0.035000928447173243 0 -0.029300476431054219 0.034998940117664967 0 -0.028318597602381878 0.03558424710463659 0 -0.028007293644375937 0.035000440025019779 0 -0.031534861235580497 0.035449298924304942 0 -0.02982085440342884 0.035186874016821891 0 -0.03101636356737706 0.035103199394351726 0 -0.029300476431054219 0.034998940117664967 0 -0.028318597602381878 0.03558424710463659 0 -0.031439748426964211 0.034462195987987977 0 -0.02982085440342884 0.035186874016821891 0 -0.033334522051801221 0.033648133191119062 0 -0.03101636356737706 0.035103199394351726 0 -0.034102954738431862 0.036171155464590564 0 -0.029090700502570274 0.035063360427824146 0 -0.027986480228663877 0.034985731460632878 0 -0.028339181565651048 0.034528823360724915 0 -0.029090700502570274 0.035063360427824146 0 -0.027986480228663877 0.034985731460632878 0 -0.028587531137936328 0.035281823509404869 0 -0.027986480228663877 0.034985731460632878 0 -0.027468086711653607 0.035331992920102327 0 -0.028587531137936328 0.035281823509404869 0 -0.027986480228663877 0.034985731460632878 0 -0.028339181565651048 0.034528823360724915 0 -0.027385675199096262 0.034518566922913205 0 -0.028241295509997096 0.035651537128065867 0 -0.028007875923651927 0.034999989771231588 0 -0.027181537266572946 0.035326020574433174 0 -0.02982085440342884 0.035186874016821891 0 -0.027105140464272807 0.034909451726130955 0 -0.02982085440342884 0.035186874016821891 0 -0.028009032899312909 0.034999910672230489 0 -0.02612627128237827 0.034999999939989458 0 -0.028007875923651927 0.034999989771231588 0 -0.027181537266572946 0.035326020574433174 0 -0.026127232479398643 0.034997408968025216 0 -0.027385675199096262 0.034518566922913205 0 -0.026863841605844322 0.035080461453714733 0 -0.027986480228663877 0.034985731460632878 0 -0.027385675199096262 0.034518566922913205 0 -0.026863841605844322 0.035080461453714733 0 -0.026127000221012983 0.034999951653877315 0 -0.027105140464272807 0.034909451726130955 0 -0.027986480228663877 0.034985731460632878 0 -0.026863841605844322 0.035080461453714733 0 -0.027468086711653607 0.035331992920102327 0 -0.026472308403173397 0.035574988593264315 0 -0.026863841605844322 0.035080461453714733 0 -0.027468086711653607 0.035331992920102327 0 -0.027468086711653607 0.035331992920102327 0 -0.027543905538051396 0.035764926404046264 0 -0.028587531137936328 0.035281823509404869 0 -0.026472308403173397 0.035574988593264315 0 -0.027468086711653607 0.035331992920102327 0 -0.027543905538051396 0.035764926404046264 0 -0.027543905538051396 0.035764926404046264 0 -0.028587531137936328 0.035281823509404869 0 -0.028747905736899417 0.035673393926182462 0 -0.030523785095736784 0.034464116301679643 0 -0.028587531137936328 0.035281823509404869 0 -0.028747905736899417 0.035673393926182462 0 -0.028794244038597316 0.035352842546218032 0 -0.02955811496328882 0.034495915772668542 0 -0.028747905736899417 0.035673393926182462 0 -0.027759018377739857 0.036290532012812571 0 -0.028310116251735497 0.03604140362357354 0 -0.027543905538051396 0.035764926404046264 0 -0.028747905736899417 0.035673393926182462 0 -0.027759018377739857 0.036290532012812571 0 -0.025147779972593064 0.03506649638134441 0 -0.025567464777395892 0.035352095123439203 0 -0.02643332118344793 0.035117650257698162 0 -0.024604041831346977 0.035518050324206907 0 -0.025147779972593064 0.03506649638134441 0 -0.025567464777395892 0.035352095123439203 0 -0.026429356414420527 0.035704279537749767 0 -0.027305705851216427 0.035590937711463863 0 -0.028747905736899417 0.035673393926182462 0 -0.028310116251735497 0.03604140362357354 0 -0.027668423732870893 0.036107988750628706 0 -0.025567464777395892 0.035352095123439203 0 -0.02643332118344793 0.035117650257698162 0 -0.026209355811936997 0.035314175033306416 0 -0.02643332118344793 0.035117650257698162 0 -0.026656788439723848 0.035013918473178918 0 -0.026209355811936997 0.035314175033306416 0 -0.026656788439723848 0.035013918473178918 0 -0.026209355811936997 0.035314175033306416 0 -0.027131817188946084 0.034870372407220532 0 -0.025116253603508672 0.035785012757032213 0 -0.025567464777395892 0.035352095123439203 0 -0.026209355811936997 0.035314175033306416 0 -0.025116253603508672 0.035785012757032213 0 -0.026209355811936997 0.035314175033306416 0 -0.025652840226614404 0.035932006239690055 0 -0.026209355811936997 0.035314175033306416 0 -0.025652840226614404 0.035932006239690055 0 -0.027131817188946084 0.034870372407220532 0 -0.025652840226614404 0.035932006239690055 0 -0.025514266748767007 0.037637750865722019 0 -0.027131817188946084 0.034870372407220532 0 -0.027072848120977613 0.03463032451215247 0 -0.027073479963356354 0.034912683368705566 0 -0.028862221374204057 0.031565887259672819 0 -0.027131817188946084 0.034870372407220532 0 -0.027514217423537188 0.031191815048988943 0 -0.026656788439723848 0.035013918473178918 0 -0.027131817188946084 0.034870372407220532 0 -0.026658658734543383 0.034712822252992513 0 -0.027131817188946084 0.034870372407220532 0 -0.026658658734543383 0.034712822252992513 0 -0.026495892455881506 0.034000476710353 0 -0.026495892455881506 0.034000476710353 0 -0.026440237570879124 0.032557810350026771 0 -0.025817274461810986 0.034496558850501555 0 -0.027131817188946084 0.034870372407220532 0 -0.026495892455881506 0.034000476710353 0 -0.026440237570879124 0.032557810350026771 0 -0.026658658734543383 0.034712822252992513 0 -0.026495892455881506 0.034000476710353 0 -0.026550351127430066 0.034880483560204185 0 -0.027131817188946084 0.034870372407220532 0 -0.026440237570879124 0.032557810350026771 0 -0.027514217423537188 0.031191815048988943 0 -0.026440237570879124 0.032557810350026771 0 -0.025817274461810986 0.034496558850501555 0 -0.024959595514231516 0.032378387190387402 0 -0.026440237570879124 0.032557810350026771 0 -0.024959595514231516 0.032378387190387402 0 -0.026273426664118769 0.0306873267232101 0 -0.030067430363818405 0.032643195705525145 0 -0.029828614038667486 0.030639122078384796 0 -0.026495892455881506 0.034000476710353 0 -0.025817274461810986 0.034496558850501555 0 -0.026550351127430066 0.034880483560204185 0 -0.034342908563207479 0.031012392458273797 0 -0.03179121234301692 0.033221869515837513 0 -0.033247885797491709 0.032008648809103847 0 -0.034342908563207479 0.031012392458273797 0 -0.033247885797491709 0.032008648809103847 0 -0.034545132282151954 0.030751572927373575 0 -0.030067430363818405 0.032643195705525145 0 -0.02955811496328882 0.034495915772668542 0 -0.026656788439723848 0.035013918473178918 0 -0.026658658734543383 0.034712822252992513 0 -0.026550351127430066 0.034880483560204185 0 -0.028310116251735497 0.03604140362357354 0 -0.026550351127430066 0.034880483560204185 0 -0.027668423732870893 0.036107988750628706 0 -0.02643332118344793 0.035117650257698162 0 -0.026656788439723848 0.035013918473178918 0 -0.026550351127430066 0.034880483560204185 0 -0.025817274461810986 0.034496558850501555 0 -0.026550351127430066 0.034880483560204185 0 -0.027668423732870893 0.036107988750628706 0 -0.027305705851216427 0.035590937711463863 0 -0.026633729771377346 0.034942170857675384 0 -0.030523785095736784 0.034464116301679643 0 -0.03179121234301692 0.033221869515837513 0 -0.033247885797491709 0.032008648809103847 0 -0.033452168274004573 0.031945893810835048 0 -0.033247885797491709 0.032008648809103847 0 -0.033941628740805932 0.031580360905054491 0 -0.031990131746806455 0.03336633145937179 0 -0.032981936242866376 0.032374134169223162 0 -0.033452168274004573 0.031945893810835048 0 -0.033225902603780541 0.032194892171544753 0 -0.033247885797491709 0.032008648809103847 0 -0.033941628740805932 0.031580360905054491 0 -0.034304958278816487 0.031525057072293257 0 -0.034545132282151954 0.030751572927373575 0 -0.033452168274004573 0.031945893810835048 0 -0.033941628740805932 0.031580360905054491 0 -0.034304958278816487 0.031525057072293257 0 -0.034304958278816487 0.031525057072293257 0 -0.034545132282151954 0.030751572927373575 0 -0.035001240114189619 0.029613828250734772 0 -0.033247885797491709 0.032008648809103847 0 -0.033941628740805932 0.031580360905054491 0 -0.034545132282151954 0.030751572927373575 0 -0.034342908563207479 0.031012392458273797 0 -0.034926860125699559 0.029910749815237676 0 -0.035529780037786889 0.028714652968361558 0 -0.034545132282151954 0.030751572927373575 0 -0.034926860125699559 0.029910749815237676 0 -0.035192387624952727 0.029060414589364154 0 -0.034926860125699559 0.029910749815237676 0 -0.035529780037786889 0.028714652968361558 0 -0.035192387624952727 0.029060414589364154 0 -0.034342908563207479 0.031012392458273797 0 -0.034545132282151954 0.030751572927373575 0 -0.034926860125699559 0.029910749815237676 0 -0.035529780037786889 0.028714652968361558 0 -0.035192387624952727 0.029060414589364154 0 -0.035767229939463525 0.027257118645055298 0 -0.034545132282151954 0.030751572927373575 0 -0.035192387624952727 0.029060414589364154 0 -0.035001240114189619 0.029613828250734772 0 -0.035335735033698051 0.027817875959431148 0 -0.034998441858809036 0.027321918090516123 0 -0.035544347997694022 0.025666037124041894 0 -0.035192387624952727 0.029060414589364154 0 -0.035335735033698051 0.027817875959431148 0 -0.035001240114189619 0.029613828250734772 0 -0.035192387624952727 0.029060414589364154 0 -0.035335735033698051 0.027817875959431148 0 -0.035767229939463525 0.027257118645055298 0 -0.035335735033698051 0.027817875959431148 0 -0.034998441858809036 0.027321918090516123 0 -0.035001240114189619 0.029613828250734772 0 -0.034997785603307199 0.030641857838192836 0 -0.034998441858809036 0.027321918090516123 0 -0.035001240114189619 0.029613828250734772 0 -0.034997785603307199 0.030641857838192836 0 -0.034304958278816487 0.031525057072293257 0 -0.035001240114189619 0.029613828250734772 0 -0.034998441858809036 0.027321918090516123 0 -0.034999250658955636 0.022867077576501263 0 -0.035544347997694022 0.025666037124041894 0 -0.034999250658955636 0.022867077576501263 0 -0.035750521760811733 0.023442834030783611 0 -0.035544347997694022 0.025666037124041894 0 -0.034842881742012971 0.023290093531979947 0 -0.035000114847200642 0.02170944764575293 0 -0.035185654943644368 0.020848118129720788 0 -0.035222771855207169 0.021055195340678581 0 -0.034999829511647151 0.021707203582781293 0 -0.034999965136933299 0.022865732520569591 0 -0.036093162461724629 0.023172953773974644 0 -0.035000016420076656 0.021710691710264768 0 -0.035035175499447471 0.02078534449154279 0 -0.03489625458918106 0.020867576715283612 0 -0.035222771855207169 0.021055195340678581 0 -0.035035175499447471 0.02078534449154279 0 -0.035185654943644368 0.020848118129720788 0 -0.035222771855207169 0.021055195340678581 0 -0.033313189274115265 0.025711418564097539 0 -0.033120676663369868 0.02551097518318534 0 -0.033027301823377125 0.025660886861520026 0 -0.034842881742012971 0.023290093531979947 0 -0.034295576036757681 0.023176737989232036 0 -0.035035175499447471 0.02078534449154279 0 -0.035185654943644368 0.020848118129720788 0 -0.034941576672459333 0.02047219642325971 0 -0.034842881742012971 0.023290093531979947 0 -0.034742161803480415 0.025138696528371564 0 -0.035000978630863926 0.022866169788267502 0 -0.034842881742012971 0.023290093531979947 0 -0.035335735033698051 0.027817875959431148 0 -0.035767229939463525 0.027257118645055298 0 -0.035544347997694022 0.025666037124041894 0 -0.035767229939463525 0.027257118645055298 0 -0.035544347997694022 0.025666037124041894 0 -0.036746986166243015 0.025939977208565491 0 -0.035544347997694022 0.025666037124041894 0 -0.036227466198534959 0.024661487550460191 0 -0.036746986166243015 0.025939977208565491 0 -0.035750521760811733 0.023442834030783611 0 -0.035544347997694022 0.025666037124041894 0 -0.036227466198534959 0.024661487550460191 0 -0.033120676663369868 0.02551097518318534 0 -0.032935994888788095 0.025307125864767532 0 -0.032743486068050463 0.025599296314678929 0 -0.03225749068558853 0.027816255098943574 0 -0.029908508113082398 0.02619506575796007 0 -0.024065860574634296 0.030547078193632456 0 -0.025087200274046002 0.029997098923951852 0 -0.025076480783408968 0.029036141811501007 0 -0.034742161803480415 0.025138696528371564 0 -0.03225749068558853 0.027816255098943574 0 -0.035529780037786889 0.028714652968361558 0 -0.035767229939463525 0.027257118645055298 0 -0.035801993719793562 0.027190293903835875 0 -0.029828614038667486 0.030639122078384796 0 -0.03225749068558853 0.027816255098943574 0 -0.035898007281738677 0.026223931665190374 0 -0.03225749068558853 0.027816255098943574 0 -0.024959595514231516 0.032378387190387402 0 -0.025263171273204696 0.030817322586034295 0 -0.026273426664118769 0.0306873267232101 0 -0.024959595514231516 0.032378387190387402 0 -0.024065860574634296 0.030547078193632456 0 -0.025263171273204696 0.030817322586034295 0 -0.025263171273204696 0.030817322586034295 0 -0.025805242087392578 0.029910718067214639 0 -0.026273426664118769 0.0306873267232101 0 -0.024065860574634296 0.030547078193632456 0 -0.025263171273204696 0.030817322586034295 0 -0.025087200274046002 0.029997098923951852 0 -0.025263171273204696 0.030817322586034295 0 -0.025087200274046002 0.029997098923951852 0 -0.025805242087392578 0.029910718067214639 0 -0.025087200274046002 0.029997098923951852 0 -0.02562253491452357 0.029171540164926679 0 -0.025076480783408968 0.029036141811501007 0 -0.025087200274046002 0.029997098923951852 0 -0.025805242087392578 0.029910718067214639 0 -0.02562253491452357 0.029171540164926679 0 -0.025805242087392578 0.029910718067214639 0 -0.026208987927012321 0.02914286257936451 0 -0.02562253491452357 0.029171540164926679 0 -0.025805242087392578 0.029910718067214639 0 -0.026208987927012321 0.02914286257936451 0 -0.02652598817257781 0.029363813857608365 0 -0.026208987927012321 0.02914286257936451 0 -0.02562253491452357 0.029171540164926679 0 -0.026547833051086739 0.028678758180536921 0 -0.029908508113082398 0.02619506575796007 0 -0.03046722865249149 0.023721611872050925 0 -0.02562253491452357 0.029171540164926679 0 -0.025150856894015593 0.029038728831429314 0 -0.026547833051086739 0.028678758180536921 0 -0.025150856894015593 0.029038728831429314 0 -0.026582111229655269 0.0274187530876434 0 -0.026547833051086739 0.028678758180536921 0 -0.034531285038327725 0.020229090602995704 0 -0.034663411257967215 0.020554935042974374 0 -0.033984088971833304 0.020424005952599546 0 -0.027277444732115238 0.026573659314344189 0 -0.029908508113082398 0.02619506575796007 0 -0.034531285038327725 0.020229090602995704 0 -0.034941576672459333 0.02047219642325971 0 -0.034663411257967215 0.020554935042974374 0 -0.033120676663369868 0.02551097518318534 0 -0.032743486068050463 0.025599296314678929 0 -0.033027301823377125 0.025660886861520026 0 -0.029908508113082398 0.02619506575796007 0 -0.034295576036757681 0.023176737989232036 0 -0.035035175499447471 0.02078534449154279 0 -0.034941576672459333 0.02047219642325971 0 -0.034663411257967215 0.020554935042974374 0 -0.035035175499447471 0.02078534449154279 0 -0.034663411257967215 0.020554935042974374 0 -0.03489625458918106 0.020867576715283612 0 -0.034663411257967215 0.020554935042974374 0 -0.034506980198525876 0.020756317843801025 0 -0.03489625458918106 0.020867576715283612 0 -0.034663411257967215 0.020554935042974374 0 -0.034506980198525876 0.020756317843801025 0 -0.033984088971833304 0.020424005952599546 0 -0.034506980198525876 0.020756317843801025 0 -0.033984088971833304 0.020424005952599546 0 -0.034431690039420537 0.021248205956693439 0 -0.027985463982726146 0.027836880550977192 0 -0.029918510557765218 0.026215271622655686 0 -0.028548920949924644 0.027522161189738725 0 -0.026582111229655269 0.0274187530876434 0 -0.027985463982726146 0.027836880550977192 0 -0.026547833051086739 0.028678758180536921 0 -0.026582111229655269 0.0274187530876434 0 -0.027985463982726146 0.027836880550977192 0 -0.029918510557765218 0.026215271622655686 0 -0.029918510557765218 0.026215271622655686 0 -0.028548920949924644 0.027522161189738725 0 -0.028539263754985073 0.027591719256642215 0 -0.028548920949924644 0.027522161189738725 0 -0.028210252459889167 0.027888589916718408 0 -0.028539263754985073 0.027591719256642215 0 -0.028548920949924644 0.027522161189738725 0 -0.027991800335523179 0.028478130860573464 0 -0.028210252459889167 0.027888589916718408 0 -0.028548920949924644 0.027522161189738725 0 -0.027991800335523179 0.028478130860573464 0 -0.027601951130342688 0.028519363617600779 0 -0.027991800335523179 0.028478130860573464 0 -0.027601951130342688 0.028519363617600779 0 -0.027226507938128381 0.029541810554385751 0 -0.027601951130342688 0.028519363617600779 0 -0.02652598817257781 0.029363813857608365 0 -0.027226507938128381 0.029541810554385751 0 -0.027985463982726146 0.027836880550977192 0 -0.028548920949924644 0.027522161189738725 0 -0.027601951130342688 0.028519363617600779 0 -0.027985463982726146 0.027836880550977192 0 -0.027601951130342688 0.028519363617600779 0 -0.026547833051086739 0.028678758180536921 0 -0.027601951130342688 0.028519363617600779 0 -0.026547833051086739 0.028678758180536921 0 -0.02652598817257781 0.029363813857608365 0 -0.026208987927012321 0.02914286257936451 0 -0.026547833051086739 0.028678758180536921 0 -0.02652598817257781 0.029363813857608365 0 -0.025805242087392578 0.029910718067214639 0 -0.02652598817257781 0.029363813857608365 0 -0.026273426664118769 0.0306873267232101 0 -0.02652598817257781 0.029363813857608365 0 -0.026273426664118769 0.0306873267232101 0 -0.027226507938128381 0.029541810554385751 0 -0.027050653396956958 0.030759204262502057 0 -0.027721453168372479 0.029464049016686297 0 -0.027514217423537188 0.031191815048988943 0 -0.026440237570879124 0.032557810350026771 0 -0.027050653396956958 0.030759204262502057 0 -0.027514217423537188 0.031191815048988943 0 -0.026440237570879124 0.032557810350026771 0 -0.026273426664118769 0.0306873267232101 0 -0.027050653396956958 0.030759204262502057 0 -0.027050653396956958 0.030759204262502057 0 -0.027226507938128381 0.029541810554385751 0 -0.027721453168372479 0.029464049016686297 0 -0.026273426664118769 0.0306873267232101 0 -0.027050653396956958 0.030759204262502057 0 -0.027226507938128381 0.029541810554385751 0 -0.027991800335523179 0.028478130860573464 0 -0.027226507938128381 0.029541810554385751 0 -0.027721453168372479 0.029464049016686297 0 -0.027721453168372479 0.029464049016686297 0 -0.028160103583677463 0.029693947928105899 0 -0.028001294310509548 0.028674142010679454 0 -0.027721453168372479 0.029464049016686297 0 -0.027514217423537188 0.031191815048988943 0 -0.028160103583677463 0.029693947928105899 0 -0.028862221374204057 0.031565887259672819 0 -0.028160103583677463 0.029693947928105899 0 -0.028524392958249819 0.029513089965848567 0 -0.028862221374204057 0.031565887259672819 0 -0.027514217423537188 0.031191815048988943 0 -0.028160103583677463 0.029693947928105899 0 -0.028160103583677463 0.029693947928105899 0 -0.02800494417542064 0.028810159432735134 0 -0.028524392958249819 0.029513089965848567 0 -0.028160103583677463 0.029693947928105899 0 -0.02800494417542064 0.028810159432735134 0 -0.028001294310509548 0.028674142010679454 0 -0.02800494417542064 0.028810159432735134 0 -0.028001294310509548 0.028674142010679454 0 -0.027870937477828088 0.02827446408773697 0 -0.02800494417542064 0.028810159432735134 0 -0.027870937477828088 0.02827446408773697 0 -0.027519638481976794 0.028475346346795865 0 -0.027991800335523179 0.028478130860573464 0 -0.027721453168372479 0.029464049016686297 0 -0.028001294310509548 0.028674142010679454 0 -0.027991800335523179 0.028478130860573464 0 -0.028001294310509548 0.028674142010679454 0 -0.028210252459889167 0.027888589916718408 0 -0.028210252459889167 0.027888589916718408 0 -0.027870937477828088 0.02827446408773697 0 -0.027925370876301297 0.028139934411358005 0 -0.028001294310509548 0.028674142010679454 0 -0.028210252459889167 0.027888589916718408 0 -0.027870937477828088 0.02827446408773697 0 -0.027465107658660445 0.028313591918922288 0 -0.027870937477828088 0.02827446408773697 0 -0.027519638481976794 0.028475346346795865 0 -0.027465107658660445 0.028313591918922288 0 -0.027870937477828088 0.02827446408773697 0 -0.027925370876301297 0.028139934411358005 0 -0.027465107658660445 0.028313591918922288 0 -0.027253143148879434 0.028512346759925096 0 -0.027925370876301297 0.028139934411358005 0 -0.027253143148879434 0.028512346759925096 0 -0.027925370876301297 0.028139934411358005 0 -0.027700418771963446 0.028864796227081591 0 -0.027925370876301297 0.028139934411358005 0 -0.028248322090171266 0.028545468070168997 0 -0.027700418771963446 0.028864796227081591 0 -0.028210252459889167 0.027888589916718408 0 -0.027925370876301297 0.028139934411358005 0 -0.028539263754985073 0.027591719256642215 0 -0.027925370876301297 0.028139934411358005 0 -0.028248322090171266 0.028545468070168997 0 -0.028539263754985073 0.027591719256642215 0 -0.028248322090171266 0.028545468070168997 0 -0.028186043575117947 0.029196104221814487 0 -0.027700418771963446 0.028864796227081591 0 -0.028186043575117947 0.029196104221814487 0 -0.027700418771963446 0.028864796227081591 0 -0.027522822689753822 0.029628639594459962 0 -0.027253143148879434 0.028512346759925096 0 -0.027700418771963446 0.028864796227081591 0 -0.02659702879970641 0.02879950619746717 0 -0.027700418771963446 0.028864796227081591 0 -0.027522822689753822 0.029628639594459962 0 -0.02659702879970641 0.02879950619746717 0 -0.027522822689753822 0.029628639594459962 0 -0.02659702879970641 0.02879950619746717 0 -0.026654788120679864 0.030072599148522401 0 -0.027522822689753822 0.029628639594459962 0 -0.027484770105898206 0.030575614833004354 0 -0.026654788120679864 0.030072599148522401 0 -0.026886154441397404 0.031316782738947224 0 -0.027484770105898206 0.030575614833004354 0 -0.027802606464547706 0.031806937428501103 0 -0.026886154441397404 0.031316782738947224 0 -0.027484770105898206 0.030575614833004354 0 -0.026654788120679864 0.030072599148522401 0 -0.035211234844429368 0.020036666042739289 0 -0.03506829358037223 0.019877881387252834 0 -0.03504954542127698 0.019890077918018927 0 -0.032352042321111156 0.026037913143322586 0 -0.026329680833958421 0.020059413240912923 0 -0.027484770105898206 0.030575614833004354 0 -0.028470233102483748 0.030076925751329288 0 -0.027802606464547706 0.031806937428501103 0 -0.027522822689753822 0.029628639594459962 0 -0.027484770105898206 0.030575614833004354 0 -0.028470233102483748 0.030076925751329288 0 -0.028186043575117947 0.029196104221814487 0 -0.027522822689753822 0.029628639594459962 0 -0.028470233102483748 0.030076925751329288 0 -0.035211234844429368 0.020036666042739289 0 -0.035010285717200156 0.019953519550066655 0 -0.034841506506886957 0.020080128187378223 0 -0.035211234844429368 0.020036666042739289 0 -0.034841506506886957 0.020080128187378223 0 -0.035397205564819512 0.020516462210956744 0 -0.028186043575117947 0.029196104221814487 0 -0.028470233102483748 0.030076925751329288 0 -0.028975248505650628 0.028904572024748915 0 -0.032352042321111156 0.026037913143322586 0 -0.031977801004053862 0.02453597957546591 0 -0.035010285717200156 0.019953519550066655 0 -0.034901977019555816 0.019865831475318004 0 -0.03506829358037223 0.019877881387252834 0 -0.035211234844429368 0.020036666042739289 0 -0.035010285717200156 0.019953519550066655 0 -0.03506829358037223 0.019877881387252834 0 -0.033401751291574085 0.016610220469187781 0 -0.030474911030172712 0.014961061490011635 0 -0.035103024266138094 0.02004429323530699 0 -0.034841506506886957 0.020080128187378223 0 -0.035996672243609196 0.019373262525772834 0 -0.035010285717200156 0.019953519550066655 0 -0.034901977019555816 0.019865831475318004 0 -0.034841506506886957 0.020080128187378223 0 -0.033401751291574085 0.016610220469187781 0 -0.034959634330179151 0.021259803719209783 0 -0.034029553335000386 0.020875059596145572 0 -0.033785199071661103 0.021444729983320927 0 -0.03469785392322508 0.020666058409289534 0 -0.034841506506886957 0.020080128187378223 0 -0.034029553335000386 0.020875059596145572 0 -0.03469785392322508 0.020666058409289534 0 -0.034841506506886957 0.020080128187378223 0 -0.034029553335000386 0.020875059596145572 0 -0.035397205564819512 0.020516462210956744 0 -0.034029553335000386 0.020875059596145572 0 -0.033785199071661103 0.021444729983320927 0 -0.03228234365771921 0.022554655421293694 0 -0.034029553335000386 0.020875059596145572 0 -0.035397205564819512 0.020516462210956744 0 -0.03228234365771921 0.022554655421293694 0 -0.028248322090171266 0.028545468070168997 0 -0.028186043575117947 0.029196104221814487 0 -0.028975248505650628 0.028904572024748915 0 -0.029918510557765218 0.026215271622655686 0 -0.028975248505650628 0.028904572024748915 0 -0.028539263754985073 0.027591719256642215 0 -0.028248322090171266 0.028545468070168997 0 -0.028975248505650628 0.028904572024748915 0 -0.028539263754985073 0.027591719256642215 0 -0.029918510557765218 0.026215271622655686 0 -0.035397205564819512 0.020516462210956744 0 -0.03228234365771921 0.022554655421293694 0 -0.026582111229655269 0.0274187530876434 0 -0.029918510557765218 0.026215271622655686 0 -0.03228234365771921 0.022554655421293694 0 -0.03046722865249149 0.023721611872050925 0 -0.031848966610272589 0.022828626530082829 0 -0.030265593636600689 0.026171329939814462 0 -0.031977801004053862 0.02453597957546591 0 -0.033785199071661103 0.021444729983320927 0 -0.03228234365771921 0.022554655421293694 0 -0.034431690039420537 0.021248205956693439 0 -0.033984088971833304 0.020424005952599546 0 -0.03228234365771921 0.022554655421293694 0 -0.034431690039420537 0.021248205956693439 0 -0.034506980198525876 0.020756317843801025 0 -0.034431690039420537 0.021248205956693439 0 -0.03489625458918106 0.020867576715283612 0 -0.03489625458918106 0.020867576715283612 0 -0.035074383251056745 0.020762667266906284 0 -0.035222771855207169 0.021055195340678581 0 -0.034431690039420537 0.021248205956693439 0 -0.03489625458918106 0.020867576715283612 0 -0.035074383251056745 0.020762667266906284 0 -0.035074383251056745 0.020762667266906284 0 -0.03469785392322508 0.020666058409289534 0 -0.03535079579249982 0.020085384717044415 0 -0.035074383251056745 0.020762667266906284 0 -0.03535079579249982 0.020085384717044415 0 -0.035230076198905634 0.020220680776732537 0 -0.034431690039420537 0.021248205956693439 0 -0.035074383251056745 0.020762667266906284 0 -0.03469785392322508 0.020666058409289534 0 -0.033785199071661103 0.021444729983320927 0 -0.034431690039420537 0.021248205956693439 0 -0.03469785392322508 0.020666058409289534 0 -0.034841506506886957 0.020080128187378223 0 -0.03469785392322508 0.020666058409289534 0 -0.035996672243609196 0.019373262525772834 0 -0.03469785392322508 0.020666058409289534 0 -0.035996672243609196 0.019373262525772834 0 -0.03535079579249982 0.020085384717044415 0 -0.033401751291574085 0.016610220469187781 0 -0.037229719958616056 0.019723938310625827 0 -0.035996672243609196 0.019373262525772834 0 -0.035371609164136703 0.019211370886559477 0 -0.035820648207038543 0.017611663943332884 0 -0.035996672243609196 0.019373262525772834 0 -0.03535079579249982 0.020085384717044415 0 -0.035371609164136703 0.019211370886559477 0 -0.03535079579249982 0.020085384717044415 0 -0.035371609164136703 0.019211370886559477 0 -0.035230076198905634 0.020220680776732537 0 -0.035371609164136703 0.019211370886559477 0 -0.035338310398686346 0.017705633883087046 0 -0.035820648207038543 0.017611663943332884 0 -0.035371609164136703 0.019211370886559477 0 -0.034999313050037395 0.018076106433505743 0 -0.035338310398686346 0.017705633883087046 0 -0.035371609164136703 0.019211370886559477 0 -0.034999313050037395 0.018076106433505743 0 -0.034999393964579663 0.019894316561337302 0 -0.035371609164136703 0.019211370886559477 0 -0.034999393964579663 0.019894316561337302 0 -0.035230076198905634 0.020220680776732537 0 -0.034999393964579663 0.019894316561337302 0 -0.035230076198905634 0.020220680776732537 0 -0.035222771855207169 0.021055195340678581 0 -0.035074383251056745 0.020762667266906284 0 -0.035230076198905634 0.020220680776732537 0 -0.035222771855207169 0.021055195340678581 0 -0.034999393964579663 0.019894316561337302 0 -0.035222771855207169 0.021055195340678581 0 -0.034999829511647151 0.021707203582781293 0 -0.016943339332755221 0.031455022459181234 0 -0.01695430645547057 0.031878347421993546 0 -0.016660969816761274 0.03199947615198967 0 -0.016736161098143555 0.031519652747925848 0 -0.016943339332755221 0.031455022459181234 0 -0.016660969816761274 0.03199947615198967 0 -0.016736161098143555 0.031519652747925848 0 -0.016742104288235183 0.030907306225660406 0 -0.016416647656955548 0.03196679820211179 0 -0.016736161098143555 0.031519652747925848 0 -0.016660969816761274 0.03199947615198967 0 -0.016416647656955548 0.03196679820211179 0 -0.016742104288235183 0.030907306225660406 0 -0.018523501373860152 0.029767220467373522 0 -0.016735348940265675 0.029652055748276625 0 -0.016736161098143555 0.031519652747925848 0 -0.016742104288235183 0.030907306225660406 0 -0.016943339332755221 0.031455022459181234 0 -0.016634619449052503 0.030888059151618154 0 -0.018329773866135497 0.03147507384387805 0 -0.019104373489834289 0.031261846674113643 0 -0.020154212286774352 0.029889028951819711 0 -0.018523501373860152 0.029767220467373522 0 -0.016742104288235183 0.030907306225660406 0 -0.019104373489834289 0.031261846674113643 0 -0.018523501373860152 0.029767220467373522 0 -0.019104373489834289 0.031261846674113643 0 -0.020154212286774352 0.029889028951819711 0 -0.021037073824908221 0.031772138923841307 0 -0.017619465452558696 0.030274754876067244 0 -0.017672637109927201 0.030963552674192027 0 -0.01504260182897141 0.030562655612353468 0 -0.014874974870328298 0.030484716426268262 0 -0.0148883802813845 0.030399458611595667 0 -0.01504260182897141 0.030562655612353468 0 -0.014821925510712538 0.030523033542672377 0 -0.014874974870328298 0.030484716426268262 0 -0.014821925510712538 0.030523033542672377 0 -0.014874974870328298 0.030484716426268262 0 -0.014761194711816833 0.03046327439726983 0 -0.015780518156756601 0.031219861050996355 0 -0.017672637109927201 0.030963552674192027 0 -0.014667785459839511 0.030457534187920764 0 -0.014761194711816833 0.03046327439726983 0 -0.0148883802813845 0.030399458611595667 0 -0.017567911107051384 0.032073574776357569 0 -0.017345902520318666 0.031716770481087918 0 -0.017591699375907276 0.031894508854157302 0 -0.014874974870328298 0.030484716426268262 0 -0.014761194711816833 0.03046327439726983 0 -0.0148883802813845 0.030399458611595667 0 -0.018329773866135497 0.03147507384387805 0 -0.017672637109927201 0.030963552674192027 0 -0.016943339332755221 0.031455022459181234 0 -0.0171990280857982 0.031754075291127858 0 -0.01695430645547057 0.031878347421993546 0 -0.016943339332755221 0.031455022459181234 0 -0.017345902520318666 0.031716770481087918 0 -0.0171990280857982 0.031754075291127858 0 -0.017345902520318666 0.031716770481087918 0 -0.0171990280857982 0.031754075291127858 0 -0.017330804360297436 0.031873731847745612 0 -0.017125005027484298 0.031954720221356453 0 -0.016870503049065178 0.032187282679172986 0 -0.017265567684166209 0.032130102048363592 0 -0.01695430645547057 0.031878347421993546 0 -0.017125005027484298 0.031954720221356453 0 -0.016870503049065178 0.032187282679172986 0 -0.0171990280857982 0.031754075291127858 0 -0.01695430645547057 0.031878347421993546 0 -0.017125005027484298 0.031954720221356453 0 -0.0171990280857982 0.031754075291127858 0 -0.017125005027484298 0.031954720221356453 0 -0.017330804360297436 0.031873731847745612 0 -0.017125005027484298 0.031954720221356453 0 -0.017330804360297436 0.031873731847745612 0 -0.017265567684166209 0.032130102048363592 0 -0.017345902520318666 0.031716770481087918 0 -0.017591699375907276 0.031894508854157302 0 -0.017330804360297436 0.031873731847745612 0 -0.017591699375907276 0.031894508854157302 0 -0.017330804360297436 0.031873731847745612 0 -0.017265567684166209 0.032130102048363592 0 -0.017265567684166209 0.032130102048363592 0 -0.017442973910925228 0.032407651631163034 0 -0.016910161681361582 0.032724942880441026 0 -0.017591699375907276 0.031894508854157302 0 -0.017265567684166209 0.032130102048363592 0 -0.017442973910925228 0.032407651631163034 0 -0.016870503049065178 0.032187282679172986 0 -0.017265567684166209 0.032130102048363592 0 -0.016910161681361582 0.032724942880441026 0 -0.016870503049065178 0.032187282679172986 0 -0.016910161681361582 0.032724942880441026 0 -0.016337127989525441 0.032535722828046863 0 -0.016870503049065178 0.032187282679172986 0 -0.016660969816761274 0.03199947615198967 0 -0.016337127989525441 0.032535722828046863 0 -0.01695430645547057 0.031878347421993546 0 -0.016870503049065178 0.032187282679172986 0 -0.016660969816761274 0.03199947615198967 0 -0.016660969816761274 0.03199947615198967 0 -0.016416647656955548 0.03196679820211179 0 -0.016337127989525441 0.032535722828046863 0 -0.018876299230567332 0.036314882995378467 0 -0.018800273007509312 0.035397964262659502 0 -0.022323405869804951 0.038014101618529014 0 -0.021251554367396435 0.038471676499123725 0 -0.022624343517722283 0.038764733204055261 0 -0.021875572812144837 0.039187407406061706 0 -0.021251554367396435 0.038471676499123725 0 -0.022624343517722283 0.038764733204055261 0 -0.023576338111204548 0.037954396695480098 0 -0.022323405869804951 0.038014101618529014 0 -0.022624343517722283 0.038764733204055261 0 -0.022624343517722283 0.038764733204055261 0 -0.023204513557731111 0.039414059877066969 0 -0.022519723757675688 0.039324573730444193 0 -0.021875572812144837 0.039187407406061706 0 -0.022624343517722283 0.038764733204055261 0 -0.022519723757675688 0.039324573730444193 0 -0.022624343517722283 0.038764733204055261 0 -0.024227578905913576 0.038744544448359383 0 -0.023204513557731111 0.039414059877066969 0 -0.023576338111204548 0.037954396695480098 0 -0.022624343517722283 0.038764733204055261 0 -0.024227578905913576 0.038744544448359383 0 -0.023576338111204548 0.037954396695480098 0 -0.025514266748767007 0.037637750865722019 0 -0.024227578905913576 0.038744544448359383 0 -0.027072848120977613 0.03463032451215247 0 -0.026309579001559145 0.034136097855377627 0 -0.028524392958249819 0.029513089965848567 0 -0.027884551492337165 0.028833893388126797 0 -0.027441615952912529 0.02867860626871329 0 -0.026309579001559145 0.034136097855377627 0 -0.025596193145873448 0.034498548951600518 0 -0.02800494417542064 0.028810159432735134 0 -0.028524392958249819 0.029513089965848567 0 -0.027884551492337165 0.028833893388126797 0 -0.02800494417542064 0.028810159432735134 0 -0.027884551492337165 0.028833893388126797 0 -0.027519638481976794 0.028475346346795865 0 -0.027884551492337165 0.028833893388126797 0 -0.02707040511623594 0.028580268166049569 0 -0.027519638481976794 0.028475346346795865 0 -0.027884551492337165 0.028833893388126797 0 -0.027441615952912529 0.02867860626871329 0 -0.02707040511623594 0.028580268166049569 0 -0.02707040511623594 0.028580268166049569 0 -0.027519638481976794 0.028475346346795865 0 -0.026663113801165768 0.028377415131485069 0 -0.027465107658660445 0.028313591918922288 0 -0.027519638481976794 0.028475346346795865 0 -0.026663113801165768 0.028377415131485069 0 -0.018876299230567332 0.036314882995378467 0 -0.022060654250622896 0.03104852049521457 0 -0.016742104288235183 0.030907306225660406 0 -0.016416647656955548 0.03196679820211179 0 -0.015850126055671765 0.031018041295695405 0 -0.021875572812144837 0.039187407406061706 0 -0.022519723757675688 0.039324573730444193 0 -0.022409345189590889 0.039883837875602311 0 -0.027441615952912529 0.02867860626871329 0 -0.02707040511623594 0.028580268166049569 0 -0.026865314572355053 0.028567268760855413 0 -0.025596193145873448 0.034498548951600518 0 -0.022060654250622896 0.03104852049521457 0 -0.023204513557731111 0.039414059877066969 0 -0.022519723757675688 0.039324573730444193 0 -0.022409345189590889 0.039883837875602311 0 -0.02707040511623594 0.028580268166049569 0 -0.026865314572355053 0.028567268760855413 0 -0.026555642014107483 0.02849068990328606 0 -0.022313559968995107 0.024046383796030212 0 -0.022075097837635275 0.025783245227452806 0 -0.023677408028746051 0.026036496822458233 0 -0.022060654250622896 0.03104852049521457 0 -0.02497224078533419 0.02681359650379499 0 -0.016742104288235183 0.030907306225660406 0 -0.015850126055671765 0.031018041295695405 0 -0.016735348940265675 0.029652055748276625 0 -0.022313559968995107 0.024046383796030212 0 -0.022075097837635275 0.025783245227452806 0 -0.020483823987786195 0.025928934144767758 0 -0.022060654250622896 0.03104852049521457 0 -0.018578446116605155 0.02759575934467131 0 -0.021389903128246516 0.026787092393731064 0 -0.022075097837635275 0.025783245227452806 0 -0.020483823987786195 0.025928934144767758 0 -0.021389903128246516 0.026787092393731064 0 -0.020577887609825058 0.027774210355962812 0 -0.020483823987786195 0.025928934144767758 0 -0.021389903128246516 0.026787092393731064 0 -0.022075097837635275 0.025783245227452806 0 -0.022412401993112955 0.027649691800843611 0 -0.02497224078533419 0.02681359650379499 0 -0.025524282062855785 0.028460944479773011 0 -0.022075097837635275 0.025783245227452806 0 -0.023677408028746051 0.026036496822458233 0 -0.022412401993112955 0.027649691800843611 0 -0.022412401993112955 0.027649691800843611 0 -0.025347381583519502 0.028367362338265138 0 -0.023220972559738901 0.029597850619906604 0 -0.023677408028746051 0.026036496822458233 0 -0.022412401993112955 0.027649691800843611 0 -0.025347381583519502 0.028367362338265138 0 -0.022412401993112955 0.027649691800843611 0 -0.021383698895702328 0.028956244007537185 0 -0.023220972559738901 0.029597850619906604 0 -0.021389903128246516 0.026787092393731064 0 -0.022412401993112955 0.027649691800843611 0 -0.020577887609825058 0.027774210355962812 0 -0.022412401993112955 0.027649691800843611 0 -0.021383698895702328 0.028956244007537185 0 -0.020577887609825058 0.027774210355962812 0 -0.027253143148879434 0.028512346759925096 0 -0.026663113801165768 0.028377415131485069 0 -0.02659702879970641 0.02879950619746717 0 -0.027465107658660445 0.028313591918922288 0 -0.027253143148879434 0.028512346759925096 0 -0.026663113801165768 0.028377415131485069 0 -0.02707040511623594 0.028580268166049569 0 -0.026555642014107483 0.02849068990328606 0 -0.026663113801165768 0.028377415131485069 0 -0.026555642014107483 0.02849068990328606 0 -0.026663113801165768 0.028377415131485069 0 -0.025347381583519502 0.028367362338265138 0 -0.025347381583519502 0.028367362338265138 0 -0.02659702879970641 0.02879950619746717 0 -0.026008320289333163 0.029500085891273203 0 -0.026663113801165768 0.028377415131485069 0 -0.025347381583519502 0.028367362338265138 0 -0.02659702879970641 0.02879950619746717 0 -0.026008320289333163 0.029500085891273203 0 -0.026654788120679864 0.030072599148522401 0 -0.025792880147270214 0.030876996664411457 0 -0.02659702879970641 0.02879950619746717 0 -0.026008320289333163 0.029500085891273203 0 -0.026654788120679864 0.030072599148522401 0 -0.026008320289333163 0.029500085891273203 0 -0.024813497826140181 0.029983175420697197 0 -0.025792880147270214 0.030876996664411457 0 -0.025347381583519502 0.028367362338265138 0 -0.026008320289333163 0.029500085891273203 0 -0.024813497826140181 0.029983175420697197 0 -0.024813497826140181 0.029983175420697197 0 -0.025792880147270214 0.030876996664411457 0 -0.024115693733435462 0.031707981816097942 0 -0.024813497826140181 0.029983175420697197 0 -0.023556535385036922 0.030679342804479343 0 -0.024115693733435462 0.031707981816097942 0 -0.026886154441397404 0.031316782738947224 0 -0.026654788120679864 0.030072599148522401 0 -0.025792880147270214 0.030876996664411457 0 -0.021599759628427053 0.030025454934393916 0 -0.020636417117963612 0.029646359413976631 0 -0.020653357331158712 0.030306642729701874 0 -0.021599759628427053 0.030025454934393916 0 -0.020636417117963612 0.029646359413976631 0 -0.021383698895702328 0.028956244007537185 0 -0.021599759628427053 0.030025454934393916 0 -0.021383698895702328 0.028956244007537185 0 -0.023220972559738901 0.029597850619906604 0 -0.025347381583519502 0.028367362338265138 0 -0.024813497826140181 0.029983175420697197 0 -0.023220972559738901 0.029597850619906604 0 -0.024813497826140181 0.029983175420697197 0 -0.023220972559738901 0.029597850619906604 0 -0.023556535385036922 0.030679342804479343 0 -0.021599759628427053 0.030025454934393916 0 -0.023220972559738901 0.029597850619906604 0 -0.02257756446457411 0.030646031857617769 0 -0.023220972559738901 0.029597850619906604 0 -0.02257756446457411 0.030646031857617769 0 -0.023556535385036922 0.030679342804479343 0 -0.023556535385036922 0.030679342804479343 0 -0.02301532582290039 0.031439012178140602 0 -0.024115693733435462 0.031707981816097942 0 -0.02257756446457411 0.030646031857617769 0 -0.023556535385036922 0.030679342804479343 0 -0.02301532582290039 0.031439012178140602 0 -0.02257756446457411 0.030646031857617769 0 -0.02301532582290039 0.031439012178140602 0 -0.022077222889820176 0.031213340288771697 0 -0.022077222889820176 0.031213340288771697 0 -0.021312161496029536 0.030770333376668551 0 -0.021101657814930716 0.031410353321977308 0 -0.02257756446457411 0.030646031857617769 0 -0.022077222889820176 0.031213340288771697 0 -0.021312161496029536 0.030770333376668551 0 -0.021599759628427053 0.030025454934393916 0 -0.02257756446457411 0.030646031857617769 0 -0.021312161496029536 0.030770333376668551 0 -0.021599759628427053 0.030025454934393916 0 -0.020653357331158712 0.030306642729701874 0 -0.021312161496029536 0.030770333376668551 0 -0.020653357331158712 0.030306642729701874 0 -0.020459653175498069 0.030736460293507181 0 -0.021312161496029536 0.030770333376668551 0 -0.020677506566068551 0.030929008423402855 0 -0.019771802772428626 0.030855062524483619 0 -0.021101657814930716 0.031410353321977308 0 -0.020677506566068551 0.030929008423402855 0 -0.021312161496029536 0.030770333376668551 0 -0.021101657814930716 0.031410353321977308 0 -0.020677506566068551 0.030929008423402855 0 -0.020459653175498069 0.030736460293507181 0 -0.019771802772428626 0.030855062524483619 0 -0.020677506566068551 0.030929008423402855 0 -0.020459653175498069 0.030736460293507181 0 -0.021312161496029536 0.030770333376668551 0 -0.020057841171034589 0.030834685044560568 0 -0.020045136425495033 0.03073294136191148 0 -0.019902470960656771 0.030630467245036083 0 -0.018836323285007898 0.030068069426355454 0 -0.017664298861294538 0.03015393826698478 0 -0.020459653175498069 0.030736460293507181 0 -0.019771802772428626 0.030855062524483619 0 -0.020045136425495033 0.03073294136191148 0 -0.019771802772428626 0.030855062524483619 0 -0.020057841171034589 0.030834685044560568 0 -0.020045136425495033 0.03073294136191148 0 -0.020374470238078781 0.03096326858360918 0 -0.017664298861294538 0.03015393826698478 0 -0.020653357331158712 0.030306642729701874 0 -0.020045136425495033 0.03073294136191148 0 -0.019921753108128132 0.02986861362481006 0 -0.020653357331158712 0.030306642729701874 0 -0.020459653175498069 0.030736460293507181 0 -0.020045136425495033 0.03073294136191148 0 -0.017590381221812338 0.029149017901054074 0 -0.016824438319011432 0.029363939428193743 0 -0.016886383097625753 0.029174734549862254 0 -0.017590381221812338 0.029149017901054074 0 -0.016824438319011432 0.029363939428193743 0 -0.017336031084958976 0.029378771445072629 0 -0.016824438319011432 0.029363939428193743 0 -0.016886383097625753 0.029174734549862254 0 -0.016312548480970173 0.029425142137846406 0 -0.017664298861294538 0.03015393826698478 0 -0.017036410848200841 0.029621214101311619 0 -0.019086143112240349 0.029662275819295047 0 -0.019584050656909019 0.028898436723912988 0 -0.018835120798746566 0.028253994691653541 0 -0.016886383097625753 0.029174734549862254 0 -0.015941792794276839 0.029461024867240351 0 -0.016312548480970173 0.029425142137846406 0 -0.017664298861294538 0.03015393826698478 0 -0.01530426340713042 0.030124086444408518 0 -0.020636417117963612 0.029646359413976631 0 -0.020653357331158712 0.030306642729701874 0 -0.019921753108128132 0.02986861362481006 0 -0.020045136425495033 0.03073294136191148 0 -0.019086143112240349 0.029662275819295047 0 -0.019921753108128132 0.02986861362481006 0 -0.019086143112240349 0.029662275819295047 0 -0.019921753108128132 0.02986861362481006 0 -0.019584050656909019 0.028898436723912988 0 -0.020636417117963612 0.029646359413976631 0 -0.019921753108128132 0.02986861362481006 0 -0.019584050656909019 0.028898436723912988 0 -0.020636417117963612 0.029646359413976631 0 -0.021383698895702328 0.028956244007537185 0 -0.019584050656909019 0.028898436723912988 0 -0.021383698895702328 0.028956244007537185 0 -0.020577887609825058 0.027774210355962812 0 -0.019584050656909019 0.028898436723912988 0 -0.020577887609825058 0.027774210355962812 0 -0.01884875920170203 0.028158237561970969 0 -0.019584050656909019 0.028898436723912988 0 -0.015448037086737474 0.031115250673669662 0 -0.015234038562502822 0.030797712268175813 0 -0.015100190902400352 0.030881895656070062 0 -0.01884875920170203 0.028158237561970969 0 -0.019584050656909019 0.028898436723912988 0 -0.018835120798746566 0.028253994691653541 0 -0.01884875920170203 0.028158237561970969 0 -0.018835120798746566 0.028253994691653541 0 -0.018872030162255277 0.028841778027316547 0 -0.020154212286774352 0.029889028951819711 0 -0.018835120798746566 0.028253994691653541 0 -0.018872030162255277 0.028841778027316547 0 -0.01884875920170203 0.028158237561970969 0 -0.018523501373860152 0.029767220467373522 0 -0.018872030162255277 0.028841778027316547 0 -0.020154212286774352 0.029889028951819711 0 -0.018523501373860152 0.029767220467373522 0 -0.018872030162255277 0.028841778027316547 0 -0.01884875920170203 0.028158237561970969 0 -0.018523501373860152 0.029767220467373522 0 -0.016735348940265675 0.029652055748276625 0 -0.020577887609825058 0.027774210355962812 0 -0.01884875920170203 0.028158237561970969 0 -0.020483823987786195 0.025928934144767758 0 -0.01874978002433466 0.028121951348395305 0 -0.018578446116605155 0.02759575934467131 0 -0.01504260182897141 0.030562655612353468 0 -0.014821925510712538 0.030523033542672377 0 -0.014840662164430337 0.030679792921313523 0 -0.01504260182897141 0.030562655612353468 0 -0.014840662164430337 0.030679792921313523 0 -0.015056562141019796 0.030718658658111655 0 -0.01504260182897141 0.030562655612353468 0 -0.015234038562502822 0.030797712268175813 0 -0.015056562141019796 0.030718658658111655 0 -0.017619465452558696 0.030274754876067244 0 -0.017036410848200841 0.029621214101311619 0 -0.015941792794276839 0.029461024867240351 0 -0.01542908986068579 0.02982367561552271 0 -0.015777793161744214 0.02963970676899743 0 -0.014840662164430337 0.030679792921313523 0 -0.015056562141019796 0.030718658658111655 0 -0.015100190902400352 0.030881895656070062 0 -0.015098040065511617 0.030375233001319644 0 -0.01530426340713042 0.030124086444408518 0 -0.015234038562502822 0.030797712268175813 0 -0.015056562141019796 0.030718658658111655 0 -0.015100190902400352 0.030881895656070062 0 -0.015185920007482491 0.029969249976563337 0 -0.015941792794276839 0.029461024867240351 0 -0.01542908986068579 0.02982367561552271 0 -0.014968970187893829 0.030180217502469599 0 -0.015185920007482491 0.029969249976563337 0 -0.01542908986068579 0.02982367561552271 0 -0.014968970187893829 0.030180217502469599 0 -0.01542908986068579 0.02982367561552271 0 -0.01532301800339915 0.029935107523209888 0 -0.01532301800339915 0.029935107523209888 0 -0.015777793161744214 0.02963970676899743 0 -0.015491055623103184 0.029776912752438815 0 -0.01542908986068579 0.02982367561552271 0 -0.01532301800339915 0.029935107523209888 0 -0.015777793161744214 0.02963970676899743 0 -0.015941792794276839 0.029461024867240351 0 -0.015777793161744214 0.02963970676899743 0 -0.016312548480970173 0.029425142137846406 0 -0.015777793161744214 0.02963970676899743 0 -0.016312548480970173 0.029425142137846406 0 -0.016176690094799457 0.029534278077609964 0 -0.016176690094799457 0.029534278077609964 0 -0.015491055623103184 0.029776912752438815 0 -0.016432795754220811 0.029537881821454552 0 -0.016824438319011432 0.029363939428193743 0 -0.016176690094799457 0.029534278077609964 0 -0.016432795754220811 0.029537881821454552 0 -0.016824438319011432 0.029363939428193743 0 -0.016312548480970173 0.029425142137846406 0 -0.016176690094799457 0.029534278077609964 0 -0.015777793161744214 0.02963970676899743 0 -0.016176690094799457 0.029534278077609964 0 -0.015491055623103184 0.029776912752438815 0 -0.016292164075166551 0.0295107586010462 0 -0.015515813525396481 0.029461177924202078 0 -0.015491055623103184 0.029776912752438815 0 -0.016432795754220811 0.029537881821454552 0 -0.015351820587258116 0.030202016067984404 0 -0.016432795754220811 0.029537881821454552 0 -0.016625892405014588 0.029398165513003113 0 -0.017314082633292118 0.029534939465516677 0 -0.016625892405014588 0.029398165513003113 0 -0.015797620034672281 0.029291062237224059 0 -0.015752456893437222 0.02870257480274974 0 -0.016432795754220811 0.029537881821454552 0 -0.016625892405014588 0.029398165513003113 0 -0.015752456893437222 0.02870257480274974 0 -0.016625892405014588 0.029398165513003113 0 -0.015797620034672281 0.029291062237224059 0 -0.01674617240686976 0.030008141024233385 0 -0.016625892405014588 0.029398165513003113 0 -0.01674617240686976 0.030008141024233385 0 -0.017698953860001792 0.02966051666631158 0 -0.01674617240686976 0.030008141024233385 0 -0.017718319999339635 0.030115452173690799 0 -0.017048050766545274 0.031044079035412852 0 -0.015797620034672281 0.029291062237224059 0 -0.01674617240686976 0.030008141024233385 0 -0.015701962937889984 0.030079366449589244 0 -0.01674617240686976 0.030008141024233385 0 -0.016260458297170415 0.030623553541009707 0 -0.015701962937889984 0.030079366449589244 0 -0.017718319999339635 0.030115452173690799 0 -0.018781347196949232 0.029551975909748982 0 -0.018266706304908707 0.030541779045428308 0 -0.01674617240686976 0.030008141024233385 0 -0.017718319999339635 0.030115452173690799 0 -0.017698953860001792 0.02966051666631158 0 -0.017698953860001792 0.02966051666631158 0 -0.018506416841475849 0.029534872629765067 0 -0.018781347196949232 0.029551975909748982 0 -0.017718319999339635 0.030115452173690799 0 -0.017698953860001792 0.02966051666631158 0 -0.018781347196949232 0.029551975909748982 0 -0.017698953860001792 0.02966051666631158 0 -0.018506416841475849 0.029534872629765067 0 -0.01804953559162488 0.029675260892432106 0 -0.018506416841475849 0.029534872629765067 0 -0.01804953559162488 0.029675260892432106 0 -0.018958947502903428 0.029820882730963005 0 -0.016625892405014588 0.029398165513003113 0 -0.017698953860001792 0.02966051666631158 0 -0.017314082633292118 0.029534939465516677 0 -0.017698953860001792 0.02966051666631158 0 -0.01804953559162488 0.029675260892432106 0 -0.017314082633292118 0.029534939465516677 0 -0.016824438319011432 0.029363939428193743 0 -0.016432795754220811 0.029537881821454552 0 -0.017314082633292118 0.029534939465516677 0 -0.016824438319011432 0.029363939428193743 0 -0.017314082633292118 0.029534939465516677 0 -0.017336031084958976 0.029378771445072629 0 -0.017314082633292118 0.029534939465516677 0 -0.017336031084958976 0.029378771445072629 0 -0.017790780342557773 0.029532800801076505 0 -0.019771802772428626 0.030855062524483619 0 -0.020057841171034589 0.030834685044560568 0 -0.018958947502903428 0.029820882730963005 0 -0.017590381221812338 0.029149017901054074 0 -0.018958947502903428 0.029820882730963005 0 -0.017790780342557773 0.029532800801076505 0 -0.018836323285007898 0.030068069426355454 0 -0.018956572295380301 0.029962830886121432 0 -0.01804953559162488 0.029675260892432106 0 -0.017314082633292118 0.029534939465516677 0 -0.017790780342557773 0.029532800801076505 0 -0.01804953559162488 0.029675260892432106 0 -0.018958947502903428 0.029820882730963005 0 -0.017790780342557773 0.029532800801076505 0 -0.017590381221812338 0.029149017901054074 0 -0.017336031084958976 0.029378771445072629 0 -0.017790780342557773 0.029532800801076505 0 -0.019771802772428626 0.030855062524483619 0 -0.021101657814930716 0.031410353321977308 0 -0.022364983986465779 0.032861971866639361 0 -0.019795967871704182 0.030791994291995486 0 -0.020434432362232188 0.031072124824011605 0 -0.019771802772428626 0.030855062524483619 0 -0.018958947502903428 0.029820882730963005 0 -0.018496120180589531 0.029397509730126701 0 -0.021101657814930716 0.031410353321977308 0 -0.022341360758879832 0.031924086620882988 0 -0.022364983986465779 0.032861971866639361 0 -0.022077222889820176 0.031213340288771697 0 -0.021101657814930716 0.031410353321977308 0 -0.022341360758879832 0.031924086620882988 0 -0.02301532582290039 0.031439012178140602 0 -0.022077222889820176 0.031213340288771697 0 -0.022341360758879832 0.031924086620882988 0 -0.02301532582290039 0.031439012178140602 0 -0.022341360758879832 0.031924086620882988 0 -0.022822835579744728 0.032435916223560207 0 -0.02301532582290039 0.031439012178140602 0 -0.022822835579744728 0.032435916223560207 0 -0.024115693733435462 0.031707981816097942 0 -0.022341360758879832 0.031924086620882988 0 -0.022822835579744728 0.032435916223560207 0 -0.022364983986465779 0.032861971866639361 0 -0.022822835579744728 0.032435916223560207 0 -0.02255919083591626 0.032512963330548504 0 -0.022364983986465779 0.032861971866639361 0 -0.02255919083591626 0.032512963330548504 0 -0.022364983986465779 0.032861971866639361 0 -0.022607986669337998 0.031786895132338157 0 -0.022822835579744728 0.032435916223560207 0 -0.02255919083591626 0.032512963330548504 0 -0.023083853576269762 0.032593341670284111 0 -0.018506416841475849 0.029534872629765067 0 -0.018496120180589531 0.029397509730126701 0 -0.018781347196949232 0.029551975909748982 0 -0.018506416841475849 0.029534872629765067 0 -0.018958947502903428 0.029820882730963005 0 -0.018496120180589531 0.029397509730126701 0 -0.025792880147270214 0.030876996664411457 0 -0.026270880760438136 0.032466719620725802 0 -0.024115693733435462 0.031707981816097942 0 -0.022983335872762231 0.02503060324348428 0 -0.024677114911008231 0.026614437564719394 0 -0.026886154441397404 0.031316782738947224 0 -0.025792880147270214 0.030876996664411457 0 -0.026270880760438136 0.032466719620725802 0 -0.026270880760438136 0.032466719620725802 0 -0.024115693733435462 0.031707981816097942 0 -0.024308733057205243 0.033037254385760807 0 -0.022822835579744728 0.032435916223560207 0 -0.024115693733435462 0.031707981816097942 0 -0.023083853576269762 0.032593341670284111 0 -0.024268671339870901 0.033416760365485354 0 -0.024677114911008231 0.026614437564719394 0 -0.02255919083591626 0.032512963330548504 0 -0.023083853576269762 0.032593341670284111 0 -0.022252086277557856 0.032272340569063078 0 -0.024677114911008231 0.026614437564719394 0 -0.021366766495690227 0.022749804807516864 0 -0.023083853576269762 0.032593341670284111 0 -0.02111598788534411 0.031787659117743013 0 -0.022252086277557856 0.032272340569063078 0 -0.022536522024530613 0.016778278390955189 0 -0.021695412121348828 0.016072850703709483 0 -0.022183058137210984 0.014825437058885236 0 -0.021231648521149695 0.017054871508562365 0 -0.022536522024530613 0.016778278390955189 0 -0.021695412121348828 0.016072850703709483 0 -0.021231648521149695 0.017054871508562365 0 -0.021695412121348828 0.016072850703709483 0 -0.020852317789994971 0.015645474492689306 0 -0.021690745900049411 0.01420801982254424 0 -0.022592633954445607 0.012596580335215456 0 -0.022944615245635167 0.013624730139720508 0 -0.021768359186079545 0.014581058588869879 0 -0.021220467854306712 0.013085728734260772 0 -0.022183058137210984 0.014825437058885236 0 -0.021690745900049411 0.01420801982254424 0 -0.020852317789994971 0.015645474492689306 0 -0.021695412121348828 0.016072850703709483 0 -0.022183058137210984 0.014825437058885236 0 -0.020852317789994971 0.015645474492689306 0 -0.02111598788534411 0.031787659117743013 0 -0.022252086277557856 0.032272340569063078 0 -0.022607986669337998 0.031786895132338157 0 -0.020866840198911892 0.030667874777173882 0 -0.019625888069107061 0.029277558483656572 0 -0.021366766495690227 0.022749804807516864 0 -0.020303483578212198 0.021683779931747992 0 -0.022183058137210984 0.014825437058885236 0 -0.021690745900049411 0.01420801982254424 0 -0.021404835422248705 0.014192730522644775 0 -0.02111598788534411 0.031787659117743013 0 -0.019422246000208806 0.029170235274736722 0 -0.019072677481994094 0.028906354406511535 0 -0.019361261454068669 0.029477877449698486 0 -0.01949760523294735 0.029297605372407966 0 -0.019422246000208806 0.029170235274736722 0 -0.02111598788534411 0.031787659117743013 0 -0.022607986669337998 0.031786895132338157 0 -0.019422246000208806 0.029170235274736722 0 -0.021690745900049411 0.01420801982254424 0 -0.022292969861932799 0.014215096274426046 0 -0.022944615245635167 0.013624730139720508 0 -0.021690745900049411 0.01420801982254424 0 -0.022292969861932799 0.014215096274426046 0 -0.021724534833974591 0.014292296370153 0 -0.018496120180589531 0.029397509730126701 0 -0.018781347196949232 0.029551975909748982 0 -0.019361261454068669 0.029477877449698486 0 -0.018781347196949232 0.029551975909748982 0 -0.019361261454068669 0.029477877449698486 0 -0.019237825737077382 0.029510243046527478 0 -0.02255919083591626 0.032512963330548504 0 -0.022252086277557856 0.032272340569063078 0 -0.022607986669337998 0.031786895132338157 0 -0.020434432362232188 0.031072124824011605 0 -0.020866840198911892 0.030667874777173882 0 -0.019361261454068669 0.029477877449698486 0 -0.01949760523294735 0.029297605372407966 0 -0.019237825737077382 0.029510243046527478 0 -0.01949760523294735 0.029297605372407966 0 -0.019237825737077382 0.029510243046527478 0 -0.019632616647193742 0.029454231151757153 0 -0.018781347196949232 0.029551975909748982 0 -0.019237825737077382 0.029510243046527478 0 -0.019632616647193742 0.029454231151757153 0 -0.018781347196949232 0.029551975909748982 0 -0.019632616647193742 0.029454231151757153 0 -0.018266706304908707 0.030541779045428308 0 -0.019632616647193742 0.029454231151757153 0 -0.020165683297371367 0.028252023809353745 0 -0.020829332617742464 0.02870963639178831 0 -0.019613887126578123 0.029497835703009311 0 -0.01941688552368085 0.029603798510279306 0 -0.019730638783277698 0.028907420404715296 0 -0.019992708943168656 0.02810033624312841 0 -0.020165683297371367 0.028252023809353745 0 -0.019632616647193742 0.029454231151757153 0 -0.019730638783277698 0.028907420404715296 0 -0.020165683297371367 0.028252023809353745 0 -0.01949760523294735 0.029297605372407966 0 -0.019730638783277698 0.028907420404715296 0 -0.019557319100249378 0.029025336562671901 0 -0.01949760523294735 0.029297605372407966 0 -0.019632616647193742 0.029454231151757153 0 -0.019730638783277698 0.028907420404715296 0 -0.019730638783277698 0.028907420404715296 0 -0.019992708943168656 0.02810033624312841 0 -0.019564802689709029 0.028641605094819261 0 -0.019992708943168656 0.02810033624312841 0 -0.020165683297371367 0.028252023809353745 0 -0.020006843095814041 0.027773967748661615 0 -0.022226237016260645 0.014835631084760872 0 -0.021877898998620568 0.014490258582279897 0 -0.021718503313036357 0.015265379203158248 0 -0.022226237016260645 0.014835631084760872 0 -0.021877898998620568 0.014490258582279897 0 -0.022612881964896622 0.014542784777751889 0 -0.021877898998620568 0.014490258582279897 0 -0.022292969861932799 0.014215096274426046 0 -0.021724534833974591 0.014292296370153 0 -0.021877898998620568 0.014490258582279897 0 -0.022292969861932799 0.014215096274426046 0 -0.022612881964896622 0.014542784777751889 0 -0.021877898998620568 0.014490258582279897 0 -0.021724534833974591 0.014292296370153 0 -0.021598183101286625 0.014438707272345162 0 -0.021724534833974591 0.014292296370153 0 -0.021598183101286625 0.014438707272345162 0 -0.021404835422248705 0.014192730522644775 0 -0.021690745900049411 0.01420801982254424 0 -0.021724534833974591 0.014292296370153 0 -0.021404835422248705 0.014192730522644775 0 -0.021598183101286625 0.014438707272345162 0 -0.021404835422248705 0.014192730522644775 0 -0.021408573361739895 0.014902174440861511 0 -0.021877898998620568 0.014490258582279897 0 -0.021408573361739895 0.014902174440861511 0 -0.021718503313036357 0.015265379203158248 0 -0.021877898998620568 0.014490258582279897 0 -0.021598183101286625 0.014438707272345162 0 -0.021408573361739895 0.014902174440861511 0 -0.019072677481994094 0.028906354406511535 0 -0.019564802689709029 0.028641605094819261 0 -0.019332239876452308 0.027146793184522476 0 -0.019422246000208806 0.029170235274736722 0 -0.019072677481994094 0.028906354406511535 0 -0.019564802689709029 0.028641605094819261 0 -0.01949760523294735 0.029297605372407966 0 -0.019422246000208806 0.029170235274736722 0 -0.019557319100249378 0.029025336562671901 0 -0.019422246000208806 0.029170235274736722 0 -0.019557319100249378 0.029025336562671901 0 -0.019564802689709029 0.028641605094819261 0 -0.019730638783277698 0.028907420404715296 0 -0.019557319100249378 0.029025336562671901 0 -0.019564802689709029 0.028641605094819261 0 -0.020303483578212198 0.021683779931747992 0 -0.019485065213576718 0.021023506974129306 0 -0.019992708943168656 0.02810033624312841 0 -0.019332239876452308 0.027146793184522476 0 -0.020463644085101294 0.02356258329172891 0 -0.019072677481994094 0.028906354406511535 0 -0.019332239876452308 0.027146793184522476 0 -0.018504631009453532 0.025410266688505184 0 -0.019992708943168656 0.02810033624312841 0 -0.019564802689709029 0.028641605094819261 0 -0.019332239876452308 0.027146793184522476 0 -0.021408573361739895 0.014902174440861511 0 -0.021718503313036357 0.015265379203158248 0 -0.020236795305669773 0.016481049350329718 0 -0.021404835422248705 0.014192730522644775 0 -0.021408573361739895 0.014902174440861511 0 -0.020236795305669773 0.016481049350329718 0 -0.021701714018538258 0.016161211363495336 0 -0.021718503313036357 0.015265379203158248 0 -0.020236795305669773 0.016481049350329718 0 -0.021701714018538258 0.016161211363495336 0 -0.021718503313036357 0.015265379203158248 0 -0.022656921841332327 0.015126963700233474 0 -0.022226237016260645 0.014835631084760872 0 -0.021718503313036357 0.015265379203158248 0 -0.022656921841332327 0.015126963700233474 0 -0.021746163257577434 0.01809589395744949 0 -0.020236795305669773 0.016481049350329718 0 -0.019752761047039366 0.02102456411006777 0 -0.021701714018538258 0.016161211363495336 0 -0.021746163257577434 0.01809589395744949 0 -0.020236795305669773 0.016481049350329718 0 -0.019892086359201758 0.027301582792291782 0 -0.020285801780525411 0.026746490322460816 0 -0.019332239876452308 0.027146793184522476 0 -0.018504631009453532 0.025410266688505184 0 -0.020463644085101294 0.02356258329172891 0 -0.018504631009453532 0.025410266688505184 0 -0.020463644085101294 0.02356258329172891 0 -0.019752761047039366 0.02102456411006777 0 -0.020285801780525411 0.026746490322460816 0 -0.017881471300189751 0.018553035656687998 0 -0.0194960996494698 0.027515674174637107 0 -0.019619247415374453 0.027007176081520513 0 -0.019161567924648071 0.026666380073283411 0 -0.020463644085101294 0.02356258329172891 0 -0.019752761047039366 0.02102456411006777 0 -0.019780310318664545 0.020642265799403738 0 -0.021746163257577434 0.01809589395744949 0 -0.019752761047039366 0.02102456411006777 0 -0.02158246411093304 0.020005328639702585 0 -0.019485065213576718 0.021023506974129306 0 -0.019677035217373792 0.021164311942746664 0 -0.019752761047039366 0.02102456411006777 0 -0.02158246411093304 0.020005328639702585 0 -0.021687305027406518 0.021358588272561197 0 -0.020165683297371367 0.028252023809353745 0 -0.020418233269649578 0.027572370050893653 0 -0.020006843095814041 0.027773967748661615 0 -0.020418233269649578 0.027572370050893653 0 -0.020006843095814041 0.027773967748661615 0 -0.01999009380864707 0.027280253476677598 0 -0.0194960996494698 0.027515674174637107 0 -0.020006843095814041 0.027773967748661615 0 -0.01999009380864707 0.027280253476677598 0 -0.019992708943168656 0.02810033624312841 0 -0.0194960996494698 0.027515674174637107 0 -0.020006843095814041 0.027773967748661615 0 -0.0194960996494698 0.027515674174637107 0 -0.01999009380864707 0.027280253476677598 0 -0.019619247415374453 0.027007176081520513 0 -0.020418233269649578 0.027572370050893653 0 -0.01999009380864707 0.027280253476677598 0 -0.020290315383656662 0.026986289254808782 0 -0.020826004218669227 0.027397703152778289 0 -0.020751956567978215 0.026918111730106487 0 -0.020290315383656662 0.026986289254808782 0 -0.020418233269649578 0.027572370050893653 0 -0.020826004218669227 0.027397703152778289 0 -0.020290315383656662 0.026986289254808782 0 -0.020418233269649578 0.027572370050893653 0 -0.020826004218669227 0.027397703152778289 0 -0.020862182414099251 0.028006008160821421 0 -0.020826004218669227 0.027397703152778289 0 -0.021233469453778221 0.027229197854906264 0 -0.02130359411495716 0.027766992542118594 0 -0.020826004218669227 0.027397703152778289 0 -0.02130359411495716 0.027766992542118594 0 -0.020862182414099251 0.028006008160821421 0 -0.020826004218669227 0.027397703152778289 0 -0.021233469453778221 0.027229197854906264 0 -0.020751956567978215 0.026918111730106487 0 -0.021233469453778221 0.027229197854906264 0 -0.021831549198684293 0.027602707770070525 0 -0.021589941674281549 0.026976008098637858 0 -0.017890608407052498 0.026360076646453671 0 -0.018207381579533381 0.027030956167900515 0 -0.01394287659753856 0.02566884144767223 0 -0.014084665617448342 0.025971551919179242 0 -0.013749345958404718 0.025957188044416414 0 -0.017890608407052498 0.026360076646453671 0 -0.01685368465699268 0.027856057027160687 0 -0.01394287659753856 0.02566884144767223 0 -0.0138119554750636 0.0253924217386832 0 -0.013773464347017374 0.025563592729898939 0 -0.021233469453778221 0.027229197854906264 0 -0.021831549198684293 0.027602707770070525 0 -0.02130359411495716 0.027766992542118594 0 -0.021831549198684293 0.027602707770070525 0 -0.02130359411495716 0.027766992542118594 0 -0.021648948977350514 0.027977265990363244 0 -0.02130359411495716 0.027766992542118594 0 -0.021648948977350514 0.027977265990363244 0 -0.021425573299004626 0.028371600104697015 0 -0.019642948374570497 0.029910829019876885 0 -0.01685368465699268 0.027856057027160687 0 -0.021831549198684293 0.027602707770070525 0 -0.021648948977350514 0.027977265990363244 0 -0.022014732955442238 0.028154485830099187 0 -0.021648948977350514 0.027977265990363244 0 -0.021425573299004626 0.028371600104697015 0 -0.022014732955442238 0.028154485830099187 0 -0.016260458297170415 0.030623553541009707 0 -0.017048050766545274 0.031044079035412852 0 -0.015855945970983176 0.031358888351125956 0 -0.016260458297170415 0.030623553541009707 0 -0.015573701880611386 0.030768981258785705 0 -0.015855945970983176 0.031358888351125956 0 -0.016260458297170415 0.030623553541009707 0 -0.015701962937889984 0.030079366449589244 0 -0.015573701880611386 0.030768981258785705 0 -0.01674617240686976 0.030008141024233385 0 -0.016260458297170415 0.030623553541009707 0 -0.017048050766545274 0.031044079035412852 0 -0.017718319999339635 0.030115452173690799 0 -0.017048050766545274 0.031044079035412852 0 -0.018266706304908707 0.030541779045428308 0 -0.019642948374570497 0.029910829019876885 0 -0.01941688552368085 0.029603798510279306 0 -0.020165683297371367 0.028252023809353745 0 -0.020418233269649578 0.027572370050893653 0 -0.020862182414099251 0.028006008160821421 0 -0.020165683297371367 0.028252023809353745 0 -0.020829332617742464 0.02870963639178831 0 -0.020862182414099251 0.028006008160821421 0 -0.02130359411495716 0.027766992542118594 0 -0.021425573299004626 0.028371600104697015 0 -0.020862182414099251 0.028006008160821421 0 -0.021425573299004626 0.028371600104697015 0 -0.020829332617742464 0.02870963639178831 0 -0.020862182414099251 0.028006008160821421 0 -0.035679589129481007 0.013522342375181594 0 -0.034999604017554788 0.014441100204430504 0 -0.034999084717721687 0.012622234589974406 0 -0.035679589129481007 0.013522342375181594 0 -0.036004736933861622 0.014850172271046571 0 -0.034999604017554788 0.014441100204430504 0 -0.035679589129481007 0.013522342375181594 0 -0.036004736933861622 0.014850172271046571 0 -0.036890620773786471 0.01340621798159689 0 -0.036004736933861622 0.014850172271046571 0 -0.034999604017554788 0.014441100204430504 0 -0.035543015088772889 0.016142218835234683 0 -0.034999604017554788 0.014441100204430504 0 -0.034999368599276694 0.01625851519971875 0 -0.035543015088772889 0.016142218835234683 0 -0.034999313050037395 0.018076106433505743 0 -0.034999368599276694 0.01625851519971875 0 -0.035338310398686346 0.017705633883087046 0 -0.034999368599276694 0.01625851519971875 0 -0.035338310398686346 0.017705633883087046 0 -0.035543015088772889 0.016142218835234683 0 -0.035338310398686346 0.017705633883087046 0 -0.035543015088772889 0.016142218835234683 0 -0.035820648207038543 0.017611663943332884 0 -0.036004736933861622 0.014850172271046571 0 -0.035543015088772889 0.016142218835234683 0 -0.03639671600183559 0.016116776684340854 0 -0.035543015088772889 0.016142218835234683 0 -0.03639671600183559 0.016116776684340854 0 -0.035820648207038543 0.017611663943332884 0 -0.035996672243609196 0.019373262525772834 0 -0.035820648207038543 0.017611663943332884 0 -0.036852912708930458 0.017269731657019602 0 -0.03639671600183559 0.016116776684340854 0 -0.035820648207038543 0.017611663943332884 0 -0.036852912708930458 0.017269731657019602 0 -0.038674062890113631 0.01864538858648478 0 -0.035996672243609196 0.019373262525772834 0 -0.036852912708930458 0.017269731657019602 0 -0.036852912708930458 0.017269731657019602 0 -0.037404261387328407 0.015927167230000924 0 -0.03798773569118865 0.016904627002141227 0 -0.03639671600183559 0.016116776684340854 0 -0.037404261387328407 0.015927167230000924 0 -0.03688794971426361 0.014909260157222286 0 -0.03639671600183559 0.016116776684340854 0 -0.036852912708930458 0.017269731657019602 0 -0.037404261387328407 0.015927167230000924 0 -0.037404261387328407 0.015927167230000924 0 -0.03688794971426361 0.014909260157222286 0 -0.037783269610282381 0.014390964578021579 0 -0.037404261387328407 0.015927167230000924 0 -0.037783269610282381 0.014390964578021579 0 -0.038267658058188714 0.016060328172636813 0 -0.036004736933861622 0.014850172271046571 0 -0.03639671600183559 0.016116776684340854 0 -0.03688794971426361 0.014909260157222286 0 -0.036004736933861622 0.014850172271046571 0 -0.03688794971426361 0.014909260157222286 0 -0.036890620773786471 0.01340621798159689 0 -0.032167626754652505 0.0086796216842736397 0 -0.031762749453018782 0.010982000099332687 0 -0.034161422209032018 0.010471180241114807 0 -0.03688794971426361 0.014909260157222286 0 -0.037783269610282381 0.014390964578021579 0 -0.036890620773786471 0.01340621798159689 0 -0.035483744110683967 0.011749598646144549 0 -0.035412153504008746 0.011882548009840151 0 -0.032167626754652505 0.0086796216842736397 0 -0.029862795844489719 0.009451872968913028 0 -0.031762749453018782 0.010982000099332687 0 -0.029211529990382866 0.0088633953195651361 0 -0.027888545772134673 0.0083431673430514729 0 -0.028109587491703614 0.010203143068466114 0 -0.029509965424265396 0.0083119378071652462 0 -0.031127495626703895 0.011335934394628258 0 -0.026138151247247346 0.010561531951938506 0 -0.027270983525298921 0.011285488515510287 0 -0.024360652117309523 0.013560832610679552 0 -0.024831485416867503 0.012438746294740717 0 -0.024209560039629308 0.012870683143418804 0 -0.029211529990382866 0.0088633953195651361 0 -0.027888545772134673 0.0083431673430514729 0 -0.02942435278429887 0.0065043261628391913 0 -0.027888545772134673 0.0083431673430514729 0 -0.02942435278429887 0.0065043261628391913 0 -0.028870819726329159 0.0060193084803170337 0 -0.035483744110683967 0.011749598646144549 0 -0.031127495626703895 0.011335934394628258 0 -0.037783269610282381 0.014390964578021579 0 -0.038899945349630802 0.015430777556871294 0 -0.038267658058188714 0.016060328172636813 0 -0.032167626754652505 0.0086796216842736397 0 -0.029862795844489719 0.009451872968913028 0 -0.030297943092152967 0.0070515947256650892 0 -0.031127495626703895 0.011335934394628258 0 -0.033023046742977173 0.014648789797009641 0 -0.038899945349630802 0.015430777556871294 0 -0.038267658058188714 0.016060328172636813 0 -0.038855453893709223 0.016889626196368933 0 -0.026997251001671087 0.013753778822281947 0 -0.026887141727668092 0.012259324489853294 0 -0.02718274964112409 0.012133872162754722 0 -0.037404261387328407 0.015927167230000924 0 -0.038267658058188714 0.016060328172636813 0 -0.03798773569118865 0.016904627002141227 0 -0.038267658058188714 0.016060328172636813 0 -0.03798773569118865 0.016904627002141227 0 -0.038855453893709223 0.016889626196368933 0 -0.033401751291574085 0.016610220469187781 0 -0.033023046742977173 0.014648789797009641 0 -0.038674062890113631 0.01864538858648478 0 -0.03798773569118865 0.016904627002141227 0 -0.038855453893709223 0.016889626196368933 0 -0.038674062890113631 0.01864538858648478 0 -0.036852912708930458 0.017269731657019602 0 -0.03798773569118865 0.016904627002141227 0 -0.02751384178953031 0.010015413659685082 0 -0.02718274964112409 0.012133872162754722 0 -0.026465706870980637 0.011308542747610291 0 -0.026887141727668092 0.012259324489853294 0 -0.02718274964112409 0.012133872162754722 0 -0.026465706870980637 0.011308542747610291 0 -0.02751384178953031 0.010015413659685082 0 -0.025187068774222759 0.01056185186397798 0 -0.026465706870980637 0.011308542747610291 0 -0.025187068774222759 0.01056185186397798 0 -0.026465706870980637 0.011308542747610291 0 -0.025821468225905617 0.011410638683105101 0 -0.026887141727668092 0.012259324489853294 0 -0.026465706870980637 0.011308542747610291 0 -0.026152645859001344 0.012022049950256332 0 -0.026465706870980637 0.011308542747610291 0 -0.026152645859001344 0.012022049950256332 0 -0.025821468225905617 0.011410638683105101 0 -0.025187068774222759 0.01056185186397798 0 -0.025444851738844917 0.011752846292036885 0 -0.025821468225905617 0.011410638683105101 0 -0.026152645859001344 0.012022049950256332 0 -0.025444851738844917 0.011752846292036885 0 -0.025673669849114282 0.01231367413887091 0 -0.025444851738844917 0.011752846292036885 0 -0.025673669849114282 0.01231367413887091 0 -0.02404399887608406 0.011555727437420863 0 -0.026152645859001344 0.012022049950256332 0 -0.025444851738844917 0.011752846292036885 0 -0.025821468225905617 0.011410638683105101 0 -0.026997251001671087 0.013753778822281947 0 -0.026887141727668092 0.012259324489853294 0 -0.026518912639980387 0.01332514252712977 0 -0.027270983525298921 0.011285488515510287 0 -0.023740560722613033 0.012030656237595947 0 -0.025673669849114282 0.01231367413887091 0 -0.026310839817846123 0.013723166208555794 0 -0.02404399887608406 0.011555727437420863 0 -0.024831485416867503 0.012438746294740717 0 -0.024229391616138275 0.012357458081573113 0 -0.02404399887608406 0.011555727437420863 0 -0.025673669849114282 0.01231367413887091 0 -0.026255323788963902 0.012576668254984909 0 -0.026310839817846123 0.013723166208555794 0 -0.026887141727668092 0.012259324489853294 0 -0.026255323788963902 0.012576668254984909 0 -0.026310839817846123 0.013723166208555794 0 -0.026619183109887121 0.012978988485096087 0 -0.027270983525298921 0.011285488515510287 0 -0.026887141727668092 0.012259324489853294 0 -0.026152645859001344 0.012022049950256332 0 -0.026255323788963902 0.012576668254984909 0 -0.026152645859001344 0.012022049950256332 0 -0.025673669849114282 0.01231367413887091 0 -0.026255323788963902 0.012576668254984909 0 -0.031127495626703895 0.011335934394628258 0 -0.027270983525298921 0.011285488515510287 0 -0.024831485416867503 0.012438746294740717 0 -0.024229391616138275 0.012357458081573113 0 -0.024209560039629308 0.012870683143418804 0 -0.024229391616138275 0.012357458081573113 0 -0.023682799098627059 0.012111901749254948 0 -0.023705435880354037 0.012710619354520947 0 -0.024229391616138275 0.012357458081573113 0 -0.023682799098627059 0.012111901749254948 0 -0.02404399887608406 0.011555727437420863 0 -0.025187068774222759 0.01056185186397798 0 -0.025444851738844917 0.011752846292036885 0 -0.02404399887608406 0.011555727437420863 0 -0.030474911030172712 0.014961061490011635 0 -0.026329680833958421 0.020059413240912923 0 -0.025187068774222759 0.01056185186397798 0 -0.02404399887608406 0.011555727437420863 0 -0.023351878122778481 0.011224338088061024 0 -0.023682799098627059 0.012111901749254948 0 -0.02404399887608406 0.011555727437420863 0 -0.023351878122778481 0.011224338088061024 0 -0.026886154441397404 0.031316782738947224 0 -0.026270880760438136 0.032466719620725802 0 -0.027802606464547706 0.031806937428501103 0 -0.022983335872762231 0.02503060324348428 0 -0.026329680833958421 0.020059413240912923 0 -0.023682799098627059 0.012111901749254948 0 -0.022592633954445607 0.012596580335215456 0 -0.023705435880354037 0.012710619354520947 0 -0.023682799098627059 0.012111901749254948 0 -0.023351878122778481 0.011224338088061024 0 -0.022592633954445607 0.012596580335215456 0 -0.021231648521149695 0.017054871508562365 0 -0.020000737878875376 0.017397445270844913 0 -0.020852317789994971 0.015645474492689306 0 -0.026329680833958421 0.020059413240912923 0 -0.021220467854306712 0.013085728734260772 0 -0.022592633954445607 0.012596580335215456 0 -0.023242118182682826 0.013051519874923187 0 -0.022944615245635167 0.013624730139720508 0 -0.022592633954445607 0.012596580335215456 0 -0.023242118182682826 0.013051519874923187 0 -0.023705435880354037 0.012710619354520947 0 -0.023242118182682826 0.013051519874923187 0 -0.023710086458878791 0.013273904400638494 0 -0.022944615245635167 0.013624730139720508 0 -0.024229391616138275 0.012357458081573113 0 -0.023705435880354037 0.012710619354520947 0 -0.024209560039629308 0.012870683143418804 0 -0.023705435880354037 0.012710619354520947 0 -0.024209560039629308 0.012870683143418804 0 -0.023710086458878791 0.013273904400638494 0 -0.024360652117309523 0.013560832610679552 0 -0.024209560039629308 0.012870683143418804 0 -0.023710086458878791 0.013273904400638494 0 -0.023242118182682826 0.013051519874923187 0 -0.023705435880354037 0.012710619354520947 0 -0.023710086458878791 0.013273904400638494 0 -0.023710086458878791 0.013273904400638494 0 -0.023637979758833826 0.013854702691961316 0 -0.022944615245635167 0.013624730139720508 0 -0.024360652117309523 0.013560832610679552 0 -0.023637979758833826 0.013854702691961316 0 -0.023944480618444584 0.014627282948858523 0 -0.026138151247247346 0.010561531951938506 0 -0.025099416402449625 0.013195482122100616 0 -0.024360652117309523 0.013560832610679552 0 -0.023710086458878791 0.013273904400638494 0 -0.023637979758833826 0.013854702691961316 0 -0.023637979758833826 0.013854702691961316 0 -0.022944615245635167 0.013624730139720508 0 -0.023178021112282562 0.014235052584465037 0 -0.022292969861932799 0.014215096274426046 0 -0.022944615245635167 0.013624730139720508 0 -0.023178021112282562 0.014235052584465037 0 -0.023346988344574444 0.014782962338822314 0 -0.022612881964896622 0.014542784777751889 0 -0.023178021112282562 0.014235052584465037 0 -0.022226237016260645 0.014835631084760872 0 -0.022612881964896622 0.014542784777751889 0 -0.022656921841332327 0.015126963700233474 0 -0.023346988344574444 0.014782962338822314 0 -0.022612881964896622 0.014542784777751889 0 -0.022656921841332327 0.015126963700233474 0 -0.022292969861932799 0.014215096274426046 0 -0.022612881964896622 0.014542784777751889 0 -0.023178021112282562 0.014235052584465037 0 -0.023637979758833826 0.013854702691961316 0 -0.023178021112282562 0.014235052584465037 0 -0.023944480618444584 0.014627282948858523 0 -0.023346988344574444 0.014782962338822314 0 -0.023178021112282562 0.014235052584465037 0 -0.023944480618444584 0.014627282948858523 0 -0.023346988344574444 0.014782962338822314 0 -0.023944480618444584 0.014627282948858523 0 -0.024207889803934329 0.015819534185281987 0 -0.025099416402449625 0.013195482122100616 0 -0.024233525119574769 0.015634402895125632 0 -0.026285855418945576 0.011376064008586498 0 -0.024207889803934329 0.015819534185281987 0 -0.027737356861768609 0.014478110269133858 0 -0.021701714018538258 0.016161211363495336 0 -0.022656921841332327 0.015126963700233474 0 -0.024207889803934329 0.015819534185281987 0 -0.023346988344574444 0.014782962338822314 0 -0.022656921841332327 0.015126963700233474 0 -0.024207889803934329 0.015819534185281987 0 -0.021746163257577434 0.01809589395744949 0 -0.023200839188698908 0.019493453574933872 0 -0.024207889803934329 0.015819534185281987 0 -0.021701714018538258 0.016161211363495336 0 -0.021746163257577434 0.01809589395744949 0 -0.024207889803934329 0.015819534185281987 0 -0.023200839188698908 0.019493453574933872 0 -0.025306714992636349 0.020416037552449022 0 -0.021687305027406518 0.021358588272561197 0 -0.021746163257577434 0.01809589395744949 0 -0.02158246411093304 0.020005328639702585 0 -0.023200839188698908 0.019493453574933872 0 -0.02158246411093304 0.020005328639702585 0 -0.023200839188698908 0.019493453574933872 0 -0.021687305027406518 0.021358588272561197 0 -0.025306714992636349 0.020416037552449022 0 -0.026420870900954331 0.017631877603452847 0 -0.029030335524448284 0.019348251068685901 0 -0.023200839188698908 0.019493453574933872 0 -0.025306714992636349 0.020416037552449022 0 -0.026420870900954331 0.017631877603452847 0 -0.022544196153022465 0.0086814428212266502 0 -0.025925751799834851 0.0078476091016116047 0 -0.023432875647553236 0.010496366651353001 0 -0.023200839188698908 0.019493453574933872 0 -0.026420870900954331 0.017631877603452847 0 -0.024207889803934329 0.015819534185281987 0 -0.026420870900954331 0.017631877603452847 0 -0.024207889803934329 0.015819534185281987 0 -0.027737356861768609 0.014478110269133858 0 -0.026420870900954331 0.017631877603452847 0 -0.029751707069607534 0.016024267163189731 0 -0.027737356861768609 0.014478110269133858 0 -0.029751707069607534 0.016024267163189731 0 -0.029677492084873178 0.01402523102105166 0 -0.027737356861768609 0.014478110269133858 0 -0.02314506837124887 0.014788834763197339 0 -0.031167314640358386 0.012079041617979047 0 -0.026420870900954331 0.017631877603452847 0 -0.029751707069607534 0.016024267163189731 0 -0.029030335524448284 0.019348251068685901 0 -0.029253273888078968 0.018273621526401145 0 -0.031167314640358386 0.012079041617979047 0 -0.039841753620932042 0.0090498042297402822 0 -0.038316025254668783 0.009521276025930097 0 -0.038819108171960222 0.0077563697013541839 0 -0.031167314640358386 0.012079041617979047 0 -0.03630214019247003 0.012854356365108639 0 -0.029751707069607534 0.016024267163189731 0 -0.029345092330500679 0.017711854001133693 0 -0.032973397335504577 0.016026606316467556 0 -0.029751707069607534 0.016024267163189731 0 -0.031859162249593669 0.013480134657795639 0 -0.032973397335504577 0.016026606316467556 0 -0.031859162249593669 0.013480134657795639 0 -0.029677492084873178 0.01402523102105166 0 -0.029182482337821763 0.012108803256176076 0 -0.029751707069607534 0.016024267163189731 0 -0.031859162249593669 0.013480134657795639 0 -0.029677492084873178 0.01402523102105166 0 -0.026285855418945576 0.011376064008586498 0 -0.027737356861768609 0.014478110269133858 0 -0.029182482337821763 0.012108803256176076 0 -0.029677492084873178 0.01402523102105166 0 -0.027737356861768609 0.014478110269133858 0 -0.029182482337821763 0.012108803256176076 0 -0.029211529990382866 0.0088633953195651361 0 -0.029182482337821763 0.012108803256176076 0 -0.028109587491703614 0.010203143068466114 0 -0.027888545772134673 0.0083431673430514729 0 -0.026285855418945576 0.011376064008586498 0 -0.028109587491703614 0.010203143068466114 0 -0.026285855418945576 0.011376064008586498 0 -0.029182482337821763 0.012108803256176076 0 -0.028109587491703614 0.010203143068466114 0 -0.029509965424265396 0.0083119378071652462 0 -0.02917742317167147 0.0122834443326222 0 -0.031859162249593669 0.013480134657795639 0 -0.029182482337821763 0.012108803256176076 0 -0.031762749453018782 0.010982000099332687 0 -0.029862795844489719 0.009451872968913028 0 -0.029182482337821763 0.012108803256176076 0 -0.031762749453018782 0.010982000099332687 0 -0.031859162249593669 0.013480134657795639 0 -0.031762749453018782 0.010982000099332687 0 -0.033690111035922267 0.012119091432924636 0 -0.031762749453018782 0.010982000099332687 0 -0.033690111035922267 0.012119091432924636 0 -0.034161422209032018 0.010471180241114807 0 -0.033690111035922267 0.012119091432924636 0 -0.034161422209032018 0.010471180241114807 0 -0.035846594148237522 0.012358852949612796 0 -0.035412153504008746 0.011882548009840151 0 -0.035853867935835067 0.012328428850348953 0 -0.034317396274006942 0.013302581330126928 0 -0.03552787158151658 0.013234363819354087 0 -0.035846594148237522 0.012358852949612796 0 -0.033690111035922267 0.012119091432924636 0 -0.034317396274006942 0.013302581330126928 0 -0.035846594148237522 0.012358852949612796 0 -0.031859162249593669 0.013480134657795639 0 -0.033690111035922267 0.012119091432924636 0 -0.034317396274006942 0.013302581330126928 0 -0.031859162249593669 0.013480134657795639 0 -0.034317396274006942 0.013302581330126928 0 -0.032973397335504577 0.016026606316467556 0 -0.038316025254668783 0.009521276025930097 0 -0.036744525195378755 0.010117270425419989 0 -0.037674153352447726 0.008539371672912046 0 -0.036744525195378755 0.010117270425419989 0 -0.036531172526830025 0.0085309149702652732 0 -0.037674153352447726 0.008539371672912046 0 -0.03630214019247003 0.012854356365108639 0 -0.035811341443207162 0.011712150712930035 0 -0.034317396274006942 0.013302581330126928 0 -0.032973397335504577 0.016026606316467556 0 -0.03552787158151658 0.013234363819354087 0 -0.036744525195378755 0.010117270425419989 0 -0.034999949396950301 0.0087347168006979403 0 -0.036531172526830025 0.0085309149702652732 0 -0.035811341443207162 0.011712150712930035 0 -0.035000144482475841 0.010806001122124188 0 -0.036744525195378755 0.010117270425419989 0 -0.034999900187808443 0.010805262700960775 0 -0.034999949396950301 0.0087347168006979403 0 -0.035001303076555253 0.010809949564415921 0 -0.035846594148237522 0.012358852949612796 0 -0.034999084717721687 0.012622234589974406 0 -0.03552787158151658 0.013234363819354087 0 -0.035001303076555253 0.010809949564415921 0 -0.035846594148237522 0.012358852949612796 0 -0.035679589129481007 0.013522342375181594 0 -0.036890620773786471 0.01340621798159689 0 -0.035846594148237522 0.012358852949612796 0 -0.035679589129481007 0.013522342375181594 0 -0.035846594148237522 0.012358852949612796 0 -0.034999084717721687 0.012622234589974406 0 -0.034999902934059447 0.0045932257023450938 0 -0.036152812762417476 0.0053206898891521156 0 -0.035874431272911816 0.0038619900832056191 0 -0.036152812762417476 0.0053206898891521156 0 -0.0371155957955445 0.0050346180657198595 0 -0.036824913571391935 0.0041303040604828475 0 -0.036152812762417476 0.0053206898891521156 0 -0.036961045122807352 0.0059439899305452704 0 -0.0371155957955445 0.0050346180657198595 0 -0.036152812762417476 0.0053206898891521156 0 -0.036211010334224185 0.0070314385667836887 0 -0.036961045122807352 0.0059439899305452704 0 -0.036152812762417476 0.0053206898891521156 0 -0.034999912275327685 0.0066639856364947578 0 -0.036211010334224185 0.0070314385667836887 0 -0.034999902934059447 0.0045932257023450938 0 -0.036152812762417476 0.0053206898891521156 0 -0.034999912275327685 0.0066639856364947578 0 -0.034999912275327685 0.0066639856364947578 0 -0.034999949396950301 0.0087347168006979403 0 -0.036211010334224185 0.0070314385667836887 0 -0.034999949396950301 0.0087347168006979403 0 -0.036531172526830025 0.0085309149702652732 0 -0.036211010334224185 0.0070314385667836887 0 -0.036531172526830025 0.0085309149702652732 0 -0.036211010334224185 0.0070314385667836887 0 -0.037522056568135335 0.0070415624255864709 0 -0.036211010334224185 0.0070314385667836887 0 -0.037522056568135335 0.0070415624255864709 0 -0.036961045122807352 0.0059439899305452704 0 -0.036531172526830025 0.0085309149702652732 0 -0.037522056568135335 0.0070415624255864709 0 -0.037674153352447726 0.008539371672912046 0 -0.037522056568135335 0.0070415624255864709 0 -0.037674153352447726 0.008539371672912046 0 -0.038819108171960222 0.0077563697013541839 0 -0.038316025254668783 0.009521276025930097 0 -0.037674153352447726 0.008539371672912046 0 -0.038819108171960222 0.0077563697013541839 0 -0.037522056568135335 0.0070415624255864709 0 -0.03852818881445403 0.0062840655367020961 0 -0.038819108171960222 0.0077563697013541839 0 -0.03852818881445403 0.0062840655367020961 0 -0.037730478333142879 0.0057181491156157926 0 -0.038390966045774196 0.005321952894374894 0 -0.037522056568135335 0.0070415624255864709 0 -0.03852818881445403 0.0062840655367020961 0 -0.037730478333142879 0.0057181491156157926 0 -0.037522056568135335 0.0070415624255864709 0 -0.036961045122807352 0.0059439899305452704 0 -0.037730478333142879 0.0057181491156157926 0 -0.0371155957955445 0.0050346180657198595 0 -0.037800868135432805 0.0047432371720035737 0 -0.036824913571391935 0.0041303040604828475 0 -0.037730478333142879 0.0057181491156157926 0 -0.0371155957955445 0.0050346180657198595 0 -0.037800868135432805 0.0047432371720035737 0 -0.036961045122807352 0.0059439899305452704 0 -0.037730478333142879 0.0057181491156157926 0 -0.0371155957955445 0.0050346180657198595 0 -0.037800868135432805 0.0047432371720035737 0 -0.038390966045774196 0.005321952894374894 0 -0.037893539689372917 0.00455142673112307 0 -0.037730478333142879 0.0057181491156157926 0 -0.037800868135432805 0.0047432371720035737 0 -0.038390966045774196 0.005321952894374894 0 -0.038390966045774196 0.005321952894374894 0 -0.039039407063850444 0.0048337547761255536 0 -0.037893539689372917 0.00455142673112307 0 -0.038390966045774196 0.005321952894374894 0 -0.039533007066797646 0.0058161279970858262 0 -0.039039407063850444 0.0048337547761255536 0 -0.033678279913495153 0.0062776997575638548 0 -0.036043175381895526 0.0043694516779365688 0 -0.040184484727745481 0.0050479601914409549 0 -0.039533007066797646 0.0058161279970858262 0 -0.039039407063850444 0.0048337547761255536 0 -0.040184484727745481 0.0050479601914409549 0 -0.039533007066797646 0.0058161279970858262 0 -0.040544253670062654 0.005853676477321771 0 -0.033678279913495153 0.0062776997575638548 0 -0.028641928672670236 0.011619130011068011 0 -0.039533007066797646 0.0058161279970858262 0 -0.039280454732053466 0.0068160277734751673 0 -0.040228431542010515 0.0074275888222192143 0 -0.033244785837151444 0.0089188326963659578 0 -0.028641928672670236 0.011619130011068011 0 -0.039533007066797646 0.0058161279970858262 0 -0.040228431542010515 0.0074275888222192143 0 -0.040544253670062654 0.005853676477321771 0 -0.03852818881445403 0.0062840655367020961 0 -0.039533007066797646 0.0058161279970858262 0 -0.039280454732053466 0.0068160277734751673 0 -0.03852818881445403 0.0062840655367020961 0 -0.038390966045774196 0.005321952894374894 0 -0.039533007066797646 0.0058161279970858262 0 -0.03852818881445403 0.0062840655367020961 0 -0.039280454732053466 0.0068160277734751673 0 -0.038819108171960222 0.0077563697013541839 0 -0.039280454732053466 0.0068160277734751673 0 -0.038819108171960222 0.0077563697013541839 0 -0.040228431542010515 0.0074275888222192143 0 -0.039841753620932042 0.0090498042297402822 0 -0.038819108171960222 0.0077563697013541839 0 -0.040228431542010515 0.0074275888222192143 0 -0.031167314640358386 0.012079041617979047 0 -0.033244785837151444 0.0089188326963659578 0 -0.025925751799834851 0.0078476091016116047 0 -0.024717910300148135 0.012326426520018316 0 -0.023432875647553236 0.010496366651353001 0 -0.021984665477728343 0.014115593295177253 0 -0.021046046082745174 0.011414061174086308 0 -0.020856286728668547 0.013284254550174861 0 -0.02243917524922532 0.014021489317114043 0 -0.022876773958315014 0.012203939329622222 0 -0.021046046082745174 0.011414061174086308 0 -0.022167400131499322 0.014154962396536616 0 -0.021138448472637787 0.01163573766951448 0 -0.021704400250431875 0.0141680149881397 0 -0.021984665477728343 0.014115593295177253 0 -0.020856286728668547 0.013284254550174861 0 -0.024717910300148135 0.012326426520018316 0 -0.02243917524922532 0.014021489317114043 0 -0.022876773958315014 0.012203939329622222 0 -0.022544196153022465 0.0086814428212266502 0 -0.023432875647553236 0.010496366651353001 0 -0.021046046082745174 0.011414061174086308 0 -0.024717910300148135 0.012326426520018316 0 -0.022876773958315014 0.012203939329622222 0 -0.023432875647553236 0.010496366651353001 0 -0.022876773958315014 0.012203939329622222 0 -0.023432875647553236 0.010496366651353001 0 -0.021046046082745174 0.011414061174086308 0 -0.022544196153022465 0.0086814428212266502 0 -0.01911382969953666 0.0095757233696941845 0 -0.021046046082745174 0.011414061174086308 0 -0.01911382969953666 0.0095757233696941845 0 -0.021046046082745174 0.011414061174086308 0 -0.018058062022585718 0.011640061839497787 0 -0.02314506837124887 0.014788834763197339 0 -0.02070984967781038 0.015159269762443275 0 -0.021046046082745174 0.011414061174086308 0 -0.019362880251112206 0.012978394032193297 0 -0.018058062022585718 0.011640061839497787 0 -0.019362880251112206 0.012978394032193297 0 -0.019901880225598412 0.014424327640644821 0 -0.016976629645392767 0.014208296952385478 0 -0.021046046082745174 0.011414061174086308 0 -0.019362880251112206 0.012978394032193297 0 -0.020856286728668547 0.013284254550174861 0 -0.021704400250431875 0.0141680149881397 0 -0.020856286728668547 0.013284254550174861 0 -0.019901880225598412 0.014424327640644821 0 -0.019362880251112206 0.012978394032193297 0 -0.020856286728668547 0.013284254550174861 0 -0.019901880225598412 0.014424327640644821 0 -0.019901880225598412 0.014424327640644821 0 -0.019753678973110329 0.016388253984939472 0 -0.016976629645392767 0.014208296952385478 0 -0.021632769963197896 0.014418881147666257 0 -0.021826999728459265 0.01437168295541057 0 -0.021778563886996765 0.014506960629063464 0 -0.021704400250431875 0.0141680149881397 0 -0.019901880225598412 0.014424327640644821 0 -0.019753678973110329 0.016388253984939472 0 -0.021704400250431875 0.0141680149881397 0 -0.021632769963197896 0.014418881147666257 0 -0.021826999728459265 0.01437168295541057 0 -0.021648057355073014 0.014250890860831682 0 -0.020493688771794319 0.015565847879833717 0 -0.021984665477728343 0.014115593295177253 0 -0.022021618724194243 0.014471421450479791 0 -0.021826999728459265 0.01437168295541057 0 -0.024717910300148135 0.012326426520018316 0 -0.02243917524922532 0.014021489317114043 0 -0.023652715838791548 0.016557030711529856 0 -0.021704400250431875 0.0141680149881397 0 -0.021984665477728343 0.014115593295177253 0 -0.021826999728459265 0.01437168295541057 0 -0.022167400131499322 0.014154962396536616 0 -0.028641928672670236 0.011619130011068011 0 -0.022021618724194243 0.014471421450479791 0 -0.021826999728459265 0.01437168295541057 0 -0.021778563886996765 0.014506960629063464 0 -0.022021618724194243 0.014471421450479791 0 -0.021968276538892596 0.014658208898536472 0 -0.021778563886996765 0.014506960629063464 0 -0.028641928672670236 0.011619130011068011 0 -0.026115776272652602 0.0084924548060044402 0 -0.033678279913495153 0.0062776997575638548 0 -0.026115776272652602 0.0084924548060044402 0 -0.029119374063513871 0.0080281314506073925 0 -0.0298158021529643 0.0096305263397829036 0 -0.030178855956858892 0.0081636614304890116 0 -0.026115776272652602 0.0084924548060044402 0 -0.019756190774405224 0.014348761351162887 0 -0.021632769963197896 0.014418881147666257 0 -0.021778563886996765 0.014506960629063464 0 -0.021447560271136871 0.01462060807918465 0 -0.023177458651362722 0.0084688724351963691 0 -0.022409228807947087 0.0089508033531071358 0 -0.021238781820539232 0.0082572548737633068 0 -0.021968276538892596 0.014658208898536472 0 -0.021778563886996765 0.014506960629063464 0 -0.021447560271136871 0.01462060807918465 0 -0.020493688771794319 0.015565847879833717 0 -0.019756190774405224 0.014348761351162887 0 -0.019753678973110329 0.016388253984939472 0 -0.017713746195675853 0.018496519088892625 0 -0.017927289197865286 0.018042660845315642 0 -0.021721060800690983 0.0091462873976876826 0 -0.022409228807947087 0.0089508033531071358 0 -0.021238781820539232 0.0082572548737633068 0 -0.022267561047122238 0.0096358916398615515 0 -0.022409228807947087 0.0089508033531071358 0 -0.02282836868839971 0.0096493965037500011 0 -0.022267561047122238 0.0096358916398615515 0 -0.021721060800690983 0.0091462873976876826 0 -0.022409228807947087 0.0089508033531071358 0 -0.022267561047122238 0.0096358916398615515 0 -0.021575611268501688 0.0097082707417478625 0 -0.021721060800690983 0.0091462873976876826 0 -0.021575611268501688 0.0097082707417478625 0 -0.021721060800690983 0.0091462873976876826 0 -0.021109470205066854 0.0091802806653817955 0 -0.026115776272652602 0.0084924548060044402 0 -0.02581049909796913 0.0075774120239189566 0 -0.031973109510124699 0.0043779346361267502 0 -0.032045212771015665 0.0044707526400401491 0 -0.031927875944186217 0.0045376216195893082 0 -0.023177458651362722 0.0084688724351963691 0 -0.022409228807947087 0.0089508033531071358 0 -0.02282836868839971 0.0096493965037500011 0 -0.023177458651362722 0.0084688724351963691 0 -0.02282836868839971 0.0096493965037500011 0 -0.022821306195123438 0.0098095028667110357 0 -0.032072171004134821 0.0043778593097699115 0 -0.031973109510124699 0.0043779346361267502 0 -0.032045212771015665 0.0044707526400401491 0 -0.022267561047122238 0.0096358916398615515 0 -0.02282836868839971 0.0096493965037500011 0 -0.022819752313782114 0.0098078431714534765 0 -0.02581049909796913 0.0075774120239189566 0 -0.02738224351570304 0.0082501204457890304 0 -0.02581049909796913 0.0075774120239189566 0 -0.023398784193107494 0.010872045299833308 0 -0.022870564510790028 0.0097427930948312362 0 -0.022657042239385899 0.010468221335345782 0 -0.022781827594509668 0.011021718707621465 0 -0.031927875944186217 0.0045376216195893082 0 -0.031908925363158605 0.004726753338883497 0 -0.032083159914469493 0.0046244796821321736 0 -0.022819752313782114 0.0098078431714534765 0 -0.022657042239385899 0.010468221335345782 0 -0.022318343799179303 0.010164073678529261 0 -0.032045212771015665 0.0044707526400401491 0 -0.031927875944186217 0.0045376216195893082 0 -0.032083159914469493 0.0046244796821321736 0 -0.025628109400558971 0.00802937112892348 0 -0.02581049909796913 0.0075774120239189566 0 -0.022657042239385899 0.010468221335345782 0 -0.022318343799179303 0.010164073678529261 0 -0.022171828181051983 0.010729253016883201 0 -0.022318343799179303 0.010164073678529261 0 -0.021876392618051025 0.010369432667747506 0 -0.022171828181051983 0.010729253016883201 0 -0.022267561047122238 0.0096358916398615515 0 -0.022819752313782114 0.0098078431714534765 0 -0.022318343799179303 0.010164073678529261 0 -0.022267561047122238 0.0096358916398615515 0 -0.022318343799179303 0.010164073678529261 0 -0.021917630276195744 0.010009305176603325 0 -0.022318343799179303 0.010164073678529261 0 -0.021917630276195744 0.010009305176603325 0 -0.021876392618051025 0.010369432667747506 0 -0.022267561047122238 0.0096358916398615515 0 -0.021575611268501688 0.0097082707417478625 0 -0.021917630276195744 0.010009305176603325 0 -0.021575611268501688 0.0097082707417478625 0 -0.021917630276195744 0.010009305176603325 0 -0.021547340737192659 0.010171061732540043 0 -0.021917630276195744 0.010009305176603325 0 -0.021547340737192659 0.010171061732540043 0 -0.021876392618051025 0.010369432667747506 0 -0.021547340737192659 0.010171061732540043 0 -0.021876392618051025 0.010369432667747506 0 -0.021573260921090829 0.010591184855714557 0 -0.021876392618051025 0.010369432667747506 0 -0.021573260921090829 0.010591184855714557 0 -0.022171828181051983 0.010729253016883201 0 -0.021850501018223376 0.011328334487720649 0 -0.022755118645272444 0.012205887515099316 0 -0.022781827594509668 0.011021718707621465 0 -0.021573260921090829 0.010591184855714557 0 -0.022171828181051983 0.010729253016883201 0 -0.021850501018223376 0.011328334487720649 0 -0.022171828181051983 0.010729253016883201 0 -0.021850501018223376 0.011328334487720649 0 -0.022781827594509668 0.011021718707621465 0 -0.022698332348007496 0.0021895065393666424 0 -0.024359199186043137 0.0014941238641904915 0 -0.022378580157107524 0.0011628000889120677 0 -0.021850501018223376 0.011328334487720649 0 -0.022755118645272444 0.012205887515099316 0 -0.02114383710823612 0.012002663221954413 0 -0.027129151202758325 0.0059605953384182352 0 -0.02096768430755289 0.0066759657155893463 0 -0.022698332348007496 0.0021895065393666424 0 -0.023669603856910623 0.0025107204886853662 0 -0.024359199186043137 0.0014941238641904915 0 -0.031887632782365942 0.0049576400583753481 0 -0.032030378974320511 0.0048030082944167315 0 -0.032131385847595992 0.0048606174022811314 0 -0.027129151202758325 0.0059605953384182352 0 -0.02738224351570304 0.0082501204457890304 0 -0.031887632782365942 0.0049576400583753481 0 -0.032030378974320511 0.0048030082944167315 0 -0.031908925363158605 0.004726753338883497 0 -0.022657042239385899 0.010468221335345782 0 -0.022171828181051983 0.010729253016883201 0 -0.022781827594509668 0.011021718707621465 0 -0.032030378974320511 0.0048030082944167315 0 -0.031908925363158605 0.004726753338883497 0 -0.032083159914469493 0.0046244796821321736 0 -0.032301759962871913 0.0048127814323978713 0 -0.032164718037387068 0.0047645018361323439 0 -0.032325011729713499 0.0045794266323654978 0 -0.032030378974320511 0.0048030082944167315 0 -0.032164718037387068 0.0047645018361323439 0 -0.032083159914469493 0.0046244796821321736 0 -0.032164718037387068 0.0047645018361323439 0 -0.032325011729713499 0.0045794266323654978 0 -0.032083159914469493 0.0046244796821321736 0 -0.032301759962871913 0.0048127814323978713 0 -0.032164718037387068 0.0047645018361323439 0 -0.032131385847595992 0.0048606174022811314 0 -0.032030378974320511 0.0048030082944167315 0 -0.032164718037387068 0.0047645018361323439 0 -0.032131385847595992 0.0048606174022811314 0 -0.027129151202758325 0.0059605953384182352 0 -0.034204115443994668 0.0047735418704199679 0 -0.031887632782365942 0.0049576400583753481 0 -0.032131385847595992 0.0048606174022811314 0 -0.032279074823368788 0.0049573785812116467 0 -0.03189428834089543 0.0050669746774588548 0 -0.031593257589591292 0.0047735144190667982 0 -0.032279074823368788 0.0049573785812116467 0 -0.032301759962871913 0.0048127814323978713 0 -0.032131385847595992 0.0048606174022811314 0 -0.032279074823368788 0.0049573785812116467 0 -0.032301759962871913 0.0048127814323978713 0 -0.032370499447120983 0.0049158798902086557 0 -0.032279074823368788 0.0049573785812116467 0 -0.03640130320852053 0.0029311145402209976 0 -0.035667794014280357 0.003459398989963689 0 -0.032301759962871913 0.0048127814323978713 0 -0.032325011729713499 0.0045794266323654978 0 -0.032652942516431194 0.0046146576596191218 0 -0.032301759962871913 0.0048127814323978713 0 -0.032370499447120983 0.0049158798902086557 0 -0.032652942516431194 0.0046146576596191218 0 -0.032325011729713499 0.0045794266323654978 0 -0.032250467766655799 0.0043039926401577267 0 -0.032543622081427512 0.0043376789860164258 0 -0.032325011729713499 0.0045794266323654978 0 -0.032543622081427512 0.0043376789860164258 0 -0.032652942516431194 0.0046146576596191218 0 -0.032325011729713499 0.0045794266323654978 0 -0.032083159914469493 0.0046244796821321736 0 -0.032170716126957294 0.0044683491463496693 0 -0.032045212771015665 0.0044707526400401491 0 -0.032083159914469493 0.0046244796821321736 0 -0.032170716126957294 0.0044683491463496693 0 -0.032360927767733 0.0046794645370874964 0 -0.032065768604908805 0.0040226963550342061 0 -0.032158245083889994 0.0040613564875204523 0 -0.032250467766655799 0.0043039926401577267 0 -0.032538151865148739 0.0040769695774148362 0 -0.032072171004134821 0.0043778593097699115 0 -0.032045212771015665 0.0044707526400401491 0 -0.032170716126957294 0.0044683491463496693 0 -0.033678279913495153 0.0062776997575638548 0 -0.032065768604908805 0.0040226963550342061 0 -0.032250467766655799 0.0043039926401577267 0 -0.032543622081427512 0.0043376789860164258 0 -0.032538151865148739 0.0040769695774148362 0 -0.036043175381895526 0.0043694516779365688 0 -0.036475855212080299 0.0040769913905159281 0 -0.032543622081427512 0.0043376789860164258 0 -0.032538151865148739 0.0040769695774148362 0 -0.032990969102062083 0.0041118306201878251 0 -0.038145854491008324 0.0042302534070883533 0 -0.037904349829561632 0.0034646528972920778 0 -0.039033809849225824 0.0023074145671902334 0 -0.037904349829561632 0.0034646528972920778 0 -0.036407058970209231 0.0030671867948589789 0 -0.036824913571391935 0.0041303040604828475 0 -0.037800868135432805 0.0047432371720035737 0 -0.03791966386483403 0.0044971165221432243 0 -0.036824913571391935 0.0041303040604828475 0 -0.036721835735989361 0.0041605878361653014 0 -0.036475855212080299 0.0040769913905159281 0 -0.036475855212080299 0.0040769913905159281 0 -0.037471484236707375 0.0042398799421380787 0 -0.038145854491008324 0.0042302534070883533 0 -0.037904349829561632 0.0034646528972920778 0 -0.036824913571391935 0.0041303040604828475 0 -0.037904349829561632 0.0034646528972920778 0 -0.037932446771194943 0.0030114606890852377 0 -0.036448300024836885 0.0029695763600089938 0 -0.037932446771194943 0.0030114606890852377 0 -0.037402691097367921 0.0020458391858518016 0 -0.036424958194040395 0.002298812132668041 0 -0.037804757582873466 0.0034328875526854243 0 -0.036450580591850544 0.0030180928796842291 0 -0.037839480090060738 0.0029581118206548772 0 -0.036465952569730294 0.0023496934383850161 0 -0.037932446771194943 0.0030114606890852377 0 -0.038173306003745605 0.0020302636650756625 0 -0.037402691097367921 0.0020458391858518016 0 -0.037932446771194943 0.0030114606890852377 0 -0.039033809849225824 0.0023074145671902334 0 -0.038173306003745605 0.0020302636650756625 0 -0.036475855212080299 0.0040769913905159281 0 -0.035667794014280357 0.003459398989963689 0 -0.032543622081427512 0.0043376789860164258 0 -0.032990969102062083 0.0041118306201878251 0 -0.032652942516431194 0.0046146576596191218 0 -0.037904349829561632 0.0034646528972920778 0 -0.037932446771194943 0.0030114606890852377 0 -0.039033809849225824 0.0023074145671902334 0 -0.039902270284766679 0.00043367647987322723 0 -0.039033809849225824 0.0023074145671902334 0 -0.038585964838279453 0.0012639014420360935 0 -0.039033809849225824 0.0023074145671902334 0 -0.038173306003745605 0.0020302636650756625 0 -0.038585964838279453 0.0012639014420360935 0 -0.038173306003745605 0.0020302636650756625 0 -0.038585964838279453 0.0012639014420360935 0 -0.037696754141522966 0.0013245739491952637 0 -0.039902270284766679 0.00043367647987322723 0 -0.038585964838279453 0.0012639014420360935 0 -0.037908966932973243 0.0001517155369983137 0 -0.038585964838279453 0.0012639014420360935 0 -0.037908966932973243 0.0001517155369983137 0 -0.037696754141522966 0.0013245739491952637 0 -0.037908966932973243 0.0001517155369983137 0 -0.037696754141522966 0.0013245739491952637 0 -0.036219570211826806 0.00067350104034679715 0 -0.038173306003745605 0.0020302636650756625 0 -0.037696754141522966 0.0013245739491952637 0 -0.037402691097367921 0.0020458391858518016 0 -0.037696754141522966 0.0013245739491952637 0 -0.037402691097367921 0.0020458391858518016 0 -0.036720693451041952 0.0015843083146997389 0 -0.037696754141522966 0.0013245739491952637 0 -0.036720693451041952 0.0015843083146997389 0 -0.036219570211826806 0.00067350104034679715 0 -0.037402691097367921 0.0020458391858518016 0 -0.036720693451041952 0.0015843083146997389 0 -0.036424958194040395 0.002298812132668041 0 -0.036720693451041952 0.0015843083146997389 0 -0.03588293454924818 0.0015686223563338116 0 -0.036424958194040395 0.002298812132668041 0 -0.036720693451041952 0.0015843083146997389 0 -0.036219570211826806 0.00067350104034679715 0 -0.03588293454924818 0.0015686223563338116 0 -0.036363572210665419 -0.00071784150650610029 0 -0.037908966932973243 0.0001517155369983137 0 -0.036219570211826806 0.00067350104034679715 0 -0.034999923158186702 -0.00036386480493013658 0 -0.036219570211826806 0.00067350104034679715 0 -0.034999907529862012 0.0017148126864914371 0 -0.03500025786322708 0.0017150743261820809 0 -0.036465952569730294 0.0023496934383850161 0 -0.036219570211826806 0.00067350104034679715 0 -0.034999907529862012 0.0017148126864914371 0 -0.03588293454924818 0.0015686223563338116 0 -0.034999907529862012 0.0017148126864914371 0 -0.03588293454924818 0.0015686223563338116 0 -0.036424958194040395 0.002298812132668041 0 -0.035000009329351121 0.0017150688775301062 0 -0.034999965540227336 0.0025221562033711786 0 -0.036467443334804679 0.0023737613511585374 0 -0.035000254091885757 0.0025223560080252067 0 -0.036450580591850544 0.0030180928796842291 0 -0.034999965540227336 0.0025221562033711786 0 -0.036467443334804679 0.0023737613511585374 0 -0.036448300024836885 0.0029695763600089938 0 -0.034999943811231393 0.0025224325116325807 0 -0.036407058970209231 0.0030671867948589789 0 -0.035874431272911816 0.0038619900832056191 0 -0.037932446771194943 0.0030114606890852377 0 -0.036467443334804679 0.0023737613511585374 0 -0.036448300024836885 0.0029695763600089938 0 -0.036152812762417476 0.0053206898891521156 0 -0.036824913571391935 0.0041303040604828475 0 -0.035874431272911816 0.0038619900832056191 0 -0.036407058970209231 0.0030671867948589789 0 -0.036824913571391935 0.0041303040604828475 0 -0.035874431272911816 0.0038619900832056191 0 -0.034999902934059447 0.0045932257023450938 0 -0.034999943811231393 0.0025224325116325807 0 -0.035874431272911816 0.0038619900832056191 0 -0.011148778488735526 0.018702236521968493 0 -0.01210464265294958 0.019409572569947235 0 -0.011315411819738948 0.016916211187836542 0 -0.011235580973467621 0.018001445906307364 0 -0.010610071953044177 0.016424076114346393 0 -0.011315411819738948 0.016916211187836542 0 -0.011849716886562393 0.017089664548038112 0 -0.011235580973467621 0.018001445906307364 0 -0.011315411819738948 0.016916211187836542 0 -0.011849716886562393 0.017089664548038112 0 -0.011563718957828057 0.016158610362991373 0 -0.011849716886562393 0.017089664548038112 0 -0.012664376562762472 0.016979306095295039 0 -0.012355250838095104 0.016248387988438102 0 -0.011849716886562393 0.017089664548038112 0 -0.012643760834693615 0.018022693836590383 0 -0.011235580973467621 0.018001445906307364 0 -0.012664376562762472 0.016979306095295039 0 -0.012643760834693615 0.018022693836590383 0 -0.013449686783233179 0.017166430439261138 0 -0.011849716886562393 0.017089664548038112 0 -0.012664376562762472 0.016979306095295039 0 -0.012643760834693615 0.018022693836590383 0 -0.012643760834693615 0.018022693836590383 0 -0.011235580973467621 0.018001445906307364 0 -0.011930602401372812 0.019765877268942997 0 -0.012643760834693615 0.018022693836590383 0 -0.013321410839672821 0.019011917836700323 0 -0.011930602401372812 0.019765877268942997 0 -0.011368628110960212 0.019953639266995647 0 -0.011208959504393094 0.020043109951147327 0 -0.011930602401372812 0.019765877268942997 0 -0.011148778488735526 0.018702236521968493 0 -0.011929635128601918 0.019890320157269246 0 -0.011368628110960212 0.019953639266995647 0 -0.011208959504393094 0.020043109951147327 0 -0.011092711689823382 0.02004616049384797 0 -0.011208959504393094 0.020043109951147327 0 -0.010845512958154698 0.020177850260915713 0 -0.011092711689823382 0.02004616049384797 0 -0.011208959504393094 0.020043109951147327 0 -0.010845512958154698 0.020177850260915713 0 -0.010904538705572432 0.020208165795484283 0 -0.010845512958154698 0.020177850260915713 0 -0.010904538705572432 0.020208165795484283 0 -0.010611144281830213 0.020306929597864978 0 -0.010845512958154698 0.020177850260915713 0 -0.010930351313853302 0.020103474132489852 0 -0.011092711689823382 0.02004616049384797 0 -0.010845512958154698 0.020177850260915713 0 -0.010930351313853302 0.020103474132489852 0 -0.010730102731188015 0.020230935059989213 0 -0.011368628110960212 0.019953639266995647 0 -0.011092711689823382 0.02004616049384797 0 -0.011150988572765287 0.019930071692456169 0 -0.010930351313853302 0.020103474132489852 0 -0.011092711689823382 0.02004616049384797 0 -0.011150988572765287 0.019930071692456169 0 -0.010930351313853302 0.020103474132489852 0 -0.011102643497697635 0.020092103802097461 0 -0.011077334248997508 0.020044189634929731 0 -0.010611981084541184 0.020171269206010894 0 -0.01210464265294958 0.019409572569947235 0 -0.01210464265294958 0.019409572569947235 0 -0.015236641869461455 0.024127165945208973 0 -0.010930351313853302 0.020103474132489852 0 -0.011077334248997508 0.020044189634929731 0 -0.010770198323088637 0.020127307737051681 0 -0.015236641869461455 0.024127165945208973 0 -0.011680372257750309 0.023028974084326366 0 -0.010930351313853302 0.020103474132489852 0 -0.010770198323088637 0.020127307737051681 0 -0.010730102731188015 0.020230935059989213 0 -0.013805841996317583 0.026232038690570926 0 -0.014084665617448342 0.025971551919179242 0 -0.013749345958404718 0.025957188044416414 0 -0.015236641869461455 0.024127165945208973 0 -0.018207381579533381 0.027030956167900515 0 -0.02130029398686225 0.026345065782556111 0 -0.021589941674281549 0.026976008098637858 0 -0.021062494337749073 0.026707351367139198 0 -0.021233469453778221 0.027229197854906264 0 -0.021589941674281549 0.026976008098637858 0 -0.021062494337749073 0.026707351367139198 0 -0.014227845936569894 0.026271767448174971 0 -0.013805841996317583 0.026232038690570926 0 -0.014084665617448342 0.025971551919179242 0 -0.021233469453778221 0.027229197854906264 0 -0.021062494337749073 0.026707351367139198 0 -0.020751956567978215 0.026918111730106487 0 -0.021062494337749073 0.026707351367139198 0 -0.020697487927414045 0.026618568466754599 0 -0.020751956567978215 0.026918111730106487 0 -0.02130029398686225 0.026345065782556111 0 -0.021062494337749073 0.026707351367139198 0 -0.020882605842631807 0.026288617218822193 0 -0.021062494337749073 0.026707351367139198 0 -0.020882605842631807 0.026288617218822193 0 -0.020697487927414045 0.026618568466754599 0 -0.015236641869461455 0.024127165945208973 0 -0.01532469027738185 0.02005813933432796 0 -0.013652037448377643 0.021467781248623866 0 -0.013418366286344113 0.020934142770437106 0 -0.014925383764603582 0.021121252509911898 0 -0.011315411819738948 0.016916211187836542 0 -0.010610071953044177 0.016424076114346393 0 -0.011563718957828057 0.016158610362991373 0 -0.01210464265294958 0.019409572569947235 0 -0.01532469027738185 0.02005813933432796 0 -0.01532469027738185 0.02005813933432796 0 -0.016929314429369732 0.021121948435278357 0 -0.011624084704995267 0.016189415997339442 0 -0.012355250838095104 0.016248387988438102 0 -0.013161835940968295 0.015701389767687961 0 -0.020882605842631807 0.026288617218822193 0 -0.020697487927414045 0.026618568466754599 0 -0.020346524877934421 0.026442328170663661 0 -0.012664376562762472 0.016979306095295039 0 -0.012355250838095104 0.016248387988438102 0 -0.013118316019293573 0.016497433121292236 0 -0.012355250838095104 0.016248387988438102 0 -0.013118316019293573 0.016497433121292236 0 -0.013161835940968295 0.015701389767687961 0 -0.01532469027738185 0.02005813933432796 0 -0.011485117650460001 0.017364666837929747 0 -0.011849716886562393 0.017089664548038112 0 -0.011563718957828057 0.016158610362991373 0 -0.012355250838095104 0.016248387988438102 0 -0.020500679711767222 0.026740930734114456 0 -0.020697487927414045 0.026618568466754599 0 -0.020346524877934421 0.026442328170663661 0 -0.020500679711767222 0.026740930734114456 0 -0.020751956567978215 0.026918111730106487 0 -0.020290315383656662 0.026986289254808782 0 -0.020500679711767222 0.026740930734114456 0 -0.020697487927414045 0.026618568466754599 0 -0.020751956567978215 0.026918111730106487 0 -0.020500679711767222 0.026740930734114456 0 -0.020290315383656662 0.026986289254808782 0 -0.020346524877934421 0.026442328170663661 0 -0.020290315383656662 0.026986289254808782 0 -0.019800736591428499 0.026562580899784298 0 -0.020346524877934421 0.026442328170663661 0 -0.01999009380864707 0.027280253476677598 0 -0.020290315383656662 0.026986289254808782 0 -0.019800736591428499 0.026562580899784298 0 -0.01999009380864707 0.027280253476677598 0 -0.019619247415374453 0.027007176081520513 0 -0.019800736591428499 0.026562580899784298 0 -0.014796197426012729 0.015221785281116035 0 -0.015938235618495663 0.015832341832997667 0 -0.015179108943678169 0.016766124431007935 0 -0.014796197426012729 0.015221785281116035 0 -0.013980943375050923 0.016399110898750843 0 -0.015179108943678169 0.016766124431007935 0 -0.014796197426012729 0.015221785281116035 0 -0.013980943375050923 0.016399110898750843 0 -0.013161835940968295 0.015701389767687961 0 -0.017178318706983043 0.021080269741083749 0 -0.016929314429369732 0.021121948435278357 0 -0.013980943375050923 0.016399110898750843 0 -0.013118316019293573 0.016497433121292236 0 -0.013161835940968295 0.015701389767687961 0 -0.02070984967781038 0.015159269762443275 0 -0.017881471300189751 0.018553035656687998 0 -0.019752761047039366 0.02102456411006777 0 -0.021687305027406518 0.021358588272561197 0 -0.019780310318664545 0.020642265799403738 0 -0.01911382969953666 0.0095757233696941845 0 -0.018058062022585718 0.011640061839497787 0 -0.015811265135687775 0.010505596057632216 0 -0.014796197426012729 0.015221785281116035 0 -0.016391703596880882 0.014801307439564594 0 -0.015938235618495663 0.015832341832997667 0 -0.019619247415374453 0.027007176081520513 0 -0.019800736591428499 0.026562580899784298 0 -0.019161567924648071 0.026666380073283411 0 -0.017178318706983043 0.021080269741083749 0 -0.017881471300189751 0.018553035656687998 0 -0.016391703596880882 0.014801307439564594 0 -0.015938235618495663 0.015832341832997667 0 -0.016968461755465573 0.016357853076131277 0 -0.015938235618495663 0.015832341832997667 0 -0.016968461755465573 0.016357853076131277 0 -0.015179108943678169 0.016766124431007935 0 -0.018058062022585718 0.011640061839497787 0 -0.015811265135687775 0.010505596057632216 0 -0.016976629645392767 0.014208296952385478 0 -0.017881471300189751 0.018553035656687998 0 -0.016584678449786512 0.014043274437199641 0 -0.019362880251112206 0.012978394032193297 0 -0.018058062022585718 0.011640061839497787 0 -0.016976629645392767 0.014208296952385478 0 -0.016584678449786512 0.014043274437199641 0 -0.018039394637317643 0.018423296633327368 0 -0.019753678973110329 0.016388253984939472 0 -0.016976629645392767 0.014208296952385478 0 -0.017927289197865286 0.018042660845315642 0 -0.016968461755465573 0.016357853076131277 0 -0.016138094166903334 0.017441285879092109 0 -0.017017601830282079 0.017737093100281851 0 -0.016968461755465573 0.016357853076131277 0 -0.017017601830282079 0.017737093100281851 0 -0.017927289197865286 0.018042660845315642 0 -0.016968461755465573 0.016357853076131277 0 -0.016138094166903334 0.017441285879092109 0 -0.015179108943678169 0.016766124431007935 0 -0.016138094166903334 0.017441285879092109 0 -0.015179108943678169 0.016766124431007935 0 -0.01510191989229679 0.017853307543880943 0 -0.016165323162173187 0.018460995179910251 0 -0.01510191989229679 0.017853307543880943 0 -0.014730511951774591 0.01913092979274305 0 -0.016138094166903334 0.017441285879092109 0 -0.016165323162173187 0.018460995179910251 0 -0.01510191989229679 0.017853307543880943 0 -0.016138094166903334 0.017441285879092109 0 -0.016165323162173187 0.018460995179910251 0 -0.017017601830282079 0.017737093100281851 0 -0.016165323162173187 0.018460995179910251 0 -0.017526122172124455 0.01837838739235071 0 -0.016247280370592202 0.019577498090559226 0 -0.017526122172124455 0.01837838739235071 0 -0.017660839797506399 0.018397575388937305 0 -0.016247280370592202 0.019577498090559226 0 -0.016165323162173187 0.018460995179910251 0 -0.017017601830282079 0.017737093100281851 0 -0.017526122172124455 0.01837838739235071 0 -0.019597832552397245 0.014433509953524545 0 -0.019756190774405224 0.014348761351162887 0 -0.017526122172124455 0.01837838739235071 0 -0.017713746195675853 0.018496519088892625 0 -0.017927289197865286 0.018042660845315642 0 -0.017017601830282079 0.017737093100281851 0 -0.017526122172124455 0.01837838739235071 0 -0.017927289197865286 0.018042660845315642 0 -0.013449686783233179 0.017166430439261138 0 -0.014336734801478514 0.017254756191631217 0 -0.013983870147831168 0.018089585950734129 0 -0.013980943375050923 0.016399110898750843 0 -0.013118316019293573 0.016497433121292236 0 -0.013449686783233179 0.017166430439261138 0 -0.012664376562762472 0.016979306095295039 0 -0.013118316019293573 0.016497433121292236 0 -0.013449686783233179 0.017166430439261138 0 -0.013980943375050923 0.016399110898750843 0 -0.013449686783233179 0.017166430439261138 0 -0.014336734801478514 0.017254756191631217 0 -0.013980943375050923 0.016399110898750843 0 -0.015179108943678169 0.016766124431007935 0 -0.014336734801478514 0.017254756191631217 0 -0.015179108943678169 0.016766124431007935 0 -0.014336734801478514 0.017254756191631217 0 -0.01510191989229679 0.017853307543880943 0 -0.014336734801478514 0.017254756191631217 0 -0.01510191989229679 0.017853307543880943 0 -0.013983870147831168 0.018089585950734129 0 -0.01510191989229679 0.017853307543880943 0 -0.013983870147831168 0.018089585950734129 0 -0.014730511951774591 0.01913092979274305 0 -0.012643760834693615 0.018022693836590383 0 -0.013983870147831168 0.018089585950734129 0 -0.013321410839672821 0.019011917836700323 0 -0.013983870147831168 0.018089585950734129 0 -0.013321410839672821 0.019011917836700323 0 -0.014730511951774591 0.01913092979274305 0 -0.012643760834693615 0.018022693836590383 0 -0.013449686783233179 0.017166430439261138 0 -0.013983870147831168 0.018089585950734129 0 -0.013321410839672821 0.019011917836700323 0 -0.014730511951774591 0.01913092979274305 0 -0.013312680091980221 0.019991131958603369 0 -0.014730511951774591 0.01913092979274305 0 -0.014984954672832876 0.020618914884200073 0 -0.013312680091980221 0.019991131958603369 0 -0.014984954672832876 0.020618914884200073 0 -0.013312680091980221 0.019991131958603369 0 -0.013220835709599947 0.020690650032021543 0 -0.021238781820539232 0.0082572548737633068 0 -0.021109470205066854 0.0091802806653817955 0 -0.020190161628242564 0.0093550481036396901 0 -0.019756190774405224 0.014348761351162887 0 -0.018020862973990234 0.014685116617087718 0 -0.021575611268501688 0.0097082707417478625 0 -0.021109470205066854 0.0091802806653817955 0 -0.020899226918778397 0.0096196977707731762 0 -0.021721060800690983 0.0091462873976876826 0 -0.021238781820539232 0.0082572548737633068 0 -0.021109470205066854 0.0091802806653817955 0 -0.020899226918778397 0.0096196977707731762 0 -0.020382742304846109 0.0097078556201773639 0 -0.020190161628242564 0.0093550481036396901 0 -0.021109470205066854 0.0091802806653817955 0 -0.020899226918778397 0.0096196977707731762 0 -0.020190161628242564 0.0093550481036396901 0 -0.016165323162173187 0.018460995179910251 0 -0.014730511951774591 0.01913092979274305 0 -0.016247280370592202 0.019577498090559226 0 -0.014730511951774591 0.01913092979274305 0 -0.014984954672832876 0.020618914884200073 0 -0.016247280370592202 0.019577498090559226 0 -0.019290840688533324 0.010511448703855281 0 -0.020382742304846109 0.0097078556201773639 0 -0.020271151159823295 0.010411792359101212 0 -0.018633533582838094 0.011081922727887467 0 -0.020382742304846109 0.0097078556201773639 0 -0.020190161628242564 0.0093550481036396901 0 -0.017603360639336187 0.013759643726844802 0 -0.018020862973990234 0.014685116617087718 0 -0.017603360639336187 0.013759643726844802 0 -0.021031725593763793 0.0089681680119878936 0 -0.019290840688533324 0.010511448703855281 0 -0.020271151159823295 0.010411792359101212 0 -0.020079453521093013 0.011117208837487741 0 -0.020382742304846109 0.0097078556201773639 0 -0.020271151159823295 0.010411792359101212 0 -0.020594839836008367 0.010103644947970832 0 -0.020899226918778397 0.0096196977707731762 0 -0.020594839836008367 0.010103644947970832 0 -0.021064517991243249 0.010135913641148459 0 -0.020899226918778397 0.0096196977707731762 0 -0.020382742304846109 0.0097078556201773639 0 -0.020594839836008367 0.010103644947970832 0 -0.020594839836008367 0.010103644947970832 0 -0.021064517991243249 0.010135913641148459 0 -0.020927625724492048 0.010816850057009606 0 -0.020271151159823295 0.010411792359101212 0 -0.020594839836008367 0.010103644947970832 0 -0.020927625724492048 0.010816850057009606 0 -0.021573260921090829 0.010591184855714557 0 -0.021064517991243249 0.010135913641148459 0 -0.020927625724492048 0.010816850057009606 0 -0.021547340737192659 0.010171061732540043 0 -0.021573260921090829 0.010591184855714557 0 -0.021064517991243249 0.010135913641148459 0 -0.021575611268501688 0.0097082707417478625 0 -0.020899226918778397 0.0096196977707731762 0 -0.021064517991243249 0.010135913641148459 0 -0.021575611268501688 0.0097082707417478625 0 -0.021547340737192659 0.010171061732540043 0 -0.021064517991243249 0.010135913641148459 0 -0.021850501018223376 0.011328334487720649 0 -0.020927625724492048 0.010816850057009606 0 -0.02114383710823612 0.012002663221954413 0 -0.020927625724492048 0.010816850057009606 0 -0.020079453521093013 0.011117208837487741 0 -0.02114383710823612 0.012002663221954413 0 -0.021573260921090829 0.010591184855714557 0 -0.021850501018223376 0.011328334487720649 0 -0.020927625724492048 0.010816850057009606 0 -0.020271151159823295 0.010411792359101212 0 -0.020927625724492048 0.010816850057009606 0 -0.020079453521093013 0.011117208837487741 0 -0.020079453521093013 0.011117208837487741 0 -0.019521604365053423 0.011791173533087292 0 -0.02114383710823612 0.012002663221954413 0 -0.019290840688533324 0.010511448703855281 0 -0.020079453521093013 0.011117208837487741 0 -0.01932907507617751 0.011172634765317796 0 -0.020079453521093013 0.011117208837487741 0 -0.019521604365053423 0.011791173533087292 0 -0.01932907507617751 0.011172634765317796 0 -0.020420255268530293 0.0056418893960663227 0 -0.02096768430755289 0.0066759657155893463 0 -0.021156104340426848 0.0021467121063851336 0 -0.020337133125740196 0.00093109999370253195 0 -0.022378580157107524 0.0011628000889120677 0 -0.019216310931686714 0.0024890098616232063 0 -0.021156104340426848 0.0021467121063851336 0 -0.020337133125740196 0.00093109999370253195 0 -0.021156104340426848 0.0021467121063851336 0 -0.022698332348007496 0.0021895065393666424 0 -0.022378580157107524 0.0011628000889120677 0 -0.014984954672832876 0.020618914884200073 0 -0.013220835709599947 0.020690650032021543 0 -0.013460682712953871 0.021363200312153555 0 -0.015937085798910774 0.014000275360219134 0 -0.012815941546250651 0.019061842215137671 0 -0.013220835709599947 0.020690650032021543 0 -0.013460682712953871 0.021363200312153555 0 -0.012635780958544765 0.021027714116395233 0 -0.019521604365053423 0.011791173533087292 0 -0.017931541512519383 0.011553467444105479 0 -0.018648090551636291 0.011248764728760496 0 -0.017603360639336187 0.013759643726844802 0 -0.015937085798910774 0.014000275360219134 0 -0.020420255268530293 0.0056418893960663227 0 -0.015937085798910774 0.014000275360219134 0 -0.019246596158954469 0.010587771949962747 0 -0.017931541512519383 0.011553467444105479 0 -0.018648090551636291 0.011248764728760496 0 -0.019290840688533324 0.010511448703855281 0 -0.018648090551636291 0.011248764728760496 0 -0.01932907507617751 0.011172634765317796 0 -0.017603360639336187 0.013759643726844802 0 -0.019442947370523288 0.010511819010057925 0 -0.019521604365053423 0.011791173533087292 0 -0.018648090551636291 0.011248764728760496 0 -0.01932907507617751 0.011172634765317796 0 -0.019216310931686714 0.0024890098616232063 0 -0.020337133125740196 0.00093109999370253195 0 -0.018468558571751711 0.00085557609486920758 0 -0.017945916682772498 0.0027038831899430702 0 -0.019216310931686714 0.0024890098616232063 0 -0.018468558571751711 0.00085557609486920758 0 -0.015937085798910774 0.014000275360219134 0 -0.015017816222974932 0.01113313082013313 0 -0.017945916682772498 0.0027038831899430702 0 -0.018468558571751711 0.00085557609486920758 0 -0.017278660253036527 0.0019532477918092228 0 -0.012935041795620538 0.021036614537167771 0 -0.012311563032069256 0.021253930650334561 0 -0.012635780958544765 0.021027714116395233 0 -0.012311563032069256 0.021253930650334561 0 -0.012635780958544765 0.021027714116395233 0 -0.012098906811335236 0.020995346614099211 0 -0.011708814255471664 0.021391361285656128 0 -0.012311563032069256 0.021253930650334561 0 -0.01166022321478042 0.021072712188824783 0 -0.012311563032069256 0.021253930650334561 0 -0.01166022321478042 0.021072712188824783 0 -0.012098906811335236 0.020995346614099211 0 -0.011693775470355629 0.020802688980117237 0 -0.012049081563791831 0.020503373109637648 0 -0.011372641216651208 0.020512378208747177 0 -0.011693775470355629 0.020802688980117237 0 -0.012098906811335236 0.020995346614099211 0 -0.012049081563791831 0.020503373109637648 0 -0.01166022321478042 0.021072712188824783 0 -0.011693775470355629 0.020802688980117237 0 -0.012098906811335236 0.020995346614099211 0 -0.013220835709599947 0.020690650032021543 0 -0.012635780958544765 0.021027714116395233 0 -0.012049081563791831 0.020503373109637648 0 -0.012635780958544765 0.021027714116395233 0 -0.012098906811335236 0.020995346614099211 0 -0.012049081563791831 0.020503373109637648 0 -0.013312680091980221 0.019991131958603369 0 -0.012049081563791831 0.020503373109637648 0 -0.011930602401372812 0.019765877268942997 0 -0.013312680091980221 0.019991131958603369 0 -0.013220835709599947 0.020690650032021543 0 -0.012049081563791831 0.020503373109637648 0 -0.012049081563791831 0.020503373109637648 0 -0.011930602401372812 0.019765877268942997 0 -0.011341946813400729 0.020161850457970549 0 -0.012049081563791831 0.020503373109637648 0 -0.011341946813400729 0.020161850457970549 0 -0.011372641216651208 0.020512378208747177 0 -0.011208959504393094 0.020043109951147327 0 -0.011930602401372812 0.019765877268942997 0 -0.011341946813400729 0.020161850457970549 0 -0.013321410839672821 0.019011917836700323 0 -0.013312680091980221 0.019991131958603369 0 -0.011930602401372812 0.019765877268942997 0 -0.010904538705572432 0.020208165795484283 0 -0.010986598588342325 0.020348474786070474 0 -0.010637801879760125 0.020365588725546814 0 -0.010904538705572432 0.020208165795484283 0 -0.011341946813400729 0.020161850457970549 0 -0.010986598588342325 0.020348474786070474 0 -0.011208959504393094 0.020043109951147327 0 -0.010904538705572432 0.020208165795484283 0 -0.011341946813400729 0.020161850457970549 0 -0.011341946813400729 0.020161850457970549 0 -0.011372641216651208 0.020512378208747177 0 -0.010986598588342325 0.020348474786070474 0 -0.011372641216651208 0.020512378208747177 0 -0.010986598588342325 0.020348474786070474 0 -0.011074028870504465 0.020571527818655573 0 -0.010986598588342325 0.020348474786070474 0 -0.010748956279070731 0.020531172831081267 0 -0.010637801879760125 0.020365588725546814 0 -0.010986598588342325 0.020348474786070474 0 -0.011074028870504465 0.020571527818655573 0 -0.010748956279070731 0.020531172831081267 0 -0.011074028870504465 0.020571527818655573 0 -0.01094765004577385 0.020774028396225368 0 -0.010748956279070731 0.020531172831081267 0 -0.011074028870504465 0.020571527818655573 0 -0.01094765004577385 0.020774028396225368 0 -0.011320299735045759 0.020772437892037809 0 -0.01094765004577385 0.020774028396225368 0 -0.011320299735045759 0.020772437892037809 0 -0.011236053251468196 0.020988595228639721 0 -0.011693775470355629 0.020802688980117237 0 -0.011372641216651208 0.020512378208747177 0 -0.011320299735045759 0.020772437892037809 0 -0.011372641216651208 0.020512378208747177 0 -0.011074028870504465 0.020571527818655573 0 -0.011320299735045759 0.020772437892037809 0 -0.01166022321478042 0.021072712188824783 0 -0.011693775470355629 0.020802688980117237 0 -0.011320299735045759 0.020772437892037809 0 -0.011358527961812656 0.021226129134269904 0 -0.01166022321478042 0.021072712188824783 0 -0.011236053251468196 0.020988595228639721 0 -0.01166022321478042 0.021072712188824783 0 -0.011320299735045759 0.020772437892037809 0 -0.011236053251468196 0.020988595228639721 0 -0.011358527961812656 0.021226129134269904 0 -0.011236053251468196 0.020988595228639721 0 -0.011081662713437437 0.021131811208248984 0 -0.01094765004577385 0.020774028396225368 0 -0.011022741016371749 0.020966626572629387 0 -0.010830632556103061 0.020971845926241173 0 -0.01094765004577385 0.020774028396225368 0 -0.011236053251468196 0.020988595228639721 0 -0.011022741016371749 0.020966626572629387 0 -0.011236053251468196 0.020988595228639721 0 -0.011022741016371749 0.020966626572629387 0 -0.011081662713437437 0.021131811208248984 0 -0.010880114511142455 0.021205533563541608 0 -0.011081662713437437 0.021131811208248984 0 -0.010830632556103061 0.020971845926241173 0 -0.011022741016371749 0.020966626572629387 0 -0.011081662713437437 0.021131811208248984 0 -0.010830632556103061 0.020971845926241173 0 -0.01094765004577385 0.020774028396225368 0 -0.010830632556103061 0.020971845926241173 0 -0.01051254786679859 0.020738492855084431 0 -0.010479336155084673 0.021124044540011277 0 -0.010830632556103061 0.020971845926241173 0 -0.01051254786679859 0.020738492855084431 0 -0.010479336155084673 0.021124044540011277 0 -0.01051254786679859 0.020738492855084431 0 -0.010086896945404171 0.020678336482062791 0 -0.0077916329536320038 0.019246223293725724 0 -0.0088844694447968563 0.01963260795523836 0 -0.01051254786679859 0.020738492855084431 0 -0.010086896945404171 0.020678336482062791 0 -0.010150162633365375 0.020333525160458488 0 -0.01051254786679859 0.020738492855084431 0 -0.010474525893265261 0.020483481622753163 0 -0.010150162633365375 0.020333525160458488 0 -0.01051254786679859 0.020738492855084431 0 -0.010474525893265261 0.020483481622753163 0 -0.010748956279070731 0.020531172831081267 0 -0.01094765004577385 0.020774028396225368 0 -0.01051254786679859 0.020738492855084431 0 -0.010748956279070731 0.020531172831081267 0 -0.0093107161839505338 0.017815098275649598 0 -0.0074669510440597059 0.018610546797173579 0 -0.0097433144178892539 0.019860640085439366 0 -0.0088844694447968563 0.01963260795523836 0 -0.0096541493724412192 0.019894765392811646 0 -0.010150162633365375 0.020333525160458488 0 -0.0097433144178892539 0.019860640085439366 0 -0.010112203473399969 0.02032687839220642 0 -0.010086896945404171 0.020678336482062791 0 -0.010150162633365375 0.020333525160458488 0 -0.0097433144178892539 0.019860640085439366 0 -0.0097433144178892539 0.019860640085439366 0 -0.010112203473399969 0.02032687839220642 0 -0.010310487754565289 0.020373966524248378 0 -0.010150162633365375 0.020333525160458488 0 -0.010112203473399969 0.02032687839220642 0 -0.010308581226081732 0.020367833362602443 0 -0.010112203473399969 0.02032687839220642 0 -0.010264876802547182 0.02045314909647241 0 -0.010308581226081732 0.020367833362602443 0 -0.010112203473399969 0.02032687839220642 0 -0.010264876802547182 0.02045314909647241 0 -0.010286860246966852 0.02060127978830003 0 -0.010112203473399969 0.02032687839220642 0 -0.010286860246966852 0.02060127978830003 0 -0.010310487754565289 0.020373966524248378 0 -0.010474525893265261 0.020483481622753163 0 -0.010748956279070731 0.020531172831081267 0 -0.010637801879760125 0.020365588725546814 0 -0.010474525893265261 0.020483481622753163 0 -0.010637801879760125 0.020365588725546814 0 -0.010308581226081732 0.020367833362602443 0 -0.010474525893265261 0.020483481622753163 0 -0.010150162633365375 0.020333525160458488 0 -0.010308581226081732 0.020367833362602443 0 -0.010637801879760125 0.020365588725546814 0 -0.010308581226081732 0.020367833362602443 0 -0.010420909300773789 0.020377098100125907 0 -0.010264876802547182 0.02045314909647241 0 -0.010308581226081732 0.020367833362602443 0 -0.010420909300773789 0.020377098100125907 0 -0.010637801879760125 0.020365588725546814 0 -0.010420909300773789 0.020377098100125907 0 -0.010611144281830213 0.020306929597864978 0 -0.010904538705572432 0.020208165795484283 0 -0.010637801879760125 0.020365588725546814 0 -0.010611144281830213 0.020306929597864978 0 -0.010611144281830213 0.020306929597864978 0 -0.010518037462849454 0.020382776674081112 0 -0.010402369393795389 0.020421498094827246 0 -0.010845512958154698 0.020177850260915713 0 -0.010611144281830213 0.020306929597864978 0 -0.010518037462849454 0.020382776674081112 0 -0.010845512958154698 0.020177850260915713 0 -0.010518037462849454 0.020382776674081112 0 -0.010730102731188015 0.020230935059989213 0 -0.010518037462849454 0.020382776674081112 0 -0.010730102731188015 0.020230935059989213 0 -0.010561615859417452 0.020361402661265144 0 -0.010518037462849454 0.020382776674081112 0 -0.010284922413361191 0.020598738968696961 0 -0.010384315855865751 0.020552969758639565 0 -0.010518037462849454 0.020382776674081112 0 -0.010561615859417452 0.020361402661265144 0 -0.010384315855865751 0.020552969758639565 0 -0.010518037462849454 0.020382776674081112 0 -0.010402369393795389 0.020421498094827246 0 -0.010284922413361191 0.020598738968696961 0 -0.010264876802547182 0.02045314909647241 0 -0.010420909300773789 0.020377098100125907 0 -0.010402369393795389 0.020421498094827246 0 -0.010264876802547182 0.02045314909647241 0 -0.010402369393795389 0.020421498094827246 0 -0.010284922413361191 0.020598738968696961 0 -0.010420909300773789 0.020377098100125907 0 -0.010611144281830213 0.020306929597864978 0 -0.010402369393795389 0.020421498094827246 0 -0.010286860246966852 0.02060127978830003 0 -0.010297417982833214 0.0208504399514194 0 -0.010284922413361191 0.020598738968696961 0 -0.010264876802547182 0.02045314909647241 0 -0.010286860246966852 0.02060127978830003 0 -0.010284922413361191 0.020598738968696961 0 -0.010286860246966852 0.02060127978830003 0 -0.010297417982833214 0.0208504399514194 0 -0.010606122368501949 0.020770363371900954 0 -0.010297417982833214 0.0208504399514194 0 -0.010356761725515791 0.021300698110848715 0 -0.010590122173833668 0.021093341035180711 0 -0.010297417982833214 0.0208504399514194 0 -0.010284922413361191 0.020598738968696961 0 -0.010151803157451044 0.020893680331542146 0 -0.010284922413361191 0.020598738968696961 0 -0.010151803157451044 0.020893680331542146 0 -0.010384315855865751 0.020552969758639565 0 -0.010151803157451044 0.020893680331542146 0 -0.010447375902965626 0.020447145041109106 0 -0.010384315855865751 0.020552969758639565 0 -0.010151803157451044 0.020893680331542146 0 -0.010017437648230248 0.020661482002031221 0 -0.010447375902965626 0.020447145041109106 0 -0.010151803157451044 0.020893680331542146 0 -0.010356761725515791 0.021300698110848715 0 -0.010146534583794761 0.021612178730194463 0 -0.010297417982833214 0.0208504399514194 0 -0.010151803157451044 0.020893680331542146 0 -0.010356761725515791 0.021300698110848715 0 -0.0098198536806319014 0.02053641409594064 0 -0.010742225321833627 0.022989557782080866 0 -0.010356761725515791 0.021300698110848715 0 -0.010146534583794761 0.021612178730194463 0 -0.010474404890601243 0.022042485438028107 0 -0.010742225321833627 0.022989557782080866 0 -0.0097631062996173905 0.022326645308627359 0 -0.0081189124157078525 0.022448300324251286 0 -0.009504144875492301 0.022626851620944795 0 -0.0089457229953432277 0.023966770569995285 0 -0.010742225321833627 0.022989557782080866 0 -0.010836361364384846 0.024949760177036515 0 -0.010742225321833627 0.022989557782080866 0 -0.012217946969883962 0.023396856312505036 0 -0.012928308553527485 0.026119700134203991 0 -0.013372334967057357 0.026183966490708512 0 -0.013144666514707642 0.025829981585330623 0 -0.013372334967057357 0.026183966490708512 0 -0.013749345958404718 0.025957188044416414 0 -0.013522695713266654 0.025745724734308698 0 -0.013805841996317583 0.026232038690570926 0 -0.013372334967057357 0.026183966490708512 0 -0.013749345958404718 0.025957188044416414 0 -0.010770198323088637 0.020127307737051681 0 -0.010447375902965626 0.020447145041109106 0 -0.010561615859417452 0.020361402661265144 0 -0.011680372257750309 0.023028974084326366 0 -0.012217946969883962 0.023396856312505036 0 -0.010770198323088637 0.020127307737051681 0 -0.010730102731188015 0.020230935059989213 0 -0.010561615859417452 0.020361402661265144 0 -0.010447375902965626 0.020447145041109106 0 -0.010561615859417452 0.020361402661265144 0 -0.010384315855865751 0.020552969758639565 0 -0.012251088379636982 0.022311573918896908 0 -0.011341942235575166 0.021895859422575988 0 -0.011290396550697719 0.020932977967282766 0 -0.011946466358554958 0.022852218751969331 0 -0.011240971859982272 0.021537657360506234 0 -0.01165678497960624 0.023341969380604038 0 -0.012338737823769068 0.022647660218510689 0 -0.012858147947318486 0.023519769802703285 0 -0.01165678497960624 0.023341969380604038 0 -0.011801884903766572 0.022268987045569563 0 -0.012338737823769068 0.022647660218510689 0 -0.01165678497960624 0.023341969380604038 0 -0.012858147947318486 0.023519769802703285 0 -0.012682631872932162 0.024655047126919113 0 -0.011946466358554958 0.022852218751969331 0 -0.012630355724233266 0.024513799919053517 0 -0.012251088379636982 0.022311573918896908 0 -0.01092880925756533 0.022752108784565343 0 -0.011756705180601741 0.024183758029640116 0 -0.012251088379636982 0.022311573918896908 0 -0.01092880925756533 0.022752108784565343 0 -0.011341942235575166 0.021895859422575988 0 -0.01092880925756533 0.022752108784565343 0 -0.009504144875492301 0.022626851620944795 0 -0.010324097682146141 0.024053307984561914 0 -0.010969996171328341 0.022659002734079305 0 -0.0097631062996173905 0.022326645308627359 0 -0.01092880925756533 0.022752108784565343 0 -0.010474404890601243 0.022042485438028107 0 -0.010774936601963441 0.021649384235101397 0 -0.010356761725515791 0.021300698110848715 0 -0.010774936601963441 0.021649384235101397 0 -0.010590122173833668 0.021093341035180711 0 -0.010356761725515791 0.021300698110848715 0 -0.010474404890601243 0.022042485438028107 0 -0.010774936601963441 0.021649384235101397 0 -0.01092880925756533 0.022752108784565343 0 -0.010774936601963441 0.021649384235101397 0 -0.011341942235575166 0.021895859422575988 0 -0.010774936601963441 0.021649384235101397 0 -0.011341942235575166 0.021895859422575988 0 -0.011290396550697719 0.020932977967282766 0 -0.010590122173833668 0.021093341035180711 0 -0.010606122368501949 0.020770363371900954 0 -0.011290396550697719 0.020932977967282766 0 -0.010774936601963441 0.021649384235101397 0 -0.010590122173833668 0.021093341035180711 0 -0.011290396550697719 0.020932977967282766 0 -0.010297417982833214 0.0208504399514194 0 -0.010590122173833668 0.021093341035180711 0 -0.010606122368501949 0.020770363371900954 0 -0.010606122368501949 0.020770363371900954 0 -0.011290396550697719 0.020932977967282766 0 -0.010818322361751193 0.020721054873182647 0 -0.011240971859982272 0.021537657360506234 0 -0.010850548440663545 0.020775108000611719 0 -0.011678807584830912 0.021345878929158561 0 -0.011156556457346959 0.022106036877730904 0 -0.011801884903766572 0.022268987045569563 0 -0.011678807584830912 0.021345878929158561 0 -0.011156556457346959 0.022106036877730904 0 -0.010818322361751193 0.020721054873182647 0 -0.01165678497960624 0.023341969380604038 0 -0.011156556457346959 0.022106036877730904 0 -0.011801884903766572 0.022268987045569563 0 -0.011801884903766572 0.022268987045569563 0 -0.012196087346195091 0.021689927794483095 0 -0.012338737823769068 0.022647660218510689 0 -0.011678807584830912 0.021345878929158561 0 -0.011801884903766572 0.022268987045569563 0 -0.012196087346195091 0.021689927794483095 0 -0.011678807584830912 0.021345878929158561 0 -0.012196087346195091 0.021689927794483095 0 -0.012526162668578663 0.02125043770556009 0 -0.011678807584830912 0.021345878929158561 0 -0.011560277204826176 0.020308644224204472 0 -0.012526162668578663 0.02125043770556009 0 -0.011678807584830912 0.021345878929158561 0 -0.011560277204826176 0.020308644224204472 0 -0.010818322361751193 0.020721054873182647 0 -0.011560277204826176 0.020308644224204472 0 -0.012589853247784253 0.019504877083057152 0 -0.012526162668578663 0.02125043770556009 0 -0.010606122368501949 0.020770363371900954 0 -0.010818322361751193 0.020721054873182647 0 -0.010310487754565289 0.020373966524248378 0 -0.010286860246966852 0.02060127978830003 0 -0.010606122368501949 0.020770363371900954 0 -0.010310487754565289 0.020373966524248378 0 -0.011560277204826176 0.020308644224204472 0 -0.010818322361751193 0.020721054873182647 0 -0.010705700839862473 0.019828948444564606 0 -0.010818322361751193 0.020721054873182647 0 -0.010310487754565289 0.020373966524248378 0 -0.010705700839862473 0.019828948444564606 0 -0.0097433144178892539 0.019860640085439366 0 -0.010310487754565289 0.020373966524248378 0 -0.010705700839862473 0.019828948444564606 0 -0.0097433144178892539 0.019860640085439366 0 -0.010705700839862473 0.019828948444564606 0 -0.010809872921150218 0.018388302837705289 0 -0.010705700839862473 0.019828948444564606 0 -0.010809872921150218 0.018388302837705289 0 -0.011545196364032475 0.019293877846895884 0 -0.011560277204826176 0.020308644224204472 0 -0.010705700839862473 0.019828948444564606 0 -0.011545196364032475 0.019293877846895884 0 -0.0093107161839505338 0.017815098275649598 0 -0.0097433144178892539 0.019860640085439366 0 -0.010809872921150218 0.018388302837705289 0 -0.011560277204826176 0.020308644224204472 0 -0.012589853247784253 0.019504877083057152 0 -0.011545196364032475 0.019293877846895884 0 -0.010809872921150218 0.018388302837705289 0 -0.011545196364032475 0.019293877846895884 0 -0.012143796403282009 0.018290832614610533 0 -0.012589853247784253 0.019504877083057152 0 -0.011545196364032475 0.019293877846895884 0 -0.012143796403282009 0.018290832614610533 0 -0.012589853247784253 0.019504877083057152 0 -0.012143796403282009 0.018290832614610533 0 -0.013096435461646225 0.018391979687214337 0 -0.012589853247784253 0.019504877083057152 0 -0.013096435461646225 0.018391979687214337 0 -0.013558519314774501 0.019039180368791101 0 -0.013096435461646225 0.018391979687214337 0 -0.013558519314774501 0.019039180368791101 0 -0.013784649462024328 0.018391242063585476 0 -0.012589853247784253 0.019504877083057152 0 -0.013558519314774501 0.019039180368791101 0 -0.013841466432320771 0.020064801001682821 0 -0.013558519314774501 0.019039180368791101 0 -0.014336796854715008 0.018781662343620064 0 -0.013841466432320771 0.020064801001682821 0 -0.013558519314774501 0.019039180368791101 0 -0.013784649462024328 0.018391242063585476 0 -0.014336796854715008 0.018781662343620064 0 -0.014330906825054328 0.018191079780491365 0 -0.013784649462024328 0.018391242063585476 0 -0.014336796854715008 0.018781662343620064 0 -0.014330906825054328 0.018191079780491365 0 -0.014885270099789856 0.019041756350998036 0 -0.014336796854715008 0.018781662343620064 0 -0.0082767738464381586 0.018007054109449385 0 -0.008805184186233498 0.017991214626319318 0 -0.0084262300488997278 0.017458405694212555 0 -0.0098747756732310548 0.016348678813901729 0 -0.0099041103545504487 0.021590025538882378 0 -0.0059135750985266945 0.023707926577305433 0 -0.007038415679661428 0.022744502043457862 0 -0.0062195139411814612 0.022493216624909058 0 -0.0058344945288201838 0.016447752206655418 0 -0.0099041103545504487 0.021590025538882378 0 -0.0077403772965047779 0.018012424118398863 0 -0.0082767738464381586 0.018007054109449385 0 -0.0084262300488997278 0.017458405694212555 0 -0.0099041103545504487 0.021590025538882378 0 -0.0072260958887606164 0.022805060138141608 0 -0.007038415679661428 0.022744502043457862 0 -0.0062195139411814612 0.022493216624909058 0 -0.0063000576812471832 0.021686007673092384 0 -0.0098605690899261009 0.025164937848871315 0 -0.010239945100748816 0.023405621611859793 0 -0.0083434687205453054 0.02334512210297476 0 -0.0099041103545504487 0.021590025538882378 0 -0.013261279165882656 0.021533586307969792 0 -0.014885270099789856 0.019041756350998036 0 -0.014336796854715008 0.018781662343620064 0 -0.013841466432320771 0.020064801001682821 0 -0.0098605690899261009 0.025164937848871315 0 -0.010239945100748816 0.023405621611859793 0 -0.011858567126431935 0.023036236395249425 0 -0.010239945100748816 0.023405621611859793 0 -0.0083434687205453054 0.02334512210297476 0 -0.010713632222689711 0.022079355198966037 0 -0.010239945100748816 0.023405621611859793 0 -0.010713632222689711 0.022079355198966037 0 -0.011858567126431935 0.023036236395249425 0 -0.0083434687205453054 0.02334512210297476 0 -0.0089376831544986657 0.021134777696517778 0 -0.010713632222689711 0.022079355198966037 0 -0.0083434687205453054 0.02334512210297476 0 -0.0089376831544986657 0.021134777696517778 0 -0.0060884909398950275 0.020598123753369078 0 -0.0089376831544986657 0.021134777696517778 0 -0.010713632222689711 0.022079355198966037 0 -0.01110954872509751 0.02102542167483535 0 -0.010713632222689711 0.022079355198966037 0 -0.011827324890956049 0.021626501608731544 0 -0.01110954872509751 0.02102542167483535 0 -0.011827324890956049 0.021626501608731544 0 -0.012526162668578663 0.02125043770556009 0 -0.012250742130754324 0.021363064949089107 0 -0.011827324890956049 0.021626501608731544 0 -0.012526162668578663 0.02125043770556009 0 -0.011858567126431935 0.023036236395249425 0 -0.012375216470352217 0.021372308954594826 0 -0.013261279165882656 0.021533586307969792 0 -0.012589853247784253 0.019504877083057152 0 -0.012526162668578663 0.02125043770556009 0 -0.013841466432320771 0.020064801001682821 0 -0.010713632222689711 0.022079355198966037 0 -0.011827324890956049 0.021626501608731544 0 -0.011858567126431935 0.023036236395249425 0 3.252504283196201e-06 0.015467970416784153 0 0.0001472178701530184 0.013127459655798507 0 0.00086875459831365373 0.015247910553870826 0 3.252504283196201e-06 0.015467970416784153 0 0.00086875459831365373 0.015247910553870826 0 3.7764632364450618e-05 0.017773162176334366 0 -5.8283906207045348e-05 0.013412401414418183 0 -0.00019529413616033969 0.013958399601784204 0 6.2287604186856682e-05 0.013848398702339438 0 0.00029163328966532072 0.013394533771950686 0 -5.8283906207045348e-05 0.013412401414418183 0 6.2287604186856682e-05 0.013848398702339438 0 0.00029163328966532072 0.013394533771950686 0 9.1273764153862615e-05 0.013260444334295267 0 0.00010858624192571248 0.013173378932190371 0 9.1273764153862615e-05 0.013260444334295267 0 -5.8283906207045348e-05 0.013412401414418183 0 -2.249086443615346e-05 0.013107190191640162 0 0.00029163328966532072 0.013394533771950686 0 9.1273764153862615e-05 0.013260444334295267 0 -5.8283906207045348e-05 0.013412401414418183 0 0.00021334000166818592 0.014212765311451228 0 0.0001339385953089032 0.01332653412969167 0 0.00029163328966532072 0.013394533771950686 0 0.00010858624192571248 0.013173378932190371 0 0.0001472178701530184 0.013127459655798507 0 -2.249086443615346e-05 0.013107190191640162 0 0.00010858624192571248 0.013173378932190371 0 -2.2545884211253297e-05 0.012957168387721122 0 9.1273764153862615e-05 0.013260444334295267 0 -2.249086443615346e-05 0.013107190191640162 0 0.00010858624192571248 0.013173378932190371 0 0.00010858624192571248 0.013173378932190371 0 -2.2545884211253297e-05 0.012957168387721122 0 0.0001472178701530184 0.013127459655798507 0 -1.6732051557501847e-05 0.012862627853383992 0 -2.2545884211253297e-05 0.012957168387721122 0 0.0001472178701530184 0.013127459655798507 0 -0.0039769633208156952 0.023613652025998747 0 -0.0040319652959186223 0.022740194751532085 0 -0.0033750353177212115 0.022411771005546914 0 -0.002366575115382573 0.0144985439491131 0 -0.0013185199230626664 0.019960558655484816 0 0.0014767891318594778 0.012919756607109808 0 0.0001472178701530184 0.013127459655798507 0 0.00086875459831365373 0.015247910553870826 0 -0.0040319652959186223 0.022740194751532085 0 -0.0033750353177212115 0.022411771005546914 0 -0.0038139543875108312 0.022127260062445399 0 -0.0033750353177212115 0.022411771005546914 0 -0.0038139543875108312 0.022127260062445399 0 -0.003368738160743187 0.021526320983670383 0 -0.0038139543875108312 0.022127260062445399 0 -0.0042912220047587315 0.022311745899172716 0 -0.0044161221537462256 0.021703672185842963 0 -0.0042912220047587315 0.022311745899172716 0 -0.0050858300383764109 0.022421099922588065 0 -0.0044161221537462256 0.021703672185842963 0 -0.0050858300383764109 0.022421099922588065 0 -0.0055330594440844601 0.021646767181725677 0 -0.0044161221537462256 0.021703672185842963 0 -0.0042912220047587315 0.022311745899172716 0 -0.0050858300383764109 0.022421099922588065 0 -0.0044975562421145261 0.022771212347622329 0 -0.0040319652959186223 0.022740194751532085 0 -0.0042912220047587315 0.022311745899172716 0 -0.0044975562421145261 0.022771212347622329 0 -0.0040319652959186223 0.022740194751532085 0 -0.0038139543875108312 0.022127260062445399 0 -0.0042912220047587315 0.022311745899172716 0 -0.0040319652959186223 0.022740194751532085 0 -0.0044975562421145261 0.022771212347622329 0 -0.0044445989271970094 0.023192187669101718 0 -0.0039769633208156952 0.023613652025998747 0 -0.0049278197168236551 0.023725119095519512 0 -0.0044445989271970094 0.023192187669101718 0 -0.0039769633208156952 0.023613652025998747 0 -0.0040319652959186223 0.022740194751532085 0 -0.0044445989271970094 0.023192187669101718 0 -0.0049278197168236551 0.023725119095519512 0 -0.0044445989271970094 0.023192187669101718 0 -0.0049988375509580456 0.023190350229112054 0 -0.0050858300383764109 0.022421099922588065 0 -0.0044975562421145261 0.022771212347622329 0 -0.0049988375509580456 0.023190350229112054 0 -0.0044975562421145261 0.022771212347622329 0 -0.0044445989271970094 0.023192187669101718 0 -0.0049988375509580456 0.023190350229112054 0 -0.0049278197168236551 0.023725119095519512 0 -0.0059135750985266945 0.023707926577305433 0 -0.0049988375509580456 0.023190350229112054 0 -0.0050858300383764109 0.022421099922588065 0 -0.0049988375509580456 0.023190350229112054 0 -0.0055343328649373183 0.022942394390810139 0 -0.0059135750985266945 0.023707926577305433 0 -0.0062195139411814612 0.022493216624909058 0 -0.0055343328649373183 0.022942394390810139 0 -0.0059135750985266945 0.023707926577305433 0 -0.0049988375509580456 0.023190350229112054 0 -0.0055343328649373183 0.022942394390810139 0 -0.0062195139411814612 0.022493216624909058 0 -0.0050858300383764109 0.022421099922588065 0 -0.0055330594440844601 0.021646767181725677 0 -0.0062195139411814612 0.022493216624909058 0 -0.0050858300383764109 0.022421099922588065 0 -0.0055343328649373183 0.022942394390810139 0 -0.0062195139411814612 0.022493216624909058 0 -0.0063000576812471832 0.021686007673092384 0 -0.0055330594440844601 0.021646767181725677 0 -0.0055330594440844601 0.021646767181725677 0 -0.0060884909398950275 0.020598123753369078 0 -0.0048102853914374546 0.020842848421894093 0 -0.0063000576812471832 0.021686007673092384 0 -0.0055330594440844601 0.021646767181725677 0 -0.0060884909398950275 0.020598123753369078 0 -0.0072260958887606164 0.022805060138141608 0 -0.0061198579086319685 0.020579897015988145 0 -0.0089376831544986657 0.021134777696517778 0 -0.0060884909398950275 0.020598123753369078 0 -0.0076323686395168436 0.01855967264953794 0 -0.0060884909398950275 0.020598123753369078 0 -0.0048102853914374546 0.020842848421894093 0 -0.0045232243557642646 0.018948496274438707 0 -0.0048102853914374546 0.020842848421894093 0 -0.0038389361468632852 0.019989534495757046 0 -0.0045232243557642646 0.018948496274438707 0 -0.0048102853914374546 0.020842848421894093 0 -0.0039430792810689428 0.020984670826899574 0 -0.0038389361468632852 0.019989534495757046 0 -0.0048102853914374546 0.020842848421894093 0 -0.0044161221537462256 0.021703672185842963 0 -0.0039430792810689428 0.020984670826899574 0 -0.0055330594440844601 0.021646767181725677 0 -0.0048102853914374546 0.020842848421894093 0 -0.0044161221537462256 0.021703672185842963 0 -0.0033750353177212115 0.022411771005546914 0 -0.003368738160743187 0.021526320983670383 0 -0.0022425227219888566 0.020841018741630284 0 -0.0013185199230626664 0.019960558655484816 0 -0.00060625789768629847 0.017312671414257602 0 -0.0038139543875108312 0.022127260062445399 0 -0.0044161221537462256 0.021703672185842963 0 -0.003368738160743187 0.021526320983670383 0 -0.0044161221537462256 0.021703672185842963 0 -0.003368738160743187 0.021526320983670383 0 -0.0039430792810689428 0.020984670826899574 0 -0.003368738160743187 0.021526320983670383 0 -0.0029704192620152326 0.020459808437586983 0 -0.0022425227219888566 0.020841018741630284 0 -0.003368738160743187 0.021526320983670383 0 -0.0039430792810689428 0.020984670826899574 0 -0.0029704192620152326 0.020459808437586983 0 -0.0039430792810689428 0.020984670826899574 0 -0.0038389361468632852 0.019989534495757046 0 -0.0029704192620152326 0.020459808437586983 0 -0.0038389361468632852 0.019989534495757046 0 -0.0030606163343229 0.019358582987908678 0 -0.0029704192620152326 0.020459808437586983 0 -0.0038389361468632852 0.019989534495757046 0 -0.0030606163343229 0.019358582987908678 0 -0.0036466115174336963 0.019179734375587801 0 -0.0030606163343229 0.019358582987908678 0 -0.0024744346981499196 0.01977639380188715 0 -0.0029704192620152326 0.020459808437586983 0 -0.0030606163343229 0.019358582987908678 0 -0.0024744346981499196 0.01977639380188715 0 -0.0024827839723326754 0.018817857066528557 0 -0.0024744346981499196 0.01977639380188715 0 -0.0029704192620152326 0.020459808437586983 0 -0.0022425227219888566 0.020841018741630284 0 -0.00060625789768629847 0.017312671414257602 0 -0.0011414259442474597 0.017624696603347881 0 -0.00037970855447916091 0.015712560714824034 0 -0.00041708253010285304 0.015830757899240322 0 -0.00036789749512108113 0.015900628189014675 0 -0.0024744346981499196 0.01977639380188715 0 -0.0022425227219888566 0.020841018741630284 0 -0.0017321137291347959 0.01920906625641863 0 -0.00060625789768629847 0.017312671414257602 0 -0.00010331563459742993 0.015133437888591105 0 -0.00061705214108325824 0.015590910241858557 0 -0.00041708253010285304 0.015830757899240322 0 -0.00042237033715155958 0.015104557483667643 0 -0.00061705214108325824 0.015590910241858557 0 -0.00041708253010285304 0.015830757899240322 0 -0.00078619608111614306 0.015956731888108817 0 -0.00078907501942101469 0.015478494714221414 0 -0.00061705214108325824 0.015590910241858557 0 -0.00042237033715155958 0.015104557483667643 0 0.00031127891259067231 0.014746768134787513 0 -0.00041708253010285304 0.015830757899240322 0 -0.00042237033715155958 0.015104557483667643 0 -0.00042706440219610059 0.01452235078006414 0 0.00031127891259067231 0.014746768134787513 0 -0.00042237033715155958 0.015104557483667643 0 0.00029163328966532072 0.013394533771950686 0 0.00031127891259067231 0.014746768134787513 0 6.2287604186856682e-05 0.013848398702339438 0 0.00021334000166818592 0.014212765311451228 0 -0.00060625789768629847 0.017312671414257602 0 -0.00042706440219610059 0.01452235078006414 0 0.00031127891259067231 0.014746768134787513 0 -0.00019529413616033969 0.013958399601784204 0 0.00031127891259067231 0.014746768134787513 0 -0.00019529413616033969 0.013958399601784204 0 6.2287604186856682e-05 0.013848398702339438 0 -0.0010529741555879205 0.016178882296669968 0 -0.00091757390791569735 0.016122273881006906 0 -0.00095444617684594258 0.016343240516829421 0 -0.0013832419107190153 0.016856101609646575 0 -0.00095444617684594258 0.016343240516829421 0 -0.00099002965151930565 0.016457911158276696 0 -0.00091757390791569735 0.016122273881006906 0 -0.0013832419107190153 0.016856101609646575 0 -0.00095444617684594258 0.016343240516829421 0 -0.00099194902406647819 0.016283361351771358 0 -0.0010529741555879205 0.016178882296669968 0 -0.00095444617684594258 0.016343240516829421 0 -0.00099194902406647819 0.016283361351771358 0 -0.00099002965151930565 0.016457911158276696 0 -0.00081594362021013679 0.016252990179955629 0 -0.0012744309192837882 0.016775026292280035 0 -0.0011414259442474597 0.017624696603347881 0 -0.0013832419107190153 0.016856101609646575 0 -0.00081594362021013679 0.016252990179955629 0 -0.00036789749512108113 0.015900628189014675 0 -0.00099194902406647819 0.016283361351771358 0 -0.00095444617684594258 0.016343240516829421 0 -0.00099002965151930565 0.016457911158276696 0 -0.0013832419107190153 0.016856101609646575 0 -0.0017321137291347959 0.01920906625641863 0 -0.0023385264645734848 0.017895992045410661 0 -0.00099194902406647819 0.016283361351771358 0 -0.00081594362021013679 0.016252990179955629 0 -0.00078619608111614306 0.015956731888108817 0 -0.00081594362021013679 0.016252990179955629 0 -0.0005900874385094347 0.015997878305367651 0 -0.00078619608111614306 0.015956731888108817 0 -0.00041708253010285304 0.015830757899240322 0 -0.0005900874385094347 0.015997878305367651 0 -0.00078619608111614306 0.015956731888108817 0 -0.00041708253010285304 0.015830757899240322 0 -0.0005900874385094347 0.015997878305367651 0 -0.00036789749512108113 0.015900628189014675 0 -0.00081594362021013679 0.016252990179955629 0 -0.0005900874385094347 0.015997878305367651 0 -0.00036789749512108113 0.015900628189014675 0 -0.0013832419107190153 0.016856101609646575 0 -0.00099002965151930565 0.016457911158276696 0 -0.00081594362021013679 0.016252990179955629 0 -0.0023385264645734848 0.017895992045410661 0 -0.003142454677992563 0.018360918054935085 0 -0.0042144340290424312 0.01710418727947496 0 -0.0030606163343229 0.019358582987908678 0 -0.0024827839723326754 0.018817857066528557 0 -0.003142454677992563 0.018360918054935085 0 -0.0017321137291347959 0.01920906625641863 0 -0.0023385264645734848 0.017895992045410661 0 -0.0024827839723326754 0.018817857066528557 0 -0.0024744346981499196 0.01977639380188715 0 -0.0017321137291347959 0.01920906625641863 0 -0.0024827839723326754 0.018817857066528557 0 -0.0023385264645734848 0.017895992045410661 0 -0.0024827839723326754 0.018817857066528557 0 -0.003142454677992563 0.018360918054935085 0 -0.0030606163343229 0.019358582987908678 0 -0.0036466115174336963 0.019179734375587801 0 -0.003142454677992563 0.018360918054935085 0 -0.0036466115174336963 0.019179734375587801 0 -0.003142454677992563 0.018360918054935085 0 -0.0045232243557642646 0.018948496274438707 0 -0.0052924614229314252 0.01943476916752393 0 -0.0066845427142985187 0.019679243008933728 0 -0.0094646298664464359 0.022686818264119838 0 -0.0093082557886701011 0.022548987580335095 0 -0.0093762394647535063 0.022710223467552967 0 -0.0094646298664464359 0.022686818264119838 0 -0.0093082557886701011 0.022548987580335095 0 -0.0092316428382911569 0.02228815001957616 0 -0.0013832419107190153 0.016856101609646575 0 -0.0023385264645734848 0.017895992045410661 0 -0.0042144340290424312 0.01710418727947496 0 -0.00091757390791569735 0.016122273881006906 0 -0.0013832419107190153 0.016856101609646575 0 -0.0042144340290424312 0.01710418727947496 0 -0.0093082557886701011 0.022548987580335095 0 -0.0092316428382911569 0.02228815001957616 0 -0.0092710093213989649 0.022441701446901476 0 -0.0092316428382911569 0.02228815001957616 0 -0.0096221811995249058 0.021981108029452471 0 -0.0092710093213989649 0.022441701446901476 0 -0.003142454677992563 0.018360918054935085 0 -0.0042144340290424312 0.01710418727947496 0 -0.0045232243557642646 0.018948496274438707 0 -0.0038389361468632852 0.019989534495757046 0 -0.0036466115174336963 0.019179734375587801 0 -0.0045232243557642646 0.018948496274438707 0 -0.0060884909398950275 0.020598123753369078 0 -0.0045232243557642646 0.018948496274438707 0 -0.0056221259633110572 0.018835499319547821 0 -0.0042144340290424312 0.01710418727947496 0 -0.0045232243557642646 0.018948496274438707 0 -0.0056221259633110572 0.018835499319547821 0 -0.0042144340290424312 0.01710418727947496 0 -0.0056221259633110572 0.018835499319547821 0 -0.0076323686395168436 0.01855967264953794 0 -0.0066845427142985187 0.019679243008933728 0 -0.0089676473579890174 0.020219290892959575 0 -0.0060884909398950275 0.020598123753369078 0 -0.0056221259633110572 0.018835499319547821 0 -0.0076323686395168436 0.01855967264953794 0 -0.010443899630569126 0.021429418049034702 0 -0.0096221811995249058 0.021981108029452471 0 -0.0104370005394344 0.021842624885059572 0 -0.0092316428382911569 0.02228815001957616 0 -0.0096221811995249058 0.021981108029452471 0 -0.0104370005394344 0.021842624885059572 0 -0.010443899630569126 0.021429418049034702 0 -0.0096221811995249058 0.021981108029452471 0 -0.010047093475729659 0.021015181607076661 0 -0.0095554649828288839 0.02217158610555426 0 -0.0093468712194890793 0.021575960696096002 0 -0.010443899630569126 0.021429418049034702 0 -0.010047093475729659 0.021015181607076661 0 -0.011104666973248018 0.021148940058350489 0 -0.0087833991108749922 0.022791663478857978 0 -0.0090639352338637031 0.023021580641715576 0 -0.0085836527697354791 0.023468281965993633 0 -0.0093468712194890793 0.021575960696096002 0 -0.011288687088176241 0.023752329830483872 0 -0.010047093475729659 0.021015181607076661 0 -0.011104666973248018 0.021148940058350489 0 -0.010206775251467416 0.020139522250335957 0 -0.0090639352338637031 0.023021580641715576 0 -0.0090309220821909609 0.023471814874259048 0 -0.0085836527697354791 0.023468281965993633 0 -0.0090639352338637031 0.023021580641715576 0 -0.009286741630001507 0.023171934279319951 0 -0.0090309220821909609 0.023471814874259048 0 -0.0087833991108749922 0.022791663478857978 0 -0.0090639352338637031 0.023021580641715576 0 -0.0092710093213989649 0.022441701446901476 0 -0.0096221811995249058 0.021981108029452471 0 -0.0087833991108749922 0.022791663478857978 0 -0.0092710093213989649 0.022441701446901476 0 -0.0090639352338637031 0.023021580641715576 0 -0.0092710093213989649 0.022441701446901476 0 -0.0093000119710735171 0.022753018869131773 0 -0.0093082557886701011 0.022548987580335095 0 -0.0092710093213989649 0.022441701446901476 0 -0.0093000119710735171 0.022753018869131773 0 -0.0093082557886701011 0.022548987580335095 0 -0.0093000119710735171 0.022753018869131773 0 -0.0093762394647535063 0.022710223467552967 0 -0.0093000119710735171 0.022753018869131773 0 -0.0093762394647535063 0.022710223467552967 0 -0.0094510739049329748 0.022936374630523775 0 -0.0093000119710735171 0.022753018869131773 0 -0.009286741630001507 0.023171934279319951 0 -0.0094510739049329748 0.022936374630523775 0 -0.0090639352338637031 0.023021580641715576 0 -0.0093000119710735171 0.022753018869131773 0 -0.009286741630001507 0.023171934279319951 0 -0.009286741630001507 0.023171934279319951 0 -0.0094914397370198193 0.023392104336551166 0 -0.0092798687591576258 0.023677919073604323 0 -0.009286741630001507 0.023171934279319951 0 -0.0092798687591576258 0.023677919073604323 0 -0.0090309220821909609 0.023471814874259048 0 -0.0096403332944661486 0.023188229929322422 0 -0.0094914397370198193 0.023392104336551166 0 -0.0094510739049329748 0.022936374630523775 0 -0.009286741630001507 0.023171934279319951 0 -0.0094914397370198193 0.023392104336551166 0 -0.0094510739049329748 0.022936374630523775 0 -0.0097099505752592536 0.023541351522901426 0 -0.0096403332944661486 0.023188229929322422 0 -0.0094914397370198193 0.023392104336551166 0 -0.0096403332944661486 0.023188229929322422 0 -0.0094510739049329748 0.022936374630523775 0 -0.0095919574554819836 0.022975184592502702 0 -0.0094646298664464359 0.022686818264119838 0 -0.0093762394647535063 0.022710223467552967 0 -0.0094510739049329748 0.022936374630523775 0 -0.0094646298664464359 0.022686818264119838 0 -0.0094510739049329748 0.022936374630523775 0 -0.0095919574554819836 0.022975184592502702 0 -0.012253183892804822 0.021436083004754709 0 -0.012219917697838791 0.021956629480682426 0 -0.012250742130754324 0.021363064949089107 0 -0.011071559858803717 0.021140000573898653 0 -0.010917027862380947 0.020821068477401981 0 -0.012584261076689416 0.022398771166342417 0 -0.012250742130754324 0.021363064949089107 0 -0.013544702637514941 0.022996447047991916 0 -0.012196087346195091 0.021689927794483095 0 -0.012584261076689416 0.022398771166342417 0 -0.012338737823769068 0.022647660218510689 0 -0.012196087346195091 0.021689927794483095 0 -0.012584261076689416 0.022398771166342417 0 -0.012250742130754324 0.021363064949089107 0 -0.012196087346195091 0.021689927794483095 0 -0.012526162668578663 0.02125043770556009 0 -0.012250742130754324 0.021363064949089107 0 -0.011827324890956049 0.021626501608731544 0 -0.012250742130754324 0.021363064949089107 0 -0.01110954872509751 0.02102542167483535 0 -0.012250742130754324 0.021363064949089107 0 -0.01110954872509751 0.02102542167483535 0 -0.011071559858803717 0.021140000573898653 0 -0.01110954872509751 0.02102542167483535 0 -0.0104370005394344 0.021842624885059572 0 -0.011071559858803717 0.021140000573898653 0 -0.010906015848678599 0.0209210547630535 0 -0.0089676473579890174 0.020219290892959575 0 -0.0089376831544986657 0.021134777696517778 0 -0.01110954872509751 0.02102542167483535 0 -0.0076323686395168436 0.01855967264953794 0 -0.010443899630569126 0.021429418049034702 0 -0.0104370005394344 0.021842624885059572 0 -0.010820496296936417 0.021257949617255523 0 -0.0104370005394344 0.021842624885059572 0 -0.010820496296936417 0.021257949617255523 0 -0.011071559858803717 0.021140000573898653 0 -0.010820496296936417 0.021257949617255523 0 -0.010968140165332511 0.021045106783869498 0 -0.011024585389062924 0.021055772724395797 0 -0.010820496296936417 0.021257949617255523 0 -0.011071559858803717 0.021140000573898653 0 -0.010968140165332511 0.021045106783869498 0 -0.011071559858803717 0.021140000573898653 0 -0.010968140165332511 0.021045106783869498 0 -0.010917027862380947 0.020821068477401981 0 -0.010917027862380947 0.020821068477401981 0 -0.011024585389062924 0.021055772724395797 0 -0.010990407129236806 0.02235075391227739 0 -0.012219917697838791 0.021956629480682426 0 -0.012473056267091392 0.023676900092610399 0 -0.010968140165332511 0.021045106783869498 0 -0.010917027862380947 0.020821068477401981 0 -0.011024585389062924 0.021055772724395797 0 -0.011024585389062924 0.021055772724395797 0 -0.011104666973248018 0.021148940058350489 0 -0.010990407129236806 0.02235075391227739 0 -0.010443899630569126 0.021429418049034702 0 -0.010820496296936417 0.021257949617255523 0 -0.011104666973248018 0.021148940058350489 0 -0.010820496296936417 0.021257949617255523 0 -0.011024585389062924 0.021055772724395797 0 -0.011104666973248018 0.021148940058350489 0 -0.011104666973248018 0.021148940058350489 0 -0.010990407129236806 0.02235075391227739 0 -0.013996230074966571 0.023334272871498862 0 -0.01130401775862268 0.020540169211754254 0 -0.011288687088176241 0.023752329830483872 0 -0.013544702637514941 0.022996447047991916 0 -0.01388873943256333 0.024995163820829894 0 -0.013263386820218961 0.024716287108965441 0 -0.01388873943256333 0.024995163820829894 0 -0.013263386820218961 0.024716287108965441 0 -0.013421710159139304 0.025347972766375716 0 -0.013057227589849249 0.023355890950976437 0 -0.012858147947318486 0.023519769802703285 0 -0.013391335860986378 0.024268498701376519 0 -0.013263386820218961 0.024716287108965441 0 -0.013057227589849249 0.023355890950976437 0 -0.012345361729216853 0.025480028885554888 0 -0.013071692463765404 0.023461556577367884 0 -0.012884256225088051 0.024875210104934434 0 -0.012584261076689416 0.022398771166342417 0 -0.013544702637514941 0.022996447047991916 0 -0.013057227589849249 0.023355890950976437 0 -0.013544702637514941 0.022996447047991916 0 -0.013263386820218961 0.024716287108965441 0 -0.013057227589849249 0.023355890950976437 0 -0.013057227589849249 0.023355890950976437 0 -0.012697135808236502 0.022991398551945506 0 -0.012858147947318486 0.023519769802703285 0 -0.012584261076689416 0.022398771166342417 0 -0.013057227589849249 0.023355890950976437 0 -0.012697135808236502 0.022991398551945506 0 -0.012584261076689416 0.022398771166342417 0 -0.012338737823769068 0.022647660218510689 0 -0.012697135808236502 0.022991398551945506 0 -0.012338737823769068 0.022647660218510689 0 -0.012697135808236502 0.022991398551945506 0 -0.012858147947318486 0.023519769802703285 0 -0.012858147947318486 0.023519769802703285 0 -0.013391335860986378 0.024268498701376519 0 -0.012682631872932162 0.024655047126919113 0 -0.013391335860986378 0.024268498701376519 0 -0.013476454898638168 0.026064031899320488 0 -0.012682631872932162 0.024655047126919113 0 -0.012884256225088051 0.024875210104934434 0 -0.012979948965035112 0.026303607441189293 0 -0.012345361729216853 0.025480028885554888 0 -0.012812666944000611 0.026257748933183871 0 -0.012533165677055876 0.026548702410312132 0 -0.012812666944000611 0.026257748933183871 0 -0.013089472024534209 0.02575539460746093 0 -0.013149435372416519 0.026382237882527186 0 -0.012345361729216853 0.025480028885554888 0 -0.012812666944000611 0.026257748933183871 0 -0.013089472024534209 0.02575539460746093 0 -0.013263386820218961 0.024716287108965441 0 -0.012345361729216853 0.025480028885554888 0 -0.013089472024534209 0.02575539460746093 0 -0.013263386820218961 0.024716287108965441 0 -0.013421710159139304 0.025347972766375716 0 -0.013089472024534209 0.02575539460746093 0 -0.01388873943256333 0.024995163820829894 0 -0.013421710159139304 0.025347972766375716 0 -0.013382946306082662 0.025845485739376898 0 -0.013421710159139304 0.025347972766375716 0 -0.013382946306082662 0.025845485739376898 0 -0.013089472024534209 0.02575539460746093 0 -0.01388873943256333 0.024995163820829894 0 -0.013468777373114514 0.025919067427911533 0 -0.013508934019292484 0.026014448190728547 0 -0.012473056267091392 0.023676900092610399 0 -0.013461421389077648 0.025837804246978475 0 -0.01388873943256333 0.024995163820829894 0 -0.013382946306082662 0.025845485739376898 0 -0.013468777373114514 0.025919067427911533 0 -0.013468777373114514 0.025919067427911533 0 -0.013359371988493716 0.026233909171957979 0 -0.013508934019292484 0.026014448190728547 0 -0.013468777373114514 0.025919067427911533 0 -0.01327161288526587 0.026385411680310059 0 -0.013359371988493716 0.026233909171957979 0 -0.013382946306082662 0.025845485739376898 0 -0.013468777373114514 0.025919067427911533 0 -0.01327161288526587 0.026385411680310059 0 -0.01327161288526587 0.026385411680310059 0 -0.013359371988493716 0.026233909171957979 0 -0.013052731105818163 0.026727569158822604 0 -0.013382946306082662 0.025845485739376898 0 -0.013089472024534209 0.02575539460746093 0 -0.013149435372416519 0.026382237882527186 0 -0.013382946306082662 0.025845485739376898 0 -0.01327161288526587 0.026385411680310059 0 -0.013149435372416519 0.026382237882527186 0 -0.013149435372416519 0.026382237882527186 0 -0.013193477024297224 0.026642008318788348 0 -0.013033578194161472 0.026840343679218392 0 -0.01327161288526587 0.026385411680310059 0 -0.013193477024297224 0.026642008318788348 0 -0.013052731105818163 0.026727569158822604 0 -0.01327161288526587 0.026385411680310059 0 -0.013149435372416519 0.026382237882527186 0 -0.013193477024297224 0.026642008318788348 0 -0.013193477024297224 0.026642008318788348 0 -0.013052731105818163 0.026727569158822604 0 -0.012808260135506082 0.026516025874318724 0 -0.013193477024297224 0.026642008318788348 0 -0.012808260135506082 0.026516025874318724 0 -0.01265046826757248 0.026266947442791597 0 -0.013193477024297224 0.026642008318788348 0 -0.01265046826757248 0.026266947442791597 0 -0.013364452288797048 0.026681112679744011 0 -0.013193477024297224 0.026642008318788348 0 -0.013033578194161472 0.026840343679218392 0 -0.013364452288797048 0.026681112679744011 0 -0.013033578194161472 0.026840343679218392 0 -0.013040329837347516 0.027187250997784976 0 -0.01279444036379911 0.027595265519305946 0 -0.013033578194161472 0.026840343679218392 0 -0.012533165677055876 0.026548702410312132 0 -0.01279444036379911 0.027595265519305946 0 -0.012812666944000611 0.026257748933183871 0 -0.013033578194161472 0.026840343679218392 0 -0.012533165677055876 0.026548702410312132 0 -0.012812666944000611 0.026257748933183871 0 -0.013149435372416519 0.026382237882527186 0 -0.013033578194161472 0.026840343679218392 0 -0.0093231930176055668 0.02412806297917118 0 -0.009173202604330551 0.024619346418118304 0 -0.0097135279502138065 0.024508004333998523 0 -0.009623954504339496 0.023929778227942004 0 -0.0093231930176055668 0.02412806297917118 0 -0.0097135279502138065 0.024508004333998523 0 -0.0097099505752592536 0.023541351522901426 0 -0.0094914397370198193 0.023392104336551166 0 -0.009623954504339496 0.023929778227942004 0 -0.0094914397370198193 0.023392104336551166 0 -0.009623954504339496 0.023929778227942004 0 -0.0092798687591576258 0.023677919073604323 0 -0.009623954504339496 0.023929778227942004 0 -0.0092798687591576258 0.023677919073604323 0 -0.0093231930176055668 0.02412806297917118 0 -0.0092798687591576258 0.023677919073604323 0 -0.0089092877393078408 0.023991508606349531 0 -0.0090309220821909609 0.023471814874259048 0 -0.01038310297950794 0.026161432633864518 0 -0.010052326654793773 0.025687762747635689 0 -0.0093231930176055668 0.02412806297917118 0 -0.0089092877393078408 0.023991508606349531 0 -0.009173202604330551 0.024619346418118304 0 -0.0092798687591576258 0.023677919073604323 0 -0.0093231930176055668 0.02412806297917118 0 -0.0089092877393078408 0.023991508606349531 0 -0.012311451176654628 0.02716364259671215 0 -0.011831543609068771 0.027665978060988784 0 -0.01166589440807589 0.026681591224724722 0 -0.012311451176654628 0.02716364259671215 0 -0.011831543609068771 0.027665978060988784 0 -0.012402368052885072 0.027748931082263693 0 -0.0089092877393078408 0.023991508606349531 0 -0.0090309220821909609 0.023471814874259048 0 -0.0085836527697354791 0.023468281965993633 0 -0.01038310297950794 0.026161432633864518 0 -0.011288687088176241 0.023752329830483872 0 -0.011831543609068771 0.027665978060988784 0 -0.012657997551533972 0.028442808586073828 0 -0.012402368052885072 0.027748931082263693 0 -0.010990407129236806 0.02235075391227739 0 -0.013996230074966571 0.023334272871498862 0 -0.013508934019292484 0.026014448190728547 0 -0.012657997551533972 0.028442808586073828 0 -0.012804925681786979 0.027681549544622115 0 -0.012402368052885072 0.027748931082263693 0 -0.013996230074966571 0.023334272871498862 0 -0.013736323472517633 0.026027224064359381 0 -0.013508934019292484 0.026014448190728547 0 -0.011288687088176241 0.023752329830483872 0 -0.013198476804234079 0.02709395901013769 0 -0.013359371988493716 0.026233909171957979 0 -0.013736323472517633 0.026027224064359381 0 -0.013052731105818163 0.026727569158822604 0 -0.013198476804234079 0.02709395901013769 0 -0.01314844870045225 0.026601742050427441 0 -0.012311451176654628 0.02716364259671215 0 -0.012804925681786979 0.027681549544622115 0 -0.013052731105818163 0.026727569158822604 0 -0.013359371988493716 0.026233909171957979 0 -0.013736323472517633 0.026027224064359381 0 -0.013508934019292484 0.026014448190728547 0 -0.012311451176654628 0.02716364259671215 0 -0.012804925681786979 0.027681549544622115 0 -0.012402368052885072 0.027748931082263693 0 -0.012311451176654628 0.02716364259671215 0 -0.013052731105818163 0.026727569158822604 0 -0.012145886282013976 0.026421787650638594 0 -0.013052731105818163 0.026727569158822604 0 -0.012808260135506082 0.026516025874318724 0 -0.012145886282013976 0.026421787650638594 0 -0.012808260135506082 0.026516025874318724 0 -0.012145886282013976 0.026421787650638594 0 -0.01265046826757248 0.026266947442791597 0 -0.012145886282013976 0.026421787650638594 0 -0.011633172254457204 0.026005517833991468 0 -0.01265046826757248 0.026266947442791597 0 -0.012145886282013976 0.026421787650638594 0 -0.011633172254457204 0.026005517833991468 0 -0.01166589440807589 0.026681591224724722 0 -0.012311451176654628 0.02716364259671215 0 -0.012145886282013976 0.026421787650638594 0 -0.01166589440807589 0.026681591224724722 0 -0.011831543609068771 0.027665978060988784 0 -0.01166589440807589 0.026681591224724722 0 -0.010918381645632323 0.026893186094096289 0 -0.01166589440807589 0.026681591224724722 0 -0.010918381645632323 0.026893186094096289 0 -0.010990016465311442 0.026015053698901763 0 -0.011633172254457204 0.026005517833991468 0 -0.01166589440807589 0.026681591224724722 0 -0.010990016465311442 0.026015053698901763 0 -0.011633172254457204 0.026005517833991468 0 -0.010990016465311442 0.026015053698901763 0 -0.011188492168607756 0.025658598638889297 0 -0.010918381645632323 0.026893186094096289 0 -0.010990016465311442 0.026015053698901763 0 -0.0099604126862832352 0.025542004184949757 0 -0.010990016465311442 0.026015053698901763 0 -0.0099604126862832352 0.025542004184949757 0 -0.010569403624123803 0.025541812855394926 0 -0.010052326654793773 0.025687762747635689 0 -0.0099776231067870286 0.025599997516179338 0 -0.009173202604330551 0.024619346418118304 0 -0.0099604126862832352 0.025542004184949757 0 -0.0097135279502138065 0.024508004333998523 0 -0.010096673434125462 0.025315435192972975 0 -0.010447268904750662 0.025056147674924402 0 -0.010548459477294353 0.024753351545433018 0 -0.0084927129388349728 0.026194822126089829 0 -0.0087780025684619858 0.025747917928130575 0 -0.010548459477294353 0.024753351545433018 0 -0.0092453112868157612 0.025786729854021889 0 -0.010524212558352643 0.024741676137768145 0 -0.010447268904750662 0.025056147674924402 0 -0.010614753372525482 0.025215122718996601 0 -0.010353475286599731 0.025243273691381796 0 -0.010447268904750662 0.025056147674924402 0 -0.010705222194499176 0.025058068487224357 0 -0.010623435438333884 0.024932798028673514 0 -0.010447268904750662 0.025056147674924402 0 -0.010614753372525482 0.025215122718996601 0 -0.010705222194499176 0.025058068487224357 0 -0.010614753372525482 0.025215122718996601 0 -0.010458233903276899 0.025348817573301478 0 -0.010817827044390981 0.025381770397833136 0 -0.010614753372525482 0.025215122718996601 0 -0.010353475286599731 0.025243273691381796 0 -0.010458233903276899 0.025348817573301478 0 -0.010096673434125462 0.025315435192972975 0 -0.010353475286599731 0.025243273691381796 0 -0.010218641683591437 0.025339166575562573 0 -0.010353475286599731 0.025243273691381796 0 -0.010218641683591437 0.025339166575562573 0 -0.010458233903276899 0.025348817573301478 0 -0.010096673434125462 0.025315435192972975 0 -0.010447268904750662 0.025056147674924402 0 -0.010353475286599731 0.025243273691381796 0 -0.010218641683591437 0.025339166575562573 0 -0.010178122583328288 0.025418741989577734 0 -0.010458233903276899 0.025348817573301478 0 -0.0099604126862832352 0.025542004184949757 0 -0.010178122583328288 0.025418741989577734 0 -0.010569403624123803 0.025541812855394926 0 -0.010178122583328288 0.025418741989577734 0 -0.010569403624123803 0.025541812855394926 0 -0.010458233903276899 0.025348817573301478 0 -0.010569403624123803 0.025541812855394926 0 -0.010458233903276899 0.025348817573301478 0 -0.010817827044390981 0.025381770397833136 0 -0.010569403624123803 0.025541812855394926 0 -0.010817827044390981 0.025381770397833136 0 -0.011188492168607756 0.025658598638889297 0 -0.010990016465311442 0.026015053698901763 0 -0.010569403624123803 0.025541812855394926 0 -0.011188492168607756 0.025658598638889297 0 -0.010817827044390981 0.025381770397833136 0 -0.011188492168607756 0.025658598638889297 0 -0.011276391534851592 0.025392258943483299 0 -0.010817827044390981 0.025381770397833136 0 -0.011276391534851592 0.025392258943483299 0 -0.010941562439620713 0.025214412275626204 0 -0.010614753372525482 0.025215122718996601 0 -0.010817827044390981 0.025381770397833136 0 -0.010941562439620713 0.025214412275626204 0 -0.010941562439620713 0.025214412275626204 0 -0.010705222194499176 0.025058068487224357 0 -0.011152138721045861 0.025054545057831529 0 -0.010614753372525482 0.025215122718996601 0 -0.010941562439620713 0.025214412275626204 0 -0.010705222194499176 0.025058068487224357 0 -0.011276391534851592 0.025392258943483299 0 -0.010941562439620713 0.025214412275626204 0 -0.011152138721045861 0.025054545057831529 0 -0.011703477745658938 0.025266271892169623 0 -0.011817218111645095 0.025698664237105324 0 -0.012418166634194814 0.025589075822480167 0 -0.011152138721045861 0.025054545057831529 0 -0.011703477745658938 0.025266271892169623 0 -0.011427627902652324 0.024815683039592893 0 -0.011276391534851592 0.025392258943483299 0 -0.011152138721045861 0.025054545057831529 0 -0.011703477745658938 0.025266271892169623 0 -0.011276391534851592 0.025392258943483299 0 -0.011703477745658938 0.025266271892169623 0 -0.011817218111645095 0.025698664237105324 0 -0.011633172254457204 0.026005517833991468 0 -0.011817218111645095 0.025698664237105324 0 -0.01265046826757248 0.026266947442791597 0 -0.011188492168607756 0.025658598638889297 0 -0.011276391534851592 0.025392258943483299 0 -0.011817218111645095 0.025698664237105324 0 -0.011633172254457204 0.026005517833991468 0 -0.011188492168607756 0.025658598638889297 0 -0.011817218111645095 0.025698664237105324 0 -0.011817218111645095 0.025698664237105324 0 -0.01265046826757248 0.026266947442791597 0 -0.012418166634194814 0.025589075822480167 0 -0.011703477745658938 0.025266271892169623 0 -0.012418166634194814 0.025589075822480167 0 -0.011877312882939263 0.024821740318317555 0 -0.012418166634194814 0.025589075822480167 0 -0.012406846968936555 0.024689948980179587 0 -0.011877312882939263 0.024821740318317555 0 -0.012406846968936555 0.024689948980179587 0 -0.011996576542238973 0.024254424210194282 0 -0.011877312882939263 0.024821740318317555 0 -0.012043883161525543 0.023671600361185114 0 -0.011996576542238973 0.024254424210194282 0 -0.011690486239131744 0.024031995263506887 0 -0.01263630281247384 0.023921712580929535 0 -0.012406846968936555 0.024689948980179587 0 -0.011996576542238973 0.024254424210194282 0 -0.01263630281247384 0.023921712580929535 0 -0.012043883161525543 0.023671600361185114 0 -0.011996576542238973 0.024254424210194282 0 -0.011996576542238973 0.024254424210194282 0 -0.011690486239131744 0.024031995263506887 0 -0.011408602131291386 0.024337191631353422 0 -0.011443879984754698 0.023781721414966841 0 -0.011408602131291386 0.024337191631353422 0 -0.011099840137127091 0.024322145496386033 0 -0.011996576542238973 0.024254424210194282 0 -0.011408602131291386 0.024337191631353422 0 -0.011877312882939263 0.024821740318317555 0 -0.011443879984754698 0.023781721414966841 0 -0.011690486239131744 0.024031995263506887 0 -0.011408602131291386 0.024337191631353422 0 -0.011408602131291386 0.024337191631353422 0 -0.011877312882939263 0.024821740318317555 0 -0.011427627902652324 0.024815683039592893 0 -0.011408602131291386 0.024337191631353422 0 -0.011427627902652324 0.024815683039592893 0 -0.011094662025460377 0.024646923613959839 0 -0.011703477745658938 0.025266271892169623 0 -0.011877312882939263 0.024821740318317555 0 -0.011427627902652324 0.024815683039592893 0 -0.011152138721045861 0.025054545057831529 0 -0.010823097922716872 0.02485421748110813 0 -0.011094662025460377 0.024646923613959839 0 -0.011152138721045861 0.025054545057831529 0 -0.011427627902652324 0.024815683039592893 0 -0.011094662025460377 0.024646923613959839 0 -0.010705222194499176 0.025058068487224357 0 -0.011152138721045861 0.025054545057831529 0 -0.010823097922716872 0.02485421748110813 0 -0.010705222194499176 0.025058068487224357 0 -0.010823097922716872 0.02485421748110813 0 -0.010623435438333884 0.024932798028673514 0 -0.010823097922716872 0.02485421748110813 0 -0.010548459477294353 0.024753351545433018 0 -0.010623435438333884 0.024932798028673514 0 -0.010874414431270183 0.024578073427865874 0 -0.010685793815117247 0.024354290256669339 0 -0.011099840137127091 0.024322145496386033 0 -0.010823097922716872 0.02485421748110813 0 -0.010874414431270183 0.024578073427865874 0 -0.011094662025460377 0.024646923613959839 0 -0.010823097922716872 0.02485421748110813 0 -0.010874414431270183 0.024578073427865874 0 -0.010548459477294353 0.024753351545433018 0 -0.010874414431270183 0.024578073427865874 0 -0.010685793815117247 0.024354290256669339 0 -0.010548459477294353 0.024753351545433018 0 -0.011408602131291386 0.024337191631353422 0 -0.011094662025460377 0.024646923613959839 0 -0.011099840137127091 0.024322145496386033 0 -0.010874414431270183 0.024578073427865874 0 -0.011094662025460377 0.024646923613959839 0 -0.011099840137127091 0.024322145496386033 0 -0.00065503004814641917 0.026066840989882524 0 0.00045655816001782221 0.026751553580942257 0 0.00012236060500506993 0.026255694110921154 0 -0.0063736301992201785 0.024510890327040926 0 -0.0050036732416030771 0.025651403226143617 0 -0.011443879984754698 0.023781721414966841 0 -0.010685793815117247 0.024354290256669339 0 -0.011099840137127091 0.024322145496386033 0 0.00045655816001782221 0.026751553580942257 0 0.00012236060500506993 0.026255694110921154 0 0.00052806788503562043 0.026422464608006273 0 0.00045655816001782221 0.026751553580942257 0 0.00052806788503562043 0.026422464608006273 0 0.00077865800613950134 0.026592324885984595 0 0.00049001696658402855 0.026123274272173459 0 0.00012236060500506993 0.026255694110921154 0 0.00052806788503562043 0.026422464608006273 0 0.00049001696658402855 0.026123274272173459 0 0.00052806788503562043 0.026422464608006273 0 0.00069138050177176055 0.026337131121671825 0 0.00052806788503562043 0.026422464608006273 0 0.00069138050177176055 0.026337131121671825 0 0.00077865800613950134 0.026592324885984595 0 0.0010693852577065468 0.026560021555523457 0 0.00069138050177176055 0.026337131121671825 0 0.00077865800613950134 0.026592324885984595 0 -0.0087780025684619858 0.025747917928130575 0 -0.010685793815117247 0.024354290256669339 0 -0.010548459477294353 0.024753351545433018 0 0.00096239529559438957 0.026633465786538683 0 0.00077865800613950134 0.026592324885984595 0 0.00089747903645182394 0.026725820982018693 0 0.0011469915078002896 0.026811501484481914 0 0.00045655816001782221 0.026751553580942257 0 0.00089747903645182394 0.026725820982018693 0 0.00045655816001782221 0.026751553580942257 0 0.00077865800613950134 0.026592324885984595 0 0.00089747903645182394 0.026725820982018693 0 -0.0039444855370068194 0.026191558456198558 0 -0.0050036732416030771 0.025651403226143617 0 -0.010447268904750662 0.025056147674924402 0 -0.010548459477294353 0.024753351545433018 0 -0.010623435438333884 0.024932798028673514 0 -0.013089466966171708 0.027658127129498229 0 -0.012853587694985654 0.027736649221347692 0 -0.013040329837347516 0.027187250997784976 0 -0.013089466966171708 0.027658127129498229 0 -0.013040329837347516 0.027187250997784976 0 -0.013364452288797048 0.026681112679744011 0 -0.012853587694985654 0.027736649221347692 0 -0.013040329837347516 0.027187250997784976 0 -0.01279444036379911 0.027595265519305946 0 -0.013033578194161472 0.026840343679218392 0 -0.013040329837347516 0.027187250997784976 0 -0.013364452288797048 0.026681112679744011 0 -0.01265046826757248 0.026266947442791597 0 -0.012418166634194814 0.025589075822480167 0 -0.013364452288797048 0.026681112679744011 0 -0.012418166634194814 0.025589075822480167 0 -0.013364452288797048 0.026681112679744011 0 -0.013102157621548288 0.024981990313522853 0 -0.013089466966171708 0.027658127129498229 0 -0.013364452288797048 0.026681112679744011 0 -0.013678086007284583 0.027778075459903431 0 -0.013393555888504253 0.026631725939667259 0 -0.013308966850016167 0.026438009041507216 0 -0.013089466966171708 0.027658127129498229 0 -0.013678086007284583 0.027778075459903431 0 -0.013229960300480596 0.028219329024121401 0 -0.012418166634194814 0.025589075822480167 0 -0.012406846968936555 0.024689948980179587 0 -0.013102157621548288 0.024981990313522853 0 -0.013671987095039534 0.025875117397847282 0 -0.013308966850016167 0.026438009041507216 0 -0.01263630281247384 0.023921712580929535 0 -0.012406846968936555 0.024689948980179587 0 -0.013102157621548288 0.024981990313522853 0 -0.013751433308445388 0.028373427164994611 0 -0.013678086007284583 0.027778075459903431 0 -0.013229960300480596 0.028219329024121401 0 -0.013229960300480596 0.028219329024121401 0 -0.012906356338704652 0.02835279828620348 0 -0.012860001844477879 0.028092932199018976 0 -0.013089466966171708 0.027658127129498229 0 -0.013229960300480596 0.028219329024121401 0 -0.012860001844477879 0.028092932199018976 0 -0.012853587694985654 0.027736649221347692 0 -0.012860001844477879 0.028092932199018976 0 -0.012740007470004791 0.02799203573254196 0 -0.013089466966171708 0.027658127129498229 0 -0.012853587694985654 0.027736649221347692 0 -0.012860001844477879 0.028092932199018976 0 -0.012836008536563305 0.028375698588689494 0 -0.012860001844477879 0.028092932199018976 0 -0.012778254580706598 0.028138721895093612 0 -0.011280740754440185 0.030624593053089209 0 -0.013370742654243602 0.027319522514452955 0 -0.012610749758257029 0.028438615273676169 0 -0.012906356338704652 0.02835279828620348 0 -0.012860001844477879 0.028092932199018976 0 -0.012836008536563305 0.028375698588689494 0 -0.012762062324189976 0.028356970015938236 0 -0.012778254580706598 0.028138721895093612 0 -0.012415457284217255 0.028558867829264381 0 -0.012762062324189976 0.028356970015938236 0 -0.012673149326800326 0.028004131180363625 0 -0.012762062324189976 0.028356970015938236 0 -0.012778254580706598 0.028138721895093612 0 -0.012673149326800326 0.028004131180363625 0 -0.013216195816575295 0.029269075277871037 0 -0.013143487674362827 0.029258871640292304 0 -0.013699225040973042 0.031185494294404797 0 -0.013342682927024526 0.030890556398347931 0 -0.01372189891350421 0.030204712106487886 0 -0.013342682927024526 0.030890556398347931 0 -0.01372189891350421 0.030204712106487886 0 -0.013070655146844986 0.030560938794543951 0 -0.012673149326800326 0.028004131180363625 0 -0.012740007470004791 0.02799203573254196 0 -0.012958922555629649 0.028342219865665715 0 -0.01372189891350421 0.030204712106487886 0 -0.012866874074596548 0.029496845704142405 0 -0.013070655146844986 0.030560938794543951 0 -0.01372189891350421 0.030204712106487886 0 -0.012970777967977085 0.029020431965215476 0 -0.012866874074596548 0.029496845704142405 0 -0.013143487674362827 0.029258871640292304 0 -0.013014575040571649 0.028394013210339551 0 -0.012778254580706598 0.028138721895093612 0 -0.012673149326800326 0.028004131180363625 0 -0.012740007470004791 0.02799203573254196 0 -0.012860001844477879 0.028092932199018976 0 -0.012778254580706598 0.028138721895093612 0 -0.012740007470004791 0.02799203573254196 0 -0.012853587694985654 0.027736649221347692 0 -0.012740007470004791 0.02799203573254196 0 -0.012811568716214148 0.02801466745673235 0 -0.012740007470004791 0.02799203573254196 0 -0.012811568716214148 0.02801466745673235 0 -0.012958922555629649 0.028342219865665715 0 -0.01372189891350421 0.030204712106487886 0 -0.012970777967977085 0.029020431965215476 0 -0.012958922555629649 0.028342219865665715 0 -0.012970777967977085 0.029020431965215476 0 -0.012706120149915137 0.028485944471921952 0 -0.012866874074596548 0.029496845704142405 0 -0.012970777967977085 0.029020431965215476 0 -0.012706120149915137 0.028485944471921952 0 -0.012958922555629649 0.028342219865665715 0 -0.012811568716214148 0.02801466745673235 0 -0.012958922555629649 0.028342219865665715 0 -0.012699549881801385 0.028116146484928033 0 -0.012699549881801385 0.028116146484928033 0 -0.01279444036379911 0.027595265519305946 0 -0.012372128398920223 0.028007782618465499 0 -0.012706120149915137 0.028485944471921952 0 -0.012958922555629649 0.028342219865665715 0 -0.012699549881801385 0.028116146484928033 0 -0.012706120149915137 0.028485944471921952 0 -0.012699549881801385 0.028116146484928033 0 -0.012525439687422783 0.028254424074687569 0 -0.012699549881801385 0.028116146484928033 0 -0.012525439687422783 0.028254424074687569 0 -0.012372128398920223 0.028007782618465499 0 -0.012811568716214148 0.02801466745673235 0 -0.012699549881801385 0.028116146484928033 0 -0.01279444036379911 0.027595265519305946 0 -0.012853587694985654 0.027736649221347692 0 -0.012811568716214148 0.02801466745673235 0 -0.01279444036379911 0.027595265519305946 0 -0.012536211476148369 0.028289178989756161 0 -0.013295467321443143 0.028449605228154162 0 -0.013286743903630684 0.028718976570543606 0 -0.012536211476148369 0.028289178989756161 0 -0.01272399126785775 0.028163563666803396 0 -0.013295467321443143 0.028449605228154162 0 -0.012536211476148369 0.028289178989756161 0 -0.012525439687422783 0.028254424074687569 0 -0.01272399126785775 0.028163563666803396 0 -0.012536211476148369 0.028289178989756161 0 -0.012525439687422783 0.028254424074687569 0 -0.012372128398920223 0.028007782618465499 0 -0.012831244059915908 0.028567103684707433 0 -0.013006081662619779 0.028943914400540487 0 -0.012706120149915137 0.028485944471921952 0 -0.012525439687422783 0.028254424074687569 0 -0.01272399126785775 0.028163563666803396 0 -0.012706120149915137 0.028485944471921952 0 -0.013157126429201407 0.029819447030264335 0 -0.012866874074596548 0.029496845704142405 0 -0.013157126429201407 0.029819447030264335 0 -0.012866874074596548 0.029496845704142405 0 -0.013566925151045189 0.02967201893481268 0 -0.012958568778953544 0.029601628949560616 0 -0.013216397579387487 0.030310330717842459 0 -0.012866874074596548 0.029496845704142405 0 -0.013070655146844986 0.030560938794543951 0 -0.012830401059158277 0.031046993826717162 0 -0.013070655146844986 0.030560938794543951 0 -0.01306903963666747 0.031053976269012473 0 -0.012830401059158277 0.031046993826717162 0 -0.013342682927024526 0.030890556398347931 0 -0.013070655146844986 0.030560938794543951 0 -0.01306903963666747 0.031053976269012473 0 -0.012994155781377968 0.031254063215430054 0 -0.01306903963666747 0.031053976269012473 0 -0.012830401059158277 0.031046993826717162 0 -0.014486160274041752 0.029714507507876138 0 -0.013566925151045189 0.02967201893481268 0 -0.014042627141520065 0.030137134161832963 0 -0.014486160274041752 0.029714507507876138 0 -0.014042627141520065 0.030137134161832963 0 -0.014717810164042203 0.030225261417167401 0 -0.01364039577323198 0.031498989248303549 0 -0.012994155781377968 0.031254063215430054 0 -0.012830401059158277 0.031046993826717162 0 -0.014043743244612569 0.030590218443506335 0 -0.013216397579387487 0.030310330717842459 0 -0.013626239711378477 0.028141918679180762 0 -0.014569726302026431 0.028342115653557442 0 -0.014474952781911458 0.028750330452657118 0 -0.013823990664761785 0.029141939811066837 0 -0.014632767280109538 0.029292965607772243 0 -0.013157126429201407 0.029819447030264335 0 -0.013566925151045189 0.02967201893481268 0 -0.014042627141520065 0.030137134161832963 0 -0.014903158399088798 0.029958337721519446 0 -0.014717810164042203 0.030225261417167401 0 -0.015351820587258116 0.030202016067984404 0 -0.015491055623103184 0.029776912752438815 0 -0.014903158399088798 0.029958337721519446 0 -0.015351820587258116 0.030202016067984404 0 -0.014486160274041752 0.029714507507876138 0 -0.014903158399088798 0.029958337721519446 0 -0.014717810164042203 0.030225261417167401 0 -0.015797620034672281 0.029291062237224059 0 -0.015752456893437222 0.02870257480274974 0 -0.015080852818805566 0.028864943305948351 0 -0.014569726302026431 0.028342115653557442 0 -0.015752456893437222 0.02870257480274974 0 -0.015080852818805566 0.028864943305948351 0 -0.014632767280109538 0.029292965607772243 0 -0.015515813525396481 0.029461177924202078 0 -0.015763200723661761 0.029276776861753742 0 -0.015562571748246781 0.029857314362473054 0 -0.015797620034672281 0.029291062237224059 0 -0.01542993391479909 0.029464297378091094 0 -0.014795746115970088 0.029137161203825659 0 -0.015797620034672281 0.029291062237224059 0 -0.015080852818805566 0.028864943305948351 0 -0.014795746115970088 0.029137161203825659 0 -0.014569726302026431 0.028342115653557442 0 -0.015080852818805566 0.028864943305948351 0 -0.014474952781911458 0.028750330452657118 0 -0.015080852818805566 0.028864943305948351 0 -0.014474952781911458 0.028750330452657118 0 -0.014795746115970088 0.029137161203825659 0 -0.014350615498903631 0.028958622533554076 0 -0.014541700294556734 0.029115946019486243 0 -0.01423640945456631 0.02908004946057835 0 -0.014350615498903631 0.028958622533554076 0 -0.014795746115970088 0.029137161203825659 0 -0.014541700294556734 0.029115946019486243 0 -0.014474952781911458 0.028750330452657118 0 -0.014350615498903631 0.028958622533554076 0 -0.014795746115970088 0.029137161203825659 0 -0.015562571748246781 0.029857314362473054 0 -0.015253530340536628 0.029896734644808361 0 -0.014795746115970088 0.029137161203825659 0 -0.014618048853753283 0.029161589906597521 0 -0.014541700294556734 0.029115946019486243 0 -0.01542993391479909 0.029464297378091094 0 -0.014795746115970088 0.029137161203825659 0 -0.015223063900843378 0.030273343388192025 0 -0.014700902633840641 0.029082134478141643 0 -0.015253530340536628 0.029896734644808361 0 -0.013626239711378477 0.028141918679180762 0 -0.013950632250137164 0.028650310279388264 0 -0.013295467321443143 0.028449605228154162 0 -0.013006081662619779 0.028943914400540487 0 -0.013823990664761785 0.029141939811066837 0 -0.01272399126785775 0.028163563666803396 0 -0.013626239711378477 0.028141918679180762 0 -0.013295467321443143 0.028449605228154162 0 -0.013626239711378477 0.028141918679180762 0 -0.014474952781911458 0.028750330452657118 0 -0.013950632250137164 0.028650310279388264 0 -0.014474952781911458 0.028750330452657118 0 -0.014350615498903631 0.028958622533554076 0 -0.013950632250137164 0.028650310279388264 0 -0.013950632250137164 0.028650310279388264 0 -0.013838082322667058 0.028844042493873626 0 -0.013295467321443143 0.028449605228154162 0 -0.014350615498903631 0.028958622533554076 0 -0.013950632250137164 0.028650310279388264 0 -0.013838082322667058 0.028844042493873626 0 -0.014350615498903631 0.028958622533554076 0 -0.013838082322667058 0.028844042493873626 0 -0.01423640945456631 0.02908004946057835 0 -0.013838082322667058 0.028844042493873626 0 -0.013295467321443143 0.028449605228154162 0 -0.013286743903630684 0.028718976570543606 0 -0.013286743903630684 0.028718976570543606 0 -0.013729807607078016 0.029149668891101807 0 -0.013112827795143103 0.029158206265540196 0 -0.013838082322667058 0.028844042493873626 0 -0.013286743903630684 0.028718976570543606 0 -0.013729807607078016 0.029149668891101807 0 -0.013838082322667058 0.028844042493873626 0 -0.013729807607078016 0.029149668891101807 0 -0.01423640945456631 0.02908004946057835 0 -0.013672621738701127 0.02750117552922211 0 -0.013408905092788793 0.027627589137248949 0 -0.013729807607078016 0.029149668891101807 0 -0.01423640945456631 0.02908004946057835 0 -0.014177961782325662 0.02953516178692963 0 -0.013729807607078016 0.029149668891101807 0 -0.014177961782325662 0.02953516178692963 0 -0.013554727690164043 0.029650905097900835 0 -0.013729807607078016 0.029149668891101807 0 -0.013112827795143103 0.029158206265540196 0 -0.013554727690164043 0.029650905097900835 0 -0.014618048853753283 0.029161589906597521 0 -0.014479835389371141 0.029240076632777414 0 -0.01460407630947385 0.029415083930928402 0 -0.015253530340536628 0.029896734644808361 0 -0.014212629624853628 0.027054454772073713 0 -0.015253530340536628 0.029896734644808361 0 -0.01685368465699268 0.027856057027160687 0 -0.014618048853753283 0.029161589906597521 0 -0.014479835389371141 0.029240076632777414 0 -0.014541700294556734 0.029115946019486243 0 -0.014479835389371141 0.029240076632777414 0 -0.01423640945456631 0.02908004946057835 0 -0.014177961782325662 0.02953516178692963 0 -0.014479835389371141 0.029240076632777414 0 -0.014541700294556734 0.029115946019486243 0 -0.01423640945456631 0.02908004946057835 0 -0.013672621738701127 0.02750117552922211 0 -0.014212629624853628 0.027054454772073713 0 -0.014479835389371141 0.029240076632777414 0 -0.014177961782325662 0.02953516178692963 0 -0.01460407630947385 0.029415083930928402 0 -0.015368262258815881 0.029027915716533945 0 -0.015689256067814489 0.027745685869718435 0 -0.014902937144392373 0.027948348058646693 0 -0.01366990509009452 0.025422106954710914 0 -0.0138119554750636 0.0253924217386832 0 -0.013773464347017374 0.025563592729898939 0 -0.014212629624853628 0.027054454772073713 0 -0.01685368465699268 0.027856057027160687 0 -0.01366990509009452 0.025422106954710914 0 -0.013773464347017374 0.025563592729898939 0 -0.013522695713266654 0.025745724734308698 0 -0.01394287659753856 0.02566884144767223 0 -0.013773464347017374 0.025563592729898939 0 -0.013522695713266654 0.025745724734308698 0 -0.014212629624853628 0.027054454772073713 0 -0.013468917032406155 0.025071704126255982 0 -0.013288374533763362 0.025419209191279088 0 -0.013522695713266654 0.025745724734308698 0 -0.013144666514707642 0.025829981585330623 0 -0.013288374533763362 0.025419209191279088 0 -0.013622149671807247 0.025349944080335838 0 -0.013522695713266654 0.025745724734308698 0 -0.013372334967057357 0.026183966490708512 0 -0.013522695713266654 0.025745724734308698 0 -0.013144666514707642 0.025829981585330623 0 -0.01394287659753856 0.02566884144767223 0 -0.013749345958404718 0.025957188044416414 0 -0.013522695713266654 0.025745724734308698 0 -0.012943253057816531 0.025494378379962161 0 -0.012769123662637393 0.02584945350787396 0 -0.012603514339581668 0.0255744473913696 0 -0.013112827795143103 0.029158206265540196 0 -0.013554727690164043 0.029650905097900835 0 -0.012709478518263879 0.029848322469419174 0 -0.013408905092788793 0.027627589137248949 0 -0.011595173296616745 0.026348648603020795 0 -0.013288374533763362 0.025419209191279088 0 -0.012943253057816531 0.025494378379962161 0 -0.013144666514707642 0.025829981585330623 0 -0.012943253057816531 0.025494378379962161 0 -0.013144666514707642 0.025829981585330623 0 -0.012769123662637393 0.02584945350787396 0 -0.012928308553527485 0.026119700134203991 0 -0.013144666514707642 0.025829981585330623 0 -0.012769123662637393 0.02584945350787396 0 -0.010836361364384846 0.024949760177036515 0 -0.011595173296616745 0.026348648603020795 0 -0.009504144875492301 0.022626851620944795 0 -0.0089457229953432277 0.023966770569995285 0 -0.010324097682146141 0.024053307984561914 0 -0.0089457229953432277 0.023966770569995285 0 -0.010324097682146141 0.024053307984561914 0 -0.0098111642332162352 0.025514475460194589 0 -0.0098758618780343255 0.025537925583762028 0 -0.010829541400848457 0.025260360293071417 0 -0.010602565137971004 0.026704187997425886 0 -0.010324097682146141 0.024053307984561914 0 -0.0098111642332162352 0.025514475460194589 0 -0.010829541400848457 0.025260360293071417 0 -0.011595173296616745 0.026348648603020795 0 -0.010431039726985185 0.025697860007817808 0 -0.011595173296616745 0.026348648603020795 0 -0.011630122243150874 0.028050488278345977 0 -0.011389136271632464 0.026129683155574152 0 -0.010829541400848457 0.025260360293071417 0 -0.010602565137971004 0.026704187997425886 0 -0.011389136271632464 0.026129683155574152 0 -0.010829541400848457 0.025260360293071417 0 -0.011770048093552952 0.025462269387680769 0 -0.010829541400848457 0.025260360293071417 0 -0.011756705180601741 0.024183758029640116 0 -0.011770048093552952 0.025462269387680769 0 -0.010324097682146141 0.024053307984561914 0 -0.010829541400848457 0.025260360293071417 0 -0.011756705180601741 0.024183758029640116 0 -0.01092880925756533 0.022752108784565343 0 -0.010324097682146141 0.024053307984561914 0 -0.011756705180601741 0.024183758029640116 0 -0.011756705180601741 0.024183758029640116 0 -0.012682631872932162 0.024655047126919113 0 -0.012476539213253951 0.0256086099663668 0 -0.012251088379636982 0.022311573918896908 0 -0.011756705180601741 0.024183758029640116 0 -0.012682631872932162 0.024655047126919113 0 -0.013476454898638168 0.026064031899320488 0 -0.012682631872932162 0.024655047126919113 0 -0.012476539213253951 0.0256086099663668 0 -0.011756705180601741 0.024183758029640116 0 -0.011770048093552952 0.025462269387680769 0 -0.012476539213253951 0.0256086099663668 0 -0.011770048093552952 0.025462269387680769 0 -0.012476539213253951 0.0256086099663668 0 -0.012163750169136144 0.026521517923505225 0 -0.011389136271632464 0.026129683155574152 0 -0.011770048093552952 0.025462269387680769 0 -0.012163750169136144 0.026521517923505225 0 -0.012163750169136144 0.026521517923505225 0 -0.012420504604936785 0.027424646549970708 0 -0.011905618522942333 0.028056469831222137 0 -0.012476539213253951 0.0256086099663668 0 -0.012163750169136144 0.026521517923505225 0 -0.012708473796997492 0.02670980949455546 0 -0.012163750169136144 0.026521517923505225 0 -0.012708473796997492 0.02670980949455546 0 -0.012420504604936785 0.027424646549970708 0 -0.013476454898638168 0.026064031899320488 0 -0.012476539213253951 0.0256086099663668 0 -0.012708473796997492 0.02670980949455546 0 -0.012979948965035112 0.026303607441189293 0 -0.012797883275533901 0.027493226697231064 0 -0.013476454898638168 0.026064031899320488 0 -0.012708473796997492 0.02670980949455546 0 -0.01279444036379911 0.027595265519305946 0 -0.012708473796997492 0.02670980949455546 0 -0.01279444036379911 0.027595265519305946 0 -0.012420504604936785 0.027424646549970708 0 -0.01279444036379911 0.027595265519305946 0 -0.012420504604936785 0.027424646549970708 0 -0.012372128398920223 0.028007782618465499 0 -0.012420504604936785 0.027424646549970708 0 -0.012372128398920223 0.028007782618465499 0 -0.011905618522942333 0.028056469831222137 0 -0.012536211476148369 0.028289178989756161 0 -0.011905618522942333 0.028056469831222137 0 -0.012655832957913992 0.028592208097024226 0 -0.012536211476148369 0.028289178989756161 0 -0.012372128398920223 0.028007782618465499 0 -0.011905618522942333 0.028056469831222137 0 -0.013286743903630684 0.028718976570543606 0 -0.013112827795143103 0.029158206265540196 0 -0.012655832957913992 0.028592208097024226 0 -0.012536211476148369 0.028289178989756161 0 -0.013286743903630684 0.028718976570543606 0 -0.012655832957913992 0.028592208097024226 0 -0.013112827795143103 0.029158206265540196 0 -0.012709478518263879 0.029848322469419174 0 -0.012344996918527187 0.029247097399583134 0 -0.013112827795143103 0.029158206265540196 0 -0.012655832957913992 0.028592208097024226 0 -0.012344996918527187 0.029247097399583134 0 -0.011389136271632464 0.026129683155574152 0 -0.011905618522942333 0.028056469831222137 0 -0.010602565137971004 0.026704187997425886 0 -0.011389136271632464 0.026129683155574152 0 -0.012163750169136144 0.026521517923505225 0 -0.011905618522942333 0.028056469831222137 0 -0.011905618522942333 0.028056469831222137 0 -0.012655832957913992 0.028592208097024226 0 -0.012344996918527187 0.029247097399583134 0 -0.011744725242737607 0.028022670811376205 0 -0.011630122243150874 0.028050488278345977 0 
</DataArray>
</PointData>
<CellData Scalars="region_id,cross_section_updated," Vectors="" Tensors="stress,">
<DataArray type="Float64" Name="region_id" format="ascii">
5 5 5 6 5 5 5 5 5 5 5 5 5 5 5 5 5 5 6 5 5 5 5 5 5 5 5 5 5 6 5 6 5 5 5 5 6 5 5 5 5 5 5 5 5 5 5 5 5 5 5 5 6 5 5 5 5 5 5 6 5 5 5 5 5 5 5 5 5 5 5 5 5 5 5 5 5 5 5 5 5 5 5 5 5 5 5 5 5 5 5 5 5 6 5 5 5 5 5 5 5 6 5 5 5 5 5 6 5 5 6 5 5 5 5 5 5 5 5 5 5 6 5 6 5 5 5 6 5 5 5 6 5 5 6 5 5 5 5 5 5 5 5 5 5 5 5 6 5 5 5 5 6 5 5 5 6 5 5 5 5 5 5 6 5 6 5 5 5 6 5 5 5 5 5 5 5 5 5 5 5 5 5 6 5 5 5 5 5 5 5 5 6 5 6 5 6 5 6 5 6 5 5 5 5 5 5 6 5 5 5 5 6 6 5 5 5 5 5 5 5 5 5 6 5 5 5 6 5 5 5 5 5 5 5 5 5 5 5 6 5 6 5 5 5 5 5 5 6 5 6 5 6 5 5 5 5 5 5 6 6 5 5 5 5 6 5 5 5 5 5 5 5 5 5 5 5 5 6 5 5 5 6 5 5 5 5 5 5 5 5 5 5 5 5 5 5 5 5 5 5 5 6 5 6 5 5 6 5 5 5 5 6 5 5 5 5 5 5 5 5 5 5 5 5 5 5 5 5 5 5 5 5 5 6 5 5 5 6 5 5 5 5 5 5 5 5 5 5 5 5 5 5 5 6 6 5 5 5 6 5 5 5 6 5 5 6 5 5 5 5 5 5 5 5 5 5 5 6 5 5 5 5 5 5 5 5 6 5 5 6 5 5 5 6 5 6 6 5 5 5 5 5 5 5 6 5 5 5 5 5 5 5 5 5 5 5 5 5 5 5 5 5 5 5 5 5 5 6 5 5 6 5 5 6 5 5 5 5 5 5 6 5 5 6 5 5 5 5 5 5 5 5 5 5 5 5 5 5 5 6 5 5 5 5 5 5 5 5 5 5 5 5 5 5 5 5 5 6 5 5 5 6 5 5 5 5 5 5 5 5 5 5 5 5 5 5 5 6 5 5 5 5 5 5 5 6 6 5 5 5 6 5 5 5 6 5 5 6 5 6 5 6 6 6 5 5 5 5 5 5 5 5 5 5 5 5 6 5 5 5 6 5 6 5 5 5 5 5 5 6 5 5 5 5 5 5 5 6 5 5 5 5 6 5 6 5 5 5 5 6 5 5 5 6 5 5 6 5 5 5 5 6 5 5 5 5 5 6 6 5 5 6 6 5 5 5 5 6 5 5 5 5 6 5 6 5 6 5 5 5 6 5 6 6 5 5 6 5 5 5 5 5 5 6 5 5 5 6 5 5 6 5 5 5 5 5 6 5 6 5 5 5 6 5 6 6 5 5 6 6 5 5 6 5 5 5 5 6 5 6 5 5 5 6 5 5 5 5 5 5 5 6 5 6 5 5 5 5 6 5 5 5 5 5 5 6 6 5 5 6 5 5 5 5 5 5 5 5 5 5 5 5 5 5 5 5 6 5 5 6 5 6 5 5 5 5 5 5 5 5 5 5 5 5 5 5 5 5 5 5 5 5 5 5 5 5 5 6 5 5 5 6 6 5 5 5 5 5 5 5 5 6 5 5 6 5 5 5 5 5 6 5 5 6 5 5 5 5 5 5 5 6 5 5 6 6 5 5 6 6 5 6 5 5 6 5 5 6 5 6 6 5 6 5 5 5 6 5 5 5 5 5 5 5 5 5 5 5 5 5 5 5 6 5 5 6 6 6 5 5 5 5 5 5 5 5 5 5 5 5 5 5 6 5 5 5 6 5 5 5 5 5 5 5 5 5 5 6 5 5 5 5 5 5 5 5 5 6 5 5 5 5 5 5 5 5 6 5 5 5 5 5 5 6 5 5 5 5 5 6 5 5 5 5 5 5 5 5 5 5 5 5 5 5 6 5 6 5 5 5 6 5 5 5 5 6 5 5 5 5 5 5 6 5 5 5 6 5 6 5 6 5 5 5 5 5 6 5 5 5 5 5 5 5 5 5 5 6 5 6 5 5 5 5 6 5 5 5 5 6 5 5 5 6 6 5 5 6 5 5 5 6 5 5 5 6 5 5 5 5 5 5 5 5 5 5 5 5 5 5 5 5 5 5 5 6 5 5 5 5 5 6 5 6 5 5 5 5 5 5 6 5 6 5 5 6 5 5 5 6 5 5 5 5 5 5 5 5 5 5 5 5 6 5 5 5 5 5 5 6 6 6 5 5 6 6 5 5 6 5 5 5 6 5 5 5 5 5 5 5 5 5 5 5 5 5 5 6 6 5 6 5 5 5 5 5 5 6 6 5 6 5 5 5 6 5 6 5 5 6 6 5 6 6 5 5 5 6 5 5 5 5 5 5 5 5 5 5 5 5 5 5 5 5 5 5 5 5 5 5 5 5 5 5 5 5 5 5 5 5 5 5 5 5 5 5 5 5 5 5 5 5 5 5 5 5 5 6 5 5 5 5 5 5 6 5 5 5 6 5 5 5 5 5 5 5 5 5 5 6 5 6 6 5 6 5 5 6 5 5 5 5 5 5 5 5 5 5 5 5 6 5 5 5 6 5 5 5 5 6 6 6 5 5 6 5 5 6 5 5 5 5 6 6 5 5 5 5 5 5 5 5 5 5 5 5 5 5 5 5 6 5 5 5 5 6 6 5 5 6 5 5 5 5 5 5 5 5 5 5 5 5 5 5 5 6 5 5 5 5 6 6 5 5 5 5 5 5 5 5 5 5 5 5 6 5 5 5 6 5 5 6 5 5 5 5 5 5 5 5 5 5 5 5 5 5 5 5 5 6 5 5 5 5 5 5 5 6 5 5 5 5 5 5 5 5 5 5 5 5 5 5 5 5 5 5 5 5 5 5 5 5 6 5 5 6 5 5 5 5 5 5 5 5 5 5 5 5 5 5 5 5 5 5 5 5 5 5 5 6 5 5 6 5 5 5 5 5 5 5 5 5 6 5 5 6 5 6 5 5 5 6 6 5 5 5 5 5 6 5 5 5 5 6 5 5 5 6 5 6 5 6 5 5 5 5 5 5 5 5 5 5 5 5 5 5 5 5 5 5 5 6 5 5 5 5 5 5 6 5 6 6 5 5 5 6 5 5 5 5 5 5 5 5 5 5 5 5 5 5 5 5 5 5 5 5 5 5 5 5 5 6 5 5 6 6 5 5 5 6 5 5 5 5 5 5 5 5 5 5 5 6 5 5 5 5 5 6 6 5 6 5 6 5 5 6 6 6 5 6 6 5 5 5 5 6 5 6 5 5 6 5 5 6 5 6 5 5 5 6 6 5 5 6 5 5 5 5 6 5 5 5 5 5 5 5 5 5 6 5 5 5 5 5 5 6 5 6 5 5 6 5 6 5 5 5 5 5 5 5 5 5 6 5 5 5 5 5 5 5 6 5 5 5 6 5 6 5 5 5 5 5 5 5 5 5 6 5 5 5 5 5 5 6 5 5 5 5 5 5 6 5 5 5 5 5 6 5 5 5 5 5 5 5 6 5 5 5 5 5 5 5 5 5 5 5 6 5 5 6 5 5 5 5 5 6 6 5 5 5 5 5 6 5 5 5 5 5 5 5 5 5 5 5 5 5 5 5 5 6 5 5 5 5 5 5 5 5 5 5 5 5 5 5 6 5 5 5 5 5 6 5 5 5 5 5 5 5 5 5 5 5 5 5 5 5 5 5 5 5 5 5 5 5 5 5 5 5 5 6 5 6 5 5 5 5 5 5 5 5 5 5 5 5 5 5 5 6 6 5 5 5 6 5 5 5 5 5 6 5 6 5 5 6 5 5 5 5 6 5 5 5 5 5 5 5 5 5 5 5 5 5 6 5 5 5 5 5 5 5 5 5 5 5 5 5 5 6 5 6 5 5 5 5 6 5 5 5 5 5 5 5 5 5 5 5 5 5 5 5 5 5 5 6 5 5 5 5 5 5 5 5 5 5 5 5 5 6 5 5 6 5 5 5 5 6 5 5 5 5 5 5 6 5 5 5 6 5 5 6 5 5 5 6 5 5 5 5 5 5 6 5 5 5 5 6 5 5 5 5 5 5 6 5 5 6 5 5 5 5 6 5 5 5 5 5 5 6 5 5 6 5 5 5 5 5 6 5 5 5 5 5 5 5 5 5 5 5 5 5 5 5 5 5 5 5 5 5 5 5 6 5 5 5 5 5 5 5 5 5 5 5 5 5 5 5 5 5 5 5 5 6 5 5 5 5 5 5 5 5 5 5 5 6 5 5 5 6 5 5 5 5 5 5 5 5 5 5 5 5 5 5 5 5 5 5 5 5 5 5 6 5 5 5 5 6 5 5 6 5 5 6 5 5 5 5 5 5 5 6 5 5 5 6 5 5 6 5 5 6 6 5 6 5 5 6 5 5 6 5 5 5 5 6 5 5 5 5 6 5 5 6 5 6 5 5 5 5 5 5 5 6 5 5 5 6 5 5 5 5 6 5 5 5 5 6 5 6 5 6 6 5 5 6 5 6 5 6 5 5 5 6 5 5 5 5 5 5 5 5 5 6 5 5 5 5 6 5 5 5 6 5 5 6 5 5 6 5 5 5 5 5 5 6 5 5 5 6 5 5 5 5 5 6 5 5 5 5 5 5 5 5 5 5 5 5 6 6 5 5 6 5 5 6 6 5 5 5 6 5 5 5 5 5 5 5 5 5 5 5 6 5 5 6 5 5 5 5 5 5 5 5 5 5 5 6 5 5 5 5 5 5 5 5 5 5 5 5 5 5 6 5 5 5 5 5 5 6 5 5 5 5 5 5 5 5 5 5 6 6 5 5 5 5 5 6 5 5 5 5 5 5 5 5 5 5 5 5 5 5 5 5 5 5 5 5 5 5 5 5 5 5 5 6 5 5 5 5 5 5 6 5 5 5 6 5 5 5 5 5 5 5 5 6 5 5 6 6 5 5 5 5 5 5 5 5 5 5 5 5 5 5 6 5 5 6 5 5 5 5 5 5 5 5 5 5 5 6 5 5 5 5 5 5 5 6 6 5 5 5 6 5 5 5 6 5 5 5 5 5 5 5 5 5 5 5 5 6 5 5 6 5 5 6 5 5 5 5 5 5 5 6 6 5 5 5 6 5 5 5 5 6 5 6 5 6 5 5 5 5 5 5 6 5 5 5 5 5 5 5 5 5 6 6 5 5 5 5 6 5 5 5 5 5 5 5 6 5 5 6 5 5 6 5 5 5 6 5 5 5 5 5 5 5 5 5 5 6 5 5 5 5 5 6 5 5 5 6 5 5 6 5 6 6 6 5 5 5 5 5 5 6 6 6 5 5 6 5 5 6 5 5 6 5 5 5 5 6 5 5 5 5 5 5 5 6 5 5 5 5 5 5 5 5 5 5 5 5 5 5 5 5 5 6 5 5 5 5 5 6 5 5 5 5 5 5 6 5 6 6 5 5 6 5 5 5 6 5 5 6 5 5 6 5 6 5 5 5 6 5 5 5 5 6 6 5 5 5 6 5 6 6 5 5 6 5 5 5 5 5 6 5 5 6 5 5 5 5 6 5 5 5 5 5 6 5 5 5 5 6 5 5 5 6 5 6 5 5 5 6 5 5 5 6 5 5 5 5 5 5 5 5 6 5 5 5 5 5 5 5 5 5 5 5 5 5 5 5 5 6 5 6 5 5 5 6 5 5 5 5 5 5 6 6 5 5 5 5 5 5 5 5 5 6 5 5 5 5 6 5 5 5 5 5 5 6 6 5 5 5 6 6 5 6 5 5 5 6 5 5 5 5 6 5 5 5 5 5 5 5 5 6 6 5 6 5 5 5 5 5 5 5 5 5 5 5 6 5 5 5 5 5 5 5 5 5 5 5 5 5 5 5 5 5 5 5 5 5 5 5 5 6 5 5 5 5 5 5 5 5 5 5 5 5 5 5 5 5 5 5 5 5 5 5 5 5 5 5 5 5 5 5 5 5 5 5 5 5 5 5 5 5 5 5 5 5 5 5 5 5 5 5 5 5 5 5 5 5 5 5 5 5 5 5 5 5 5 5 5 5 5 5 5 5 5 5 5 5 5 5 5 5 5 5 5 5 5 5 5 5 5 5 5 5 5 6 5 6 5 5 5 6 5 5 6 5 6 5 5 5 5 5 6 5 5 5 5 5 5 6 5 5 5 5 5 5 6 5 6 5 6 5 5 5 6 5 6 5 6 5 5 6 5 6 5 5 5 5 5 5 5 5 5 5 6 5 6 5 5 5 6 5 6 5 5 5 5 5 5 5 6 5 6 5 5 5 6 5 6 5 6 5 5 5 5 6 5 5 5 6 5 5 5 5 5 5 5 5 5 5 5 6 6 5 6 5 5 5 5 5 6 6 5 5 6 5 5 6 5 5 5 6 6 5 5 5 5 5 5 5 5 5 5 5 5 5 6 5 6 5 5 5 5 5 5 5 5 5 6 5 5 5 5 5 5 5 5 5 5 5 5 5 5 5 5 5 5 5 5 5 5 5 5 5 5 5 5 5 5 5 5 6 5 6 5 6 5 6 5 5 5 5 6 5 6 5 5 5 5 5 6 5 5 5 5 5 5 5 5 5 5 5 5 5 5 5 5 5 5 5 5 5 5 5 5 6 5 5 5 6 5 5 5 5 5 6 5 6 5 5 5 5 5 5 5 5 5 5 5 5 5 5 5 5 6 6 5 5 5 5 5 5 5 5 5 5 6 5 5 5 5 6 5 5 5 5 5 5 5 5 6 5 6 5 5 5 5 5 5 5 6 5 5 5 5 5 5 5 5 5 5 5 5 5 5 5 5 5 5 5 6 6 5 6 5 5 5 5 5 5 5 6 5 5 5 5 6 5 5 5 5 5 5 5 5 5 5 5 6 5 5 5 5 6 5 5 5 5 6 5 5 5 5 5 5 5 5 5 5 5 6 5 5 5 5 5 5 5 5 5 5 5 5 5 5 5 5 5 5 5 5 5 5 5 5 5 5 5 5 5 5 5 5 5 5 5 6 5 5 5 5 5 5 5 5 5 5 5 5 5 5 5 5 5 5 5 5 5 5 5 5 5 5 5 5 5 5 5 5 6 5 5 5 5 5 5 5 5 5 5 5 5 5 5 5 5 5 5 5 5 5 5 5 5 5 5 5 5 5 5 5 6 6 5 5 5 5 5 5 5 5 5 5 5 5 5 5 5 5 5 6 5 5 5 5 6 5 6 5 5 5 5 5 5 5 6 5 5 5 5 5 6 5 5 5 5 5 5 5 5 5 5 5 5 5 5 5 5 5 5 5 5 5 5 5 5 5 5 5 5 5 5 5 5 5 5 5 5 5 5 5 5 5 5 5 5 5 5 5 5 5 5 5 5 5 5 5 5 5 5 5 5 5 5 5 5 5 5 5 5 5 5 5 5 5 5 5 5 5 5 5 5 5 5 5 5 5 5 5 5 5 6 5 5 5 6 5 5 5 5 5 5 5 5 5 5 5 6 5 5 5 5 5 5 5 5 5 5 5 5 5 6 5 5 5 5 5 5 5 5 5 5 5 5 5 5 5 5 5 6 5 5 5 5 5 5 5 5 5 5 5 5 5 5 5 5 5 5 5 5 6 5 5 6 5 6 5 5 5 5 5 5 5 5 5 5 5 5 5 5 6 5 5 5 6 5 6 5 5 5 5 6 5 5 6 5 5 5 5 5 5 5 5 5 5 5 5 5 5 5 5 5 5 5 5 6 5 5 5 5 5 5 5 5 5 5 6 5 5 5 5 5 5 6 6 5 5 5 5 6 5 5 5 5 5 5 5 5 5 5 5 5 5 5 5 5 5 5 5 5 5 5 5 5 5 5 5 5 5 6 6 5 5 5 5 5 6 5 6 5 5 5 5 5 5 5 5 5 5 5 6 5 5 6 6 5 5 6 5 5 5 5 6 5 5 6 5 5 5 5 6 5 5 5 5 5 5 5 5 5 6 5 5 5 5 5 6 6 5 6 5 5 5 6 5 6 5 6 5 5 5 5 5 6 5 5 5 6 6 5 5 5 6 6 5 6 6 5 5 5 5 6 5 5 5 5 5 6 5 5 5 5 5 6 5 5 5 5 6 5 5 5 5 5 5 5 5 5 6 5 5 5 5 5 5 5 5 5 5 5 5 5 5 5 5 5 5 5 6 5 5 6 5 6 5 6 5 5 5 5 5 5 5 5 5 6 6 5 6 5 5 6 5 5 5 5 5 6 5 5 5 5 5 5 5 5 5 5 5 5 6 5 6 5 6 6 5 5 5 5 5 5 5 5 6 5 5 6 5 5 5 5 5 5 5 5 5 5 6 5 5 5 5 6 5 5 5 5 5 5 5 5 5 5 5 5 5 5 5 5 5 5 5 5 5 5 5 5 5 5 5 5 6 5 5 5 5 5 6 5 6 6 5 5 5 5 5 5 5 5 5 5 5 5 5 5 5 5 5 5 5 6 5 5 5 5 5 6 5 5 5 5 5 5 5 5 5 5 5 5 5 5 6 5 5 5 5 5 5 6 5 5 5 5 5 5 5 5 5 5 5 5 5 5 5 6 5 5 5 5 5 5 5 5 5 6 5 5 6 5 6 5 5 5 5 6 5 5 5 6 5 5 5 5 5 6 5 5 5 5 5 5 6 5 5 5 5 5 5 5 5 5 5 5 5 5 5 5 5 5 6 5 5 5 6 5 5 5 5 6 5 6 5 5 5 5 5 5 5 5 6 5 5 5 5 5 5 5 6 5 5 5 5 5 5 5 5 5 5 6 6 5 5 5 5 5 5 5 5 5 5 5 5 5 5 5 5 5 5 6 5 5 5 5 5 6 5 6 5 5 5 5 5 5 5 6 5 6 5 5 5 5 6 6 5 5 5 6 5 6 6 5 5 5 5 6 6 5 5 5 5 5 5 6 5 5 5 6 5 5 5 5 5 6 5 5 5 5 5 5 5 5 5 5 5 6 5 5 5 5 5 5 5 5 5 5 5 5 5 5 5 5 5 5 5 5 5 6 5 5 5 5 5 5 5 5 5 5 5 5 5 5 5 5 6 5 5 5 5 6 5 5 5 5 5 5 5 6 5 6 5 5 6 5 6 5 6 5 5 5 5 5 5 5 5 5 6 5 5 5 6 5 5 5 6 5 5 6 5 5 5 5 5 5 5 5 5 5 5 5 6 5 5 5 6 5 5 5 5 5 5 5 5 6 5 5 5 5 5 6 5 5 5 5 5 5 5 5 6 6 5 5 5 5 5 5 5 6 5 5 5 5 5 5 5 5 5 5 5 5 5 5 5 5 5 5 5 5 5 5 5 5 5 5 5 5 5 5 5 5 5 5 5 5 5 5 5 5 5 5 5 5 5 5 5 5 5 5 5 5 5 5 5 5 5 5 5 5 5 5 5 5 5 5 5 5 6 5 5 6 5 5 5 5 5 6 5 5 5 5 5 5 5 5 5 5 5 5 5 5 5 5 5 5 5 5 6 6 5 5 6 5 5 5 6 5 5 5 5 5 5 6 5 5 5 5 6 5 5 5 5 5 5 6 6 5 5 5 5 5 5 6 5 5 5 6 5 5 5 6 5 5 5 5 5 5 5 5 5 6 5 5 5 5 5 5 6 6 5 5 5 5 5 6 5 5 5 5 5 6 5 6 5 6 5 5 5 6 5 5 5 5 5 5 5 6 6 5 5 5 5 5 5 5 5 5 5 5 5 5 5 5 5 6 5 5 5 5 5 5 5 5 6 5 5 5 5 5 6 5 5 5 5 5 5 6 5 5 5 5 5 5 5 5 5 6 5 5 6 5 6 5 6 6 5 5 5 5 5 5 5 5 5 5 5 5 5 5 5 5 5 5 6 5 5 5 6 5 5 6 5 5 5 5 5 5 5 5 5 5 5 5 5 5 5 5 5 5 5 5 5 5 5 5 5 5 5 5 5 5 5 5 5 5 5 5 5 5 5 5 5 5 5 5 5 5 5 5 5 6 5 5 5 5 5 5 5 5 5 5 5 5 5 5 5 5 5 5 5 6 5 5 5 5 5 5 5 5 5 5 5 5 5 5 5 5 5 5 5 5 6 5 5 5 5 5 5 5 5 5 5 5 5 5 5 5 5 5 5 5 5 5 5 5 5 5 5 5 5 5 5 5 5 5 5 5 6 5 5 5 5 5 5 5 5 5 6 5 5 5 5 5 5 5 5 5 5 5 6 5 5 5 5 5 5 5 5 5 5 5 5 5 5 6 5 5 5 5 5 6 5 6 5 5 5 5 5 5 5 5 5 5 5 6 5 5 5 6 5 5 6 5 5 5 5 6 5 5 5 6 5 5 5 5 6 5 5 5 5 5 5 6 5 5 5 5 6 5 6 5 5 5 5 5 5 5 5 5 5 5 5 6 5 5 5 6 5 5 6 5 5 5 5 5 6 5 5 5 5 6 5 5 5 5 5 5 5 6 5 5 5 5 5 5 5 5 5 5 6 5 5 5 5 6 5 5 5 5 5 5 5 5 5 5 5 6 5 5 5 5 6 5 6 5 5 5 5 5 5 5 5 5 5 5 6 5 5 5 6 5 5 5 6 5 5 5 6 5 5 5 5 5 5 6 5 5 5 5 5 5 5 6 5 5 5 5 6 5 5 5 5 5 5 5 5 5 5 5 5 5 6 5 5 6 5 5 5 5 5 5 5 5 6 5 5 5 5 5 5 6 6 5 5 5 5 5 5 6 5 5 5 6 5 5 5 5 5 5 5 5 5 5 5 5 5 5 5 5 5 5 5 5 5 5 5 5 5 5 5 6 5 5 5 6 5 5 5 5 5 6 5 5 5 5 6 5 5 5 5 5 5 5 5 5 5 5 5 5 5 5 5 5 6 5 5 5 5 5 5 5 5 5 5 5 5 5 5 5 5 5 5 5 5 5 5 5 5 6 6 5 5 5 5 5 5 5 5 5 5 5 5 5 5 5 5 5 5 5 5 5 5 5 5 5 5 5 5 5 5 5 5 5 5 5 5 5 5 5 5 5 5 5 5 5 5 5 5 5 5 5 5 5 5 5 5 5 5 5 5 5 5 5 5 5 5 5 5 5 5 6 6 5 5 5 5 5 5 5 5 5 5 5 5 5 5 5 5 5 5 5 5 5 5 5 5 5 6 5 5 6 5 5 5 5 5 5 5 6 6 5 5 5 5 5 6 5 5 5 5 5 5 5 5 5 6 5 5 5 5 5 5 5 5 5 5 5 5 5 5 5 5 5 5 5 5 5 6 5 5 5 5 5 6 6 6 5 5 5 5 6 5 5 5 5 5 5 5 5 5 5 6 5 5 5 5 5 5 5 6 5 5 5 5 5 6 5 5 6 5 5 6 5 5 6 5 6 5 5 5 5 6 5 6 5 5 5 5 5 5 5 5 5 5 5 5 5 5 5 5 5 5 5 5 5 5 5 5 5 5 5 5 5 5 6 5 5 5 5 6 5 5 6 5 5 5 5 5 5 5 6 5 5 5 5 5 5 5 5 5 5 5 5 5 5 5 5 5 5 5 5 5 5 5 5 5 5 5 5 5 5 5 5 5 5 5 5 5 5 5 5 5 5 5 5 5 5 5 5 5 5 5 5 5 5 5 5 5 5 5 5 5 5 5 5 5 5 5 5 5 5 5 5 5 5 5 5 5 6 5 5 5 5 5 5 5 5 5 5 5 5 5 5 5 5 5 5 5 5 5 5 5 5 5 5 5 5 5 5 5 5 5 5 5 5 5 5 5 5 5 5 5 5 5 5 5 5 6 5 5 5 6 5 5 5 5 5 5 6 5 5 5 5 6 5 5 5 5 5 5 5 5 5 5 5 5 5 5 5 5 5 5 5 5 5 5 5 5 5 5 5 5 5 5 6 5 5 6 5 5 6 5 5 5 5 5 6 5 5 5 5 5 6 5 5 5 5 5 5 5 6 5 5 5 5 6 5 5 6 5 5 5 5 5 5 5 6 5 5 6 5 5 5 5 5 6 5 5 5 5 5 5 6 5 5 5 5 5 5 5 5 6 5 5 5 5 5 5 5 5 5 5 5 5 5 5 5 5 5 5 5 5 5 5 6 5 5 5 5 6 5 5 5 5 5 5 5 5 5 5 6 6 5 5 5 5 6 5 5 5 5 5 5 5 5 5 5 5 5 5 5 5 6 5 5 5 5 5 5 5 5 5 5 5 5 5 5 5 5 5 5 5 5 5 5 5 5 5 5 5 5 5 5 5 5 5 6 5 5 6 5 5 5 5 6 5 5 5 5 5 6 5 5 5 5 6 5 5 5 5 5 5 5 5 5 5 5 6 5 5 6 5 6 5 6 6 5 5 5 5 5 5 5 5 5 5 6 6 5 5 5 5 5 5 5 5 5 5 5 5 5 5 5 5 5 5 5 5 5 5 5 5 5 5 5 5 5 5 5 5 5 6 5 5 5 5 5 6 5 5 5 5 5 5 5 5 5 5 5 5 5 5 5 5 5 5 5 5 5 5 5 5 5 5 6 5 5 5 6 5 5 5 6 5 5 5 5 5 6 5 6 5 5 5 5 6 5 6 5 6 5 5 6 5 5 5 5 5 5 5 5 5 5 5 5 5 5 5 5 5 5 6 5 5 6 5 5 6 5 6 5 5 5 6 5 5 5 5 6 5 5 5 5 5 5 5 5 5 5 5 6 5 6 5 6 6 5 6 5 5 5 5 5 5 5 5 5 5 5 5 6 5 6 5 5 5 5 5 5 5 5 6 5 5 6 6 5 5 5 5 5 5 5 6 6 5 5 5 5 5 5 5 6 5 5 5 5 6 5 5 5 5 5 5 5 5 5 5 5 5 5 5 5 6 5 5 6 5 5 5 6 5 5 6 5 5 6 5 5 6 5 5 5 5 5 5 5 5 5 6 5 6 5 5 5 5 5 6 5 5 6 5 5 5 5 5 6 5 5 5 5 6 5 5 5 5 5 6 5 5 5 6 5 5 6 5 5 5 6 5 5 5 5 5 5 5 5 5 6 6 5 5 6 5 5 5 5 5 5 6 5 5 5 5 6 5 5 5 5 5 5 5 5 5 5 5 6 5 5 6 5 5 5 5 5 5 5 5 5 5 5 5 5 5 5 5 6 5 5 5 5 5 5 5 5 5 5 5 5 5 6 5 5 5 6 5 5 6 5 5 6 5 5 6 5 5 5 5 5 5 5 5 6 5 5 5 5 6 5 5 5 5 5 5 5 5 5 5 5 5 5 5 5 6 5 5 5 5 5 5 5 5 5 5 5 5 5 6 5 5 5 5 6 5 5 5 5 5 5 5 5 5 5 5 5 5 5 5 5 5 5 5 5 5 5 5 5 5 5 6 5 5 5 5 5 6 5 5 6 5 5 5 5 5 5 5 5 5 6 5 5 5 6 5 5 5 5 5 5 5 5 5 5 5 5 5 6 5 5 6 5 5 5 5 5 6 5 5 5 5 5 5 6 5 5 5 6 5 5 5 5 6 5 6 5 5 5 5 5 5 5 5 6 5 5 5 5 5 5 6 5 5 5 5 5 5 5 5 5 5 5 5 5 5 5 5 5 5 5 5 5 5 5 5 5 5 5 5 5 6 5 5 5 5 5 5 6 6 6 5 6 6 5 5 5 5 6 5 5 5 5 5 5 5 5 5 5 6 5 5 5 5 5 6 5 6 5 5 5 5 6 5 6 6 6 5 5 5 6 5 6 5 6 5 5 5 6 5 5 5 5 6 5 6 5 5 5 5 5 5 5 5 6 5 5 5 5 6 5 5 5 5 5 5 5 5 5 5 5 5 5 5 6 5 5 5 5 6 5 5 5 5 6 6 5 5 5 6 5 5 5 5 5 5 5 5 5 5 5 5 5 5 5 6 5 5 5 5 6 5 5 5 5 5 5 5 5 5 5 6 5 5 5 5 5 5 6 5 5 5 5 6 6 5 5 5 5 5 5 5 6 5 5 5 5 5 5 6 5 5 5 5 5 5 5 5 6 5 5 6 5 6 5 5 5 5 5 5 6 5 5 5 5 6 5 6 5 5 5 5 5 5 5 5 5 6 6 5 5 5 5 5 5 6 5 5 5 5 5 5 5 5 6 5 5 5 5 5 5 5 5 5 5 6 5 5 5 6 5 6 5 5 5 5 6 5 5 5 5 5 5 6 5 6 5 5 5 6 5 5 5 6 5 5 6 5 5 5 5 5 5 5 5 5 5 5 5 5 6 5 5 5 5 5 5 5 6 5 6 6 5 5 6 5 5 6 5 5 5 5 5 5 6 5 5 5 6 5 5 5 5 5 5 5 5 5 6 5 5 5 5 6 5 5 5 5 5 5 5 5 5 5 6 5 6 5 5 5 5 5 5 5 5 5 5 5 5 5 5 5 5 6 5 5 5 5 5 5 5 5 5 6 5 5 5 5 5 5 5 5 5 5 5 5 5 5 5 5 5 5 5 5 5 5 5 6 5 5 5 5 5 5 5 6 5 5 5 5 5 6 5 5 5 5 5 5 5 5 5 5 5 5 5 5 5 5 5 5 5 5 5 5 5 5 5 5 5 5 6 5 5 5 5 5 5 6 5 5 5 5 6 5 5 5 6 6 5 5 5 5 5 5 5 5 5 5 5 5 5 5 5 5 5 5 5 5 5 5 5 5 5 5 5 5 5 5 5 5 5 5 5 5 5 5 5 5 5 5 5 5 5 5 5 6 5 5 5 5 6 5 5 5 5 5 5 5 5 5 5 5 5 5 5 5 5 6 5 5 5 5 5 5 6 5 5 6 5 6 5 5 5 5 5 5 6 5 5 5 5 5 5 5 5 5 5 5 5 5 5 5 5 5 5 5 5 5 5 5 5 5 5 5 6 5 6 5 5 6 5 5 5 5 5 5 5 5 5 6 5 6 5 5 5 5 5 5 5 6 5 5 5 5 5 5 5 5 5 5 5 5 5 6 5 5 5 5 5 5 5 5 5 6 5 5 5 5 6 5 5 5 5 5 5 5 6 6 5 5 5 5 5 5 5 5 5 5 5 5 5 5 5 5 6 5 5 5 5 5 5 5 5 6 5 5 5 6 5 5 5 5 5 5 5 5 5 5 5 5 5 5 5 5 5 5 5 6 5 5 5 5 5 5 5 6 5 5 6 5 5 5 5 5 5 5 5 6 5 5 6 5 5 5 5 5 5 5 5 5 5 5 5 6 5 5 5 5 6 5 5 5 5 5 5 6 5 5 5 6 5 5 5 6 5 5 5 5 5 5 5 5 5 6 5 5 5 5 5 6 5 5 6 5 5 6 5 5 5 5 5 5 6 5 5 5 5 5 5 5 5 5 5 6 5 5 5 5 5 6 5 5 5 5 5 5 5 5 5 5 5 5 5 5 5 5 5 5 5 5 5 5 5 6 5 5 5 5 5 5 5 5 5 5 5 5 5 5 6 5 5 6 5 5 5 5 5 6 5 5 6 5 5 5 5 5 5 5 5 6 5 5 5 5 5 5 5 5 5 5 5 5 5 5 5 5 5 5 5 5 5 5 5 6 6 5 5 5 5 6 5 5 5 5 5 5 5 5 5 6 5 5 5 5 5 5 5 5 5 6 5 5 5 5 5 5 5 5 6 5 5 5 6 6 5 5 6 5 5 5 5 5 5 6 5 6 5 5 5 5 5 5 6 5 5 5 5 5 5 5 5 5 5 5 5 5 5 5 5 6 5 5 5 6 5 5 6 5 5 6 5 5 5 5 5 5 5 5 5 5 5 5 5 5 6 5 5 6 5 6 5 5 6 5 5 5 5 5 5 5 5 5 5 5 5 5 5 5 5 5 5 5 5 5 5 5 5 5 5 5 5 5 5 5 5 5 5 5 5 5 5 5 5 5 5 5 5 5 6 5 5 5 5 5 5 5 5 5 5 5 6 6 5 5 5 5 6 5 5 5 5 5 5 5 5 5 5 5 5 5 5 5 5 5 5 5 5 5 5 5 5 6 5 5 6 5 5 6 5 5 5 5 6 5 6 5 5 5 5 5 6 5 5 5 6 5 6 5 5 5 5 5 5 5 5 5 5 5 5 5 5 5 5 5 5 5 5 6 5 5 5 5 5 6 5 5 5 5 5 5 5 5 6 5 5 5 5 5 5 5 5 5 5 5 6 5 5 5 5 5 5 5 6 5 5 5 5 5 5 5 5 5 5 5 5 5 5 6 5 5 5 5 6 5 5 5 5 5 5 5 5 5 5 6 5 5 5 5 6 5 6 5 5 5 5 5 5 5 5 6 5 5 5 5 5 6 5 5 6 5 5 5 5 5 5 6 5 5 5 5 5 5 5 5 5 5 5 5 6 5 5 5 5 5 5 5 6 5 5 5 5 5 6 5 5 5 5 5 5 6 5 5 5 5 5 5 5 5 5 5 5 5 5 6 5 5 6 5 5 5 5 5 5 5 5 5 5 5 6 5 5 5 5 5 6 5 5 5 5 5 5 5 5 5 5 5 6 5 5 5 6 5 5 5 5 5 5 5 5 5 5 5 5 5 5 5 5 5 5 5 5 5 5 5 5 5 6 5 5 6 5 5 5 6 5 5 6 5 5 5 5 5 5 5 5 5 5 6 6 5 6 5 5 5 5 5 5 6 5 5 5 5 5 6 5 5 5 5 6 5 5 5 5 5 5 5 5 5 5 5 5 5 5 5 5 5 5 6 5 5 5 5 5 5 5 6 5 5 5 5 5 5 5 6 5 5 5 6 5 5 5 5 5 5 5 5 5 5 5 5 5 5 5 5 5 5 6 5 5 5 5 6 5 5 5 5 5 6 5 5 6 5 5 5 5 6 5 5 5 5 5 6 5 5 5 5 5 5 5 6 5 5 5 6 5 5 5 5 5 5 5 5 5 6 5 5 6 5 5 5 5 5 5 5 5 5 5 5 5 5 5 5 5 5 5 5 5 5 5 5 5 5 5 5 5 5 5 6 5 6 5 5 5 6 5 5 5 5 5 6 5 5 6 5 5 5 5 5 5 5 5 5 5 6 5 6 5 5 5 5 5 6 6 5 5 6 6 5 5 5 5 5 5 6 5 5 5 5 5 5 5 5 5 5 5 5 5 5 5 6 5 5 5 6 5 5 6 5 5 5 5 5 5 5 5 5 5 5 5 5 6 5 5 5 5 5 5 5 5 5 5 5 5 5 5 5 5 5 5 5 5 5 6 5 5 5 5 5 5 5 5 5 5 5 5 5 5 5 5 5 5 5 5 5 5 5 5 5 5 5 5 5 5 5 5 5 5 5 5 5 5 5 5 5 6 5 5 5 5 5 5 5 5 5 6 5 5 5 5 5 5 5 5 5 5 5 5 5 5 5 5 5 6 5 5 6 6 5 5 5 5 6 5 6 5 5 5 5 6 5 6 5 5 5 5 5 5 5 6 6 5 5 6 5 5 5 5 6 5 5 5 5 5 5 5 5 5 5 5 5 5 5 5 5 5 5 6 6 5 5 5 5 5 5 5 5 5 5 5 5 5 5 5 5 5 5 5 5 5 5 5 6 5 5 6 5 5 6 5 5 5 6 5 6 5 5 5 5 5 5 5 5 5 5 6 5 5 6 5 5 5 5 5 5 5 5 5 5 5 5 5 5 5 5 5 5 5 5 5 5 6 5 5 5 5 5 5 5 5 5 5 6 5 5 5 5 5 5 5 5 5 5 5 5 5 5 5 5 6 5 5 5 6 5 5 5 5 5 5 6 5 5 5 5 5 5 5 5 5 5 5 5 5 5 5 5 5 5 5 5 5 5 6 6 5 5 5 5 5 5 6 5 5 5 5 5 5 5 5 5 5 5 6 5 5 5 5 5 5 5 5 5 5 5 5 5 5 5 5 5 5 5 5 5 6 5 5 5 5 5 5 5 6 5 5 5 5 5 5 5 6 6 5 5 5 6 6 5 5 5 5 6 5 5 5 5 6 5 6 5 5 5 5 5 6 6 5 5 5 5 5 5 5 6 6 6 6 6 5 5 6 5 5 5 5 5 6 5 5 5 6 6 5 5 5 5 5 5 5 5 6 6 6 5 5 5 5 6 5 6 5 6 5 5 6 5 5 5 6 5 6 5 6 5 5 5 5 5 5 5 5 6 5 5 5 5 6 5 5 5 6 5 6 5 6 5 5 5 5 5 5 6 5 5 5 5 6 5 5 6 6 6 5 5 6 5 5 6 5 5 5 5 5 5 5 5 6 5 6 5 5 6 6 5 5 5 5 5 5 5 5 5 5 5 5 5 5 6 6 5 5 5 5 6 5 5 6 5 5 6 6 5 5 5 5 5 5 5 5 5 5 6 5 5 5 5 5 5 6 5 5 5 5 5 5 5 5 5 5 5 5 5 5 5 6 5 5 6 5 5 5 5 6 6 5 5 5 5 5 5 5 5 5 5 5 5 5 5 5 6 6 6 5 5 5 5 5 5 5 5 6 5 6 5 5 5 5 5 5 5 5 5 5 5 5 6 6 6 5 6 5 5 5 6 6 5 5 5 5 5 5 6 5 5 5 5 5 5 5 5 5 5 6 6 5 5 5 5 5 6 5 6 6 6 6 5 5 6 6 6 5 5 5 5 6 5 5 5 5 5 5 6 6 5 5 6 5 5 5 5 5 5 5 5 6 6 5 5 5 6 5 5 6 5 5 5 5 6 5 5 6 5 6 5 6 5 5 5 5 6 5 5 5 5 5 5 5 5 5 5 5 5 5 5 6 5 5 5 5 5 6 5 6 5 5 5 5 5 5 5 5 5 5 5 5 5 5 6 6 5 5 5 5 6 5 6 5 5 6 5 5 5 5 6 5 5 6 5 6 6 5 5 5 5 5 5 5 5 5 6 5 5 6 5 5 6 5 6 6 5 6 5 5 5 5 5 5 5 5 5 5 5 5 5 5 5 5 5 5 5 5 5 5 5 5 5 5 5 5 5 5 5 5 5 5 5 5 5 5 5 5 5 5 5 5 5 5 5 5 5 5 5 5 5 5 5 5 5 5 5 5 5 5 6 5 5 5 5 5 5 5 5 5 5 5 5 5 5 5 5 5 5 6 5 5 5 5 5 5 5 5 6 5 5 5 6 5 5 5 6 5 5 5 5 6 5 5 5 6 5 5 5 5 5 5 5 5 5 6 5 5 6 5 5 5 5 5 5 5 5 5 5 5 5 5 5 5 5 5 5 5 5 5 5 5 5 6 6 5 5 6 6 6 5 5 5 6 5 5 6 5 5 6 5 5 5 5 6 5 5 6 5 5 5 5 5 5 5 5 5 5 5 5 5 5 5 5 5 5 5 5 5 5 5 5 5 5 5 5 5 5 5 6 5 5 5 5 6 5 5 5 5 5 5 6 5 5 5 5 5 5 5 5 5 5 5 5 5 5 6 5 5 5 5 5 5 5 5 6 5 5 5 5 5 5 5 6 5 5 6 5 5 5 6 5 5 5 5 5 5 5 5 5 5 5 5 5 5 5 5 5 5 5 5 5 5 5 5 5 6 5 5 5 5 5 5 5 5 5 5 5 6 5 5 5 5 5 5 5 5 5 5 5 5 5 5 5 5 5 5 5 5 5 5 6 5 5 5 6 5 5 6 5 5 5 5 5 5 5 5 5 5 5 5 5 5 5 5 5 5 5 5 5 5 5 5 5 5 5 5 5 5 5 5 5 5 5 5 5 5 5 5 5 5 5 5 5 5 5 5 5 5 5 5 5 5 5 5 5 5 5 5 5 5 5 5 5 5 6 5 5 6 5 6 5 5 5 5 5 5 5 5 5 5 5 5 5 5 5 5 6 5 5 5 5 5 6 5 5 6 5 5 5 6 5 5 5 5 6 5 5 5 5 5 5 5 5 6 5 6 5 6 5 6 5 5 5 5 5 6 5 5 5 6 5 5 5 5 5 5 6 5 5 5 5 5 5 6 5 5 5 5 5 6 5 5 5 5 5 5 5 5 5 5 5 5 5 5 5 5 5 5 5 5 6 5 5 5 5 5 6 5 5 6 5 5 5 5 5 6 6 5 6 5 5 5 5 6 5 5 5 5 5 5 5 5 5 5 6 5 5 5 5 5 6 5 5 5 5 5 5 5 5 5 5 5 5 5 5 5 6 5 6 5 5 6 5 5 5 5 5 6 5 5 5 5 5 5 5 5 6 5 6 5 5 6 5 5 5 5 5 5 5 5 5 5 5 5 5 5 5 6 5 5 5 5 5 5 5 5 5 5 6 5 5 5 5 5 5 5 5 5 5 5 5 5 5 5 5 5 5 5 5 5 5 5 5 5 5 5 5 6 5 6 5 5 5 5 5 5 5 5 5 5 5 5 5 6 5 5 5 5 5 5 5 6 5 5 5 5 5 5 5 5 5 6 5 5 6 5 6 6 5 5 5 5 6 5 5 5 5 5 5 5 5 5 5 5 5 5 5 5 5 5 5 5 5 5 5 6 5 5 5 5 5 5 5 5 5 5 5 5 5 5 5 5 5 5 5 5 5 5 5 5 5 5 5 5 5 5 5 5 5 5 5 5 5 5 5 5 5 5 5 5 5 5 5 5 5 5 5 5 5 5 5 5 5 5 5 5 5 5 5 5 5 5 5 5 5 5 5 5 5 5 5 5 5 5 6 5 5 5 5 5 5 5 5 5 5 5 5 5 6 5 5 5 5 5 5 5 5 5 5 5 5 5 5 5 5 5 5 5 6 5 5 5 5 6 5 5 5 5 5 5 5 5 5 5 5 5 5 5 5 5 5 5 5 5 5 5 5 5 5 5 5 5 5 5 5 5 5 5 5 5 5 5 5 5 5 5 5 5 5 6 5 5 5 6 5 5 5 6 5 5 5 5 5 5 5 5 5 5 5 5 5 5 5 5 5 6 5 5 5 5 5 5 5 6 5 5 5 6 5 5 5 6 5 6 5 5 5 5 5 5 6 6 5 5 5 6 5 5 5 5 5 5 6 5 5 5 5 6 5 5 5 5 5 5 5 5 6 5 5 5 5 5 5 5 5 5 6 5 5 5 6 5 5 5 5 6 5 5 6 5 5 5 5 5 5 5 5 5 5 5 5 5 5 5 5 5 5 5 6 5 5 5 5 5 6 5 6 6 5 5 5 5 5 6 5 6 5 6 6 5 5 5 5 5 5 5 5 5 5 6 5 5 5 6 5 5 6 5 5 5 5 5 5 5 5 5 5 5 5 5 5 5 5 5 5 5 5 5 5 5 5 5 5 5 5 5 5 5 5 5 5 5 5 5 5 5 5 5 5 5 5 5 5 5 5 5 5 5 5 5 5 6 5 5 5 5 5 5 6 5 5 6 5 5 6 5 5 5 5 5 5 5 5 5 5 6 6 5 5 5 5 5 5 5 5 5 5 5 6 5 5 5 5 5 5 5 5 5 5 5 5 5 5 5 5 6 5 5 5 6 5 5 5 6 5 5 5 6 5 5 5 5 5 5 5 5 5 5 5 5 5 5 5 5 5 6 5 5 5 5 5 5 5 5 6 5 6 5 5 5 5 5 5 6 5 5 5 6 5 5 5 6 5 5 6 5 5 5 6 5 5 5 5 5 5 5 5 5 5 5 5 5 5 5 5 5 5 5 5 5 5 5 5 5 5 5 5 5 5 5 5 5 5 5 5 5 5 5 6 5 5 6 5 5 5 5 5 6 5 5 6 5 5 5 5 5 5 5 5 5 5 5 5 5 5 5 6 5 5 5 6 5 5 6 5 5 5 5 5 5 5 5 5 5 5 5 6 5 5 5 5 5 5 5 5 5 5 5 5 5 5 5 5 5 5 5 5 5 5 6 5 5 5 5 6 5 5 5 5 5 5 5 5 5 5 5 5 5 6 5 5 5 6 5 6 5 5 5 5 5 6 5 5 5 6 6 5 5 5 5 5 5 5 5 5 6 5 5 5 5 5 6 5 5 5 5 5 5 5 5 5 5 5 5 5 5 5 5 5 5 5 5 5 6 5 5 5 5 5 5 5 5 5 5 6 5 5 6 5 5 5 6 5 5 5 5 5 5 5 5 5 5 5 5 5 5 6 5 6 5 5 5 5 6 5 5 5 5 5 5 5 6 5 5 5 5 5 5 5 5 5 5 5 5 5 5 5 5 5 5 5 5 5 5 5 5 5 5 6 5 5 6 6 5 5 5 6 5 5 6 5 5 5 5 6 5 5 5 5 5 5 5 5 5 5 5 5 5 6 5 5 5 5 6 5 5 6 5 5 5 5 6 5 5 5 6 5 5 5 6 5 5 5 5 5 5 5 5 5 6 5 5 5 5 5 5 5 5 5 5 6 5 5 5 5 5 5 5 5 5 5 5 5 5 5 5 6 5 6 5 6 5 5 5 5 5 5 5 5 5 6 5 5 5 5 5 6 5 5 5 5 5 5 6 5 5 6 5 5 5 5 5 5 5 5 5 5 5 5 5 5 5 5 5 5 5 5 5 5 5 5 5 5 5 5 5 6 5 5 6 5 6 5 5 5 5 5 5 6 5 5 5 6 5 5 5 5 5 5 5 6 5 5 5 5 5 5 5 5 5 6 5 5 5 6 5 5 6 6 5 6 5 5 5 6 5 5 5 5 5 5 6 5 5 5 5 5 6 6 5 5 5 5 6 5 5 5 5 5 5 5 5 5 5 5 5 5 5 5 6 5 5 6 5 5 5 5 5 5 5 5 6 5 5 5 5 6 5 5 5 5 5 5 6 5 5 6 5 6 5 5 5 5 6 6 5 5 5 6 6 5 5 6 5 5 5 5 5 5 5 5 5 5 5 5 5 5 5 5 6 5 5 5 6 5 5 5 5 5 5 6 5 5 5 5 5 5 5 5 5 5 6 5 5 5 5 5 5 5 5 5 6 6 5 6 5 5 6 5 5 5 5 5 5 5 6 5 5 6 6 5 5 5 5 6 5 5 5 5 5 5 5 5 5 5 5 6 5 6 5 5 5 5 6 5 5 5 6 5 6 5 5 5 5 5 5 5 5 5 5 5 6 5 5 5 5 5 5 5 5 5 5 5 5 5 5 5 5 5 6 5 5 5 5 5 5 5 5 6 6 5 5 5 5 5 5 5 5 5 5 5 5 5 5 5 5 5 6 5 5 5 5 6 5 5 6 6 5 5 6 5 5 5 6 5 5 5 5 5 5 5 5 5 5 5 5 5 5 5 5 5 5 5 5 5 5 5 5 5 5 5 5 5 5 5 5 5 5 5 5 5 5 5 5 6 5 5 5 5 5 6 5 5 5 5 5 5 5 5 5 5 5 5 5 5 5 5 5 5 5 5 5 5 5 5 5 5 5 5 5 5 5 5 5 5 6 5 6 5 6 6 5 5 5 5 6 5 5 5 6 5 5 5 6 5 5 5 6 5 5 5 5 5 5 5 5 5 6 5 5 5 5 5 5 5 5 5 5 5 5 5 5 5 5 5 5 5 5 5 5 5 5 5 5 5 5 5 5 6 5 6 5 6 5 5 6 5 5 5 5 5 5 5 5 5 5 6 5 5 5 5 5 5 5 5 5 6 5 5 5 5 5 5 6 5 5 5 5 5 5 5 5 5 5 5 5 5 5 5 5 5 5 5 5 5 5 5 5 6 5 5 5 5 5 5 5 6 5 5 5 5 5 5 5 5 5 5 6 5 5 6 5 5 5 5 5 5 6 5 5 5 5 5 5 5 6 5 5 5 5 5 5 5 5 5 5 5 5 5 5 5 5 6 5 5 5 5 5 5 5 5 5 5 5 6 5 5 5 5 6 5 5 6 5 5 5 5 5 5 5 5 5 5 5 5 5 5 5 5 5 5 5 6 5 5 5 5 5 5 5 5 6 5 5 5 5 5 5 5 6 5 5 5 5 5 6 5 5 5 5 6 5 5 5 5 5 5 5 5 6 5 5 5 5 5 5 5 5 6 5 5 5 5 5 5 5 5 5 5 5 5 5 5 5 5 5 5 5 5 5 5 5 5 6 5 5 5 5 5 6 5 5 5 5 6 5 6 5 5 5 5 5 5 5 5 5 5 5 5 5 5 5 6 5 5 5 6 5 5 5 5 5 5 5 5 5 5 5 5 5 5 5 5 5 5 5 5 5 5 5 5 5 5 5 5 5 5 5 5 5 5 5 5 5 5 5 5 5 5 5 5 5 5 5 5 5 5 5 5 5 6 5 5 5 5 5 5 5 5 5 5 5 6 5 5 5 5 5 5 5 5 6 5 5 6 5 5 5 5 5 5 5 6 5 5 5 5 6 5 5 5 5 5 6 5 5 5 5 5 5 5 5 5 5 5 5 5 5 5 5 5 5 6 5 5 5 6 5 5 5 5 5 5 5 6 5 6 5 5 5 5 5 5 6 6 5 5 5 5 5 5 5 6 5 5 6 5 6 5 5 5 5 5 5 5 5 5 5 6 5 5 5 5 6 6 5 5 5 6 5 5 5 6 5 5 6 5 5 5 5 5 5 6 5 5 5 6 5 5 5 5 6 6 5 5 5 5 5 5 5 5 5 5 5 5 5 5 5 6 5 5 5 5 5 5 5 5 5 5 5 5 5 6 
</DataArray>
<DataArray type="Float64" Name="stress" NumberOfComponents="9" format="ascii">
0.91282570916519035 3054.3368942982015 0 3054.3368942982015 -2390.3805815444139 0 0 0 0 -1621.1722131291899 1282.163954532698 0 1282.163954532698 -2.4884596122501534 0 0 0 0 -1178.2946494053904 1241.4549645615407 0 1241.4549645615407 -203.94056730528973 0 0 0 0 -1.7899981288263689 7.5922790808371019 0 7.5922790808371019 0.87377201805219329 0 0 0 0 -1.9888342638878385 2713.6428038865488 0 2713.6428038865488 -1158.4335926976019 0 0 0 0 -1009.7477347944077 2048.4934128072277 0 2048.4934128072277 -1595.6963165981651 0 0 0 0 -370.67450720036868 2371.848827310474 0 2371.848827310474 -1685.4845588257322 0 0 0 0 -2067.6163955918419 1600.1545231513592 0 1600.1545231513592 -2186.1395142478286 0 0 0 0 -4095.0749677180429 2450.7103875728208 0 2450.7103875728208 -1565.8236671128761 0 0 0 0 -1740.8071571135224 2372.3396300801396 0 2372.3396300801396 -1694.097608071952 0 0 0 0 -990.88938489263364 1924.6382715329328 0 1924.6382715329328 -2025.2928959976998 0 0 0 0 -2240.5905960637319 2063.4137755042539 0 2063.4137755042539 -1310.5121740240429 0 0 0 0 -2405.3276574582706 1739.8586892851454 0 1739.8586892851454 -1646.0988079432427 0 0 0 0 -2213.3749936387103 2165.9803205614644 0 2165.9803205614644 -2117.3697790790611 0 0 0 0 -2298.6734924653865 1897.4358985982981 0 1897.4358985982981 -1417.1186877397413 0 0 0 0 -2033.833767183387 1634.7912227087436 0 1634.7912227087436 -1371.4336458167763 0 0 0 0 -1311.9357510707086 1748.21986674033 0 1748.21986674033 -1973.7013392873632 0 0 0 0 -1827.5582309585734 2465.119937299045 0 2465.119937299045 -2428.5037711075238 0 0 0 0 -2.3038839442925791 7.5188672199574 0 7.5188672199574 2.7297095587969693 0 0 0 0 -2447.0334676042694 2441.6484569001186 0 2441.6484569001186 -6.8288458774914034 0 0 0 0 -1983.7934508467297 2400.9058701615868 0 2400.9058701615868 -1411.7029745676441 0 0 0 0 -2421.2468671288534 2395.3217443843587 0 2395.3217443843587 -1013.5977575213619 0 0 0 0 -2309.9628836548618 1851.5141668188699 0 1851.5141668188699 1.2286745597739355 0 0 0 0 -2840.8132170667232 2188.2870280464413 0 2188.2870280464413 -963.91201787308091 0 0 0 0 -1237.2799798853375 1604.338117834388 0 1604.338117834388 -1146.6739160601282 0 0 0 0 -1247.8395279566967 1303.952686066119 0 1303.952686066119 -599.33829086954938 0 0 0 0 -612.40159952008071 814.14111339149713 0 814.14111339149713 -1283.4559427613858 0 0 0 0 -477.85789185252361 1080.7323604618232 0 1080.7323604618232 -2239.8138609679881 0 0 0 0 -1508.9717595940747 1759.7569077585722 0 1759.7569077585722 -1222.4603963444606 0 0 0 0 -69.150374862466265 21.771288701803911 0 21.771288701803911 11.200512372281793 0 0 0 0 -696.48532978005824 -115.2875439911295 0 -115.2875439911295 2527.9631891310091 0 0 0 0 -91.718799182222938 27.727546087866017 0 27.727546087866017 15.608127774915303 0 0 0 0 -15.665133503651305 260.38110546857024 0 260.38110546857024 943.0980912000814 0 0 0 0 -1688.7067023864656 2230.0584365856594 0 2230.0584365856594 -2438.2148485933722 0 0 0 0 -1265.995061411013 1630.6443566481685 0 1630.6443566481685 -2444.3966893819133 0 0 0 0 -1040.5711409428768 1737.4066059821052 0 1737.4066059821052 -2907.8317590974038 0 0 0 0 -27.153885542109151 8.6127454497097915 0 8.6127454497097915 2.3616717002489054 0 0 0 0 -2328.2057607850802 3845.5784692831694 0 3845.5784692831694 -5996.4395947015364 0 0 0 0 -847.65064726387936 -910.6871491270922 0 -910.6871491270922 3544.1283970624208 0 0 0 0 -2784.6454987316392 1308.3677289042244 0 1308.3677289042244 1498.510738280369 0 0 0 0 -874.77482558428892 103.28920434229804 0 103.28920434229804 922.96051582702785 0 0 0 0 133.08019665852771 776.25694842285884 0 776.25694842285884 1305.3989072502736 0 0 0 0 -481.25353024914034 475.54218499456653 0 475.54218499456653 -180.04575180982647 0 0 0 0 -468.985497960879 873.87049073281378 0 873.87049073281378 363.02468855895131 0 0 0 0 -566.50422990767038 266.57040401735867 0 266.57040401735867 212.21156985966809 0 0 0 0 108.43356796199805 202.78067145480236 0 202.78067145480236 720.72426423238358 0 0 0 0 -231.8831816783204 1276.8479487894074 0 1276.8479487894074 378.7264111669283 0 0 0 0 -1786.2873457792157 955.4428842952766 0 955.4428842952766 533.20043608472042 0 0 0 0 -473.025801793352 934.96740455675172 0 934.96740455675172 61.714090697889333 0 0 0 0 1969.5821370892227 -547.64492087004692 0 -547.64492087004692 -458.83069610592793 0 0 0 0 -2090.489941489097 750.72214027160953 0 750.72214027160953 603.24821451226308 0 0 0 0 1641.5585226210915 994.96561427414963 0 994.96561427414963 -385.92185624301783 0 0 0 0 2.7357829140375429 8.5826128115903089 0 8.5826128115903089 0.44863064243872941 0 0 0 0 596.59394844542112 697.21013749924987 0 697.21013749924987 546.79715651346487 0 0 0 0 551.74520263640443 487.23770035934285 0 487.23770035934285 88.326020924399927 0 0 0 0 -591.32993618163164 528.90933198592393 0 528.90933198592393 -387.05213836278199 0 0 0 0 -1407.3283895507484 266.08482784986336 0 266.08482784986336 -266.72345396860328 0 0 0 0 -475.86137364496244 558.96380388523175 0 558.96380388523175 -392.58337434336136 0 0 0 0 -425.21294266613768 505.29116682640597 0 505.29116682640597 -337.29019838247041 0 0 0 0 6.9392580693586723 18.667674035628124 0 18.667674035628124 4.9442818793300489 0 0 0 0 542.05701397956 348.60152348251904 0 348.60152348251904 72.950581979821436 0 0 0 0 573.27899910725682 425.631660774794 0 425.631660774794 236.85962778744579 0 0 0 0 351.96014952252153 452.37885162400926 0 452.37885162400926 438.56877526083554 0 0 0 0 -560.57271896674683 586.98489136238504 0 586.98489136238504 -370.74577588835382 0 0 0 0 -1218.4428288723866 580.3360193104636 0 580.3360193104636 72.786441364230996 0 0 0 0 -502.31846322737692 691.85241270965344 0 691.85241270965344 -231.82464053911644 0 0 0 0 -528.00781594314321 809.86992527687835 0 809.86992527687835 -477.06794399277715 0 0 0 0 -326.86736318714975 629.64957902531751 0 629.64957902531751 -461.0474333053312 0 0 0 0 -647.82625780528906 991.36872810052228 0 991.36872810052228 -806.97607988482923 0 0 0 0 -961.61106258917425 617.86342342529679 0 617.86342342529679 -372.3951642509619 0 0 0 0 -938.39275077288039 647.39597021256304 0 647.39597021256304 -587.74322806211421 0 0 0 0 -761.57973956364731 930.55285485620698 0 930.55285485620698 -286.2004190661537 0 0 0 0 -1514.8036277213978 1150.8359282664824 0 1150.8359282664824 -306.21759791621844 0 0 0 0 -644.37597568330239 1314.2604346214102 0 1314.2604346214102 -574.33949855210813 0 0 0 0 -675.31465413786646 986.93537562770871 0 986.93537562770871 -533.66315008313541 0 0 0 0 -534.90353907404642 1351.9689341607664 0 1351.9689341607664 -568.04560999108799 0 0 0 0 -0.17292751252534799 1394.771212685544 0 1394.771212685544 -810.93641396209568 0 0 0 0 -0.91107194176584017 1662.2318650711859 0 1662.2318650711859 -1069.4742457274024 0 0 0 0 -532.76596007141052 1744.1802176369529 0 1744.1802176369529 -1024.2289481419284 0 0 0 0 -1017.3637361032161 1571.6943545209579 0 1571.6943545209579 -664.25994430009086 0 0 0 0 -517.04485174518049 2086.761795326398 0 2086.761795326398 -1361.5591370803304 0 0 0 0 0.71306150445051464 2173.6888368732898 0 2173.6888368732898 -1676.6830301666196 0 0 0 0 -537.39454197947634 2152.4221370729065 0 2152.4221370729065 -1379.2245391590641 0 0 0 0 -905.74236697325796 2381.5780939890774 0 2381.5780939890774 -1407.8701038062572 0 0 0 0 -1012.5995515204449 1941.7003754123698 0 1941.7003754123698 -1633.9995910091238 0 0 0 0 -2028.5599671025557 2577.6870644998198 0 2577.6870644998198 -1483.2157139886767 0 0 0 0 -1968.9506093164964 2261.2167511544721 0 2261.2167511544721 -647.49130169005366 0 0 0 0 -1016.1066462201852 1502.1025540975133 0 1502.1025540975133 -390.20651935486239 0 0 0 0 24.958888668639702 65.377964332652482 0 65.377964332652482 -16.914966683543753 0 0 0 0 -10.000506531636347 123.15077159102657 0 123.15077159102657 -99.724846519638049 0 0 0 0 49.394243188362452 55.587694178517268 0 55.587694178517268 -105.03125381343762 0 0 0 0 6.1135477116622496 59.644058477424551 0 59.644058477424551 -168.27162494944059 0 0 0 0 -25.884340781572973 185.92250014625461 0 185.92250014625461 -496.34471541646053 0 0 0 0 -2.9499317037106039 0.94300346881006192 0 0.94300346881006192 -0.36398981256513707 0 0 0 0 -148.48928962392165 64.856068775923632 0 64.856068775923632 -15.841431603665114 0 0 0 0 4.7756281647161813 120.72334457470424 0 120.72334457470424 -240.81052738326252 0 0 0 0 -188.64563854351582 46.246156018023612 0 46.246156018023612 219.10854584379558 0 0 0 0 -212.4018446956652 205.90132521379564 0 205.90132521379564 -14.800381601162371 0 0 0 0 -39.190373727717088 99.028017583696055 0 99.028017583696055 8.0886094282723207 0 0 0 0 -61.658009352035151 126.80341437119569 0 126.80341437119569 3.5817481658959878 0 0 0 0 -70.543529805887374 71.038482758667669 0 71.038482758667669 18.990052058608853 0 0 0 0 -69.987430266175295 52.389564921036737 0 52.389564921036737 26.326204326423301 0 0 0 0 -61.146681476107915 75.023314850859606 0 75.023314850859606 0.026421426700835582 0 0 0 0 -63.462836183556647 75.620510351895064 0 75.620510351895064 1.0704737838968867 0 0 0 0 -65.671199645927118 73.989031604884076 0 73.989031604884076 0.021801306174893398 0 0 0 0 -67.748023235384608 65.029448578752636 0 65.029448578752636 -0.62289254003189853 0 0 0 0 -56.112201221243595 70.289488186244853 0 70.289488186244853 -25.308108839533816 0 0 0 0 -55.152428932588521 47.998927430272232 0 47.998927430272232 23.842837187375167 0 0 0 0 -54.860077743003785 76.438519253817503 0 76.438519253817503 -11.554279476105876 0 0 0 0 -53.716775146804821 54.441547776043421 0 54.441547776043421 -3.3407838660496054 0 0 0 0 -44.565287971400011 57.776529703278783 0 57.776529703278783 25.010970663201334 0 0 0 0 -38.364851682825247 -33.065509435629792 0 -33.065509435629792 170.83254092826246 0 0 0 0 -146.5360529980826 155.07668542716419 0 155.07668542716419 90.132458187385055 0 0 0 0 0.23218024400557624 -63.401999405832612 0 -63.401999405832612 -2.4586520182638196 0 0 0 0 -119.79273263698269 -29.233921892388025 0 -29.233921892388025 -215.79850949496904 0 0 0 0 -511.95847143005813 257.29735034565965 0 257.29735034565965 -100.40225580176775 0 0 0 0 -59.50198630457453 89.578765350976028 0 89.578765350976028 -22.33185554622014 0 0 0 0 9.8300593483436387 -1.7139024096450157 0 -1.7139024096450157 6.5175212492322316 0 0 0 0 -899.22398098149279 791.10298531071749 0 791.10298531071749 -1.4612661601910724 0 0 0 0 -455.14352458879875 14.96164616693568 0 14.96164616693568 76.518753158954951 0 0 0 0 71.678450653686014 44.700646436856914 0 44.700646436856914 41.331369742569223 0 0 0 0 -27.033144946794462 58.605260732456955 0 58.605260732456955 32.764429338522632 0 0 0 0 -323.61699746370141 125.7692500103949 0 125.7692500103949 115.57684976230667 0 0 0 0 -120.04747942200873 32.759909355980085 0 32.759909355980085 22.834634371806061 0 0 0 0 -608.42541461367364 150.06778631347697 0 150.06778631347697 -80.765044978783408 0 0 0 0 -45.017258515392314 89.054796362623165 0 89.054796362623165 -37.293754206195445 0 0 0 0 -506.5717478988272 130.857918537361 0 130.857918537361 -147.55192341760267 0 0 0 0 -21.972262728356299 16.064188925471782 0 16.064188925471782 -3.3656501028056596 0 0 0 0 -823.63801615439661 551.69017627686299 0 551.69017627686299 -342.24334566574544 0 0 0 0 22.041301041652332 83.051511457320885 0 83.051511457320885 -0.035964062553830445 0 0 0 0 -1215.3670785318745 191.02195647535791 0 191.02195647535791 68.938692643743707 0 0 0 0 0.0050565178411403622 -4.0428231754211339 0 -4.0428231754211339 -2.6927496280903256 0 0 0 0 -358.65842700011126 298.31499767541391 0 298.31499767541391 -311.78618184068728 0 0 0 0 -299.52795470795536 575.08835803764669 0 575.08835803764669 -1103.2316437498375 0 0 0 0 -105.04218697619564 26.825722013976105 0 26.825722013976105 15.75533536290979 0 0 0 0 -452.67425930109312 468.49236495623336 0 468.49236495623336 -605.22642001161876 0 0 0 0 -261.9574839361012 87.367552824031009 0 87.367552824031009 57.620596729262616 0 0 0 0 -267.64638660807395 106.50734636938068 0 106.50734636938068 455.22075067077822 0 0 0 0 -89.796478729171213 115.21556783475535 0 115.21556783475535 675.50170963513665 0 0 0 0 -83.937763343026745 129.55991530155006 0 129.55991530155006 304.35256494328132 0 0 0 0 32.385190197892371 409.64804030826053 0 409.64804030826053 124.36845268499019 0 0 0 0 103.70841454018955 694.4277272834297 0 694.4277272834297 1010.4106841769717 0 0 0 0 -133.925418441082 436.00972661701599 0 436.00972661701599 -143.67623963349615 0 0 0 0 793.42061159727018 -15.990495947258751 0 -15.990495947258751 -1568.6062207626092 0 0 0 0 -195.37607025800389 407.31673127975228 0 407.31673127975228 184.28166819434409 0 0 0 0 163.04677388412529 583.30762558688002 0 583.30762558688002 1164.1330579843625 0 0 0 0 36.007919710580609 162.29486177648869 0 162.29486177648869 532.45655700673524 0 0 0 0 -3.2821333463331825 2.0053637660499817 0 2.0053637660499817 -0.36451894645340843 0 0 0 0 400.55121962925477 415.24390743111508 0 415.24390743111508 190.08465220154903 0 0 0 0 329.076229472259 495.41934595627026 0 495.41934595627026 308.74392050219467 0 0 0 0 337.15457347811025 202.88727118337556 0 202.88727118337556 -1.1961967650131555 0 0 0 0 289.58174289202725 407.07772359995579 0 407.07772359995579 203.86639626052784 0 0 0 0 -14.787351927124973 2.6514348166228956 0 2.6514348166228956 -0.99895409821187542 0 0 0 0 -7.9068098308489425 184.48273078452621 0 184.48273078452621 -518.1636314352163 0 0 0 0 127.85618706326204 178.35881267695731 0 178.35881267695731 247.36701402744802 0 0 0 0 -21.981395782349864 43.956382930828113 0 43.956382930828113 143.91158142690256 0 0 0 0 -29.363107429035495 24.157701978301432 0 24.157701978301432 7.3728138229776388 0 0 0 0 -25.496938952230266 84.357728787694214 0 84.357728787694214 35.605224575279863 0 0 0 0 -34.245073015859816 163.2007454779814 0 163.2007454779814 -78.728491662940087 0 0 0 0 -33.863216264777293 99.731563316878237 0 99.731563316878237 94.651235797544359 0 0 0 0 88.517606645909837 220.20422724233504 0 220.20422724233504 163.98385265761408 0 0 0 0 -147.8722927159979 50.75765858154773 0 50.75765858154773 95.982318224669143 0 0 0 0 -35.04038782036514 116.39684945659246 0 116.39684945659246 -19.736714493388718 0 0 0 0 -13.255693986953489 68.680334573339806 0 68.680334573339806 11.033985539907974 0 0 0 0 -81.766887087462237 132.6210438499802 0 132.6210438499802 26.257673384141526 0 0 0 0 -12.313580469906555 51.257453893339218 0 51.257453893339218 34.022478546078162 0 0 0 0 -8.0042955194285241 74.025518891396132 0 74.025518891396132 34.646320417290553 0 0 0 0 -269.09800268555409 136.00955257899841 0 136.00955257899841 35.828663787338883 0 0 0 0 -272.96813683123037 205.43453057404622 0 205.43453057404622 270.84866471793794 0 0 0 0 -4.5751065832605917 45.600995255956448 0 45.600995255956448 32.004176011657933 0 0 0 0 88.160178338612241 78.077009716476368 0 78.077009716476368 -20.746133064385504 0 0 0 0 -332.96186385121837 150.49918811026146 0 150.49918811026146 89.400420178616514 0 0 0 0 -16.345129413923132 131.17644076766737 0 131.17644076766737 -18.568881172976035 0 0 0 0 -112.90331873761534 101.6938802574914 0 101.6938802574914 50.943475896114251 0 0 0 0 -128.23349935635997 147.23125469423576 0 147.23125469423576 30.125786508942838 0 0 0 0 -314.19650413843738 88.691114624678448 0 88.691114624678448 213.97316215920728 0 0 0 0 -281.69572923176747 335.83989710307651 0 335.83989710307651 -169.22475544144345 0 0 0 0 -276.01948377535155 134.75750591852557 0 134.75750591852557 89.948523785201019 0 0 0 0 -328.73237032996258 167.57452210900374 0 167.57452210900374 80.753708509088028 0 0 0 0 -190.24176985074155 95.279814000321494 0 95.279814000321494 90.344085077253112 0 0 0 0 -103.87577827159839 134.72922789701988 0 134.72922789701988 21.691756129657733 0 0 0 0 -83.248308674767031 67.847392842471891 0 67.847392842471891 72.937505249283276 0 0 0 0 -149.72286141959194 211.77745667653653 0 211.77745667653653 -104.62861342341785 0 0 0 0 -0.12229743678585692 19.03871693245614 0 19.03871693245614 5.0386994678293586 0 0 0 0 -132.55752724943159 43.232229935201758 0 43.232229935201758 100.67893554794136 0 0 0 0 -30.660166074880181 102.49868865884218 0 102.49868865884218 -4.571112847639597 0 0 0 0 -110.42355734143348 52.626924695752678 0 52.626924695752678 49.547149013826129 0 0 0 0 -228.85340249880392 63.841775512650202 0 63.841775512650202 72.510570874826954 0 0 0 0 -167.42566087029263 130.11163302961813 0 130.11163302961813 -97.469267148451763 0 0 0 0 -149.24022327582679 26.503259209978296 0 26.503259209978296 30.080669996794313 0 0 0 0 -62.95445099673816 72.872433865704807 0 72.872433865704807 17.235503770963987 0 0 0 0 -49.829328822845127 -6.5490662318552495 0 -6.5490662318552495 58.247897848868888 0 0 0 0 -26.114079746433902 42.318926720245571 0 42.318926720245571 39.961953275163296 0 0 0 0 318.00756550928054 28.020419693966687 0 28.020419693966687 53.324845094670309 0 0 0 0 12.464430327682308 8.4386773712966914 0 8.4386773712966914 2.6486714213938853 0 0 0 0 458.72968094733733 258.4426629053014 0 258.4426629053014 -295.71074242662871 0 0 0 0 -20.794200108911745 72.961470502471371 0 72.961470502471371 25.005186820944601 0 0 0 0 59.966870062868111 206.49014018307207 0 206.49014018307207 122.92017189061153 0 0 0 0 40.845457366117543 63.666776092278411 0 63.666776092278411 57.483699414700482 0 0 0 0 103.99646176673195 108.77520097803426 0 108.77520097803426 10.572612490432221 0 0 0 0 6.1871482387752081 8.6942719348360527 0 8.6942719348360527 13.343119057510876 0 0 0 0 110.93017826341384 30.202454959900933 0 30.202454959900933 81.970768017905357 0 0 0 0 -17.936845078136685 115.37194038596863 0 115.37194038596863 106.89617172043654 0 0 0 0 -15.059210085186351 105.16707472734197 0 105.16707472734197 138.52002404347877 0 0 0 0 132.99057797122805 71.766783638428024 0 71.766783638428024 36.527980670914985 0 0 0 0 -298.9854761059396 42.006985015294049 0 42.006985015294049 47.683618054416002 0 0 0 0 378.77162856074574 214.52666615476846 0 214.52666615476846 21.555188767772052 0 0 0 0 -0.4092813639437054 -1.2671413108533045 0 -1.2671413108533045 2.0556079701473777 0 0 0 0 -74.369357334537199 39.555137492279755 0 39.555137492279755 224.60855965962401 0 0 0 0 124.67580475850264 265.83243893351755 0 265.83243893351755 190.77919900152483 0 0 0 0 -380.83403740867652 219.84793948092738 0 219.84793948092738 166.93391608832462 0 0 0 0 -19.240425951335055 -17.544154650182463 0 -17.544154650182463 -27.530217746680137 0 0 0 0 3.6929641885224953 2.9373772006302445 0 2.9373772006302445 1.1058915740846658 0 0 0 0 -5.5528475771550063 8.0761647479448584 0 8.0761647479448584 -0.0020250078892019019 0 0 0 0 66.625241547415499 -4.335817834478803 0 -4.335817834478803 -73.841940439597238 0 0 0 0 -30.592693749247701 37.9452183823214 0 37.9452183823214 13.955211219537887 0 0 0 0 50.843106461434218 40.562237540223578 0 40.562237540223578 46.165434180613374 0 0 0 0 8.1195619808095216 118.63773227602724 0 118.63773227602724 64.95494137951755 0 0 0 0 -28.825954296684358 -2.0903710958664306 0 -2.0903710958664306 -100.06158968003001 0 0 0 0 -175.42248844350979 256.17665113924886 0 256.17665113924886 53.113853395259866 0 0 0 0 61.03770357977919 165.33484677506158 0 165.33484677506158 214.49177462030593 0 0 0 0 114.90615987905767 210.78807992811244 0 210.78807992811244 141.09326752893094 0 0 0 0 31.543231981569988 215.76550149452706 0 215.76550149452706 143.74460780383265 0 0 0 0 114.4852822388969 113.143100361026 0 113.143100361026 -15.45341115046201 0 0 0 0 -133.7809777923685 302.54603620259149 0 302.54603620259149 86.877638077308802 0 0 0 0 -143.43384225375485 257.67634562253807 0 257.67634562253807 168.42041417493283 0 0 0 0 34.038010884956748 100.79333406696787 0 100.79333406696787 167.14072542056965 0 0 0 0 70.821085092173746 118.81770723501415 0 118.81770723501415 168.39829015580406 0 0 0 0 -135.00582401876454 126.10649124596966 0 126.10649124596966 194.66664113236038 0 0 0 0 -72.128736033046152 162.19161429788801 0 162.19161429788801 25.017372460788465 0 0 0 0 -85.255493391130585 199.05026768498465 0 199.05026768498465 104.85254552451079 0 0 0 0 -67.595904180343496 142.02523381487117 0 142.02523381487117 177.13555027224356 0 0 0 0 54.173536253074417 185.8960651030211 0 185.8960651030211 158.59493331020349 0 0 0 0 -97.675238201207321 187.56441102211602 0 187.56441102211602 170.72499393209 0 0 0 0 -97.169537961963215 181.05099711131334 0 181.05099711131334 234.3229048022913 0 0 0 0 144.29133994552103 75.383146629174917 0 75.383146629174917 398.24619406391867 0 0 0 0 -84.939425303775351 283.10261688048922 0 283.10261688048922 301.25257289528417 0 0 0 0 -114.42845148415654 158.97789393588755 0 158.97789393588755 85.615071818232536 0 0 0 0 -115.54049335245509 116.56535599298513 0 116.56535599298513 340.94740228299634 0 0 0 0 5.000188494930228 21.746329287179861 0 21.746329287179861 11.313005483922783 0 0 0 0 -249.52810309646884 273.80659641319653 0 273.80659641319653 -7.1985268680218724 0 0 0 0 34.450817113366298 9.8332133262386492 0 9.8332133262386492 -28.812461667260465 0 0 0 0 343.00207085297734 12.601693810069264 0 12.601693810069264 -174.81495786839514 0 0 0 0 -81.152129871102716 231.63815212446252 0 231.63815212446252 128.86005325945735 0 0 0 0 113.32423281682532 335.29767779552822 0 335.29767779552822 -30.268229451787192 0 0 0 0 -33.028031488618581 57.15863869254099 0 57.15863869254099 -76.882793280428814 0 0 0 0 -86.258864850766258 41.043027105941292 0 41.043027105941292 -29.124416507220303 0 0 0 0 -67.133974802457487 -71.526500977719706 0 -71.526500977719706 420.02699141373159 0 0 0 0 -27.35949455007637 60.420526640494025 0 60.420526640494025 -20.958043805199566 0 0 0 0 -37.840802110858931 70.577166023185782 0 70.577166023185782 -2.2692973956145579 0 0 0 0 -15.532654083532265 34.290073930887274 0 34.290073930887274 7.2500639016174517 0 0 0 0 222.03037440966 692.87217012267502 0 692.87217012267502 -1075.6244468736404 0 0 0 0 -51.307374201136071 42.309952193349716 0 42.309952193349716 24.639575569562275 0 0 0 0 -61.148069609043887 68.267406135742931 0 68.267406135742931 -72.190316672102199 0 0 0 0 -84.931306242193386 96.89799108803345 0 96.89799108803345 206.72415621577966 0 0 0 0 -82.47506677354977 54.063108628673945 0 54.063108628673945 3.2175432742224075 0 0 0 0 -72.777877098385943 104.96228560370582 0 104.96228560370582 112.23722092201933 0 0 0 0 -93.507830992159143 235.46756031490531 0 235.46756031490531 139.04051647245069 0 0 0 0 -21.643528803251684 248.36810497618717 0 248.36810497618717 217.96704537755249 0 0 0 0 -13.405151327317469 10.164344805295741 0 10.164344805295741 -3.3394674682557195 0 0 0 0 -74.44665996784056 49.286387200408569 0 49.286387200408569 35.690014273023479 0 0 0 0 -128.17632412111561 55.808676301841842 0 55.808676301841842 127.47028283646796 0 0 0 0 -45.544111686656834 72.141092410489364 0 72.141092410489364 -86.710313686984591 0 0 0 0 -147.50173368074684 120.34098545000234 0 120.34098545000234 54.177937394473702 0 0 0 0 -121.21715950773068 117.05342474977078 0 117.05342474977078 -0.7192825864713086 0 0 0 0 -109.96323715266152 52.603590324481601 0 52.603590324481601 36.485699352540877 0 0 0 0 46.809433952003019 -185.3544571536404 0 -185.3544571536404 354.50568071233647 0 0 0 0 -93.518518280416174 248.63604212262726 0 248.63604212262726 375.79416444311209 0 0 0 0 -198.78065632130165 74.897136912159112 0 74.897136912159112 93.97140575874073 0 0 0 0 -1237.3068438715854 -711.80244183949071 0 -711.80244183949071 689.94737219414674 0 0 0 0 131.369349966757 588.09383331416029 0 588.09383331416029 232.80415646669644 0 0 0 0 -821.36651727881326 553.56243024780269 0 553.56243024780269 306.59624749993964 0 0 0 0 -45.794465973041952 174.54923806574516 0 174.54923806574516 358.17548122680455 0 0 0 0 2.3560514879063703 289.28192143629349 0 289.28192143629349 136.40948874980677 0 0 0 0 49.392448933125706 240.10449768151739 0 240.10449768151739 113.25534691462235 0 0 0 0 184.39728982293855 181.39135379551999 0 181.39135379551999 128.22625561269524 0 0 0 0 156.32508603919996 314.10333952071232 0 314.10333952071232 170.57748347201596 0 0 0 0 452.88757126529526 94.508625392030808 0 94.508625392030808 161.06759044122009 0 0 0 0 -3.489179015222021 0.1235341269411947 0 0.1235341269411947 -15.454941929663391 0 0 0 0 -1580.1307697045122 -1379.9858837116681 0 -1379.9858837116681 260.84866487180989 0 0 0 0 -307.69760004541604 799.20800782356309 0 799.20800782356309 -820.25018854398513 0 0 0 0 629.17337104302715 592.98971559740312 0 592.98971559740312 90.952667914512858 0 0 0 0 2.6139046007441706 -2.4128901733712667 0 -2.4128901733712667 18.110502442382597 0 0 0 0 1064.3786969877401 620.45285715814316 0 620.45285715814316 319.12701371771254 0 0 0 0 506.30270523626405 581.1376114776931 0 581.1376114776931 958.89760957470571 0 0 0 0 496.80974646282266 444.56256720536476 0 444.56256720536476 649.20558826567139 0 0 0 0 488.3183274869516 334.50251681719965 0 334.50251681719965 432.65491513981033 0 0 0 0 480.31089114834322 376.61193492224265 0 376.61193492224265 217.95652915483515 0 0 0 0 416.17748464885517 345.680770554216 0 345.680770554216 234.15435979859467 0 0 0 0 548.50516591989435 578.81051572824072 0 578.81051572824072 376.42145621784584 0 0 0 0 552.45117066890816 466.21887989406969 0 466.21887989406969 144.88753614772577 0 0 0 0 584.84171444296953 522.35161885503476 0 522.35161885503476 178.58625135311013 0 0 0 0 478.04588852927554 514.97044212931723 0 514.97044212931723 180.11395994844497 0 0 0 0 487.40080410506926 485.6477765496893 0 485.6477765496893 239.36128339261631 0 0 0 0 511.21371632422233 465.70979801914291 0 465.70979801914291 195.91265655799361 0 0 0 0 542.70442674338119 521.99174198441324 0 521.99174198441324 184.86142387146538 0 0 0 0 130.52606769627891 247.96199403039645 0 247.96199403039645 232.14816890477778 0 0 0 0 542.03576881578192 437.81857773331285 0 437.81857773331285 220.79142172356114 0 0 0 0 707.43029073766672 287.96636173346468 0 287.96636173346468 55.075547560947598 0 0 0 0 705.24320049915696 570.85972329461947 0 570.85972329461947 196.96367874715361 0 0 0 0 69.717857356823515 6.051429459505016 0 6.051429459505016 163.9211949391829 0 0 0 0 325.27691962949757 104.31737448251079 0 104.31737448251079 6.7358316944009857 0 0 0 0 -16.755003091302811 4.1800191437485807 0 4.1800191437485807 62.930475416841148 0 0 0 0 -20.50092460756423 77.811201430082292 0 77.811201430082292 221.05347688886104 0 0 0 0 4.8992497343191417 17.458359168747847 0 17.458359168747847 10.462610623936619 0 0 0 0 128.29998198790418 188.13835565104819 0 188.13835565104819 16.904963671782752 0 0 0 0 -71.575970779773343 113.90244944556161 0 113.90244944556161 29.381309341930319 0 0 0 0 -17.733489160427954 77.649934035255356 0 77.649934035255356 -3.7892185271431913 0 0 0 0 4.6193711876694579 135.66692016046727 0 135.66692016046727 -82.169928603019798 0 0 0 0 103.15878016824718 111.3121848153969 0 111.3121848153969 -8.8002474231616361 0 0 0 0 36.60010125831468 191.94165656065888 0 191.94165656065888 -2.8876928912577569 0 0 0 0 -71.675300406626775 72.167426429507032 0 72.167426429507032 352.90710948380001 0 0 0 0 6.5317260010559721 -3.0082561373870362 0 -3.0082561373870362 -1.3321334585909739 0 0 0 0 220.25918475404615 535.43778147246121 0 535.43778147246121 1087.943252374258 0 0 0 0 769.7155442602525 213.95722685310466 0 213.95722685310466 -338.25867476692292 0 0 0 0 349.87990401849675 465.63087333479052 0 465.63087333479052 446.50959711024188 0 0 0 0 352.61789519221929 188.29006048524025 0 188.29006048524025 591.49004448178312 0 0 0 0 867.1812213469384 724.19736788037335 0 724.19736788037335 362.83257035516726 0 0 0 0 489.7552926408207 689.65154038776745 0 689.65154038776745 317.6767591474636 0 0 0 0 309.57204091754102 487.27838853000867 0 487.27838853000867 107.91165302573063 0 0 0 0 333.67766712696539 434.72045893088398 0 434.72045893088398 149.29890984324447 0 0 0 0 297.97025320434477 433.51703450605419 0 433.51703450605419 188.21779519354095 0 0 0 0 -23.783765466199839 213.63513654717826 0 213.63513654717826 267.40410342108953 0 0 0 0 31.90068185677228 164.26272821157181 0 164.26272821157181 189.19364691554802 0 0 0 0 193.50516143507411 419.00912586022241 0 419.00912586022241 296.25263923314924 0 0 0 0 34.399624425001093 187.26871113817106 0 187.26871113817106 64.776445801035152 0 0 0 0 -58.4178313326629 98.221118453628151 0 98.221118453628151 -70.816245580441318 0 0 0 0 -139.6445896725927 106.58513028163725 0 106.58513028163725 256.70824801961408 0 0 0 0 335.73593753480236 453.48559031819605 0 453.48559031819605 227.64249141985783 0 0 0 0 346.32620160571969 438.32155936967501 0 438.32155936967501 158.48648545189644 0 0 0 0 -30.640278689767001 242.18718957299643 0 242.18718957299643 146.60519509325968 0 0 0 0 301.82676897814963 527.72301357569086 0 527.72301357569086 152.05063169218192 0 0 0 0 -928.21961685237693 -536.094527735474 0 -536.094527735474 43.241593975093565 0 0 0 0 -567.62056822354498 -322.02458538179417 0 -322.02458538179417 -167.60416439147957 0 0 0 0 -7.7324251024138562 3.6263810516167254 0 3.6263810516167254 -2.1581900291278373 0 0 0 0 -85.915564928669482 283.43109768750583 0 283.43109768750583 178.61570924893749 0 0 0 0 66.324396568146767 242.73375442848919 0 242.73375442848919 -21.583110062361811 0 0 0 0 792.19879021747329 -236.29935642430428 0 -236.29935642430428 546.66891993479385 0 0 0 0 -5.0498056483386904 4.6236241835525362 0 4.6236241835525362 -0.7364726400570234 0 0 0 0 -1966.8812565547414 268.02457139041508 0 268.02457139041508 490.67542481877172 0 0 0 0 52.589685493294382 208.15978336190892 0 208.15978336190892 58.46587969911343 0 0 0 0 -1153.1605162264896 7.8050220186414663 0 7.8050220186414663 346.88031812529516 0 0 0 0 -71.367435818305239 718.96864858909612 0 718.96864858909612 197.54205446895503 0 0 0 0 504.44551192309882 118.8588019983581 0 118.8588019983581 52.392693881809464 0 0 0 0 19.854337618537102 323.83591424145834 0 323.83591424145834 67.751698627937003 0 0 0 0 35.577865025494248 286.10570771685161 0 286.10570771685161 0.8300243100093212 0 0 0 0 -60.942567345093266 57.322390641987113 0 57.322390641987113 32.498996411683038 0 0 0 0 17.441310526861344 288.52483633020893 0 288.52483633020893 89.711563112410659 0 0 0 0 21.723894183174707 302.73577870137524 0 302.73577870137524 111.35211029677157 0 0 0 0 32.154994118660397 273.74938197604206 0 273.74938197604206 121.74071570743399 0 0 0 0 -71.870041351285181 407.85530946178915 0 407.85530946178915 -3.6118416900280863 0 0 0 0 2.235232334533066 76.153681505346867 0 76.153681505346867 275.3820662512444 0 0 0 0 5.7089596938349132 67.26361415003521 0 67.26361415003521 4.1860500460461481 0 0 0 0 66.749759319674922 20.474393207561661 0 20.474393207561661 -24.610543019414763 0 0 0 0 26.166527715301243 9.1608050757340891 0 9.1608050757340891 -39.043756324136325 0 0 0 0 12.745433296143801 14.863401620051093 0 14.863401620051093 -0.98756386277638342 0 0 0 0 10.57127950413269 42.795963030643179 0 42.795963030643179 -100.39648950735136 0 0 0 0 13.607007003913168 35.871038899153064 0 35.871038899153064 -32.684741103250417 0 0 0 0 39.337563286957447 37.845584434526245 0 37.845584434526245 -119.48014741338557 0 0 0 0 21.418512834403259 5.5549184698889036 0 5.5549184698889036 -1.0721204041633712 0 0 0 0 46.424649463078822 43.24236999396453 0 43.24236999396453 -116.69480521983496 0 0 0 0 -51.030049090579269 132.64262707221133 0 132.64262707221133 443.01328408007976 0 0 0 0 171.83874909431324 64.855346495533013 0 64.855346495533013 6.1830653881952458 0 0 0 0 4.5431120641192138 1.1043954256709867 0 1.1043954256709867 -3.0533938493496464 0 0 0 0 155.7107247512904 337.81901838968042 0 337.81901838968042 102.05171355056518 0 0 0 0 72.398215638808324 154.51139935681567 0 154.51139935681567 444.77265614888165 0 0 0 0 8.360312799527037 -0.17333783791815449 0 -0.17333783791815449 0.25020048565896502 0 0 0 0 2.4426651141839102 282.22474934893035 0 282.22474934893035 857.06746471778752 0 0 0 0 353.14874633355066 521.50166767889459 0 521.50166767889459 520.48101255018264 0 0 0 0 202.96268644008524 -123.53426468854377 0 -123.53426468854377 -65.334305930482515 0 0 0 0 -271.64853998486069 777.67992682203112 0 777.67992682203112 177.0148368056341 0 0 0 0 558.33270227024332 116.63479118530813 0 116.63479118530813 -261.26869433475804 0 0 0 0 290.53015588583366 -89.861157639907105 0 -89.861157639907105 127.23528240393352 0 0 0 0 779.67755402912007 243.48789426604708 0 243.48789426604708 -121.8656470762653 0 0 0 0 381.68480981336324 198.33452871358895 0 198.33452871358895 -100.05109308055034 0 0 0 0 389.40999219484365 188.04916059973039 0 188.04916059973039 -91.030184749077307 0 0 0 0 457.05818503859336 27.773181367363577 0 27.773181367363577 -601.07990176915337 0 0 0 0 230.53004382028303 231.56563596763226 0 231.56563596763226 -4.1597265172022162 0 0 0 0 -2.4143307567526904 0.97529097973544765 0 0.97529097973544765 -0.077360872398237746 0 0 0 0 346.1490004487714 109.31513141496544 0 109.31513141496544 702.09092543851875 0 0 0 0 436.7645841011763 54.743660575244576 0 54.743660575244576 568.24181181541644 0 0 0 0 338.76619904238032 125.17254608548683 0 125.17254608548683 672.17318349449351 0 0 0 0 364.40902251200532 262.81153203479698 0 262.81153203479698 926.81492570164846 0 0 0 0 844.05589864849753 36.188613227255701 0 36.188613227255701 -55.045915169539512 0 0 0 0 19.130016093229642 1067.8041276455224 0 1067.8041276455224 600.34637661106444 0 0 0 0 -1014.0796636836021 98.168896506840611 0 98.168896506840611 259.85268782170897 0 0 0 0 156.82989759129123 340.06273422504091 0 340.06273422504091 224.27407970480817 0 0 0 0 18.725705907103332 54.592180396202821 0 54.592180396202821 -4.206741794067085 0 0 0 0 -433.45872584989411 541.14288929618488 0 541.14288929618488 167.99186312186339 0 0 0 0 -203.71012474234158 72.559338143124478 0 72.559338143124478 145.53743832301552 0 0 0 0 98.220694126112463 113.53112132936489 0 113.53112132936489 130.11576922085413 0 0 0 0 1.6812194954545703 254.77656454216594 0 254.77656454216594 32.72707219226686 0 0 0 0 197.53930101132573 116.76737115654169 0 116.76737115654169 76.611379239404414 0 0 0 0 1.122396937214944 181.02617387587725 0 181.02617387587725 160.59347509592408 0 0 0 0 97.348822924097391 127.97186668281371 0 127.97186668281371 142.79865215632282 0 0 0 0 165.44327949954095 265.17669622715721 0 265.17669622715721 79.921604705498794 0 0 0 0 28.332000614802325 31.416416074348916 0 31.416416074348916 25.217917355310437 0 0 0 0 -3.8402158420493038 -1.3084766222285253 0 -1.3084766222285253 -3.4822542006350403 0 0 0 0 366.4562052705478 268.29163074235885 0 268.29163074235885 110.13687120626309 0 0 0 0 -13.692393246376014 101.48779310985447 0 101.48779310985447 72.924000887078137 0 0 0 0 -90.981588742448366 6.6247776377754235 0 6.6247776377754235 44.068479646088235 0 0 0 0 -116.11292281263013 10.344526268720074 0 10.344526268720074 101.85389840081712 0 0 0 0 115.12097841230207 168.76212987532926 0 168.76212987532926 106.56014251471242 0 0 0 0 45.787678214794141 31.543304533019636 0 31.543304533019636 160.42660959309137 0 0 0 0 155.99901393074879 356.27448238678494 0 356.27448238678494 39.98890980228316 0 0 0 0 68.754710780793459 124.92134627866145 0 124.92134627866145 190.94926837716204 0 0 0 0 -103.96483131125569 152.52091831047494 0 152.52091831047494 260.53192879376184 0 0 0 0 -1.3398135362949688 182.17602421504398 0 182.17602421504398 232.96801777617793 0 0 0 0 -283.60967714965955 738.80617464764146 0 738.80617464764146 -235.04343663442705 0 0 0 0 -276.39465699328139 801.09386537879254 0 801.09386537879254 -361.83736429997225 0 0 0 0 -380.87133919625558 622.36105131719341 0 622.36105131719341 204.90979119796248 0 0 0 0 -90.493552533662296 85.259808175716898 0 85.259808175716898 184.57827401110626 0 0 0 0 75.494157589433598 283.61489504452766 0 283.61489504452766 -508.86023849208505 0 0 0 0 -398.378127155127 940.79004031583099 0 940.79004031583099 -805.70434187325736 0 0 0 0 165.09802771554678 409.12881127656874 0 409.12881127656874 -1445.6693654319824 0 0 0 0 -497.63448217291443 444.48351529097272 0 444.48351529097272 -1225.6673292944179 0 0 0 0 -329.89907828391733 992.32399360696581 0 992.32399360696581 -724.84314390274812 0 0 0 0 -0.48100944084580988 883.79454535712648 0 883.79454535712648 -839.5696172773678 0 0 0 0 -203.00414627096688 815.39096248586793 0 815.39096248586793 -725.22444185774657 0 0 0 0 -327.53947340826562 1022.7489350574288 0 1022.7489350574288 -451.39899430989681 0 0 0 0 -423.50520181783941 1116.2843767965678 0 1116.2843767965678 -538.65173730492825 0 0 0 0 -0.33768191156559624 1148.7708920719633 0 1148.7708920719633 -655.66513266215406 0 0 0 0 -378.60298883071937 1358.8101581693668 0 1358.8101581693668 -750.5892292085482 0 0 0 0 -391.76659785983475 1167.0099735097929 0 1167.0099735097929 -491.48581938366988 0 0 0 0 -470.29875106643885 937.85350517256711 0 937.85350517256711 -170.29670202723355 0 0 0 0 -515.20213572576176 1136.5345561617869 0 1136.5345561617869 -413.41237237961832 0 0 0 0 -400.4454313739916 879.6737937309299 0 879.6737937309299 -743.06340772149269 0 0 0 0 -791.15870829622872 879.61189305449079 0 879.61189305449079 236.83918224329682 0 0 0 0 -5.2695110051581651 3.503586263817283 0 3.503586263817283 -2.05594566873188 0 0 0 0 21.125940050813369 324.44638308547292 0 324.44638308547292 -978.38295557160927 0 0 0 0 -32.439520070215622 -117.07370722782025 0 -117.07370722782025 -169.08529753267067 0 0 0 0 -4.7126151640514991 12.077984247316969 0 12.077984247316969 -4.0742921838327391 0 0 0 0 67.777778621311882 308.32213612128908 0 308.32213612128908 102.9380275810754 0 0 0 0 285.87857972331813 111.83876097676773 0 111.83876097676773 -110.46763467109122 0 0 0 0 2.5110455348595764 23.257063795732421 0 23.257063795732421 12.701741192036025 0 0 0 0 -182.87875369501853 61.496816689294064 0 61.496816689294064 123.07536083718514 0 0 0 0 -5.0265233551035635 35.337501693396916 0 35.337501693396916 31.698655724605487 0 0 0 0 -12.386646915125311 229.51293828882626 0 229.51293828882626 189.27933633836801 0 0 0 0 -48.572587351962284 54.286497153479559 0 54.286497153479559 -8.6949244677743991 0 0 0 0 -257.38019554765197 79.641712627075322 0 79.641712627075322 129.01215908698759 0 0 0 0 -257.79166162249749 -140.61673410065487 0 -140.61673410065487 -9.1164284889329537 0 0 0 0 -16.661602441928068 17.704756229173348 0 17.704756229173348 -5.2720141233376694 0 0 0 0 -20.545354675858107 111.51788418423348 0 111.51788418423348 263.85734448806033 0 0 0 0 1196.3708047004257 348.4499413847916 0 348.4499413847916 -82.633472839428578 0 0 0 0 -2.4717946518327096 6.9347494213593848 0 6.9347494213593848 10.293823669579751 0 0 0 0 143.17947770317551 -189.96579019869205 0 -189.96579019869205 179.27768495735654 0 0 0 0 -468.78478403715417 -351.98378957965906 0 -351.98378957965906 382.96712399073294 0 0 0 0 -533.82905691594351 223.76014719387604 0 223.76014719387604 278.74588553483318 0 0 0 0 403.0440155340475 203.65505839899561 0 203.65505839899561 184.96212274488789 0 0 0 0 362.66783833951922 300.34379549071309 0 300.34379549071309 177.2652346249015 0 0 0 0 365.21585966620478 514.91049531025055 0 514.91049531025055 60.799725667435268 0 0 0 0 634.69128652705695 424.31424032513314 0 424.31424032513314 188.58482965510484 0 0 0 0 608.39364574663341 943.18709047729499 0 943.18709047729499 62.086009642283898 0 0 0 0 858.76573184132576 1103.8408483787643 0 1103.8408483787643 -66.963329567792243 0 0 0 0 426.3536945143569 501.37020426477829 0 501.37020426477829 355.86651354230708 0 0 0 0 24.636109292507172 301.54457085681497 0 301.54457085681497 552.744529665968 0 0 0 0 54.160730183095438 478.9201315514365 0 478.9201315514365 -46.279093260243826 0 0 0 0 66.807535187603207 390.80544146560715 0 390.80544146560715 338.19053450261708 0 0 0 0 418.87958010696457 0.72604150598635897 0 0.72604150598635897 -50.472011043179009 0 0 0 0 -3.1739494429784827 7.1752429561529425 0 7.1752429561529425 -69.172598343153368 0 0 0 0 2.2493231591401468 -0.51926345936431062 0 -0.51926345936431062 -0.37734809955927062 0 0 0 0 -418.61546945769805 599.46528601829777 0 599.46528601829777 136.59372505139618 0 0 0 0 -1.3840269898355473 -40.218946991029952 0 -40.218946991029952 126.6374319491224 0 0 0 0 747.9834602062183 453.03646056211437 0 453.03646056211437 238.0625834998209 0 0 0 0 645.11568820721004 675.96718161209719 0 675.96718161209719 443.87751577430754 0 0 0 0 356.27335549131385 396.6487859935005 0 396.6487859935005 579.49781317113957 0 0 0 0 522.19689485020353 140.7496990363652 0 140.7496990363652 -7.9887299860347412 0 0 0 0 345.78710426209727 23.45443082289421 0 23.45443082289421 -111.27250323345652 0 0 0 0 237.42545234677527 103.90386684984514 0 103.90386684984514 115.37838894192828 0 0 0 0 285.12167920811044 239.63283693174071 0 239.63283693174071 130.91901183123991 0 0 0 0 376.11966853917693 183.37407950274792 0 183.37407950274792 161.04115197702777 0 0 0 0 164.95914498588536 137.53284933400573 0 137.53284933400573 -93.723839026832138 0 0 0 0 204.5512909432 -78.477792479170603 0 -78.477792479170603 -243.27617305134481 0 0 0 0 164.70168215350714 26.571233783310163 0 26.571233783310163 -88.878837982447294 0 0 0 0 27.477181359950919 -66.06572875774873 0 -66.06572875774873 -60.244091595261125 0 0 0 0 54.598284951673122 -62.946281785050815 0 -62.946281785050815 -228.23923594066764 0 0 0 0 -67.186676769095357 -175.4626429377131 0 -175.4626429377131 -81.05527003822499 0 0 0 0 298.85098010745423 -41.479254774973015 0 -41.479254774973015 -106.60578153435199 0 0 0 0 -2.133255236265768 5.1285807149896527 0 5.1285807149896527 -0.40136703734604851 0 0 0 0 -44.184273498132825 240.68336293374887 0 240.68336293374887 610.34045327765125 0 0 0 0 -15.615093376880395 560.24463134594043 0 560.24463134594043 381.28488725847274 0 0 0 0 -14.04051016809899 65.511916274803298 0 65.511916274803298 408.77332144146203 0 0 0 0 0.46092882973454152 1.3676738470679339 0 1.3676738470679339 0.46130433893853962 0 0 0 0 112.07384998157795 549.42418100579744 0 549.42418100579744 1246.8534112918715 0 0 0 0 2189.0539813904907 -117.08401805744506 0 -117.08401805744506 -261.6013477714896 0 0 0 0 197.78057163722406 173.12510200577526 0 173.12510200577526 379.56471493671415 0 0 0 0 139.54317246348364 69.583929844913655 0 69.583929844913655 721.49143405050563 0 0 0 0 224.57009460777044 348.13153059249453 0 348.13153059249453 471.2385237399285 0 0 0 0 192.11428290511685 266.84454548447866 0 266.84454548447866 67.58451735592098 0 0 0 0 252.23642879756517 69.882937166672491 0 69.882937166672491 -51.696820990604465 0 0 0 0 133.62954325709143 111.75070455317473 0 111.75070455317473 -104.47063550737221 0 0 0 0 207.52195458483766 149.93378176658734 0 149.93378176658734 150.01857118765474 0 0 0 0 81.643506427921238 273.34744986531223 0 273.34744986531223 374.28819273966656 0 0 0 0 75.314305085019441 148.75751869133819 0 148.75751869133819 81.846145994350081 0 0 0 0 30.142837402410805 260.6250008953939 0 260.6250008953939 88.487066652307476 0 0 0 0 63.299770955127315 206.22068777235472 0 206.22068777235472 -188.036286681614 0 0 0 0 -145.29295380154508 153.21724931910285 0 153.21724931910285 146.71029228888801 0 0 0 0 -19.247525744664017 292.23531572765205 0 292.23531572765205 256.92346329910652 0 0 0 0 4.9406967062453759 4.3630886724270397 0 4.3630886724270397 -4.5052601221543682 0 0 0 0 -175.00952356838388 276.94331069403052 0 276.94331069403052 -139.33122871843807 0 0 0 0 32.713074713508831 163.83014648697826 0 163.83014648697826 -251.3210726583784 0 0 0 0 2.5995568361831829 111.94149017221935 0 111.94149017221935 -245.46643669543846 0 0 0 0 -77.891331816324964 196.84306369858677 0 196.84306369858677 -298.44178231123078 0 0 0 0 139.41101772358525 207.58903093636764 0 207.58903093636764 -191.17785880343581 0 0 0 0 99.569808403357456 23.997701180234799 0 23.997701180234799 -191.02320554523612 0 0 0 0 106.56236991545302 38.648221739051223 0 38.648221739051223 -323.78719262775849 0 0 0 0 8.145222931007595 29.252173591081259 0 29.252173591081259 4.504042794011518 0 0 0 0 -18.138332447486675 6.9901236691996225 0 6.9901236691996225 29.990142811409449 0 0 0 0 -76.457318917149678 152.55468351631134 0 152.55468351631134 -144.17040725347761 0 0 0 0 10.757377683694358 47.75352232881778 0 47.75352232881778 63.273296263325392 0 0 0 0 -7.5228581076080445 42.932479683688143 0 42.932479683688143 -313.58969123367569 0 0 0 0 0.53762599232845787 4.2828259152336159 0 4.2828259152336159 11.358243276191018 0 0 0 0 21.287135902763112 49.834116248734063 0 49.834116248734063 -463.44369535485748 0 0 0 0 14.453843307332136 25.892346240310872 0 25.892346240310872 2.3469899028423242 0 0 0 0 18.406341385785709 52.8776950080196 0 52.8776950080196 -153.51407790304802 0 0 0 0 13.997370232488379 15.306125746618704 0 15.306125746618704 -4.1724984710240598 0 0 0 0 14.01255843648687 51.354980560332478 0 51.354980560332478 36.417709523258964 0 0 0 0 12.084443896543235 48.971540689552057 0 48.971540689552057 45.990442237671232 0 0 0 0 4.2893437156641312 22.821699542212855 0 22.821699542212855 9.2602680984681172 0 0 0 0 14.349940927495481 32.526035661445349 0 32.526035661445349 -22.13762633765873 0 0 0 0 18.231119399812357 44.193354624298962 0 44.193354624298962 4.2009464690331129 0 0 0 0 10.602156533743255 39.063564150179445 0 39.063564150179445 -25.61648513412365 0 0 0 0 15.360784473171833 69.547104609436843 0 69.547104609436843 41.552520858523998 0 0 0 0 11.032974457268551 36.046821056957654 0 36.046821056957654 14.86788691570078 0 0 0 0 19.275295048225004 28.259143221499357 0 28.259143221499357 -10.019262916417631 0 0 0 0 45.17733806205797 -24.441660008727922 0 -24.441660008727922 -429.94669273371983 0 0 0 0 -222.40248263826652 -87.392616536322748 0 -87.392616536322748 -251.70387063967064 0 0 0 0 20.136313757277094 -176.81550798284297 0 -176.81550798284297 -249.4063907233176 0 0 0 0 1.6153187172712933 -1.844121667635136 0 -1.844121667635136 -265.57587102396064 0 0 0 0 76.838053857267369 -144.13050782938808 0 -144.13050782938808 -432.52997057823438 0 0 0 0 121.74641305554542 -16.63005121453898 0 -16.63005121453898 -307.56544081155153 0 0 0 0 141.8592980109388 -112.31036326987669 0 -112.31036326987669 -353.08682710392168 0 0 0 0 262.720166156505 17.719049330131384 0 17.719049330131384 -260.30610335504753 0 0 0 0 109.80901690444443 -42.017053806761396 0 -42.017053806761396 -252.97996561577929 0 0 0 0 179.1094897587609 30.15956212891615 0 30.15956212891615 -302.55385824793484 0 0 0 0 21.356753199710511 21.26702020628727 0 21.26702020628727 -293.36962182139541 0 0 0 0 140.22247464762768 -57.80761353586422 0 -57.80761353586422 -356.19702009682078 0 0 0 0 -11.63861994363026 11.995250085229028 0 11.995250085229028 -3.3229922322305185 0 0 0 0 -61.254326180700446 55.366863018105505 0 55.366863018105505 437.70853140167128 0 0 0 0 -42.044207944825757 -82.794998810873949 0 -82.794998810873949 -323.65367220078406 0 0 0 0 32.29341035996913 42.469316116603295 0 42.469316116603295 -16.529032521313638 0 0 0 0 3.1170058927805826 0.40754869838085028 0 0.40754869838085028 -1.0131842037424938 0 0 0 0 101.37417738301156 219.32274497500111 0 219.32274497500111 134.02898703534447 0 0 0 0 4.3784859009410866 5.4727515863816905 0 5.4727515863816905 -4.7959264165585296 0 0 0 0 106.52251723938389 205.35313146412409 0 205.35313146412409 169.10218384725158 0 0 0 0 42.182338503815117 -18.577081010807888 0 -18.577081010807888 -35.767825409227953 0 0 0 0 -24.267896331715747 33.044012587124598 0 33.044012587124598 136.96420011742885 0 0 0 0 7.2595277106229332 130.09853591109277 0 130.09853591109277 243.94514429662377 0 0 0 0 57.794473306123109 165.64037304508929 0 165.64037304508929 206.04994109579275 0 0 0 0 50.128899164643371 112.6514499286659 0 112.6514499286659 250.11769666650798 0 0 0 0 -5.326320344458054 4.114322460770321 0 4.114322460770321 -4.2504040521276778 0 0 0 0 225.8440291898296 114.92976151844778 0 114.92976151844778 118.21746725389858 0 0 0 0 -100.85601632058024 -354.36716134447852 0 -354.36716134447852 -458.58741737093806 0 0 0 0 92.228072937927209 156.48896069693728 0 156.48896069693728 208.36309996397176 0 0 0 0 8.4769609695067629 -112.7246587818554 0 -112.7246587818554 -451.01880331744178 0 0 0 0 -96.974836623470765 38.322817961183318 0 38.322817961183318 -160.19137283355303 0 0 0 0 67.367880377685651 268.12737467000261 0 268.12737467000261 284.85153115091089 0 0 0 0 -189.43889353113991 -396.48655137277228 0 -396.48655137277228 -477.63980723718851 0 0 0 0 -2.9330747352024673 0.10095081647695281 0 0.10095081647695281 0.56731747166607249 0 0 0 0 404.43271819267829 -63.814000308982941 0 -63.814000308982941 -487.46798920493165 0 0 0 0 -105.1486041817916 217.44896815397988 0 217.44896815397988 -222.61831579803402 0 0 0 0 -281.82672722139978 -95.279739191020781 0 -95.279739191020781 108.54582383098023 0 0 0 0 -44.239506523739692 -100.92226311227205 0 -100.92226311227205 -116.67529100574029 0 0 0 0 5.2629873804934846 -0.13526803577707369 0 -0.13526803577707369 -0.22797918567810882 0 0 0 0 -0.1325900817028014 547.40263253598096 0 547.40263253598096 -1481.3004761736083 0 0 0 0 1.797829773916348 4.1981259155034536 0 4.1981259155034536 -5.5163464564597575 0 0 0 0 -646.98589807195094 424.39287975218394 0 424.39287975218394 -276.35882541950559 0 0 0 0 -185.86936318605149 -131.77378908174433 0 -131.77378908174433 -235.3987371715848 0 0 0 0 -24.158202071223059 415.16195564634472 0 415.16195564634472 -631.97975595069875 0 0 0 0 107.27045106289734 -253.68626116467203 0 -253.68626116467203 -950.56871123559904 0 0 0 0 11.102027414512861 2.6660281647878605 0 2.6660281647878605 -3.2925659461688426 0 0 0 0 -353.05704997997964 113.66860274058126 0 113.66860274058126 -91.51282558569801 0 0 0 0 152.55266188173846 213.70379077695179 0 213.70379077695179 141.56310516125814 0 0 0 0 164.07071793888463 185.44453553135463 0 185.44453553135463 -119.6393616676105 0 0 0 0 -1.0328355986960389 13.720717817215643 0 13.720717817215643 -7.0660234578697043 0 0 0 0 45.359502795778099 40.988613117347995 0 40.988613117347995 -28.185318657378957 0 0 0 0 0.83030949223029893 38.148381588354823 0 38.148381588354823 103.48330349937896 0 0 0 0 0.48874576128804392 0.12101501427247285 0 0.12101501427247285 -4.6749123061864424 0 0 0 0 -0.052224479033611715 120.40822885722446 0 120.40822885722446 -43.533438899059547 0 0 0 0 43.787965957075357 10.127566882241808 0 10.127566882241808 -121.68827699711255 0 0 0 0 0.0094555751857114956 7.462845899102831 0 7.462845899102831 6.5112142192811007 0 0 0 0 -12.734100920351921 -28.144377103082661 0 -28.144377103082661 -42.882603236983414 0 0 0 0 -2.5441922808428785 2.377136354176983 0 2.377136354176983 1.9814507441500382 0 0 0 0 45.096815106472604 43.249065003379428 0 43.249065003379428 -33.903587895125384 0 0 0 0 -7.7479221953726665 -1.1241493871420971 0 -1.1241493871420971 13.298342490918003 0 0 0 0 92.071281648561126 59.79708159871916 0 59.79708159871916 3.8573699594417121 0 0 0 0 38.961989860348694 17.054699349264411 0 17.054699349264411 -1.8802978849562351 0 0 0 0 -44.899365309829591 30.146992163408868 0 30.146992163408868 68.49151153846833 0 0 0 0 -1.4598018782078626 14.388504582555328 0 14.388504582555328 -4.4514024063155091 0 0 0 0 11.039851552127629 6.5857274979301366 0 6.5857274979301366 -0.8032354006849971 0 0 0 0 34.205704910462373 -0.58493977888429072 0 -0.58493977888429072 -2.2248501524154563 0 0 0 0 7.0989140213641804 8.8350628054577101 0 8.8350628054577101 -7.5108399464807007 0 0 0 0 -1.1334828402453923 3.6187107054074801 0 3.6187107054074801 1.3928941912618598 0 0 0 0 -1.2131001973320963 -1.6998022144681642 0 -1.6998022144681642 2.2231899013660765 0 0 0 0 -0.98299538911669515 11.160569354855397 0 11.160569354855397 17.433060408842721 0 0 0 0 0.58356179231486749 11.356491106387693 0 11.356491106387693 10.876137775179814 0 0 0 0 -0.00093291753728408366 11.633492362316247 0 11.633492362316247 13.320999126292008 0 0 0 0 -0.9584403032931732 9.7482058396690263 0 9.7482058396690263 12.60286018547049 0 0 0 0 -2.7603206091544337 8.2150898417245628 0 8.2150898417245628 5.8318510570076114 0 0 0 0 1.2456403170217527 17.283016957626387 0 17.283016957626387 11.876393207079673 0 0 0 0 7.5523244813084602 13.250746847003029 0 13.250746847003029 3.0341538227366982 0 0 0 0 -2.4603860964707565 16.840329700549773 0 16.840329700549773 15.390281855927242 0 0 0 0 9.2044097151665483 13.032138293856406 0 13.032138293856406 12.958612997274031 0 0 0 0 -5.3789261466279683 11.100979053579323 0 11.100979053579323 10.991074832535958 0 0 0 0 -1.6961277217342285 20.417884265447356 0 20.417884265447356 11.583553194901469 0 0 0 0 -4.343099323431602 9.4269180009429476 0 9.4269180009429476 9.3631793246951247 0 0 0 0 -8.3144091368376394 8.7985859326763602 0 8.7985859326763602 8.0374608912825352 0 0 0 0 -4.8098952235345109 6.8880893151603857 0 6.8880893151603857 9.6649186034268553 0 0 0 0 -1.430440033407649 9.6694919881920214 0 9.6694919881920214 10.539264205406653 0 0 0 0 -1.1614153809859999 10.136405768838586 0 10.136405768838586 10.188125637476332 0 0 0 0 206.05808082674048 -63.972624505782733 0 -63.972624505782733 -122.45566772227176 0 0 0 0 9.3451831330461346 19.279021849947622 0 19.279021849947622 -9.4331313861864245 0 0 0 0 13.00806659655791 33.134219850483532 0 33.134219850483532 35.979565545385412 0 0 0 0 -2.5351014536004755 8.5334822115247988 0 8.5334822115247988 0.032537388760729868 0 0 0 0 7.5270131017014421 19.014313420912572 0 19.014313420912572 16.910901140600217 0 0 0 0 -7.8115784613182768 21.39779245695172 0 21.39779245695172 13.971533030067803 0 0 0 0 2.9714748555852566 44.730409779749607 0 44.730409779749607 27.59930178016657 0 0 0 0 1.8984172861688933 8.5971544628309005 0 8.5971544628309005 19.881824188601314 0 0 0 0 -20.810091920022387 19.537129050522708 0 19.537129050522708 40.682425368438999 0 0 0 0 -7.2329922203789465 5.8085432429979846 0 5.8085432429979846 36.619968376912766 0 0 0 0 8.1964725723410083 16.891237031989476 0 16.891237031989476 43.604181077702378 0 0 0 0 11.704237837806431 0.8588802354793188 0 0.8588802354793188 79.680406061626854 0 0 0 0 -12.635157357450225 3.2319311011970058 0 3.2319311011970058 -33.035449641080049 0 0 0 0 -3.5414841140154749 25.027009611203539 0 25.027009611203539 12.723814428660262 0 0 0 0 1.1989263321246995 0.55055111350918651 0 0.55055111350918651 4.2812159694765022 0 0 0 0 2.3302178165322402 22.806751590356726 0 22.806751590356726 5.1078904592395702 0 0 0 0 -12.913312656775815 5.227667702081817 0 5.227667702081817 58.161765979151824 0 0 0 0 -3.6468112916336395 -6.2326310817079502 0 -6.2326310817079502 29.601164273204631 0 0 0 0 -3.5969937666732221 6.4918412345816705 0 6.4918412345816705 17.501044597929365 0 0 0 0 -19.316736027656589 17.90556544708852 0 17.90556544708852 28.558084192332899 0 0 0 0 -43.97451973950956 -16.00574418450924 0 -16.00574418450924 28.064901837060461 0 0 0 0 -13.696523545517095 6.188510344516402 0 6.188510344516402 23.228884425156153 0 0 0 0 -24.019152229593601 -27.409459459249774 0 -27.409459459249774 34.259651503729401 0 0 0 0 -47.581402395298937 3.6742704295720614 0 3.6742704295720614 34.70311021750706 0 0 0 0 -2.2874922061309917 16.323471460134897 0 16.323471460134897 22.666465923655778 0 0 0 0 0.93550885264994577 16.356863204549882 0 16.356863204549882 10.952340934109088 0 0 0 0 -20.14373417511888 16.917041548818815 0 16.917041548818815 35.076307704417559 0 0 0 0 -1.1347481633697214 17.310206757685421 0 17.310206757685421 38.623586014349485 0 0 0 0 3.7875550460594241 49.434305041642801 0 49.434305041642801 9.4577678033601842 0 0 0 0 0.90133925035502216 -2.9680839290159184 0 -2.9680839290159184 1.0361224862055849 0 0 0 0 2.7775282072834671 9.207397946229321 0 9.207397946229321 -1.610347472007561 0 0 0 0 -0.0013150703188422519 10.800374447782877 0 10.800374447782877 4.5530705694691278 0 0 0 0 1.1243464195722481 5.5753981233247032 0 5.5753981233247032 3.3581907580446568 0 0 0 0 -3.1735986965271366 7.3122158181869565 0 7.3122158181869565 10.765696573289887 0 0 0 0 -16.151912660017842 5.3419074192352127 0 5.3419074192352127 19.865529186296044 0 0 0 0 -6.2304306357517021 4.3727716981718459 0 4.3727716981718459 10.620027602825118 0 0 0 0 -14.49731798976444 -0.91006514807523331 0 -0.91006514807523331 17.892523444487548 0 0 0 0 -9.7460624403611291 6.672073134999664 0 6.672073134999664 13.203260080888867 0 0 0 0 -8.3119482008041814 3.4771194230779656 0 3.4771194230779656 6.6205902664805762 0 0 0 0 -6.5983414597769183 -0.047452903480859732 0 -0.047452903480859732 14.227487397781676 0 0 0 0 -1.5225174255972362 3.6070327856882614 0 3.6070327856882614 6.4304659332595691 0 0 0 0 -5.9656918877735734 3.4748029844340635 0 3.4748029844340635 4.6128220386526664 0 0 0 0 -17.30920399344177 -4.5605269883963047 0 -4.5605269883963047 6.6410179623781005 0 0 0 0 -4.2484768548909244 -0.60957633260827038 0 -0.60957633260827038 2.6331641595316029 0 0 0 0 -21.205593368445989 1.1972150470101042 0 1.1972150470101042 0.59625887569200131 0 0 0 0 -3.8827302396384766 9.7695515999330382 0 9.7695515999330382 14.95831757565611 0 0 0 0 35.433139913548075 -23.692598635637296 0 -23.692598635637296 25.151198792475043 0 0 0 0 2.5527503398570843 -0.91404160954152758 0 -0.91404160954152758 -1.9646039069557446 0 0 0 0 2.5538879486917665 3.4475517214832223 0 3.4475517214832223 2.5600390144765299 0 0 0 0 11.39523816035944 -11.451226409633819 0 -11.451226409633819 7.4566747318867783 0 0 0 0 -0.7356682506347525 3.1976272666752834 0 3.1976272666752834 0.7481051744369438 0 0 0 0 -5.9169704494124744 5.1900690250986372 0 5.1900690250986372 23.946673141517749 0 0 0 0 -0.00037120409251656383 10.174924518723856 0 10.174924518723856 11.511580706792301 0 0 0 0 -3.7714844180445652 2.1151977469671692 0 2.1151977469671692 -2.9556598967537866 0 0 0 0 2.8370469894452413 2.3508311987951345 0 2.3508311987951345 -0.740899752351595 0 0 0 0 120.87950856833777 -144.02710433966422 0 -144.02710433966422 222.61628718047723 0 0 0 0 -0.0053378142038127407 7.6518752187275823 0 7.6518752187275823 -3.8606249252513862 0 0 0 0 8.7167303446767619 -71.48687169808727 0 -71.48687169808727 55.350188246447942 0 0 0 0 50.192068443880999 -23.882008883363596 0 -23.882008883363596 27.222374754346674 0 0 0 0 -91.132197170954896 41.407112270600919 0 41.407112270600919 187.17696651072038 0 0 0 0 8.8454175830024724 -28.411485875880828 0 -28.411485875880828 27.870469848734501 0 0 0 0 9.0612940206628991 -37.742792421930062 0 -37.742792421930062 32.993498004798312 0 0 0 0 -12.285912625563526 13.88396047599889 0 13.88396047599889 26.926135445800142 0 0 0 0 -47.983726244798163 6.4957634287347901 0 6.4957634287347901 48.663386109481507 0 0 0 0 -8.4109306960734784 -2.2245307312315106 0 -2.2245307312315106 12.82367755121561 0 0 0 0 -95.971360562165501 -46.436318937820033 0 -46.436318937820033 57.805847093237389 0 0 0 0 -116.52011772830156 34.756677641496935 0 34.756677641496935 39.825628731525285 0 0 0 0 -31.609284630874754 19.793089708861771 0 19.793089708861771 67.382269237988567 0 0 0 0 -51.587555657883058 -11.679283909696096 0 -11.679283909696096 62.637932751422341 0 0 0 0 -14.548386814728502 3.5982642008085861 0 3.5982642008085861 52.599028594501249 0 0 0 0 -8.7828750281405519 14.102352744717336 0 14.102352744717336 68.795810893352609 0 0 0 0 -104.26073622550757 3.3930437438284571 0 3.3930437438284571 81.226799632557231 0 0 0 0 -60.162088673998369 -35.163911612580705 0 -35.163911612580705 76.446044313765015 0 0 0 0 -60.477934247219309 51.338678854605178 0 51.338678854605178 123.64337301068008 0 0 0 0 -55.769599317180109 25.098623316685917 0 25.098623316685917 63.832473310272746 0 0 0 0 -22.273152575187851 48.354777381346139 0 48.354777381346139 14.761961988577241 0 0 0 0 -17.227188226548378 10.130468968118947 0 10.130468968118947 34.534207322036579 0 0 0 0 6.6576041362365572 5.4736024505448313 0 5.4736024505448313 5.9959410814176799 0 0 0 0 -484.32070210581878 60.672548064836519 0 60.672548064836519 957.99610222121555 0 0 0 0 -9.6379200577357551 139.72265796634747 0 139.72265796634747 -152.52601370403545 0 0 0 0 2.3387848564449882 -1.9264471980452953 0 -1.9264471980452953 -0.20405681203833126 0 0 0 0 0.1478023479503463 173.60715147123301 0 173.60715147123301 329.72304504617205 0 0 0 0 -13.345501434079779 188.21788602873585 0 188.21788602873585 395.88096112310996 0 0 0 0 -8.9546330984303495 89.118895587365841 0 89.118895587365841 444.68048522617573 0 0 0 0 -9.3720500648123561 221.3418161160298 0 221.3418161160298 278.38353724056651 0 0 0 0 -18.816021849670506 26.94418582428716 0 26.94418582428716 129.1533647707256 0 0 0 0 -158.10446946359298 -26.46658257172021 0 -26.46658257172021 238.49932925499525 0 0 0 0 -690.70592565872357 265.36531990076401 0 265.36531990076401 86.573503987563527 0 0 0 0 -174.6881825744349 342.25188770837121 0 342.25188770837121 120.47602553888282 0 0 0 0 -463.9673025412485 700.73314602768733 0 700.73314602768733 -320.10835338199831 0 0 0 0 -700.81800822547666 343.88815232018123 0 343.88815232018123 -63.429935019532422 0 0 0 0 -521.73618238244671 29.69589698922573 0 29.69589698922573 -266.88875503056988 0 0 0 0 -24.063003791961819 145.49719861628364 0 145.49719861628364 -647.72184972150353 0 0 0 0 -51.916217295380193 143.54297846690133 0 143.54297846690133 -114.07275109883631 0 0 0 0 -39.986831925547449 139.48090026009231 0 139.48090026009231 -261.60446749484618 0 0 0 0 -346.80086001149903 650.49840105608564 0 650.49840105608564 -710.09466338473612 0 0 0 0 -265.66058516237922 374.62917373352252 0 374.62917373352252 -238.5881626870796 0 0 0 0 -7.8860836506545979 1.7731627053655075 0 1.7731627053655075 -0.39525056462372721 0 0 0 0 -273.41712025247398 111.54670680432719 0 111.54670680432719 23.494879482688702 0 0 0 0 443.66253620540374 652.9928641651677 0 652.9928641651677 704.81631951135932 0 0 0 0 -21.963648254624559 4.7350429246803714 0 4.7350429246803714 7.7275170925965808 0 0 0 0 -163.65638800473243 129.03123200753362 0 129.03123200753362 -75.318926172041301 0 0 0 0 -3.8472699976207991 0.79129830224772491 0 0.79129830224772491 12.208485044539117 0 0 0 0 -14.842429513810202 38.32142639085032 0 38.32142639085032 90.746861022878875 0 0 0 0 -31.635917669613264 13.772601575175031 0 13.772601575175031 57.201779693001299 0 0 0 0 9.0546666029986227 22.50173526126855 0 22.50173526126855 37.444373658761833 0 0 0 0 7.6877544193703216 16.51385970883166 0 16.51385970883166 11.242053572867917 0 0 0 0 39.645296703645727 62.908809774323345 0 62.908809774323345 28.558513340776699 0 0 0 0 -54.003531527108862 41.981244865657573 0 41.981244865657573 5.4699716362301842 0 0 0 0 34.289687356333161 -3.2455285892833672 0 -3.2455285892833672 -7.1509402534138644 0 0 0 0 -6.21841678902274 6.9007864095347031 0 6.9007864095347031 31.73898958392283 0 0 0 0 -28.266137656668434 3.7498838446736045 0 3.7498838446736045 91.240904561624575 0 0 0 0 14.600071095337626 -25.981972117754594 0 -25.981972117754594 72.30178857109604 0 0 0 0 229.43762753218471 -18.791191324024112 0 -18.791191324024112 -54.565345887605872 0 0 0 0 49.094630133884493 -37.783408472007068 0 -37.783408472007068 57.382004908857198 0 0 0 0 132.36032273608726 -136.06406860660718 0 -136.06406860660718 102.29471867423308 0 0 0 0 -46.241892598074628 99.744749253990449 0 99.744749253990449 14.731742655375456 0 0 0 0 -178.86031261533208 183.84432722814563 0 183.84432722814563 -38.596533367634038 0 0 0 0 109.96515427411941 106.99849291088049 0 106.99849291088049 -153.42137536613518 0 0 0 0 -245.99288468847226 421.80675069859444 0 421.80675069859444 -325.66693152866355 0 0 0 0 -296.8945521695714 666.05875720472432 0 666.05875720472432 81.428076898748259 0 0 0 0 -326.43191660792218 330.41049329759699 0 330.41049329759699 -136.59397716609601 0 0 0 0 11.182446063714451 232.98231880447474 0 232.98231880447474 23.426676317667443 0 0 0 0 -88.778176740597701 92.70874986560375 0 92.70874986560375 -151.22207892488143 0 0 0 0 -53.056764900422422 -21.023657511309466 0 -21.023657511309466 276.36968258774505 0 0 0 0 5.1635657801962225 -58.89103911397342 0 -58.89103911397342 129.31161913178585 0 0 0 0 22.169103591077146 -105.86720607758889 0 -105.86720607758889 238.87083219108445 0 0 0 0 -52.515479899870115 -11.208109150248674 0 -11.208109150248674 237.86343520455921 0 0 0 0 -0.43861502046979695 -0.95286918690547395 0 -0.95286918690547395 3.4145579005193909 0 0 0 0 265.08353274472393 100.1012851388009 0 100.1012851388009 49.511093893239376 0 0 0 0 99.309614802637952 36.770667066630267 0 36.770667066630267 -6.3553096856358025 0 0 0 0 58.818907576656784 28.654001684169998 0 28.654001684169998 24.773241618258908 0 0 0 0 6.436967412506533 1.007448390641315 0 1.007448390641315 6.6863829343560894 0 0 0 0 6.3430040851210379 2.4209175690381528 0 2.4209175690381528 6.8072025123661462 0 0 0 0 39.066609925714147 45.988774148360108 0 45.988774148360108 50.450230018768707 0 0 0 0 -67.941126337929745 -16.270670801637607 0 -16.270670801637607 28.742958106706737 0 0 0 0 -68.126659688306972 92.725122638628818 0 92.725122638628818 89.762060045214184 0 0 0 0 -4.3497570195177104 41.253093628764873 0 41.253093628764873 299.69352512464411 0 0 0 0 -2.4316454156796681 15.728267814410174 0 15.728267814410174 63.488156283013268 0 0 0 0 30.599843729854911 105.0149790898522 0 105.0149790898522 -26.55518581543447 0 0 0 0 -23.903343787816993 53.435052980472392 0 53.435052980472392 78.971525773100439 0 0 0 0 103.55673647302319 56.772489548014164 0 56.772489548014164 -39.110707932844889 0 0 0 0 1.1207037585892294 -1.9576688695894973 0 -1.9576688695894973 -0.89026777140881208 0 0 0 0 -8.948106608906528 25.885919851276412 0 25.885919851276412 152.02779084031863 0 0 0 0 -0.85819755683769472 34.260943150118692 0 34.260943150118692 -39.983400151737442 0 0 0 0 10.165320641616177 25.481982208895317 0 25.481982208895317 39.665392828214031 0 0 0 0 17.662731738877483 35.467708414384106 0 35.467708414384106 -60.706626046630845 0 0 0 0 37.195328536763554 67.141978616489723 0 67.141978616489723 -23.546886228825315 0 0 0 0 21.831597754222457 48.282512421097636 0 48.282512421097636 48.190487687861605 0 0 0 0 31.462776508764364 59.886403744381823 0 59.886403744381823 81.630154137317732 0 0 0 0 1.603959049039986 25.854679173920886 0 25.854679173920886 69.327671804934653 0 0 0 0 20.269322946639988 34.572758426053809 0 34.572758426053809 37.876560183133918 0 0 0 0 61.377328106289497 58.478684109148162 0 58.478684109148162 -5.311984646476958 0 0 0 0 27.148674068084802 19.237020880709679 0 19.237020880709679 34.048969706396747 0 0 0 0 16.581882914939058 23.259328495171513 0 23.259328495171513 2.1495517884045015 0 0 0 0 27.97304544401959 36.548060705337321 0 36.548060705337321 38.232632944800571 0 0 0 0 46.226155411437503 61.192521238470363 0 61.192521238470363 168.22156032046769 0 0 0 0 0.18401615342008881 108.31375357675643 0 108.31375357675643 157.38243627369229 0 0 0 0 95.829925905927666 129.80132181070803 0 129.80132181070803 7.6657573259144556 0 0 0 0 -31.178108291729586 251.14409861048625 0 251.14409861048625 259.81849337048334 0 0 0 0 5.9759193914505886 49.620788393229304 0 49.620788393229304 70.129147928089878 0 0 0 0 -0.61075243008963298 36.940116584986754 0 36.940116584986754 59.529455531232088 0 0 0 0 6.4108562915474891 26.15415124041499 0 26.15415124041499 58.788335832662298 0 0 0 0 -95.169860525826152 94.915818822935194 0 94.915818822935194 124.13562813898534 0 0 0 0 -102.77352204053022 5.1946084997052253 0 5.1946084997052253 78.044817067653639 0 0 0 0 3.0917556345423236 7.022751239227297 0 7.022751239227297 9.5690097758419022 0 0 0 0 22.848860010196063 25.913448561220868 0 25.913448561220868 21.361488486929225 0 0 0 0 39.000782682720455 30.41420182107322 0 30.41420182107322 10.603283609922073 0 0 0 0 9.4296632814075565 77.797942568606231 0 77.797942568606231 76.31375281047076 0 0 0 0 30.242831556164504 40.926865148988242 0 40.926865148988242 33.456628098319555 0 0 0 0 11.15090917081227 29.901540548503789 0 29.901540548503789 38.580116852884586 0 0 0 0 24.807455960079096 44.332443876566686 0 44.332443876566686 48.420861416016123 0 0 0 0 0.73511638383843092 15.814792504850885 0 15.814792504850885 19.56311208401776 0 0 0 0 36.154948190553114 83.501649292174989 0 83.501649292174989 150.52663937122998 0 0 0 0 10.429301132477121 94.775378519865626 0 94.775378519865626 152.41611118868605 0 0 0 0 17.845064671415741 41.526597201797244 0 41.526597201797244 57.94125564583041 0 0 0 0 -17.313454489980359 49.661616728481022 0 49.661616728481022 85.711567956197541 0 0 0 0 120.5843591150915 101.4235953389034 0 101.4235953389034 163.48420331428861 0 0 0 0 -4.4488839861274698 29.53244667527639 0 29.53244667527639 46.220248547330343 0 0 0 0 -26.646928666858003 38.367808510869509 0 38.367808510869509 23.19838699830143 0 0 0 0 -7.9010330120117374 49.230456181204971 0 49.230456181204971 74.548081595359307 0 0 0 0 -3.0328371342698119 62.526476406945193 0 62.526476406945193 127.26612713630439 0 0 0 0 -2.6476592274266295 22.330304843708291 0 22.330304843708291 41.68228744235239 0 0 0 0 4.0706557850104446 13.127508018574403 0 13.127508018574403 29.417741189835901 0 0 0 0 -34.113066383433761 116.41222287499545 0 116.41222287499545 78.927430230793107 0 0 0 0 66.330868499695498 102.90919630544022 0 102.90919630544022 213.57502614347959 0 0 0 0 -86.341993537622329 274.3310961268694 0 274.3310961268694 329.56271694941915 0 0 0 0 17.676158547052694 76.635898904083973 0 76.635898904083973 -71.204939128920245 0 0 0 0 33.591762821844895 55.115068136954505 0 55.115068136954505 -98.105621067142238 0 0 0 0 -144.66449682340317 110.56599123680371 0 110.56599123680371 137.47153924570739 0 0 0 0 -120.67556586168939 120.5657194041396 0 120.5657194041396 103.28646976481286 0 0 0 0 -136.92040141234611 68.089592911145814 0 68.089592911145814 349.86093207721933 0 0 0 0 82.551669443811988 82.295063729317917 0 82.295063729317917 226.83960895507425 0 0 0 0 -17.350850643269951 -33.958732097979919 0 -33.958732097979919 232.47568870209943 0 0 0 0 -79.828946894791443 -73.954786019448875 0 -73.954786019448875 95.897191816987743 0 0 0 0 -127.92961962596746 90.635768865535283 0 90.635768865535283 156.83126906418875 0 0 0 0 158.5785015888614 383.55076518061423 0 383.55076518061423 547.21768060397244 0 0 0 0 -86.061258248257218 107.03106505630785 0 107.03106505630785 547.41008765816696 0 0 0 0 -129.5922282684478 94.164473301492762 0 94.164473301492762 556.62359019093446 0 0 0 0 234.71528016592492 353.81611194370726 0 353.81611194370726 422.02553650886375 0 0 0 0 36.274608233536128 46.050910273090267 0 46.050910273090267 -117.43114612101454 0 0 0 0 74.303002488959464 266.49179595684836 0 266.49179595684836 -288.06659735292033 0 0 0 0 147.80689007906767 107.22428012334603 0 107.22428012334603 -86.395294376834499 0 0 0 0 84.651356897500193 109.50860182795807 0 109.50860182795807 95.308385403916859 0 0 0 0 -64.365610957468562 195.11734659292404 0 195.11734659292404 95.247944583388744 0 0 0 0 -4.6719577959447633 160.40082101580992 0 160.40082101580992 74.298732567659499 0 0 0 0 -41.819316052984107 50.745585644109752 0 50.745585644109752 -10.042757233396328 0 0 0 0 48.175343684742018 65.268494501400255 0 65.268494501400255 -72.282925410932805 0 0 0 0 18.963691229884404 17.424653895677608 0 17.424653895677608 -29.546580777661859 0 0 0 0 181.33411862234061 306.63202419961908 0 306.63202419961908 1836.3668880143541 0 0 0 0 -247.77111721626716 170.1847471043493 0 170.1847471043493 1324.1821829627133 0 0 0 0 699.92724703333806 887.10268701671339 0 887.10268701671339 612.44447830702347 0 0 0 0 367.08459769246656 -447.8660115972454 0 -447.8660115972454 862.95918771910874 0 0 0 0 -48.517376281059114 73.77000906165631 0 73.77000906165631 280.14391180314124 0 0 0 0 432.94020826684391 750.69363099882412 0 750.69363099882412 395.60190715383214 0 0 0 0 -811.51231925675529 656.19544901651716 0 656.19544901651716 406.52744845449183 0 0 0 0 -624.87683430362085 -422.03401265516368 0 -422.03401265516368 185.06781396654333 0 0 0 0 121.87919981663072 316.72755487890572 0 316.72755487890572 630.54647337562437 0 0 0 0 -58.450587897183141 874.38091518601505 0 874.38091518601505 796.53001118889915 0 0 0 0 34.370858496971778 32.542792920672582 0 32.542792920672582 -96.717623568044019 0 0 0 0 74.899946667828772 734.03977600675444 0 734.03977600675444 -1064.8727366149651 0 0 0 0 -728.08767100746627 637.45303417114883 0 637.45303417114883 -513.74023251834933 0 0 0 0 -151.85988426087715 -351.56832551273328 0 -351.56832551273328 -452.23706072032383 0 0 0 0 -1.5758319001271062 -5.2024292963872938 0 -5.2024292963872938 -8.1934935209099606 0 0 0 0 39.769219374167733 -131.04233874507827 0 -131.04233874507827 -1000.127799916695 0 0 0 0 -252.87777242617449 266.53427067938719 0 266.53427067938719 -240.59246530308155 0 0 0 0 -302.60570617603662 185.35947442721954 0 185.35947442721954 -215.80576369324126 0 0 0 0 1.7046186345093304 -1.9465194092694844 0 -1.9465194092694844 -1.4811740712547916 0 0 0 0 -91.132513601856772 -182.68465898420254 0 -182.68465898420254 -50.164244834597412 0 0 0 0 -25.333439017536875 -91.176798680361117 0 -91.176798680361117 96.376822660964535 0 0 0 0 -21.446929783123778 -109.22528677525315 0 -109.22528677525315 2.7960778239794308 0 0 0 0 -83.284332085331698 -68.939405102666683 0 -68.939405102666683 275.00865680914285 0 0 0 0 -96.83006318131811 -204.5242579376536 0 -204.5242579376536 162.88333335838433 0 0 0 0 -36.688267272358644 -93.330443042143997 0 -93.330443042143997 2.4634796861519135 0 0 0 0 -185.73323749384144 -394.15336427755392 0 -394.15336427755392 531.1745970276645 0 0 0 0 -199.50892458535964 -48.547332060013105 0 -48.547332060013105 36.605615386921272 0 0 0 0 312.41676790964448 204.75155014036886 0 204.75155014036886 179.84732493599222 0 0 0 0 407.03682668350848 291.94585097909294 0 291.94585097909294 161.78893702343703 0 0 0 0 -0.72416491621706314 2.0207653450398624 0 2.0207653450398624 -0.39775093011500218 0 0 0 0 205.07357235856762 167.98967761903168 0 167.98967761903168 147.5811041636789 0 0 0 0 359.30916837921359 205.62638192342865 0 205.62638192342865 124.05151225438931 0 0 0 0 306.74958567803696 229.32568157970672 0 229.32568157970672 162.86353091216006 0 0 0 0 131.16772951874009 143.5448773405933 0 143.5448773405933 160.76421291124279 0 0 0 0 120.17627934053598 172.44801579762679 0 172.44801579762679 154.00947251712205 0 0 0 0 206.29337686189024 186.76224786719325 0 186.76224786719325 70.703457769326633 0 0 0 0 -54.885346175322411 140.10188645260746 0 140.10188645260746 152.68983860445587 0 0 0 0 19.367209986645321 142.39018826947176 0 142.39018826947176 166.84516140597134 0 0 0 0 15.817580003582407 124.58081807892449 0 124.58081807892449 89.988512022398936 0 0 0 0 -33.279184660676577 27.082979356979475 0 27.082979356979475 -22.237773631312898 0 0 0 0 249.13680672061128 578.86943493145941 0 578.86943493145941 405.85027218440518 0 0 0 0 426.97113806972629 238.19494511640733 0 238.19494511640733 -184.11362580683453 0 0 0 0 -44.635163817365537 172.51873618878199 0 172.51873618878199 134.38850216160245 0 0 0 0 60.815933953956119 318.87588979990232 0 318.87588979990232 264.74286184342236 0 0 0 0 32.149947661622718 94.383594266966611 0 94.383594266966611 143.64356917063742 0 0 0 0 219.33252025549882 175.53697788950558 0 175.53697788950558 172.52197820031506 0 0 0 0 122.6296788975269 218.34644170626962 0 218.34644170626962 190.95178928626774 0 0 0 0 221.80350762440503 175.86297874504635 0 175.86297874504635 166.06519406671032 0 0 0 0 -10.430223829159132 17.566120785930565 0 17.566120785930565 -15.572282720182788 0 0 0 0 841.06894439437019 -30.806336471996474 0 -30.806336471996474 -160.88321805742817 0 0 0 0 216.08793919648451 172.54825398323192 0 172.54825398323192 220.81962243856105 0 0 0 0 288.67886185747193 268.98954530141327 0 268.98954530141327 323.18957036886786 0 0 0 0 405.83012695132129 227.62593559690777 0 227.62593559690777 154.88840081811213 0 0 0 0 296.76089978239906 257.10837205812277 0 257.10837205812277 216.59084044755525 0 0 0 0 -461.65460602540224 486.24844349748787 0 486.24844349748787 330.80058638443734 0 0 0 0 7.9134427087853112 9.6880054050478464 0 9.6880054050478464 11.182241842820588 0 0 0 0 -190.7335782629749 263.52916495989962 0 263.52916495989962 169.60913468814397 0 0 0 0 -534.59745797183132 86.388063428697933 0 86.388063428697933 140.91166813300515 0 0 0 0 -302.21150065718393 348.12839477612943 0 348.12839477612943 129.82558363251883 0 0 0 0 280.49429005874845 902.12558013632588 0 902.12558013632588 443.62231441659969 0 0 0 0 -302.37112617991806 364.27153449139041 0 364.27153449139041 -52.666543682316842 0 0 0 0 0.51115959403929878 6.3752268022739749 0 6.3752268022739749 -7.3168694071485305 0 0 0 0 465.01995531997818 612.2607470378025 0 612.2607470378025 437.1877906300324 0 0 0 0 76.098027298383386 -209.62414273844297 0 -209.62414273844297 -972.78191112709828 0 0 0 0 -466.75664129630604 95.419220979985766 0 95.419220979985766 76.690158052253537 0 0 0 0 -54.524041675322223 373.55646421116217 0 373.55646421116217 -144.87532193763764 0 0 0 0 647.70984878350282 510.78179709541655 0 510.78179709541655 -192.28959631805628 0 0 0 0 -237.68573616096546 676.65893855070408 0 676.65893855070408 354.97747569899366 0 0 0 0 731.09206669575542 97.500522499841281 0 97.500522499841281 -251.90752024826361 0 0 0 0 362.76724040646513 185.2119092990215 0 185.2119092990215 -168.02566590671086 0 0 0 0 360.07242016856617 144.91608905917747 0 144.91608905917747 -92.249314989139748 0 0 0 0 7.8097023996306234 258.21951869668828 0 258.21951869668828 -123.69899774197256 0 0 0 0 -186.60361941231668 -60.628735821220261 0 -60.628735821220261 98.949232965824194 0 0 0 0 -51.539964153282199 63.9707226128603 0 63.9707226128603 -26.062220440471719 0 0 0 0 348.64677148495684 133.769394058123 0 133.769394058123 -205.61220738852717 0 0 0 0 399.76613042142708 -54.929683508478774 0 -54.929683508478774 -154.55320102930273 0 0 0 0 4.4405629054334383 7.8710256351164531 0 7.8710256351164531 3.2911687422401386 0 0 0 0 123.63455539337883 -72.578359369459577 0 -72.578359369459577 -105.12225671346096 0 0 0 0 16.418128992874841 10.982536723801331 0 10.982536723801331 4.5619545356732267 0 0 0 0 199.61796250634507 103.92596796078942 0 103.92596796078942 -246.61309615218124 0 0 0 0 -24.311477293482312 80.696007589369401 0 80.696007589369401 -112.6046620208399 0 0 0 0 -16.681177357160777 41.262821552055357 0 41.262821552055357 -87.8363842340259 0 0 0 0 1.8528455611736376 17.3965387338732 0 17.3965387338732 -9.5869457176630419 0 0 0 0 -17.414452327924664 78.026771394374464 0 78.026771394374464 -92.336842839427845 0 0 0 0 55.997042133247305 138.88288793840093 0 138.88288793840093 -179.26959321474715 0 0 0 0 100.26492810039781 25.303648421242542 0 25.303648421242542 -104.38004010182794 0 0 0 0 -13.160497101423971 28.236034210418438 0 28.236034210418438 -62.254911063282634 0 0 0 0 -2.575898220556013 2.1218275970573472 0 2.1218275970573472 8.8602698739886421 0 0 0 0 21.570537485161367 209.02903431040568 0 209.02903431040568 -49.896348338836106 0 0 0 0 511.35137064184528 -82.626651191127166 0 -82.626651191127166 -149.2808419871144 0 0 0 0 -65.11952102469877 637.91693912794562 0 637.91693912794562 -235.3286712882109 0 0 0 0 -53.50524722195405 422.84088527968561 0 422.84088527968561 196.27877902077307 0 0 0 0 -214.01433265942615 40.169166885232698 0 40.169166885232698 -60.939314026096326 0 0 0 0 -51.115489183313912 198.5205757898766 0 198.5205757898766 -146.85497392868092 0 0 0 0 19.388050478364562 47.097428650333626 0 47.097428650333626 20.184283174155681 0 0 0 0 485.83766847391962 1752.3838065756936 0 1752.3838065756936 664.75883467317726 0 0 0 0 2.9313203639321728 -941.79189621827936 0 -941.79189621827936 42.69678502763054 0 0 0 0 2109.7207494887552 1093.4977144963677 0 1093.4977144963677 -1316.7165590182412 0 0 0 0 -3.6225603501349894 25.731990297826528 0 25.731990297826528 15.954377115920487 0 0 0 0 272.00512285659852 169.84729141853586 0 169.84729141853586 -952.70955259719995 0 0 0 0 19.290740574311272 24.699506616429261 0 24.699506616429261 31.861711507625117 0 0 0 0 -118.40898611892771 179.32090763941596 0 179.32090763941596 -541.51177233446651 0 0 0 0 -11.426031807244954 7.7825500059431931 0 7.7825500059431931 -6.8197323490985298 0 0 0 0 -1.9282684544014046 53.971372183668791 0 53.971372183668791 15.419899774249643 0 0 0 0 -201.20294436703261 256.69456888261448 0 256.69456888261448 -303.64447564581133 0 0 0 0 46.687114890446537 50.821362686330758 0 50.821362686330758 -91.639423993965465 0 0 0 0 -117.87390105982195 642.43322818851811 0 642.43322818851811 -1026.2820762022111 0 0 0 0 -110.08284235699102 9.890031529150292 0 9.890031529150292 274.31868778323405 0 0 0 0 -3.4460640419936226 1.8437013439942547 0 1.8437013439942547 0.70498525246513211 0 0 0 0 -78.469703972281422 435.97277593647595 0 435.97277593647595 -40.806490838043828 0 0 0 0 -442.61700759503583 630.81369411331798 0 630.81369411331798 -368.22509861519211 0 0 0 0 -111.01505736680701 118.9040489088693 0 118.9040489088693 -559.90991914254118 0 0 0 0 92.951357437410479 291.74969556714882 0 291.74969556714882 -126.4202719832665 0 0 0 0 -336.26865129843645 466.20068204143718 0 466.20068204143718 -185.99989205368911 0 0 0 0 -44.40826975348682 356.42921968734254 0 356.42921968734254 -368.61191954315291 0 0 0 0 -256.82800524087361 273.23187441567643 0 273.23187441567643 -250.00609486838221 0 0 0 0 -143.01135374272235 300.01149185991494 0 300.01149185991494 -277.10749742881671 0 0 0 0 -243.41710680586402 265.58588773463634 0 265.58588773463634 -271.66480337433995 0 0 0 0 -241.67380563992083 254.62523267511892 0 254.62523267511892 -243.15094709650657 0 0 0 0 24.155787167790891 16.438568685725997 0 16.438568685725997 -3.8331871500632033 0 0 0 0 20.140359243829153 -19.456865521871805 0 -19.456865521871805 -144.51942518782926 0 0 0 0 2.0836969222722104 -6.1245917269623646 0 -6.1245917269623646 -25.813491161465151 0 0 0 0 -259.19291810633149 237.20839316331694 0 237.20839316331694 -260.12698449461823 0 0 0 0 63.425945060262165 -49.032365562363339 0 -49.032365562363339 -125.37534286247137 0 0 0 0 -2.3635636451290338 42.36315666090195 0 42.36315666090195 -62.332218522593394 0 0 0 0 0.66819626990763936 47.28768671000762 0 47.28768671000762 -67.923827452275873 0 0 0 0 5.7997006862204898 17.070645571681212 0 17.070645571681212 -43.807661901216676 0 0 0 0 2.3376699512009509 41.464595873559574 0 41.464595873559574 -65.959962018612714 0 0 0 0 -8.6542150827299338 41.844843193906854 0 41.844843193906854 -61.357532742782496 0 0 0 0 -12.923880197358812 50.649538688055145 0 50.649538688055145 -65.122792004636722 0 0 0 0 -7.5892509253535536 49.241723645151069 0 49.241723645151069 -66.425301269024203 0 0 0 0 -25.276452558872279 51.28976313030212 0 51.28976313030212 -23.039489957551226 0 0 0 0 -17.581382500007749 72.133410656559136 0 72.133410656559136 -36.132098844733264 0 0 0 0 -82.666113732324447 36.124137914994208 0 36.124137914994208 10.569699004332506 0 0 0 0 -49.358132965411642 65.010580295251202 0 65.010580295251202 29.529416214822959 0 0 0 0 -22.215539798702025 44.193343333757497 0 44.193343333757497 -34.169077233462879 0 0 0 0 -2.3430910379567393 -2.5337418428359513 0 -2.5337418428359513 -1.7336006628684117 0 0 0 0 257.36846328014144 203.31636120998792 0 203.31636120998792 141.25135261836112 0 0 0 0 518.65684097356279 260.0401365822745 0 260.0401365822745 53.206671084031768 0 0 0 0 -4.533744875124647 8.6084283939568138 0 8.6084283939568138 8.0113356575003678 0 0 0 0 251.75097155592812 168.00074892962584 0 168.00074892962584 139.64605708541785 0 0 0 0 297.51440424309112 155.61292651984422 0 155.61292651984422 19.362767297254322 0 0 0 0 10.594082076568156 29.44535712817833 0 29.44535712817833 -52.605017824882452 0 0 0 0 11.706975119737137 4.5511627644466728 0 4.5511627644466728 -12.511912810977812 0 0 0 0 -25.764582290808903 -1.3972999504294421 0 -1.3972999504294421 -90.47100184563368 0 0 0 0 21.215348740399349 31.93025747946831 0 31.93025747946831 -94.518257756124513 0 0 0 0 99.673058095271699 -48.763834139316714 0 -48.763834139316714 -367.19158909502585 0 0 0 0 2.1740975988862488 0.33539628517300457 0 0.33539628517300457 -0.50857601176698353 0 0 0 0 49.885104077606229 594.74621048166955 0 594.74621048166955 521.21316131280037 0 0 0 0 259.54835381169687 167.25518032055334 0 167.25518032055334 58.043394204767537 0 0 0 0 204.77835430583218 540.34341371658593 0 540.34341371658593 -263.10808126105985 0 0 0 0 82.422682661592262 154.18522715008294 0 154.18522715008294 -334.70538745848899 0 0 0 0 -49.976698130842124 191.57317777698427 0 191.57317777698427 -104.64372025106422 0 0 0 0 66.776025462022517 372.56253526381261 0 372.56253526381261 -131.24463547114647 0 0 0 0 -380.01819072428043 204.74839069903464 0 204.74839069903464 -148.26998503059076 0 0 0 0 -90.901706147284131 -26.060544035044586 0 -26.060544035044586 -176.80638661967532 0 0 0 0 64.433322743716417 115.3316295644654 0 115.3316295644654 -324.16822039466933 0 0 0 0 135.1244678633775 309.57852456887804 0 309.57852456887804 4.7886480206361739 0 0 0 0 232.8307469827414 -13.444155465836957 0 -13.444155465836957 -186.66270826352866 0 0 0 0 -602.72452523832544 -579.11732345728024 0 -579.11732345728024 51.834203480888391 0 0 0 0 353.69327233970671 -1225.2047054856016 0 -1225.2047054856016 -342.13724293572886 0 0 0 0 284.71238029468714 101.01141853212459 0 101.01141853212459 -8.7695770663485746 0 0 0 0 1542.1157356600233 482.9516853281516 0 482.9516853281516 -108.16769730165834 0 0 0 0 1951.2035508715271 -1128.7609910782476 0 -1128.7609910782476 -827.91399384995748 0 0 0 0 126.55812675785273 175.86592155284234 0 175.86592155284234 313.58667916539707 0 0 0 0 167.14013151702238 352.31309022349888 0 352.31309022349888 920.50732554020578 0 0 0 0 13.893320877570659 -122.94481504778742 0 -122.94481504778742 763.36836454798413 0 0 0 0 15.691031932082865 7.894389823672185 0 7.894389823672185 6.9035876889468852 0 0 0 0 197.43550866414444 -11.776201026481431 0 -11.776201026481431 -116.37697669521003 0 0 0 0 207.24871717451606 -17.279226413195829 0 -17.279226413195829 -174.32395509849812 0 0 0 0 -703.77558880994184 819.80449433751073 0 819.80449433751073 698.17575827352539 0 0 0 0 212.12832691765288 122.50607732289507 0 122.50607732289507 -135.00734294341237 0 0 0 0 39.212230328339501 -63.473875007182869 0 -63.473875007182869 276.89998699771786 0 0 0 0 18.972773984033054 20.210142119096616 0 20.210142119096616 -13.928555566437012 0 0 0 0 442.83311750978464 90.401031229424916 0 90.401031229424916 30.848922565448447 0 0 0 0 -0.5864369462122454 -2.9890670341474959 0 -2.9890670341474959 4.2511569300819332 0 0 0 0 1030.3130951608982 318.10627757189695 0 318.10627757189695 -255.71079070966516 0 0 0 0 -119.53174196587861 35.755160970079032 0 35.755160970079032 31.132034075184492 0 0 0 0 -73.759101911186008 43.056448161978551 0 43.056448161978551 13.397862446392537 0 0 0 0 -97.69461817535921 51.402997013139611 0 51.402997013139611 41.432851415422192 0 0 0 0 -49.996885773638496 125.47385258842496 0 125.47385258842496 -26.637847583731855 0 0 0 0 -16.225655952592206 68.756533858323564 0 68.756533858323564 -138.29343071389712 0 0 0 0 50.664758638014888 58.699792284969021 0 58.699792284969021 34.656852026282444 0 0 0 0 61.810124707026262 143.44765642040511 0 143.44765642040511 70.910868058676897 0 0 0 0 37.300266156302143 17.605820067345149 0 17.605820067345149 8.4547068634420306 0 0 0 0 -110.79724486838541 350.69614081486344 0 350.69614081486344 -228.39794814052993 0 0 0 0 1400.6763727398356 828.78948579706775 0 828.78948579706775 -1256.6821075154949 0 0 0 0 73.679678792713702 77.745947106187643 0 77.745947106187643 73.462824265927878 0 0 0 0 168.64885865306132 350.93862246211029 0 350.93862246211029 -15.355074708128996 0 0 0 0 -110.11933428297948 343.68255333393154 0 343.68255333393154 -712.02981699479915 0 0 0 0 -140.72868977176404 -35.445564370145803 0 -35.445564370145803 844.93460125650745 0 0 0 0 12.216446251646119 6.4511218576036455 0 6.4511218576036455 3.0008049675042781 0 0 0 0 -24.292646481556403 -91.936192795159855 0 -91.936192795159855 555.43878931315339 0 0 0 0 -79.329347338134539 136.93812672541389 0 136.93812672541389 544.27342094343476 0 0 0 0 22.759375436682603 18.679916983702242 0 18.679916983702242 190.55770019714146 0 0 0 0 -45.189720958944235 77.727234502813189 0 77.727234502813189 464.8475008717287 0 0 0 0 -73.041542178805685 227.50799179483511 0 227.50799179483511 393.13661003485686 0 0 0 0 -59.842478872116772 273.67269503602984 0 273.67269503602984 754.20410259219534 0 0 0 0 -14.304878339593415 -7.2180164889618936 0 -7.2180164889618936 412.17444503202205 0 0 0 0 -27.730729497532593 -26.51479357030621 0 -26.51479357030621 406.98673550621334 0 0 0 0 -40.836197819917288 -75.819334586492005 0 -75.819334586492005 399.01639229361535 0 0 0 0 -69.768911243445473 24.033885840062112 0 24.033885840062112 -2.9353223704438278 0 0 0 0 41.554093282553367 192.18539351781237 0 192.18539351781237 55.989397093528169 0 0 0 0 56.720970269176178 209.600151133498 0 209.600151133498 61.109024792670425 0 0 0 0 10.239343154962199 15.332258407271048 0 15.332258407271048 4.6507402581218873 0 0 0 0 -47.810197780869203 63.405776380297539 0 63.405776380297539 -4.6760511083530218 0 0 0 0 -60.653577985009179 267.5029809958628 0 267.5029809958628 155.28999602213116 0 0 0 0 13.08320424365229 271.12928542931149 0 271.12928542931149 -6.4386108863745903 0 0 0 0 18.435936812864384 154.62595990220325 0 154.62595990220325 193.07390940031837 0 0 0 0 -105.97244087341824 -68.86378914729903 0 -68.86378914729903 -390.57488411099621 0 0 0 0 65.331382047159423 55.857754432447678 0 55.857754432447678 28.143111930386112 0 0 0 0 -11.964665545435651 53.945683083703862 0 53.945683083703862 10.233926818021242 0 0 0 0 6.7673310074135102 27.516130223394029 0 27.516130223394029 17.718976740738249 0 0 0 0 7.4224435272065818 45.374021981905571 0 45.374021981905571 40.567129778761526 0 0 0 0 16.071702779503539 27.296420991806372 0 27.296420991806372 9.3625562300658203 0 0 0 0 43.659689429157879 38.488346211055614 0 38.488346211055614 8.9670631491926542 0 0 0 0 22.843490238736962 42.457375301882088 0 42.457375301882088 7.6480760775196046 0 0 0 0 27.680791492384373 28.464660286212862 0 28.464660286212862 2.7466364125608518 0 0 0 0 51.03600040411402 63.694935114616783 0 63.694935114616783 14.524707198232022 0 0 0 0 108.08430933527416 191.20529817974875 0 191.20529817974875 -70.900481670989848 0 0 0 0 56.237261066166866 48.037433698219075 0 48.037433698219075 23.768068152403497 0 0 0 0 52.106502168022871 49.453401011088317 0 49.453401011088317 -5.7763544250901759 0 0 0 0 61.984195009456016 163.93532862045413 0 163.93532862045413 -56.09948434255648 0 0 0 0 -230.08377400651807 156.61820742070995 0 156.61820742070995 -41.464450600309647 0 0 0 0 10.151577646564476 6.5195153901072445 0 6.5195153901072445 2.6004403883277689 0 0 0 0 87.263526013754017 135.76248631835597 0 135.76248631835597 -232.51200615181733 0 0 0 0 76.544645548041444 107.87670768836324 0 107.87670768836324 -35.393272115506988 0 0 0 0 123.86334312340477 104.02948329957871 0 104.02948329957871 -92.985713224297797 0 0 0 0 125.47492804200738 123.73499810604517 0 123.73499810604517 60.659857585458667 0 0 0 0 107.77298999213963 -2.5817705521840253 0 -2.5817705521840253 -40.02663366941124 0 0 0 0 94.329160524648614 -10.943942755919124 0 -10.943942755919124 -27.576251483133092 0 0 0 0 141.13792125112741 -60.632540339061961 0 -60.632540339061961 -22.758237579895649 0 0 0 0 31.503175488789566 16.982026558307552 0 16.982026558307552 -89.527970460960205 0 0 0 0 56.173303678951925 46.373231576006219 0 46.373231576006219 -65.068087698047748 0 0 0 0 132.83593222416675 -7.4985134214007303 0 -7.4985134214007303 -95.418031550616433 0 0 0 0 -26.823363842850085 211.50121734099571 0 211.50121734099571 -168.07389755471013 0 0 0 0 -249.92506981049519 -279.91004078842002 0 -279.91004078842002 433.60767929158465 0 0 0 0 4246.4509330714354 -1981.266831336281 0 -1981.266831336281 -380.10957708628848 0 0 0 0 9.2461385245551355 175.19890719326213 0 175.19890719326213 -212.92693086259533 0 0 0 0 45.788105817089786 45.69079102946327 0 45.69079102946327 21.803152847312614 0 0 0 0 -40.556057585407459 59.061534341446553 0 59.061534341446553 -43.255056500103869 0 0 0 0 -38.294342674806103 23.335592711125628 0 23.335592711125628 -17.550405047453751 0 0 0 0 19.185179946671099 9.7601973823785428 0 9.7601973823785428 -25.718349028612927 0 0 0 0 -15.259530055176583 67.275180990413901 0 67.275180990413901 -103.49371174264525 0 0 0 0 -80.629285083959985 92.096242747927135 0 92.096242747927135 -108.10403971323194 0 0 0 0 -19.327081963790988 72.876590129069882 0 72.876590129069882 -81.088419701140083 0 0 0 0 11.191537427628646 81.983053947429653 0 81.983053947429653 -141.07059220528936 0 0 0 0 -182.63607091446465 163.76388077780939 0 163.76388077780939 -111.0505492836528 0 0 0 0 -614.66879198468087 -294.79884415708148 0 -294.79884415708148 -228.88464957106407 0 0 0 0 0.80002189617502495 28.616671209958632 0 28.616671209958632 -2.8635086964737297 0 0 0 0 -0.11881424993345036 58.403938487288357 0 58.403938487288357 -12.094911615081561 0 0 0 0 -77.801900098831538 38.116031499585915 0 38.116031499585915 120.05035529610905 0 0 0 0 -5.0889479254275898 8.2930585949166513 0 8.2930585949166513 -18.130757800794683 0 0 0 0 165.28733644849854 68.230720807481703 0 68.230720807481703 72.141847826113917 0 0 0 0 -120.26648221112555 49.572256132596522 0 49.572256132596522 -141.33143743545224 0 0 0 0 9.5437682431656867 102.89884212349625 0 102.89884212349625 92.670916881063022 0 0 0 0 -10.373119166928575 73.711028418938298 0 73.711028418938298 -37.703490616506457 0 0 0 0 19.002621554769576 59.331994373382258 0 59.331994373382258 -88.833787039167873 0 0 0 0 18.32206014308025 46.544272555331304 0 46.544272555331304 -24.004988416135966 0 0 0 0 13.348900993471034 87.424195691080968 0 87.424195691080968 -81.902523299564564 0 0 0 0 -15.890087653329829 121.23359539961034 0 121.23359539961034 -11.427939251747972 0 0 0 0 59.073311789550914 42.897726589040346 0 42.897726589040346 -76.686259099344667 0 0 0 0 -2.1110723802598841 77.958030796608185 0 77.958030796608185 14.496845971490799 0 0 0 0 -2.2914029198145727 181.70759588466171 0 181.70759588466171 -114.29509733541568 0 0 0 0 4.5585283428950731 2.407002697021241 0 2.407002697021241 -9.451313412642854 0 0 0 0 54.934710681084397 34.544208376865939 0 34.544208376865939 7.4572372731141634 0 0 0 0 168.55664366221754 -77.154853050688871 0 -77.154853050688871 -147.39578783320758 0 0 0 0 123.7440400866908 347.31441481958791 0 347.31441481958791 8.0328558489709394 0 0 0 0 -269.45192438025697 19.948212722670178 0 19.948212722670178 878.89947958541961 0 0 0 0 5.0710104777043341 3.4853161522227509 0 3.4853161522227509 3.4656411859458895 0 0 0 0 56.961998972881702 292.71389550108415 0 292.71389550108415 558.1910028624261 0 0 0 0 575.43414414602739 529.93669691667674 0 529.93669691667674 78.686301600015213 0 0 0 0 -78.332420003673178 34.361090261325444 0 34.361090261325444 -3.253619085155151 0 0 0 0 78.545444767376466 148.19409010825166 0 148.19409010825166 -115.34332587942481 0 0 0 0 152.28047865137341 308.35987712611632 0 308.35987712611632 121.71558772024582 0 0 0 0 97.343028788920492 186.90641323773343 0 186.90641323773343 -9.4102827833339688 0 0 0 0 55.86855747087975 247.0622134904861 0 247.0622134904861 29.408494837462058 0 0 0 0 67.969018078592853 307.66952964572874 0 307.66952964572874 131.0574063148124 0 0 0 0 24.233879804742173 217.43274921087868 0 217.43274921087868 180.50053637471137 0 0 0 0 19.94459803889913 319.96530983164303 0 319.96530983164303 475.37182556487824 0 0 0 0 60.646655443619238 -24.134902973870339 0 -24.134902973870339 483.91986750375287 0 0 0 0 297.34777367241259 -123.86922601899732 0 -123.86922601899732 255.21278900353354 0 0 0 0 -24.452851332855062 125.1634779712449 0 125.1634779712449 259.94818353218943 0 0 0 0 -34.159632460668945 105.45178694876313 0 105.45178694876313 225.92176042875508 0 0 0 0 -26.493018451808894 130.847094644766 0 130.847094644766 104.10188212224102 0 0 0 0 12.857669660230385 243.06140285742686 0 243.06140285742686 177.51448910992804 0 0 0 0 -9.8425801683260943 204.13103046376227 0 204.13103046376227 118.21551597721373 0 0 0 0 49.713732810050715 253.37359571309025 0 253.37359571309025 68.830266897206457 0 0 0 0 5.8400299533423095 183.02899548201231 0 183.02899548201231 90.600546927342293 0 0 0 0 -9.6745635612896876 164.4976598172052 0 164.4976598172052 69.21452613260044 0 0 0 0 -59.649297218755237 101.86298688768784 0 101.86298688768784 111.94235048194969 0 0 0 0 -40.508160980352841 114.98266178746962 0 114.98266178746962 47.777337473191437 0 0 0 0 142.15515149315559 71.883906057832959 0 71.883906057832959 73.29777420949722 0 0 0 0 77.580146992535447 165.18569521397512 0 165.18569521397512 49.496457722080777 0 0 0 0 30.691606782664167 137.55415195355135 0 137.55415195355135 38.366531715261772 0 0 0 0 78.127425325375839 213.75299841242526 0 213.75299841242526 20.421559764743506 0 0 0 0 82.125718770781532 229.33520928275539 0 229.33520928275539 -18.224083914807125 0 0 0 0 144.38885969919647 134.17154559989103 0 134.17154559989103 -10.503154152500429 0 0 0 0 135.27279823907156 244.84715894178908 0 244.84715894178908 -84.399540118083678 0 0 0 0 184.47736816998804 158.8820916644936 0 158.8820916644936 -10.112276564771378 0 0 0 0 274.49788166246435 199.79725392600631 0 199.79725392600631 -173.22740720811089 0 0 0 0 58.157468031291501 282.37677194960452 0 282.37677194960452 -100.64693420067761 0 0 0 0 -122.89603743577754 405.99484581718116 0 405.99484581718116 -113.57229372206712 0 0 0 0 42.029055176972179 253.92878037997889 0 253.92878037997889 -62.49829871656766 0 0 0 0 -9.8935184553411091 294.4015481732913 0 294.4015481732913 -59.314980409042164 0 0 0 0 16.694318686422775 252.78981330431452 0 252.78981330431452 -14.838193832280012 0 0 0 0 83.790107746202921 242.91730193304267 0 242.91730193304267 -19.68843081399973 0 0 0 0 10.85665182043158 255.64354224698764 0 255.64354224698764 28.195735007249823 0 0 0 0 24.671768541866186 202.43562655284745 0 202.43562655284745 11.223999659687252 0 0 0 0 -131.33331563296088 199.17971246556408 0 199.17971246556408 15.227995109107724 0 0 0 0 -69.861913929024013 159.6623871249385 0 159.6623871249385 24.28670324884024 0 0 0 0 -28.031381158136355 82.423090191767869 0 82.423090191767869 40.784131433931179 0 0 0 0 -246.57479467484154 81.233995630652316 0 81.233995630652316 46.368259709915947 0 0 0 0 -494.98183565238833 -51.840069559591825 0 -51.840069559591825 11.353032582735977 0 0 0 0 -561.09129113319068 291.21204327742362 0 291.21204327742362 15.197945127682033 0 0 0 0 -133.82237651480682 198.17267209143756 0 198.17267209143756 30.292661020692321 0 0 0 0 -337.86495439472492 170.90531055978317 0 170.90531055978317 26.648858384867708 0 0 0 0 -192.11399617435018 -351.42956377190171 0 -351.42956377190171 447.4125220021906 0 0 0 0 -168.49714588433926 327.08109136351163 0 327.08109136351163 -83.779299914214789 0 0 0 0 35.823759703305228 89.860384544578665 0 89.860384544578665 120.51052220764211 0 0 0 0 443.82417483894824 -66.52341560818968 0 -66.52341560818968 -375.36978835553782 0 0 0 0 73.444622091439669 370.71751529706671 0 370.71751529706671 -418.77634171769751 0 0 0 0 -405.93778029977693 427.15028511634318 0 427.15028511634318 -114.51917441659612 0 0 0 0 283.15742096219037 36.257089318233739 0 36.257089318233739 -28.4512535492795 0 0 0 0 414.63241272978485 43.391931560399826 0 43.391931560399826 241.98524716301108 0 0 0 0 330.65847098557424 -331.60474874884039 0 -331.60474874884039 178.18261463333874 0 0 0 0 39.680917297144504 91.183543991995691 0 91.183543991995691 103.22734199630631 0 0 0 0 176.54748350774025 161.04926006684673 0 161.04926006684673 92.878008762943864 0 0 0 0 173.76322975402582 10.671908439386243 0 10.671908439386243 242.13492665951162 0 0 0 0 361.70496221164649 -81.319616871105609 0 -81.319616871105609 74.318721454270417 0 0 0 0 0.093534326173369209 7.1868037285345778 0 7.1868037285345778 24.768850750746051 0 0 0 0 1.6830673617732828 187.59087728905797 0 187.59087728905797 -176.3839177392183 0 0 0 0 54.493079224776011 157.14634820056381 0 157.14634820056381 -159.40034814077808 0 0 0 0 23.064569257992844 206.75841616122489 0 206.75841616122489 -142.67787819328078 0 0 0 0 49.158405599395337 150.95174607391527 0 150.95174607391527 -161.52108042940381 0 0 0 0 151.9692582396674 106.7309788105631 0 106.7309788105631 -89.526596322146361 0 0 0 0 57.750264157089987 125.47372654202627 0 125.47372654202627 -93.011142428062158 0 0 0 0 93.543635245587211 117.77466364588327 0 117.77466364588327 -209.30624566212646 0 0 0 0 100.48592934476619 95.71370867346559 0 95.71370867346559 -154.99986761558102 0 0 0 0 103.0857966618205 98.342629172351735 0 98.342629172351735 -177.88167167910433 0 0 0 0 -70.184905676360358 105.622336209286 0 105.622336209286 -42.369723806797992 0 0 0 0 0.92971119497629928 18.647658557275076 0 18.647658557275076 -14.773046797572562 0 0 0 0 -8.8519689984495926 64.511120946786832 0 64.511120946786832 19.56909204214935 0 0 0 0 32.437014763279407 55.329560814278466 0 55.329560814278466 51.720630739503882 0 0 0 0 27.856580065362497 51.292484520116062 0 51.292484520116062 18.019021886199099 0 0 0 0 25.836602092673502 162.56740394674966 0 162.56740394674966 -30.859072272724006 0 0 0 0 14.804900483540379 68.525241930449994 0 68.525241930449994 1.7813773597068518 0 0 0 0 101.69476079431479 109.43890866971742 0 109.43890866971742 91.522471523392596 0 0 0 0 21.027861544906045 20.756277763330445 0 20.756277763330445 4.215489148402412 0 0 0 0 15.41497023973875 5.3016256392078702 0 5.3016256392078702 -10.256904543592352 0 0 0 0 116.21828958818514 139.30899768675408 0 139.30899768675408 131.01086197826771 0 0 0 0 122.93520898578572 156.93111627675171 0 156.93111627675171 96.715640734666522 0 0 0 0 122.61070451402338 160.75378560725221 0 160.75378560725221 102.21090379703674 0 0 0 0 161.82063293522515 204.00745121314685 0 204.00745121314685 148.61133693617739 0 0 0 0 102.52702205363312 162.17754325048554 0 162.17754325048554 170.26218551701459 0 0 0 0 53.599971288640518 125.62432226817327 0 125.62432226817327 160.91239771680557 0 0 0 0 94.745164901643875 165.95476025597782 0 165.95476025597782 173.19290817190631 0 0 0 0 93.157491233578185 129.74074163343357 0 129.74074163343357 127.04806664985335 0 0 0 0 78.294499022944365 114.50705164993633 0 114.50705164993633 135.85635202634512 0 0 0 0 32.68732002285833 29.528125920493721 0 29.528125920493721 -9.5776834394437174 0 0 0 0 36.091619847968104 153.65254806363737 0 153.65254806363737 135.78440891373612 0 0 0 0 77.967910902743824 91.602261925227594 0 91.602261925227594 157.85895235103089 0 0 0 0 6.047221723931699 -4.0399376176798931 0 -4.0399376176798931 -8.5252068408476696 0 0 0 0 71.192846874568204 164.37504937529411 0 164.37504937529411 259.88303508473473 0 0 0 0 94.727665619604522 135.60436428010144 0 135.60436428010144 101.5964470021645 0 0 0 0 83.086533261172008 158.84755891548048 0 158.84755891548048 72.322496901892009 0 0 0 0 32.169837100181439 20.735052661623925 0 20.735052661623925 -22.139018704793344 0 0 0 0 74.727532458637143 36.714629320817039 0 36.714629320817039 -16.582879525269163 0 0 0 0 74.944987998533179 -12.201143438835061 0 -12.201143438835061 74.41346175639805 0 0 0 0 21.789186132940813 20.207815705106441 0 20.207815705106441 -4.9576015435959562 0 0 0 0 47.25144668246503 48.0308694132234 0 48.0308694132234 5.3392180742102937 0 0 0 0 28.296164336960658 22.516899335990484 0 22.516899335990484 7.4891718509919105 0 0 0 0 12.879062060128263 12.190033507197128 0 12.190033507197128 -8.8958561407213637 0 0 0 0 2.5355538744092954 11.076251762497662 0 11.076251762497662 10.839272032382098 0 0 0 0 50.272150589138619 65.797071049577426 0 65.797071049577426 23.351638150273629 0 0 0 0 -13.067388201743597 65.075269839253451 0 65.075269839253451 -7.5856702118398971 0 0 0 0 -7.4123241813910568 18.003109595080161 0 18.003109595080161 -10.802391562281283 0 0 0 0 -108.87232469555238 -40.891447859674372 0 -40.891447859674372 9.0674687112004904 0 0 0 0 -4.8848886720879818 23.167254301111825 0 23.167254301111825 -5.145569698196141 0 0 0 0 -4.7463919616622974 4.1856437826768342 0 4.1856437826768342 -6.6552767269188244 0 0 0 0 -20.707866924276459 52.761351433882737 0 52.761351433882737 103.46151434566582 0 0 0 0 -5.5850024291285081 -54.285890370110792 0 -54.285890370110792 -27.684587483337054 0 0 0 0 -299.33507181772438 133.83434436295465 0 133.83434436295465 -60.472228732732219 0 0 0 0 241.55381976340323 137.84658994408846 0 137.84658994408846 -14.574339976132251 0 0 0 0 2.5561354576499795 -1.1910431274064308 0 -1.1910431274064308 -4.0773728902211914 0 0 0 0 5.0175890777391032 2.1825690419018287 0 2.1825690419018287 -3.7499630645639854 0 0 0 0 40.979647351821768 178.99542868917069 0 178.99542868917069 -270.884734162928 0 0 0 0 -39.276696140099375 321.76482071493592 0 321.76482071493592 -284.7742393013088 0 0 0 0 -160.63588223473926 315.97040539715908 0 315.97040539715908 8.4123690803025966 0 0 0 0 192.36356309823168 191.85506940180494 0 191.85506940180494 -65.417965205434939 0 0 0 0 155.98465374931402 154.69362626365455 0 154.69362626365455 7.6901971314546245 0 0 0 0 145.9166886487219 170.18824577544547 0 170.18824577544547 26.109147216877773 0 0 0 0 166.44321074546315 110.3081474563769 0 110.3081474563769 88.615731964640872 0 0 0 0 144.75921420855593 145.51588130000982 0 145.51588130000982 38.800788531338185 0 0 0 0 164.02623129032145 168.43862749139225 0 168.43862749139225 44.526523552467552 0 0 0 0 126.56782653226401 165.42813094127087 0 165.42813094127087 101.50069028329222 0 0 0 0 126.60000229366415 161.74686957826998 0 161.74686957826998 97.228324005176773 0 0 0 0 116.22188902042399 168.39439061709891 0 168.39439061709891 44.667188584977339 0 0 0 0 148.38491412567964 158.49371628616518 0 158.49371628616518 3.8122762997136306 0 0 0 0 142.02257013171766 164.35042253111851 0 164.35042253111851 4.4499850387637707 0 0 0 0 94.3842268371518 146.64568445758687 0 146.64568445758687 8.1184055015801277 0 0 0 0 105.67315705227338 103.60794989246619 0 103.60794989246619 -68.674093843203082 0 0 0 0 10.971001394246883 8.6556193547339006 0 8.6556193547339006 -6.7244480574399681 0 0 0 0 48.444609886835678 19.323387258756156 0 19.323387258756156 0.023748310739392764 0 0 0 0 71.710137246802333 144.77149155741699 0 144.77149155741699 -6.3523802832787624 0 0 0 0 -0.15745461717597209 59.237682779845272 0 59.237682779845272 -75.288076989676483 0 0 0 0 -14.152508906845469 144.15072944783151 0 144.15072944783151 31.779325809293368 0 0 0 0 -31.645722108494681 50.295789120398823 0 50.295789120398823 -10.558543855778769 0 0 0 0 -3.5541038562272966 44.752060049585481 0 44.752060049585481 -28.46312876470563 0 0 0 0 44.956097987567773 40.952598963515811 0 40.952598963515811 -50.791491491515444 0 0 0 0 -114.75621463807329 78.453530025444252 0 78.453530025444252 47.004519283070294 0 0 0 0 -6.9372252051155563 1.6736962325627331 0 1.6736962325627331 18.849413470552744 0 0 0 0 -204.75404759284356 90.179829218299062 0 90.179829218299062 49.334019113154682 0 0 0 0 -87.828184418052842 60.988251245127231 0 60.988251245127231 21.64061968878741 0 0 0 0 115.66733909524919 71.057020731383091 0 71.057020731383091 35.586286742554876 0 0 0 0 186.29765707945626 139.59240102004696 0 139.59240102004696 31.397440196935349 0 0 0 0 129.69626994344071 107.7398358816763 0 107.7398358816763 16.519975925955805 0 0 0 0 138.88943383005244 43.160073175576144 0 43.160073175576144 60.575167973009229 0 0 0 0 150.49172052082577 156.67660770024759 0 156.67660770024759 86.619380299427576 0 0 0 0 250.16086272380926 208.85682495162382 0 208.85682495162382 135.69868259920622 0 0 0 0 216.3594720174442 157.06996524196438 0 157.06996524196438 86.363009732921682 0 0 0 0 690.71615690769977 156.8586683829908 0 156.8586683829908 19.994327583739505 0 0 0 0 196.55501799794729 193.22469560927675 0 193.22469560927675 161.24925501163307 0 0 0 0 192.6586907104429 241.91425967521718 0 241.91425967521718 245.38829935403191 0 0 0 0 380.62113437551307 168.22189894262192 0 168.22189894262192 139.73664543406358 0 0 0 0 397.99420085201564 22.17138689562853 0 22.17138689562853 57.02418998250505 0 0 0 0 -256.70635090200085 90.729353352923681 0 90.729353352923681 -109.34725322617669 0 0 0 0 0.7664908172781999 -4.1775796035541077 0 -4.1775796035541077 6.4683501967233781 0 0 0 0 -191.31538716388604 -11.365514661310044 0 -11.365514661310044 47.377928025316578 0 0 0 0 84.199660556783783 498.67597396038764 0 498.67597396038764 378.41333820958971 0 0 0 0 755.11954167160002 346.57303345609307 0 346.57303345609307 -133.7925168518268 0 0 0 0 -94.10630236891302 141.38257279393019 0 141.38257279393019 110.93375910143459 0 0 0 0 46.224441089899543 79.888176175051612 0 79.888176175051612 84.637448569699487 0 0 0 0 15.99774194454892 0.32465670079334075 0 0.32465670079334075 -22.467142095450427 0 0 0 0 101.59391219497775 706.98624576785915 0 706.98624576785915 611.16953486259445 0 0 0 0 97.377273415331729 200.73178867475508 0 200.73178867475508 381.33142266807249 0 0 0 0 34.74765177500376 1.8350519988689484 0 1.8350519988689484 165.37180637130041 0 0 0 0 24.601604198032874 110.99280437082416 0 110.99280437082416 360.66215890302919 0 0 0 0 263.18870254108333 182.91931057480906 0 182.91931057480906 154.74877306737108 0 0 0 0 519.6561098922175 376.70739042562127 0 376.70739042562127 177.52547516218328 0 0 0 0 289.93338198936181 361.72785317443527 0 361.72785317443527 392.87211285686499 0 0 0 0 26.518697375693591 71.367756367922993 0 71.367756367922993 113.90287370084752 0 0 0 0 -112.76205358459265 -118.7085901401565 0 -118.7085901401565 700.23142586004064 0 0 0 0 -44.84609295498376 113.3851052930745 0 113.3851052930745 15.928913000803732 0 0 0 0 -39.28369834824116 157.46860653808653 0 157.46860653808653 229.89779977739636 0 0 0 0 -17.761521858570632 163.12412616598431 0 163.12412616598431 56.514730559170857 0 0 0 0 35.446993035572575 63.641656040741466 0 63.641656040741466 64.130387546995536 0 0 0 0 165.66128793648386 243.8859918848475 0 243.8859918848475 -48.862984679381952 0 0 0 0 54.450479664839804 114.77024306483759 0 114.77024306483759 56.866092191041162 0 0 0 0 31.156731142633362 80.167044843618896 0 80.167044843618896 -151.71697116927226 0 0 0 0 -13.066586618732686 25.984258265081834 0 25.984258265081834 4.0802280645097468 0 0 0 0 -96.16878791039926 26.918471525561472 0 26.918471525561472 -100.77248433929344 0 0 0 0 -5.4381536727814819 161.93079604108925 0 161.93079604108925 -69.450379890089607 0 0 0 0 30.134669421927583 54.042792924556835 0 54.042792924556835 46.842555738482105 0 0 0 0 -9.2701637172867777 65.106501146277196 0 65.106501146277196 33.877634551993253 0 0 0 0 2.3257917055016151 61.717813259146411 0 61.717813259146411 18.465237289478011 0 0 0 0 -47.740518957856693 44.090402517420017 0 44.090402517420017 30.788822109354403 0 0 0 0 -79.091062372317538 122.4785384027459 0 122.4785384027459 -21.073173346574009 0 0 0 0 -86.329024844708329 149.5558032558032 0 149.5558032558032 -83.133938632074205 0 0 0 0 -2.7867932746776205 8.2516451981251748 0 8.2516451981251748 75.883125749348437 0 0 0 0 -134.76038933321252 99.543973790636755 0 99.543973790636755 28.351692779861878 0 0 0 0 -27.073876680704416 163.58424799356692 0 163.58424799356692 -73.59728155511624 0 0 0 0 -89.137378721279674 121.23980176348641 0 121.23980176348641 -21.189257559806038 0 0 0 0 -45.257085563976943 202.54013236362232 0 202.54013236362232 -148.99678365777982 0 0 0 0 -0.086952427191135939 147.40753228102312 0 147.40753228102312 -81.772328111012484 0 0 0 0 -62.407205147712375 201.29919504165809 0 201.29919504165809 -147.50565810184116 0 0 0 0 -77.711194200979662 244.69580083271876 0 244.69580083271876 -257.50445739205497 0 0 0 0 -142.98452717295731 119.06150155247542 0 119.06150155247542 -172.33779101866003 0 0 0 0 -179.15587493548082 139.29012690960781 0 139.29012690960781 239.85257375397123 0 0 0 0 -0.008805160628980957 198.85394738294372 0 198.85394738294372 -184.81231095014755 0 0 0 0 -91.49211928252771 194.93818004981904 0 194.93818004981904 -68.108589554178252 0 0 0 0 -10.51354090903925 2.0680762045038961 0 2.0680762045038961 -2.2909974689026367 0 0 0 0 81.621180245778305 -108.32548128449577 0 -108.32548128449577 -562.17277654608461 0 0 0 0 -149.13059805810917 188.04024570400816 0 188.04024570400816 151.79502772000478 0 0 0 0 -159.15709546243306 164.29512604597494 0 164.29512604597494 -84.603865333217755 0 0 0 0 -187.15523527743062 392.57750595302059 0 392.57750595302059 -498.07596032151559 0 0 0 0 -394.44038108392851 -275.09292918830397 0 -275.09292918830397 -548.22572049468772 0 0 0 0 -913.0851677392784 -176.47787597859497 0 -176.47787597859497 664.88030538040039 0 0 0 0 -92.0914900048665 727.25141973598784 0 727.25141973598784 662.37374196187329 0 0 0 0 9.9209167401043601 4.2316239186000928 0 4.2316239186000928 3.8178513597075181 0 0 0 0 549.1688172359427 1029.1315096425751 0 1029.1315096425751 63.940945242584348 0 0 0 0 -360.46170156197331 238.25709077035526 0 238.25709077035526 -92.473209346186195 0 0 0 0 88.667595986327797 367.77138744092508 0 367.77138744092508 -137.77865117677538 0 0 0 0 -307.84806364472024 346.13152197547788 0 346.13152197547788 0.32212966024962952 0 0 0 0 -99.532860963743587 421.33969360947458 0 421.33969360947458 27.048833262513654 0 0 0 0 -14.512700661733106 414.68494404005742 0 414.68494404005742 -102.35754799127244 0 0 0 0 -332.48256275118911 460.80027603896997 0 460.80027603896997 -107.29966190302912 0 0 0 0 -29.984436887112679 271.4200253574254 0 271.4200253574254 -74.768845395093308 0 0 0 0 -130.27550043216615 358.50573940596996 0 358.50573940596996 -97.759405736796907 0 0 0 0 72.766285801844788 310.89915610975368 0 310.89915610975368 -165.92420624713213 0 0 0 0 -0.0025282022470491938 261.62418416701439 0 261.62418416701439 -121.03010354363869 0 0 0 0 51.851091019336309 186.12280705109788 0 186.12280705109788 -22.979625772992222 0 0 0 0 0.069846866092120763 217.34530862866086 0 217.34530862866086 50.211994337692886 0 0 0 0 113.49244508285483 227.02663881145691 0 227.02663881145691 -26.997593653910371 0 0 0 0 157.51251670701458 174.75612489978721 0 174.75612489978721 -46.343501171286334 0 0 0 0 81.258099572460196 45.667250207574853 0 45.667250207574853 304.90019673274583 0 0 0 0 -52.534514513623435 601.9388592753694 0 601.9388592753694 -843.26328234531866 0 0 0 0 -615.49237058278595 754.52545727473944 0 754.52545727473944 -406.02438958651692 0 0 0 0 170.13481230456091 356.59075602123266 0 356.59075602123266 -588.121061417296 0 0 0 0 -89.980326734323171 -80.102281133618817 0 -80.102281133618817 961.20784953871271 0 0 0 0 -377.56512054186896 -519.37215309633211 0 -519.37215309633211 -418.06917840769529 0 0 0 0 86.259640813903388 183.42319082821768 0 183.42319082821768 290.94002895161248 0 0 0 0 1456.0128601782635 1401.5471129986618 0 1401.5471129986618 -1190.9493570271297 0 0 0 0 -1110.9862188968109 431.70490198296147 0 431.70490198296147 746.86110270894278 0 0 0 0 1.0609776960104114 -0.21758475443010639 0 -0.21758475443010639 0.50599550562589002 0 0 0 0 -823.82823228340749 88.307432703026734 0 88.307432703026734 140.6690363985108 0 0 0 0 83.194679360662121 -277.52469937643946 0 -277.52469937643946 -1135.7187339422453 0 0 0 0 -11.597181331594925 7.9639898061846282 0 7.9639898061846282 -7.5280577311196453 0 0 0 0 190.52889027263154 173.01564834711098 0 173.01564834711098 -166.0686936367365 0 0 0 0 -95.229958776402782 206.24010106780042 0 206.24010106780042 -120.84969556991564 0 0 0 0 -156.0231490842998 456.85156653158992 0 456.85156653158992 -383.5796298120149 0 0 0 0 -355.46670990902567 446.76736827169043 0 446.76736827169043 -122.96306113660103 0 0 0 0 -400.42759561925777 665.18295754203791 0 665.18295754203791 -293.6203874084249 0 0 0 0 -1051.2285302176606 296.55557851012782 0 296.55557851012782 -14.903288609588344 0 0 0 0 -336.16996356967138 336.34265476820838 0 336.34265476820838 82.829048243940633 0 0 0 0 -253.33016879057686 437.74436735125346 0 437.74436735125346 -200.62944290205269 0 0 0 0 -379.37017777981237 427.72529612010658 0 427.72529612010658 -79.545592938735354 0 0 0 0 -147.62960263206332 172.88861417346016 0 172.88861417346016 12.005605193304291 0 0 0 0 -56.540563561371528 43.20010000946786 0 43.20010000946786 217.93102947238731 0 0 0 0 -164.66460280480533 261.42938466734631 0 261.42938466734631 367.80384822044289 0 0 0 0 -3.4191586508095497 -196.14521057820821 0 -196.14521057820821 615.78369043691964 0 0 0 0 0.14823066313692834 100.6228547566061 0 100.6228547566061 90.44277949044772 0 0 0 0 135.49707302139723 -108.09408919902853 0 -108.09408919902853 176.99577349752508 0 0 0 0 233.26143063406926 -109.64522762176603 0 -109.64522762176603 -169.73994291183772 0 0 0 0 -177.46930943113694 208.69772195173937 0 208.69772195173937 -36.951989961180516 0 0 0 0 -49.392952481110115 64.443618844416051 0 64.443618844416051 77.729293753367529 0 0 0 0 -109.87358518640394 60.500310402858304 0 60.500310402858304 112.62799888770678 0 0 0 0 -54.573333701002412 94.938385278390342 0 94.938385278390342 124.23607692962833 0 0 0 0 -60.378778149577556 -8.6092924755830609 0 -8.6092924755830609 132.77287536987069 0 0 0 0 -15.948708277588594 75.227646741279386 0 75.227646741279386 -65.896354541223218 0 0 0 0 28.694902658331557 39.587707039012457 0 39.587707039012457 20.94850685619258 0 0 0 0 30.95795256907121 36.587502084724221 0 36.587502084724221 13.019538939217981 0 0 0 0 -58.038993383233901 228.48329667755752 0 228.48329667755752 -36.479502060949017 0 0 0 0 -9.2311882669455372 36.933371028591864 0 36.933371028591864 47.862145574613351 0 0 0 0 10.374908164445401 13.172861002843774 0 13.172861002843774 -11.349364376813625 0 0 0 0 292.41132294511772 41.133250814489202 0 41.133250814489202 -66.594868932792451 0 0 0 0 96.361115419713315 -70.235570059763631 0 -70.235570059763631 190.81938310007536 0 0 0 0 208.17005071119638 -221.47433972344879 0 -221.47433972344879 -37.471673304407886 0 0 0 0 -114.91575157086481 252.29572851913872 0 252.29572851913872 232.34448070055805 0 0 0 0 245.22483335545985 172.1844252921619 0 172.1844252921619 10.693860939398292 0 0 0 0 162.24432253959822 171.47334508795393 0 171.47334508795393 115.2098181749443 0 0 0 0 221.94807456157287 128.53906502964492 0 128.53906502964492 -70.747581446408731 0 0 0 0 72.761155974571011 145.66739068652078 0 145.66739068652078 -34.440523609495358 0 0 0 0 -156.18549966788487 -239.0637196494954 0 -239.0637196494954 -145.69833409640705 0 0 0 0 68.808144212757753 42.055517402175994 0 42.055517402175994 -45.856781012787252 0 0 0 0 85.909154208260588 4.0381973575158554 0 4.0381973575158554 -44.976026079898475 0 0 0 0 -26.628567416475562 63.404990261818853 0 63.404990261818853 35.961744089064268 0 0 0 0 -36.672156207005401 50.555782747883725 0 50.555782747883725 6.867314758066378 0 0 0 0 -38.258594500912295 47.11106781746912 0 47.11106781746912 137.73503209109458 0 0 0 0 17.169318058188537 24.304719840332993 0 24.304719840332993 6.4778776631872788 0 0 0 0 -91.885430714071845 55.590607653845836 0 55.590607653845836 -60.701004566087249 0 0 0 0 -32.275898709543981 198.77826783737873 0 198.77826783737873 -113.29792527737118 0 0 0 0 -64.662166152171267 118.68699250685086 0 118.68699250685086 -24.976515737610498 0 0 0 0 -24.288999758437853 32.882696572842612 0 32.882696572842612 -11.316515566818481 0 0 0 0 -10.169448731282881 23.595236313025719 0 23.595236313025719 -31.484120097329914 0 0 0 0 158.49053250535644 248.50960091586194 0 248.50960091586194 111.23885840870571 0 0 0 0 -63.339770489831608 94.194514123777481 0 94.194514123777481 146.27650832580593 0 0 0 0 -201.56847075904898 146.02483385921005 0 146.02483385921005 11.897598818104598 0 0 0 0 23.90127774774237 20.607740549584378 0 20.607740549584378 -107.6402596247608 0 0 0 0 -23.364805037844235 9.0999364805211371 0 9.0999364805211371 106.81679774518489 0 0 0 0 -26.141844437777443 34.954084168081877 0 34.954084168081877 -39.157886359325389 0 0 0 0 -40.775860515397198 239.9433902195633 0 239.9433902195633 177.15136144917506 0 0 0 0 -0.73675564764744195 107.82195682670636 0 107.82195682670636 79.942024971910541 0 0 0 0 9.9736174961635697 33.314482946651424 0 33.314482946651424 26.188694618949739 0 0 0 0 9.8995672912096779 47.766416500407104 0 47.766416500407104 53.997371631122405 0 0 0 0 -5.9224663478389532 15.1081944462073 0 15.1081944462073 27.666030630823386 0 0 0 0 -721.58619123516519 -45.355335991720494 0 -45.355335991720494 115.83679309681975 0 0 0 0 160.42236897386738 197.48979291881915 0 197.48979291881915 137.54613507362774 0 0 0 0 95.513671217653609 162.88644692544585 0 162.88644692544585 133.26519593808916 0 0 0 0 9.7535440342774855 12.214366296815456 0 12.214366296815456 -22.195242812321698 0 0 0 0 -1061.5154772828973 -294.27079867656175 0 -294.27079867656175 -55.955241918276442 0 0 0 0 7.9909052618555307 5.8728218507864085 0 5.8728218507864085 -0.48403172114249315 0 0 0 0 369.0426276882481 316.28451098172536 0 316.28451098172536 124.87997506156535 0 0 0 0 2.1870020451234335 8.6995492360313555 0 8.6995492360313555 -5.2149194750595029 0 0 0 0 293.46898282995608 219.11790882919013 0 219.11790882919013 115.48000144049365 0 0 0 0 -956.02628363978511 309.02620464260144 0 309.02620464260144 -74.852433257216035 0 0 0 0 164.79924035438125 267.71757393617918 0 267.71757393617918 186.99177011540087 0 0 0 0 61.998391752554198 230.17447877368159 0 230.17447877368159 28.849763833917677 0 0 0 0 116.90711205717162 148.02513601889223 0 148.02513601889223 148.5397134774521 0 0 0 0 -72.929407420699135 171.96401190780125 0 171.96401190780125 191.82355634001124 0 0 0 0 -20.618903111298096 217.30685445380459 0 217.30685445380459 -48.559166771792661 0 0 0 0 37.43835601378305 171.57682441532597 0 171.57682441532597 189.05292957933034 0 0 0 0 -58.393971253230575 107.67815928484742 0 107.67815928484742 201.19369030768212 0 0 0 0 -116.26761848151273 71.223844024001664 0 71.223844024001664 189.33263794961385 0 0 0 0 92.691969308609259 92.054957527127044 0 92.054957527127044 104.25220695961616 0 0 0 0 -223.41627632149221 -133.26467191701249 0 -133.26467191701249 12.170041756391583 0 0 0 0 -568.95355678251394 -108.0938072105946 0 -108.0938072105946 290.23988737439322 0 0 0 0 83.527730963839531 441.92434470334592 0 441.92434470334592 400.86621275584048 0 0 0 0 -262.8777548367998 114.80906978629537 0 114.80906978629537 447.52231756338369 0 0 0 0 337.82409713451466 521.89320297835002 0 521.89320297835002 -301.90664336867485 0 0 0 0 796.89520171908657 581.21635291470966 0 581.21635291470966 -529.8585429340601 0 0 0 0 518.80616101548458 899.84453778992065 0 899.84453778992065 448.27762492952752 0 0 0 0 294.3445479108841 -24.9657027058729 0 -24.9657027058729 -206.90955419528336 0 0 0 0 8.0879886464133168 6.2791634208087572 0 6.2791634208087572 2.9755814182141123 0 0 0 0 -21.929049291645043 181.42544922146772 0 181.42544922146772 214.72087672264206 0 0 0 0 71.975476669166369 507.91376666704855 0 507.91376666704855 1982.8588185117515 0 0 0 0 49.825386873074422 107.41674191960465 0 107.41674191960465 691.88092952458101 0 0 0 0 339.00512354555303 643.57886311871698 0 643.57886311871698 747.73642166146692 0 0 0 0 699.12533246786006 246.85721622691926 0 246.85721622691926 1236.7287131140329 0 0 0 0 1056.7107026490835 1105.3768711069788 0 1105.3768711069788 666.04757049273394 0 0 0 0 0.34440488004471281 -0.24917278767508222 0 -0.24917278767508222 0.7228573531516389 0 0 0 0 15.685570755798835 31.518927787430584 0 31.518927787430584 -203.04236279753968 0 0 0 0 37.899186305670526 16.387451769828672 0 16.387451769828672 -0.50552207558847151 0 0 0 0 -10.965555548430114 14.085157860676475 0 14.085157860676475 -2.228100705081566 0 0 0 0 -21.773360228216006 145.71687393502771 0 145.71687393502771 62.575336486095694 0 0 0 0 66.913297567989503 105.47936429421043 0 105.47936429421043 66.349899976157758 0 0 0 0 160.23006304881528 40.043180053547985 0 40.043180053547985 -231.88875101126723 0 0 0 0 24.333606147633091 12.679032510809016 0 12.679032510809016 4.4951877104015168 0 0 0 0 72.904225581945866 164.4561819138089 0 164.4561819138089 472.9326125928792 0 0 0 0 102.22331117133945 393.65268453710087 0 393.65268453710087 442.91494300183115 0 0 0 0 7.9026922408756946 110.48064655252165 0 110.48064655252165 441.02260318084518 0 0 0 0 29.08768346576835 74.268231046819437 0 74.268231046819437 118.19133857163979 0 0 0 0 60.495023149491317 290.95247600248331 0 290.95247600248331 254.23533944411156 0 0 0 0 39.27848921747136 165.66145982773742 0 165.66145982773742 277.25335147151418 0 0 0 0 61.432798642290436 354.89753256617405 0 354.89753256617405 267.52034879581333 0 0 0 0 44.82270526863249 259.0781349529625 0 259.0781349529625 189.56516065423784 0 0 0 0 40.454679393573315 298.59063199985212 0 298.59063199985212 300.04174254374084 0 0 0 0 89.041119089186395 386.48194876548587 0 386.48194876548587 291.76153819409865 0 0 0 0 176.61480061976044 373.55554043087795 0 373.55554043087795 299.74562031241658 0 0 0 0 161.05410689838482 384.03477803711303 0 384.03477803711303 307.45904785529274 0 0 0 0 144.96412228827558 353.70591278919983 0 353.70591278919983 256.88200883938407 0 0 0 0 166.70001020608879 305.72723553259857 0 305.72723553259857 154.08902939572727 0 0 0 0 220.3958224044236 291.54172048361215 0 291.54172048361215 153.4673939056338 0 0 0 0 129.90090364787829 375.9880081405563 0 375.9880081405563 253.93338835106988 0 0 0 0 99.426975549849885 347.6219743914844 0 347.6219743914844 239.18859194270044 0 0 0 0 50.051338585486519 381.66586443934648 0 381.66586443934648 267.01719791889263 0 0 0 0 351.44303591184826 195.30211515611336 0 195.30211515611336 62.539536861344459 0 0 0 0 664.37934713965569 349.12406590558749 0 349.12406590558749 -47.260905731429375 0 0 0 0 393.2696058357667 231.69903978074217 0 231.69903978074217 77.716447866270755 0 0 0 0 176.36317138635241 135.93995161818748 0 135.93995161818748 42.616465358320056 0 0 0 0 285.78039479098152 410.84325065178564 0 410.84325065178564 239.93746262477362 0 0 0 0 54.764977721971263 11.018446459218467 0 11.018446459218467 -130.92066278985658 0 0 0 0 -355.11270664192591 -61.563722575156135 0 -61.563722575156135 108.64487803482189 0 0 0 0 -0.0061759139595740642 1.2837714536246914 0 1.2837714536246914 -5.071754768085853 0 0 0 0 -123.11287211875026 74.197933520231345 0 74.197933520231345 122.4868885567721 0 0 0 0 29.671055981252721 119.81344075072934 0 119.81344075072934 -14.206667756763636 0 0 0 0 -29.827922784122389 46.670223239161828 0 46.670223239161828 -54.745360572289556 0 0 0 0 -10.311813446070872 15.927468958099366 0 15.927468958099366 -11.771931472346637 0 0 0 0 94.279285885090758 136.24559251924256 0 136.24559251924256 69.70434468350868 0 0 0 0 134.25608143895079 179.28159296818922 0 179.28159296818922 33.412002829791163 0 0 0 0 38.023197754553621 61.16087755110857 0 61.16087755110857 -44.621966012968187 0 0 0 0 3.9940298807579975 40.497714897943766 0 40.497714897943766 -60.870936255871371 0 0 0 0 31.388892515849875 280.09611900969685 0 280.09611900969685 223.68177874643334 0 0 0 0 -16.473685024244332 217.63366686268637 0 217.63366686268637 252.42135748131841 0 0 0 0 47.255164749427422 309.38238684741373 0 309.38238684741373 277.31211922552029 0 0 0 0 83.948033552454945 195.51620343297327 0 195.51620343297327 89.108209978148807 0 0 0 0 119.35096457203417 268.0240646628863 0 268.0240646628863 160.78709357050684 0 0 0 0 50.371166426011769 173.54804600444913 0 173.54804600444913 78.14127680718957 0 0 0 0 55.642401867195076 164.46689201470872 0 164.46689201470872 82.181696028494116 0 0 0 0 70.966006566531178 130.95032621086648 0 130.95032621086648 9.2127684501319891 0 0 0 0 62.295841877229577 216.37743257991133 0 216.37743257991133 175.4710191260092 0 0 0 0 56.002972037997097 97.773577920450407 0 97.773577920450407 24.223027064508642 0 0 0 0 37.825233474664856 112.57728718832004 0 112.57728718832004 157.31821507087443 0 0 0 0 63.094202343411752 52.807095076299618 0 52.807095076299618 4.8657463744833862 0 0 0 0 90.218604814774153 295.46992236949609 0 295.46992236949609 -239.26026049590473 0 0 0 0 74.89767499840309 128.93561208022948 0 128.93561208022948 8.4430684052858851 0 0 0 0 27.449368691856307 123.94559266438409 0 123.94559266438409 -58.712720946023182 0 0 0 0 18.107267452692213 79.059189548012 0 79.059189548012 -2.9567153111493099 0 0 0 0 20.443551659938748 78.312662851357345 0 78.312662851357345 -90.375177453723154 0 0 0 0 28.021930845188528 47.972618708047563 0 47.972618708047563 -47.432613100788231 0 0 0 0 -6.287859051795607 59.037292460803307 0 59.037292460803307 -51.404653759823411 0 0 0 0 -92.022584176456803 171.0261283636487 0 171.0261283636487 -31.041001507719102 0 0 0 0 0.060383995553877412 45.478765246917675 0 45.478765246917675 -45.590747472553304 0 0 0 0 -936.70378637341514 -483.16849127247406 0 -483.16849127247406 -69.644785002997196 0 0 0 0 -41.935398407253125 58.169936387509523 0 58.169936387509523 -25.749001229092151 0 0 0 0 -16.534915144589775 65.971481020004546 0 65.971481020004546 -42.433970080610379 0 0 0 0 -15.41855651785113 55.305706830778036 0 55.305706830778036 6.500223237730097 0 0 0 0 0.45050698600167038 78.696966334511941 0 78.696966334511941 -40.250713657327729 0 0 0 0 -23.428200655752114 94.73615405274019 0 94.73615405274019 -96.254264716804656 0 0 0 0 -14.278058278665309 67.272415472503027 0 67.272415472503027 -14.722430594574561 0 0 0 0 37.482659608867834 51.265829190279874 0 51.265829190279874 -65.71117900399986 0 0 0 0 -46.617412052417265 59.591751931999667 0 59.591751931999667 -33.985021997035297 0 0 0 0 0.16292703282635301 13.62264958520557 0 13.62264958520557 -32.254081509093716 0 0 0 0 -313.6798092420795 602.4412406852698 0 602.4412406852698 509.56673940572273 0 0 0 0 66.001071147788025 142.00655308657588 0 142.00655308657588 -163.3027623001617 0 0 0 0 48.653385029749643 49.071230706997994 0 49.071230706997994 -108.54825475046528 0 0 0 0 21.414545030612771 94.068557577188585 0 94.068557577188585 10.608532964399274 0 0 0 0 -29.948393165215599 57.883608117024266 0 57.883608117024266 -18.193793522280838 0 0 0 0 23.575464701567398 117.35119540091546 0 117.35119540091546 -93.435360227616911 0 0 0 0 12.490670413627221 64.597928043659408 0 64.597928043659408 -63.574101974648975 0 0 0 0 30.581139960902874 117.1784777493732 0 117.1784777493732 -20.153953584311239 0 0 0 0 34.583701249524893 135.02603579974675 0 135.02603579974675 -97.940627310585114 0 0 0 0 -1.9361761405199545 68.899294164781253 0 68.899294164781253 -16.111951600343986 0 0 0 0 41.393623288247909 143.84602931349218 0 143.84602931349218 -86.550276553032745 0 0 0 0 33.488519517610257 135.10580088463757 0 135.10580088463757 -96.485937928402564 0 0 0 0 -5.4088221483977321 14.213645869127504 0 14.213645869127504 -36.123281773372227 0 0 0 0 8.9323001128359465 48.535459750099108 0 48.535459750099108 -209.32586176577024 0 0 0 0 33.149848480282657 80.712251850308434 0 80.712251850308434 -58.650397895222277 0 0 0 0 15.272648389000096 59.933007505278511 0 59.933007505278511 -8.7026681668394303 0 0 0 0 -39.355725007219007 79.723215642457944 0 79.723215642457944 -20.957492877772893 0 0 0 0 68.974953368194747 3.3694188818299153 0 3.3694188818299153 -141.46541725394491 0 0 0 0 -1.0949265305299036 62.479680632942774 0 62.479680632942774 9.9322657171251088 0 0 0 0 0.0056345470654903806 8.9566826626940461 0 8.9566826626940461 -19.805655964413639 0 0 0 0 -20.184616428341542 177.26890190220365 0 177.26890190220365 -153.25028311421829 0 0 0 0 21.957924226793693 60.841580581676681 0 60.841580581676681 -167.61359891602046 0 0 0 0 -16.736647551726904 36.406744900617326 0 36.406744900617326 11.015824667001468 0 0 0 0 -19.414195953027956 38.114559320445551 0 38.114559320445551 -146.07234957021865 0 0 0 0 114.02407543461595 93.84637823131925 0 93.84637823131925 -138.09858331877149 0 0 0 0 -60.961317314679945 88.358493521904165 0 88.358493521904165 -101.53108241845621 0 0 0 0 10.514060991401493 14.04409497485176 0 14.04409497485176 -137.38649647255215 0 0 0 0 -13.086386783194911 39.029792925112112 0 39.029792925112112 -7.1978335729964531 0 0 0 0 15.109012078683008 1.7913257122490904 0 1.7913257122490904 -175.94453351424454 0 0 0 0 -60.429603911674349 -36.145433924666577 0 -36.145433924666577 -157.90172932355199 0 0 0 0 -122.85297598053876 77.989417767479608 0 77.989417767479608 182.98611729333061 0 0 0 0 12.637298314388318 69.862485818193818 0 69.862485818193818 -143.62057456500406 0 0 0 0 -56.125960645331361 -95.111927539488534 0 -95.111927539488534 -298.36326701128564 0 0 0 0 33.820192123213928 83.104758708173904 0 83.104758708173904 -339.41336714947829 0 0 0 0 34.49518711091514 -3.9828905046124419 0 -3.9828905046124419 -188.24344774441852 0 0 0 0 173.99031284309967 66.720063477532676 0 66.720063477532676 -159.25596828900598 0 0 0 0 84.588403757748893 217.41378501024883 0 217.41378501024883 33.103086717928818 0 0 0 0 -18.326044395944137 70.360325519615543 0 70.360325519615543 -55.822263017034352 0 0 0 0 -13.813462273461482 66.540266104955663 0 66.540266104955663 -11.65742069400585 0 0 0 0 36.062276982037588 86.447258174718939 0 86.447258174718939 -68.666349225996782 0 0 0 0 -24.024675216439221 27.919503266162224 0 27.919503266162224 -66.059510466093343 0 0 0 0 8.6275035059793481 54.163687203756126 0 54.163687203756126 15.775027968154973 0 0 0 0 -31.922289569589338 101.32425697551935 0 101.32425697551935 22.943196523823644 0 0 0 0 48.940935017611991 147.93200671951854 0 147.93200671951854 31.628286333272627 0 0 0 0 -15.636666013857994 28.978937320084782 0 28.978937320084782 51.892957779813521 0 0 0 0 -449.89596471140885 139.91118223770718 0 139.91118223770718 326.45782914328811 0 0 0 0 -17.174821181929339 103.82123470238881 0 103.82123470238881 -84.66856242905024 0 0 0 0 -28.3093872304662 93.150296087977949 0 93.150296087977949 -18.277751108881603 0 0 0 0 -91.927942979879845 61.653465873459481 0 61.653465873459481 43.672253465304038 0 0 0 0 -39.117183145757664 85.474598405587344 0 85.474598405587344 -44.20631707596521 0 0 0 0 -175.4312040333607 376.14070020666259 0 376.14070020666259 282.31885477723335 0 0 0 0 -22.752158391758634 66.30413666389309 0 66.30413666389309 24.999473651001153 0 0 0 0 110.01232986384275 390.29469267875538 0 390.29469267875538 -120.83881334592297 0 0 0 0 101.6295419950311 123.05132948875507 0 123.05132948875507 425.06963486314635 0 0 0 0 -77.569387326846481 230.39574497249487 0 230.39574497249487 -286.79676890635892 0 0 0 0 -32.788625180686722 -57.098030907332941 0 -57.098030907332941 190.89777800040611 0 0 0 0 -156.21457252247274 351.60601742516155 0 351.60601742516155 175.08987511293344 0 0 0 0 39.185206445459698 377.99992726027085 0 377.99992726027085 156.25786220819282 0 0 0 0 -127.99294747273598 74.557026987979043 0 74.557026987979043 -102.16145392430917 0 0 0 0 62.309349538441893 155.8883194368027 0 155.8883194368027 -787.53680392635579 0 0 0 0 -64.987724143689775 124.010778606862 0 124.010778606862 -793.53735829224024 0 0 0 0 -45.650449111773995 21.2767413727763 0 21.2767413727763 -4.5037956237955594 0 0 0 0 -126.1083114213252 -113.13795160070003 0 -113.13795160070003 -356.12926416566188 0 0 0 0 -165.20144337717647 152.63852944417886 0 152.63852944417886 -383.7905816694838 0 0 0 0 -114.15755919294315 297.65047053475428 0 297.65047053475428 -245.43147266353481 0 0 0 0 -282.51281189540896 317.05066246954084 0 317.05066246954084 -370.89863834410789 0 0 0 0 -330.59207091783173 206.766342419578 0 206.766342419578 -124.6790349308003 0 0 0 0 -165.39253452394769 308.69487146612664 0 308.69487146612664 -757.91881935243146 0 0 0 0 -54.892513607468572 -207.76111740175111 0 -207.76111740175111 -1027.181514793454 0 0 0 0 -15.141329416247814 3.3891952302126214 0 3.3891952302126214 10.644044485584374 0 0 0 0 -254.86054010926455 -85.034409283944115 0 -85.034409283944115 -340.97087034676588 0 0 0 0 -272.15357126935851 -49.095077064819634 0 -49.095077064819634 14.479286684349063 0 0 0 0 -82.494744250798249 -100.98591945799853 0 -100.98591945799853 -672.92808099460672 0 0 0 0 -0.23973730394415327 14.522631762501973 0 14.522631762501973 -8.5987986591794741 0 0 0 0 -74.211092197720973 22.735230282598877 0 22.735230282598877 -110.18241496812698 0 0 0 0 -31.345787723830618 44.877253772258982 0 44.877253772258982 -40.147195178793609 0 0 0 0 -59.895072967250599 23.661528307646222 0 23.661528307646222 7.4078649807488546 0 0 0 0 -73.572966436291608 40.315095441043013 0 40.315095441043013 35.045455962856067 0 0 0 0 -20.704765880291234 69.959135515811795 0 69.959135515811795 14.311107651064958 0 0 0 0 -42.853082145142253 44.728419699400547 0 44.728419699400547 -11.021839564818947 0 0 0 0 43.71596390697232 90.341098636337847 0 90.341098636337847 13.685276736519882 0 0 0 0 -13.332660004556601 91.01610077811165 0 91.01610077811165 32.463430614854587 0 0 0 0 -19.765087649568159 58.735592385586642 0 58.735592385586642 43.898032994009554 0 0 0 0 0.98431326769241423 117.2504920362062 0 117.2504920362062 49.836804769744049 0 0 0 0 -148.32781829779196 281.18355660470843 0 281.18355660470843 -366.52949132485446 0 0 0 0 -31.262260066828659 16.478237521593627 0 16.478237521593627 -0.57283584892286377 0 0 0 0 53.948145004356775 255.72812008479559 0 255.72812008479559 -933.42501961612345 0 0 0 0 51.29051188849553 243.80211024897289 0 243.80211024897289 364.16629504890705 0 0 0 0 100.22528536915888 332.00211928385397 0 332.00211928385397 91.989388922618673 0 0 0 0 -162.79603661048168 365.30439046360334 0 365.30439046360334 1025.2610076160095 0 0 0 0 145.1950128630433 270.35713109474091 0 270.35713109474091 408.68652794595255 0 0 0 0 78.35362459973112 206.85537374564956 0 206.85537374564956 -1287.9823561854043 0 0 0 0 -20.352810652175179 11.034756124244879 0 11.034756124244879 -0.59395479769715154 0 0 0 0 -114.04085886319081 108.86160323129479 0 108.86160323129479 -293.08228202029568 0 0 0 0 -232.81923535294845 210.77559129984002 0 210.77559129984002 -262.77414960676106 0 0 0 0 53.385977040905345 194.7882039451415 0 194.7882039451415 -261.89511235821442 0 0 0 0 -104.97714778723639 415.9105372008089 0 415.9105372008089 472.07513348739303 0 0 0 0 116.89591905866109 233.13841339766077 0 233.13841339766077 -320.30470148775112 0 0 0 0 -30.610072559989931 515.1702912789624 0 515.1702912789624 251.92321375376196 0 0 0 0 -18.768439361708701 102.9144453035847 0 102.9144453035847 -79.660199178880816 0 0 0 0 32.796253431141054 141.09899669431957 0 141.09899669431957 -263.93879779014242 0 0 0 0 -142.37211019625698 72.302527043503744 0 72.302527043503744 -234.07023233832297 0 0 0 0 26.099436935859558 364.09066380029981 0 364.09066380029981 -44.373935379306204 0 0 0 0 208.14555217261477 82.721798100625165 0 82.721798100625165 -35.111634839437102 0 0 0 0 -0.92947112946603738 26.63542522006901 0 26.63542522006901 -168.75069831439032 0 0 0 0 -46.772063587977946 39.795681506383332 0 39.795681506383332 -17.273056793252735 0 0 0 0 213.20367817360966 262.51803427975392 0 262.51803427975392 92.695959257471259 0 0 0 0 48.469595766582643 56.305195821129018 0 56.305195821129018 -172.68442141626474 0 0 0 0 -226.67280835073871 510.53652800308919 0 510.53652800308919 299.80228793794231 0 0 0 0 236.56345971552173 223.40249199153141 0 223.40249199153141 -312.73467956521927 0 0 0 0 129.73181109174766 -59.693882307092281 0 -59.693882307092281 -269.6573503147165 0 0 0 0 -299.34625950820009 221.97303139844735 0 221.97303139844735 687.55272837200027 0 0 0 0 -613.02799416299604 -31.417043731489684 0 -31.417043731489684 1706.7243375520086 0 0 0 0 -7.7199241838983994 1.9491035769733429 0 1.9491035769733429 -0.14374346034124108 0 0 0 0 -68.304061291273683 421.68925417431274 0 421.68925417431274 -1829.3043961804369 0 0 0 0 -274.98803115275268 146.58356024873433 0 146.58356024873433 387.06804187766829 0 0 0 0 -209.05112877098509 -112.22327349908664 0 -112.22327349908664 95.778498791656602 0 0 0 0 -416.51273819798644 26.033588118903026 0 26.033588118903026 -35.716538733751804 0 0 0 0 -114.23986243581021 203.69335450869039 0 203.69335450869039 -264.33804090627382 0 0 0 0 -617.34055771108615 462.17040642043685 0 462.17040642043685 -52.041422988688282 0 0 0 0 307.86298189442823 116.13014175554781 0 116.13014175554781 -64.601925754164768 0 0 0 0 -25.371956628012413 -226.15897843215498 0 -226.15897843215498 296.24046629444729 0 0 0 0 292.04660234679341 -162.11374000819524 0 -162.11374000819524 8.3086464616026205 0 0 0 0 -173.6818411876111 85.207625096024003 0 85.207625096024003 358.82560266984365 0 0 0 0 31.457886201280417 133.03567922313528 0 133.03567922313528 57.940984116352411 0 0 0 0 41.601844008394252 66.061632678750314 0 66.061632678750314 90.058149557211735 0 0 0 0 -78.05337746240366 195.84020939528637 0 195.84020939528637 307.5174462467221 0 0 0 0 219.68913177060131 78.829881301449859 0 78.829881301449859 -64.485506728735345 0 0 0 0 -13.454970013217117 5.7501348923320279 0 5.7501348923320279 20.79804947651909 0 0 0 0 372.40173269924662 -210.50507371274603 0 -210.50507371274603 68.33118357334024 0 0 0 0 -65.08642694644368 130.67622986371498 0 130.67622986371498 54.155013239946129 0 0 0 0 -49.613710113109846 85.285782973470305 0 85.285782973470305 9.284137111642849 0 0 0 0 -17.175868836200607 112.30883971169078 0 112.30883971169078 49.429162167502 0 0 0 0 43.745134758984932 89.098888273853845 0 89.098888273853845 60.6026050960063 0 0 0 0 31.68635481015378 73.790445756499437 0 73.790445756499437 68.998792444766693 0 0 0 0 26.732263806777759 88.371777261924791 0 88.371777261924791 -71.809141373643655 0 0 0 0 17.804284219350848 89.351194020065122 0 89.351194020065122 264.53373269432268 0 0 0 0 162.55538788999547 251.93704541072839 0 251.93704541072839 22.324400957297257 0 0 0 0 17.969816202479706 70.039341319334198 0 70.039341319334198 224.26849010206706 0 0 0 0 -141.23249308019604 0.77264876126719173 0 0.77264876126719173 241.91194321204239 0 0 0 0 -80.095136166478369 337.73435108526928 0 337.73435108526928 500.69139649112185 0 0 0 0 3.9741313968341387 92.881544691140334 0 92.881544691140334 -76.314973368740212 0 0 0 0 134.64620292226209 264.03675201911028 0 264.03675201911028 23.942896158059739 0 0 0 0 159.52735768113462 260.5421143097617 0 260.5421143097617 20.614261544144028 0 0 0 0 116.78371695241731 266.93325894456575 0 266.93325894456575 35.442110704250808 0 0 0 0 168.71102841671382 300.60466026005088 0 300.60466026005088 44.97518763706762 0 0 0 0 65.919482731245807 191.33439596126664 0 191.33439596126664 -2.9958013732175459 0 0 0 0 96.715989561853348 251.50274355982492 0 251.50274355982492 113.44625546901807 0 0 0 0 100.88985290800338 269.11187723942749 0 269.11187723942749 45.97478949212325 0 0 0 0 157.28943009969225 363.98754276478394 0 363.98754276478394 203.35322935827935 0 0 0 0 270.14244481756759 342.46909113015499 0 342.46909113015499 14.007909828218544 0 0 0 0 180.38014526152983 282.38675425707879 0 282.38675425707879 5.5035533047266654 0 0 0 0 227.24009379185736 326.42401799140134 0 326.42401799140134 30.77979328731999 0 0 0 0 183.02114232366876 292.77627301757093 0 292.77627301757093 -13.249779974456033 0 0 0 0 195.46447648887988 208.34086164482505 0 208.34086164482505 -12.066742851711751 0 0 0 0 190.05781572253181 286.73296797583316 0 286.73296797583316 -27.029025290084974 0 0 0 0 184.52908096959072 281.23691730896826 0 281.23691730896826 -14.094489770963264 0 0 0 0 -41.084937140542024 227.6448009335727 0 227.6448009335727 -2.6926182369570597 0 0 0 0 16.629741717108779 39.78540161572402 0 39.78540161572402 -34.297612574055165 0 0 0 0 153.04773286837735 187.87385992835516 0 187.87385992835516 -65.860433913483575 0 0 0 0 275.89941476019885 251.69581293415104 0 251.69581293415104 -37.82230553910631 0 0 0 0 204.70638913527364 278.54495891170882 0 278.54495891170882 10.372344810035429 0 0 0 0 259.59488854330266 299.06944155778183 0 299.06944155778183 1.3417302563120757 0 0 0 0 254.48585160225048 49.996753041859847 0 49.996753041859847 -148.40537796872377 0 0 0 0 354.14080579367874 214.50526232187258 0 214.50526232187258 -40.420376014371868 0 0 0 0 189.13423524819882 126.82947952550239 0 126.82947952550239 -81.781604479816451 0 0 0 0 217.45230541121055 88.776086206321452 0 88.776086206321452 -97.680314873745374 0 0 0 0 -77.772583073361602 35.937204231689975 0 35.937204231689975 -12.542340644522483 0 0 0 0 44.431521124348365 -87.534476035855732 0 -87.534476035855732 -147.5474332317317 0 0 0 0 185.5883395037381 101.98545904783168 0 101.98545904783168 -79.803506231230131 0 0 0 0 3.9046521426644176 3.1260752889029391 0 3.1260752889029391 -120.52328671349096 0 0 0 0 64.357005043591926 92.578391333249783 0 92.578391333249783 -70.119072449135274 0 0 0 0 15.308435866878426 108.87796198723481 0 108.87796198723481 -49.997701850787053 0 0 0 0 -42.041244025367121 71.262576128382335 0 71.262576128382335 -28.866993898941168 0 0 0 0 -534.6249785531636 -133.45791278627257 0 -133.45791278627257 95.662856547221963 0 0 0 0 -221.96736735587183 286.43936068257426 0 286.43936068257426 44.840688088430284 0 0 0 0 -117.47176149550796 210.06668111939052 0 210.06668111939052 105.44063980210922 0 0 0 0 -277.83612865686428 405.92109614848823 0 405.92109614848823 631.547857849313 0 0 0 0 -73.014823982017333 105.09382029694643 0 105.09382029694643 263.37447243522911 0 0 0 0 -10.34062927991485 100.45923404672891 0 100.45923404672891 -79.296932385912214 0 0 0 0 -4.0522820303376648 331.90479904662243 0 331.90479904662243 525.19022045623751 0 0 0 0 97.145083799241547 265.12405766936354 0 265.12405766936354 132.07642577012666 0 0 0 0 122.34447439160431 430.26692304485732 0 430.26692304485732 213.00191071906193 0 0 0 0 43.831195553551879 426.84227267855522 0 426.84227267855522 94.729037931061612 0 0 0 0 -24.051432447871775 185.2768413384274 0 185.2768413384274 91.479101012567781 0 0 0 0 139.53007255677585 323.98963134229962 0 323.98963134229962 -49.834099310206511 0 0 0 0 58.897386754659237 210.35595936044956 0 210.35595936044956 -43.813261575811907 0 0 0 0 112.30807547254994 221.3913729438425 0 221.3913729438425 -68.944996552207158 0 0 0 0 51.096647519705584 134.91305194513188 0 134.91305194513188 -47.265196978313725 0 0 0 0 -13.222808292335685 105.26399011811554 0 105.26399011811554 -139.56448293657468 0 0 0 0 79.85147926787613 221.39213007052331 0 221.39213007052331 -220.27191189004225 0 0 0 0 -135.28395386789362 250.49856499998168 0 250.49856499998168 -276.19679689637269 0 0 0 0 -174.31329543693937 148.53449978109347 0 148.53449978109347 -286.83907812847428 0 0 0 0 -576.88284098301301 230.2884008550518 0 230.2884008550518 -117.95345531961357 0 0 0 0 -176.3409962969688 233.70333890950894 0 233.70333890950894 -205.93181304101017 0 0 0 0 -186.52995832143279 324.70986767839713 0 324.70986767839713 -27.473108509755548 0 0 0 0 -560.91711700243832 117.12713030169289 0 117.12713030169289 34.350585758592501 0 0 0 0 -647.5977749536687 252.94910246181007 0 252.94910246181007 -162.65560270328933 0 0 0 0 -1094.1650802570093 69.49487485212012 0 69.49487485212012 -81.3806164793059 0 0 0 0 -810.20718276249681 -24.474398901093082 0 -24.474398901093082 -243.28638145947116 0 0 0 0 -564.16578469223532 210.81386305536398 0 210.81386305536398 -167.76958677289076 0 0 0 0 -977.82124444106012 128.54637599912348 0 128.54637599912348 -126.79734257513383 0 0 0 0 -638.25417553212719 431.18467389714442 0 431.18467389714442 -326.35719568182685 0 0 0 0 -951.19450600030905 62.006622777589655 0 62.006622777589655 -99.128907780247573 0 0 0 0 -431.90345034170514 499.4516140965593 0 499.4516140965593 -575.80866726755266 0 0 0 0 -2144.2844158267726 488.867145978189 0 488.867145978189 -23.123509648808977 0 0 0 0 8.2332613937687711 -23.756416672149498 0 -23.756416672149498 -112.25812177280682 0 0 0 0 -514.4391326109544 228.98364213666196 0 228.98364213666196 -18.662478232545254 0 0 0 0 -1.0645318673597997 1.3345670056136356 0 1.3345670056136356 1.7616488270592043 0 0 0 0 12.937526942396289 14.211954410497128 0 14.211954410497128 -10.240450758165025 0 0 0 0 -0.68322027552609121 -2.6361958263052045 0 -2.6361958263052045 0.62922695166626141 0 0 0 0 -210.50991148608045 185.02214964678296 0 185.02214964678296 -439.22568532755031 0 0 0 0 45.143987597667092 -38.460781229284748 0 -38.460781229284748 -158.59801736455483 0 0 0 0 -2.3110139543387049 5.7674252277711275 0 5.7674252277711275 -12.857108597407205 0 0 0 0 50.322278430809092 153.34042464001413 0 153.34042464001413 -119.46168072960063 0 0 0 0 19.129230184127664 11.198472223260978 0 11.198472223260978 -114.31895068966486 0 0 0 0 31.642749035851011 60.932037487891648 0 60.932037487891648 5.0246286710844288 0 0 0 0 81.081429057183414 175.94155748093726 0 175.94155748093726 8.8745440145285102 0 0 0 0 20.012312522441789 72.529673202977392 0 72.529673202977392 -4.5276732517231721 0 0 0 0 6.3734548390675627 6.8860612590624442 0 6.8860612590624442 -6.2017821572371759 0 0 0 0 17.492690133885844 27.984552315841938 0 27.984552315841938 28.893550023261923 0 0 0 0 3.7353683994842868 16.989922786686293 0 16.989922786686293 -9.6338443422191631 0 0 0 0 -5.3383319476160978 11.042352472992206 0 11.042352472992206 -3.4588354499946945 0 0 0 0 7.6562730618352361 6.8681195331128038 0 6.8681195331128038 -4.7183735350370171 0 0 0 0 5.0133256723329396 11.182498161540934 0 11.182498161540934 -11.167485894147831 0 0 0 0 2.1534155489007389 22.402623084424704 0 22.402623084424704 42.621062780257489 0 0 0 0 10.970015941067814 16.450194260881428 0 16.450194260881428 -4.1505750787957432 0 0 0 0 16.897280106301722 18.961909207175594 0 18.961909207175594 2.397785824365112 0 0 0 0 14.506687738916298 9.0117742432294108 0 9.0117742432294108 -28.306179228469773 0 0 0 0 4.3228916917250899 34.176156202281618 0 34.176156202281618 28.225432161676508 0 0 0 0 22.432973655284513 15.654617468176184 0 15.654617468176184 13.70203201356162 0 0 0 0 -0.41577938643597001 16.585170431149606 0 16.585170431149606 21.344374644967829 0 0 0 0 16.29718890096774 22.981109843154627 0 22.981109843154627 21.065728438752558 0 0 0 0 -46.019775247157668 2.6181429152038618 0 2.6181429152038618 -10.169415756482522 0 0 0 0 -109.76486888683758 11.690254389875008 0 11.690254389875008 43.866442354137689 0 0 0 0 -84.138968737575851 16.675891633663014 0 16.675891633663014 37.890725152086816 0 0 0 0 -252.73567611918679 89.605646446992978 0 89.605646446992978 50.675918334249218 0 0 0 0 -17.186753225174691 10.352894745588443 0 10.352894745588443 3.8689175883218025 0 0 0 0 1110.8276169461387 -486.42506100188075 0 -486.42506100188075 -813.13301588103332 0 0 0 0 15.274752106305499 14.7472689808545 0 14.7472689808545 12.505959027764717 0 0 0 0 499.40673610050726 134.45366169695626 0 134.45366169695626 -152.95112850039459 0 0 0 0 3.5504771105916006 37.100692895815882 0 37.100692895815882 -21.899090883805911 0 0 0 0 6.3302119308813189 11.981210578413545 0 11.981210578413545 8.8477710484896264 0 0 0 0 -901.5312703801319 -77.48366694260767 0 -77.48366694260767 1939.6528739939349 0 0 0 0 -935.06049020487262 -190.47674279108196 0 -190.47674279108196 1630.3770346845195 0 0 0 0 62.014592972147511 -126.36181284051963 0 -126.36181284051963 -206.82474206086772 0 0 0 0 -594.89461190998554 319.3838040740884 0 319.3838040740884 -280.90844102845585 0 0 0 0 -5.551254068895318 5.3589792819463256 0 5.3589792819463256 4.8624225574779345 0 0 0 0 323.98300225621279 57.192927275149486 0 57.192927275149486 -136.29532101237419 0 0 0 0 323.10619663038233 58.944737445843202 0 58.944737445843202 -120.9714192659967 0 0 0 0 700.6200994068131 298.04179110114637 0 298.04179110114637 -87.683430014069017 0 0 0 0 827.04056562168262 506.93065898146415 0 506.93065898146415 8.2565150669491914 0 0 0 0 419.30639419401996 250.8003704839648 0 250.8003704839648 -11.083100006839686 0 0 0 0 427.05434273209721 215.1897116475684 0 215.1897116475684 -96.572563317626191 0 0 0 0 483.19036027423863 173.62896363752589 0 173.62896363752589 -120.14859170922136 0 0 0 0 408.65858679199619 427.82988106531218 0 427.82988106531218 111.13641631063001 0 0 0 0 298.09677418461797 427.65520024334 0 427.65520024334 118.02430313826699 0 0 0 0 632.10192547838233 834.99034403003498 0 834.99034403003498 603.93699414707953 0 0 0 0 48.1290383665837 521.54614588769982 0 521.54614588769982 1155.5440089973254 0 0 0 0 1401.8973448700272 841.63156219655775 0 841.63156219655775 -649.71676372999627 0 0 0 0 -179.27406187602901 -136.21084106428225 0 -136.21084106428225 792.00070349763519 0 0 0 0 37.360641724761933 33.934612595571231 0 33.934612595571231 25.562051201433533 0 0 0 0 -124.26119534555619 -323.72104845555441 0 -323.72104845555441 187.79180597205232 0 0 0 0 -107.09867516065606 11.368609466708222 0 11.368609466708222 260.37003463208748 0 0 0 0 -62.923817588962265 108.98140376721312 0 108.98140376721312 475.48126358989248 0 0 0 0 156.32303504855008 483.41053597777409 0 483.41053597777409 561.75502385434811 0 0 0 0 -140.92347430505833 154.86223880656235 0 154.86223880656235 459.14659069969639 0 0 0 0 22.659229706190672 263.90981847823332 0 263.90981847823332 204.41679772844873 0 0 0 0 38.397725309645466 227.67501020780946 0 227.67501020780946 276.72868596413036 0 0 0 0 -4.465353096191393 140.81990876472628 0 140.81990876472628 101.10528214768419 0 0 0 0 37.025138887744106 115.21465762874323 0 115.21465762874323 96.285233271817106 0 0 0 0 14.754129491084313 -26.721570379582772 0 -26.721570379582772 -0.71244139999089384 0 0 0 0 -1.3274040640026215 14.166805862510955 0 14.166805862510955 76.352403465402404 0 0 0 0 0.41559237409819616 17.327546672870085 0 17.327546672870085 82.061240582068422 0 0 0 0 9.3475548655187595 -24.862611730686695 0 -24.862611730686695 82.572964559297048 0 0 0 0 58.34137755413758 10.614311000303132 0 10.614311000303132 -34.890348491492659 0 0 0 0 20.060142313578908 21.342337020909262 0 21.342337020909262 15.937583589811993 0 0 0 0 -143.79189285728353 562.04552346032506 0 562.04552346032506 -582.61313368423066 0 0 0 0 2.655486419482429 15.918789435549321 0 15.918789435549321 9.9063870420296176 0 0 0 0 -52.17218442713056 446.3879875336952 0 446.3879875336952 -1299.8719702081435 0 0 0 0 -554.74694575855392 343.38976434740653 0 343.38976434740653 -282.71605946337149 0 0 0 0 -310.3732931147315 -43.238106869084731 0 -43.238106869084731 -443.41443689559446 0 0 0 0 -686.73986028649961 548.75873259374021 0 548.75873259374021 -279.87178406458315 0 0 0 0 41.696582388845854 39.049161503080711 0 39.049161503080711 27.31295298480142 0 0 0 0 37.780637390983429 74.523223973276117 0 74.523223973276117 -232.68169877588662 0 0 0 0 -595.20349702514795 534.96124683382004 0 534.96124683382004 -548.67278769715631 0 0 0 0 71.559523014348088 -165.74588709398813 0 -165.74588709398813 -204.77051231663609 0 0 0 0 -422.79979821392044 83.86079091956708 0 83.86079091956708 -276.10923325738986 0 0 0 0 81.358848517338629 1388.7673326265249 0 1388.7673326265249 -938.41411238020737 0 0 0 0 -136.16201580195047 484.61598253976263 0 484.61598253976263 -922.51777455551951 0 0 0 0 -275.87289099083137 113.21875774083037 0 113.21875774083037 -38.309510776736715 0 0 0 0 -105.39899410188082 -70.195593383523374 0 -70.195593383523374 -245.30028857522484 0 0 0 0 29.824955508585845 146.48844636982358 0 146.48844636982358 72.95834360873414 0 0 0 0 -5.4751690541306743 225.10468252034116 0 225.10468252034116 -393.80379163578618 0 0 0 0 67.584460825857605 -3.6539488346547842 0 -3.6539488346547842 -276.27107256853924 0 0 0 0 458.28103962434398 -20.996339394179813 0 -20.996339394179813 -328.49391269593616 0 0 0 0 718.60075415088431 408.85161641406376 0 408.85161641406376 -67.645646138917073 0 0 0 0 906.33982275277958 776.09937517255457 0 776.09937517255457 -802.51405508796051 0 0 0 0 1489.3520316050272 1227.1340104113769 0 1227.1340104113769 -458.23716687969863 0 0 0 0 -77.160558714884246 1415.8496739561024 0 1415.8496739561024 13.152818608185044 0 0 0 0 590.9692938694061 -743.79725499729102 0 -743.79725499729102 445.63673586504592 0 0 0 0 -235.36133074541431 648.52675043975159 0 648.52675043975159 830.10139804371283 0 0 0 0 1.33461212832934 -0.42711463846284659 0 -0.42711463846284659 -1.8955589962331061 0 0 0 0 473.02862865840871 353.42705872837905 0 353.42705872837905 210.86323936456063 0 0 0 0 75.703852213816162 131.21063677650761 0 131.21063677650761 213.49467114727304 0 0 0 0 308.69406377046835 287.0625845791219 0 287.0625845791219 202.28413836236541 0 0 0 0 -182.4452018950833 -84.237831338718024 0 -84.237831338718024 -33.538723574834876 0 0 0 0 70.815593279461723 -59.947445208637617 0 -59.947445208637617 -4.6202341191965388 0 0 0 0 -114.84933218442166 27.03689130035491 0 27.03689130035491 148.78978551070759 0 0 0 0 -150.99795012381946 99.137259057244592 0 99.137259057244592 146.51822329073255 0 0 0 0 -128.67242992365937 56.26838725100788 0 56.26838725100788 87.839559313284553 0 0 0 0 117.52941527072835 248.76391197352859 0 248.76391197352859 235.70347655492878 0 0 0 0 -269.01223559922073 29.510861105092772 0 29.510861105092772 363.17307547524979 0 0 0 0 51.217976553096378 -55.462868053542479 0 -55.462868053542479 -165.85893457746897 0 0 0 0 -14.396088090426929 278.68336603436728 0 278.68336603436728 -567.04727767566135 0 0 0 0 64.229859451905043 645.96531680576936 0 645.96531680576936 98.796184432121663 0 0 0 0 -0.71282655324026223 5.5216301705920046 0 5.5216301705920046 4.182241950607235 0 0 0 0 -250.45283721351007 101.7337332164625 0 101.7337332164625 202.86313156334995 0 0 0 0 170.65774626479651 26.931048066794347 0 26.931048066794347 -4.2943178554851329 0 0 0 0 -3.9182461177629193 5.9102715110551856 0 5.9102715110551856 -4.6415301543016909 0 0 0 0 36.821478553339148 8.0072264072541657 0 8.0072264072541657 5.7801650936107762 0 0 0 0 -12.713756214106979 -115.28796891669754 0 -115.28796891669754 -62.553217359096379 0 0 0 0 136.38649631092994 14.357387784514685 0 14.357387784514685 -79.781994548422631 0 0 0 0 -128.31025681443134 -48.955136160121583 0 -48.955136160121583 207.02839101685458 0 0 0 0 -2.836161554976627 1.9563781341380491 0 1.9563781341380491 -0.76495922349027978 0 0 0 0 -54.691951365261048 63.263037111507401 0 63.263037111507401 22.788748040045448 0 0 0 0 65.442962927027111 70.817165079089591 0 70.817165079089591 13.421796138592981 0 0 0 0 -82.774628285591461 4.1417729025533845 0 4.1417729025533845 41.070179931533858 0 0 0 0 -177.03389422394685 -0.13522884086160047 0 -0.13522884086160047 43.612118596021219 0 0 0 0 -136.92916568885266 41.010685387134345 0 41.010685387134345 47.330728259872558 0 0 0 0 -345.50426024746412 -85.975049857895556 0 -85.975049857895556 37.925514980319349 0 0 0 0 0.48747897012020758 15.869276265799115 0 15.869276265799115 19.769581459229116 0 0 0 0 -249.39649351969274 207.09205427675806 0 207.09205427675806 -170.17721264896682 0 0 0 0 -124.34422208841715 195.43421213165129 0 195.43421213165129 -173.16438375421603 0 0 0 0 -183.43866403584798 176.51802098223288 0 176.51802098223288 -54.502132914765525 0 0 0 0 5.605145162624753 7.8604610549608722 0 7.8604610549608722 -1.7166245443391617 0 0 0 0 -159.64234780095285 115.33766901939453 0 115.33766901939453 -37.847127211383395 0 0 0 0 -169.56519189396568 1.2184109123563758 0 1.2184109123563758 43.460590477305232 0 0 0 0 7.5279458865577089 16.129081190213995 0 16.129081190213995 10.867235836393739 0 0 0 0 -66.997663388507135 37.85498895796627 0 37.85498895796627 13.709171571466868 0 0 0 0 4.0662044453347335 13.770972880444788 0 13.770972880444788 15.36532437609003 0 0 0 0 -1.0717651752324855 26.28369459301291 0 26.28369459301291 1.6588833584119129 0 0 0 0 10.734435179923068 19.131206148483187 0 19.131206148483187 19.416098800715321 0 0 0 0 -239.91071611508596 370.34788808308804 0 370.34788808308804 -386.39160235145391 0 0 0 0 2.356129566400341 36.787324520050788 0 36.787324520050788 4.3978224672669057 0 0 0 0 -253.65198228191366 195.00699860939221 0 195.00699860939221 28.08770664851545 0 0 0 0 -286.56610538485074 366.74416965341766 0 366.74416965341766 -184.11142592730539 0 0 0 0 -188.03667719565419 177.78181486622816 0 177.78181486622816 -180.3618989271381 0 0 0 0 10.970090638307738 275.79375442184391 0 275.79375442184391 -268.23295351177512 0 0 0 0 -0.39947634540754962 0.83040230375558366 0 0.83040230375558366 1.4276522558456506 0 0 0 0 -255.79415386214896 231.46242363537931 0 231.46242363537931 -195.65626450892569 0 0 0 0 -191.26321034990178 271.33425075175728 0 271.33425075175728 -207.42845390785442 0 0 0 0 -254.65842220595368 230.35796279918304 0 230.35796279918304 -227.11534804584426 0 0 0 0 25.20087236738982 84.081397008906606 0 84.081397008906606 -147.76971690552637 0 0 0 0 -7.7736931274291976 7.7799332225640754 0 7.7799332225640754 11.510682289802446 0 0 0 0 39.902206093207496 70.438909778947163 0 70.438909778947163 291.39450272138856 0 0 0 0 -61.563060154494451 209.16360696083552 0 209.16360696083552 139.19193033924239 0 0 0 0 143.78029078365944 -42.442604706853672 0 -42.442604706853672 -56.40150901818015 0 0 0 0 137.2558233892596 57.891357803675419 0 57.891357803675419 198.93214165072231 0 0 0 0 -222.61319406663097 291.21897689728303 0 291.21897689728303 -358.38934543908545 0 0 0 0 -340.86896571709804 479.89772344382436 0 479.89772344382436 -356.62074776855115 0 0 0 0 -3.8272141429770556 8.2966729283499134 0 8.2966729283499134 11.783366016148015 0 0 0 0 -317.79528348568419 271.69458972815482 0 271.69458972815482 -137.8152539473449 0 0 0 0 -139.30785041524814 131.77916735487133 0 131.77916735487133 -45.116221625461549 0 0 0 0 17.777022096028908 20.69045324871643 0 20.69045324871643 15.004922480338884 0 0 0 0 -1.3681298514911759 77.532292428463165 0 77.532292428463165 -101.81433862866106 0 0 0 0 -36.639930517554603 189.10300790034398 0 189.10300790034398 -245.36152178376324 0 0 0 0 -399.9275913546071 197.73663160714852 0 197.73663160714852 -183.41646404488347 0 0 0 0 -138.76017340900034 587.87467814611 0 587.87467814611 -669.86860225618511 0 0 0 0 -3.3601363807346658 4.9618207922558355 0 4.9618207922558355 7.7944083118842435 0 0 0 0 -204.6409995358772 123.77671421525156 0 123.77671421525156 1541.1367993443419 0 0 0 0 -161.86152826151738 760.94310952879823 0 760.94310952879823 762.23102670532808 0 0 0 0 -19.750804846662504 147.59656310322862 0 147.59656310322862 -84.810710470575941 0 0 0 0 642.99876860393306 1021.4456784248719 0 1021.4456784248719 891.75364401986326 0 0 0 0 10.438722900897119 412.93754093819098 0 412.93754093819098 1360.3174056531761 0 0 0 0 698.53431316632395 1002.0486356624822 0 1002.0486356624822 541.93127829331934 0 0 0 0 6.3794793726136874 7.3922186932642475 0 7.3922186932642475 7.3849823410600877 0 0 0 0 117.83546941347231 15.360876638388618 0 15.360876638388618 -124.70755162172622 0 0 0 0 559.88562840118243 503.9780278621655 0 503.9780278621655 -263.69185164355622 0 0 0 0 -21.15574019291207 23.615655059938657 0 23.615655059938657 -5.535660462429103 0 0 0 0 255.6346275906412 553.85959262984204 0 553.85959262984204 605.76361312162589 0 0 0 0 7.5955382754996208 68.879478551433749 0 68.879478551433749 21.757818341455277 0 0 0 0 249.99336272580786 502.90686939783518 0 502.90686939783518 965.52537830297842 0 0 0 0 431.50129662050495 430.92802175072757 0 430.92802175072757 -27.710658011731994 0 0 0 0 155.34615547699778 670.48862395186052 0 670.48862395186052 704.24503973615356 0 0 0 0 -5.3286821756241629 7.5498910085820441 0 7.5498910085820441 -12.859014519340313 0 0 0 0 858.25752083389852 -89.686557236409499 0 -89.686557236409499 602.35036697290798 0 0 0 0 160.7253465642807 835.15643406396157 0 835.15643406396157 1595.0301702602264 0 0 0 0 513.44396209159186 626.41672915848085 0 626.41672915848085 60.749755598182674 0 0 0 0 363.78563651924514 720.1819609727354 0 720.1819609727354 691.08791657773691 0 0 0 0 372.12288333767174 623.05443997053771 0 623.05443997053771 344.86791343512596 0 0 0 0 375.53165615802618 555.52073569917138 0 555.52073569917138 599.98702254823365 0 0 0 0 241.90466635511621 499.92065378662028 0 499.92065378662028 466.07318347213459 0 0 0 0 496.76083802272115 502.79853923166002 0 502.79853923166002 237.00293030150078 0 0 0 0 322.91416435378801 380.55202148849094 0 380.55202148849094 132.834301276318 0 0 0 0 294.95274990639609 287.17755162566164 0 287.17755162566164 43.705453095885787 0 0 0 0 -60.479072355756216 255.20725411471949 0 255.20725411471949 238.19617943517824 0 0 0 0 186.76139603099 341.74278582009356 0 341.74278582009356 350.37220105501183 0 0 0 0 -232.47243886606793 149.33154220540609 0 149.33154220540609 16.733072190223538 0 0 0 0 -229.48209556749771 90.105742837370144 0 90.105742837370144 144.91295182615249 0 0 0 0 -200.37839382890797 81.607100206987525 0 81.607100206987525 118.86118167689347 0 0 0 0 224.40652614777719 417.001949213226 0 417.001949213226 225.76196954359693 0 0 0 0 -124.52070557743718 33.866834649197244 0 33.866834649197244 88.448044540798946 0 0 0 0 2.2446850033275041 232.26804293805844 0 232.26804293805844 114.38938696597506 0 0 0 0 -195.42304127325042 58.155135658200379 0 58.155135658200379 132.21501665107644 0 0 0 0 -215.46920523035078 31.766113939156639 0 31.766113939156639 109.63294869076185 0 0 0 0 -382.98141053529798 5.1526440484340128 0 5.1526440484340128 125.02672368582262 0 0 0 0 -199.69682565226231 -92.70486740788192 0 -92.70486740788192 -26.880386617818658 0 0 0 0 -66.341545248693819 -13.59606701091252 0 -13.59606701091252 -32.420722915328952 0 0 0 0 -6.7427455106849692 3.0017120229560739 0 3.0017120229560739 -1.2697360560014026 0 0 0 0 -413.03738742632868 -233.74638090996814 0 -233.74638090996814 -63.843484392698883 0 0 0 0 -816.0214694157371 325.91810936064326 0 325.91810936064326 -13.720938496202507 0 0 0 0 12.170572475005429 362.84469580502537 0 362.84469580502537 -785.2580075819551 0 0 0 0 -144.70150273176841 99.210214917219673 0 99.210214917219673 88.712937131453828 0 0 0 0 -188.92325196162801 156.3284245910927 0 156.3284245910927 14.975076782044198 0 0 0 0 -77.817514683595164 391.82390451532183 0 391.82390451532183 24.627477709362211 0 0 0 0 256.70756408938087 140.75693553162819 0 140.75693553162819 -226.67144663145791 0 0 0 0 264.66393090405882 306.07924418239259 0 306.07924418239259 -79.874210151785519 0 0 0 0 49.100967738710096 222.37092112237315 0 222.37092112237315 -255.24653031113121 0 0 0 0 114.28715284745886 70.85702591073823 0 70.85702591073823 -360.60741197644529 0 0 0 0 87.761931006170471 157.45899610714469 0 157.45899610714469 -324.49819584935904 0 0 0 0 332.84428351139115 106.64411162218545 0 106.64411162218545 -458.03339345002314 0 0 0 0 332.50690505308648 101.38901264703327 0 101.38901264703327 -470.17524060674077 0 0 0 0 297.04699716798461 201.05934896451754 0 201.05934896451754 -311.13287235204916 0 0 0 0 278.83584624647528 170.16799528841284 0 170.16799528841284 -315.67623291903874 0 0 0 0 56.223822726222352 175.3489346390088 0 175.3489346390088 -50.063389207440196 0 0 0 0 -2.8912487289908313 60.013001848315071 0 60.013001848315071 -269.00468031097625 0 0 0 0 9.0861719544232074 262.01865197073357 0 262.01865197073357 -223.76969726746029 0 0 0 0 -217.87633908334101 171.91116680051709 0 171.91116680051709 29.069082302218689 0 0 0 0 921.47758647334922 403.36917817083304 0 403.36917817083304 -159.38774973586078 0 0 0 0 -0.36482542172665511 0.05542419988166003 0 0.05542419988166003 -3.1525316751018266 0 0 0 0 -357.08959317967856 814.67858891841752 0 814.67858891841752 -250.14784744262215 0 0 0 0 -343.00083144885139 683.20497945355419 0 683.20497945355419 -844.75904591366634 0 0 0 0 -650.33352786762953 579.28276299374284 0 579.28276299374284 -293.96362669472728 0 0 0 0 -52.921707682289707 272.89933505028148 0 272.89933505028148 -264.43429603569166 0 0 0 0 -887.04703178891305 471.17304355866963 0 471.17304355866963 -272.14647215242985 0 0 0 0 -249.550995572994 -90.800781591358827 0 -90.800781591358827 -506.96405102264089 0 0 0 0 218.08041908441737 -15.604930609029907 0 -15.604930609029907 -773.89514787115331 0 0 0 0 87.400582054724737 211.19608664755378 0 211.19608664755378 -151.35358166254446 0 0 0 0 -339.58518731111872 506.99254055954407 0 506.99254055954407 -174.50772781550768 0 0 0 0 -141.34792786874732 745.61534641204616 0 745.61534641204616 -519.44851330148595 0 0 0 0 -300.08789291240737 312.40814825261077 0 312.40814825261077 -76.661887835281959 0 0 0 0 0.30618065366324387 4.1827998799879893 0 4.1827998799879893 -6.0305510616046263 0 0 0 0 299.94471500227866 38.406928988611526 0 38.406928988611526 -1319.0141222593247 0 0 0 0 98.176381971372393 223.44838829543551 0 223.44838829543551 -856.89065354886225 0 0 0 0 102.90269529766624 403.26101068491516 0 403.26101068491516 -800.69438184497994 0 0 0 0 -4.2581560030014884 4.5917278909325034 0 4.5917278909325034 -3.4314404695410268 0 0 0 0 315.24236435462058 -88.690746866410336 0 -88.690746866410336 -772.48841434669976 0 0 0 0 441.96187310463085 151.196380493574 0 151.196380493574 -441.54900327764881 0 0 0 0 -78.888309642865863 177.70259199132852 0 177.70259199132852 -428.51001266095045 0 0 0 0 211.33000722330343 12.601486197904251 0 12.601486197904251 -672.30662482373009 0 0 0 0 150.08684251975035 -39.821886354233357 0 -39.821886354233357 -347.59156227051653 0 0 0 0 228.48989529050311 272.07566296784535 0 272.07566296784535 -265.36768670707716 0 0 0 0 224.47613285729119 477.86463178336703 0 477.86463178336703 530.46861971889484 0 0 0 0 158.99994510974921 53.83903288575948 0 53.83903288575948 29.402285162152111 0 0 0 0 404.94236454179168 209.04349890808771 0 209.04349890808771 -82.81678561858962 0 0 0 0 263.83012642458766 20.912223313661343 0 20.912223313661343 -280.84392360003039 0 0 0 0 232.43723493606603 185.50839316980273 0 185.50839316980273 -39.821316296331133 0 0 0 0 222.23580805351503 196.22111404619227 0 196.22111404619227 198.78876412062709 0 0 0 0 448.80200914160014 500.94027607646331 0 500.94027607646331 185.2265730535064 0 0 0 0 54.568815718475435 585.42199319681913 0 585.42199319681913 464.20539597989523 0 0 0 0 107.18199128564402 829.98178348088413 0 829.98178348088413 1397.5100381254124 0 0 0 0 359.66955713506013 -180.76174496165731 0 -180.76174496165731 746.15729660349098 0 0 0 0 273.85691805789429 272.70252262071153 0 272.70252262071153 -142.90417451961298 0 0 0 0 640.68175875281759 633.26652896795986 0 633.26652896795986 125.54532306289457 0 0 0 0 -121.04401862282248 296.39149383740005 0 296.39149383740005 -22.801974294350657 0 0 0 0 -118.14278937745257 689.56794571176579 0 689.56794571176579 753.82064212037403 0 0 0 0 -823.19049165951446 67.733858552025197 0 67.733858552025197 520.86364917568244 0 0 0 0 -426.76705330692312 394.40688872573992 0 394.40688872573992 748.92355964121452 0 0 0 0 1.5340301728984431 -2.4813442960503869 0 -2.4813442960503869 15.083359685762751 0 0 0 0 1272.3277030682834 1008.7362780253261 0 1008.7362780253261 -480.47796145605025 0 0 0 0 -420.7665190159496 -120.0945902804383 0 -120.0945902804383 95.749556087040219 0 0 0 0 91.441838977636507 68.485534599651487 0 68.485534599651487 -151.54907846861096 0 0 0 0 8.2553430283505804 -291.52092042767663 0 -291.52092042767663 204.20390924097592 0 0 0 0 -4.0102566650326263 5.0016415243219274 0 5.0016415243219274 -3.0068148327147739 0 0 0 0 -6.0240615703669391 181.27243331757563 0 181.27243331757563 98.859458103231646 0 0 0 0 -283.47911809000772 269.36117194029055 0 269.36117194029055 157.04899123591906 0 0 0 0 -7.4938548268476728 12.129364556463042 0 12.129364556463042 45.693758714312651 0 0 0 0 558.37046450438061 324.82311782335228 0 324.82311782335228 413.06957356434305 0 0 0 0 833.86067871214766 931.97432398331784 0 931.97432398331784 490.83681438186505 0 0 0 0 -15.436811147841475 12.816847494725625 0 12.816847494725625 -7.4615516172219216 0 0 0 0 762.29740691140341 781.03593522782148 0 781.03593522782148 490.72266295014197 0 0 0 0 363.70794649285858 596.44409565658202 0 596.44409565658202 628.56763769837653 0 0 0 0 11.789467289690947 79.300855151744145 0 79.300855151744145 43.66173484707042 0 0 0 0 -75.426314946444109 19.32098533502085 0 19.32098533502085 49.635189091692155 0 0 0 0 17.561354822750673 77.222573301626653 0 77.222573301626653 36.018404149925118 0 0 0 0 6.9094553816485131 71.471288040905165 0 71.471288040905165 31.348311930203636 0 0 0 0 15.993337430340034 112.650746579513 0 112.650746579513 -48.022883724646817 0 0 0 0 -26.678700339885147 56.010688738177258 0 56.010688738177258 -63.311504427558269 0 0 0 0 178.7751153012764 114.60245861269323 0 114.60245861269323 24.905869749456542 0 0 0 0 41.23705870996082 123.37252973463183 0 123.37252973463183 36.984656752647879 0 0 0 0 -143.10369742241164 196.40067945408919 0 196.40067945408919 137.62578469282016 0 0 0 0 -11.219708154231427 34.217604585658307 0 34.217604585658307 -33.868299847455418 0 0 0 0 -49.718639869411732 18.502517599031989 0 18.502517599031989 57.517032082832884 0 0 0 0 -51.720624202893305 105.34869148688904 0 105.34869148688904 -4.5852314282528823 0 0 0 0 -6.6819892922820685 29.747508217217423 0 29.747508217217423 35.943858202761632 0 0 0 0 7.8153581511760422 80.060794976930083 0 80.060794976930083 -6.2947909795784653 0 0 0 0 42.609681099538818 7.5525151523438581 0 7.5525151523438581 -84.953204076118709 0 0 0 0 10.968734068360718 58.473786289300158 0 58.473786289300158 -18.695690240136656 0 0 0 0 38.054471493833091 36.653882135515573 0 36.653882135515573 -8.6306519935596135 0 0 0 0 -560.85573629995633 444.15753443622816 0 444.15753443622816 -76.513635703093314 0 0 0 0 7.6416296101923571 9.1522572778380855 0 9.1522572778380855 -1.7041876681377204 0 0 0 0 -825.53069657758806 1618.4444293522317 0 1618.4444293522317 -705.29232415871229 0 0 0 0 35.958393406923278 14.728704355944501 0 14.728704355944501 176.93899919732939 0 0 0 0 15.72995934315912 56.604739651270741 0 56.604739651270741 6.4338647515596286 0 0 0 0 189.22222669742996 115.13602921944403 0 115.13602921944403 -208.32197883824847 0 0 0 0 268.89649836066383 516.75956267741276 0 516.75956267741276 -859.55786773389536 0 0 0 0 -3.9299568557178262 10.580776175150561 0 10.580776175150561 7.7670844963649248 0 0 0 0 -126.30208499479704 -239.54158285917219 0 -239.54158285917219 10.52436710179245 0 0 0 0 18.550966776381756 75.583810207735951 0 75.583810207735951 -115.98452466516756 0 0 0 0 -78.752592728355921 432.19692050748199 0 432.19692050748199 350.44963894529792 0 0 0 0 14.660618543920464 80.268410693908663 0 80.268410693908663 -29.581721134687541 0 0 0 0 27.207584592147668 49.196059248659239 0 49.196059248659239 14.355413797821214 0 0 0 0 -919.86330029938154 -263.75199921870808 0 -263.75199921870808 1322.3296239216506 0 0 0 0 14.802553568453732 64.468804210471717 0 64.468804210471717 -67.797291831797338 0 0 0 0 33.083103467748515 153.54030423246877 0 153.54030423246877 113.85143301765493 0 0 0 0 98.559482101583171 1168.6535853739697 0 1168.6535853739697 -1608.3681504952547 0 0 0 0 -17.064360788000528 47.47189541688897 0 47.47189541688897 -46.779303309799559 0 0 0 0 223.76832056032811 551.36916927414131 0 551.36916927414131 -892.27194728293398 0 0 0 0 115.66992033317115 -391.54633919567277 0 -391.54633919567277 -1344.0087176690868 0 0 0 0 -10.44190958457639 8.1277651070660113 0 8.1277651070660113 -6.9189051084307494 0 0 0 0 278.67462969411781 323.11228104697511 0 323.11228104697511 -20.895411579549545 0 0 0 0 -17.355367273511352 23.817739171187696 0 23.817739171187696 -35.635946133996072 0 0 0 0 -157.38293760928718 84.241612871475809 0 84.241612871475809 663.12849859879861 0 0 0 0 318.23740505115154 -109.55621308758327 0 -109.55621308758327 708.68348837421217 0 0 0 0 178.35851787564025 111.45604572417506 0 111.45604572417506 13.542197810325888 0 0 0 0 -11.807312353939778 123.13427687784861 0 123.13427687784861 121.0042709831323 0 0 0 0 -98.421794614547252 182.02723546747438 0 182.02723546747438 90.080799814750208 0 0 0 0 1.4944060120078575 18.168073446213384 0 18.168073446213384 -193.21167402798892 0 0 0 0 5.8871046610006488 -46.170268298832525 0 -46.170268298832525 -385.86709045968018 0 0 0 0 -26.960242891857483 25.606144914045785 0 25.606144914045785 -21.785993002717191 0 0 0 0 -100.5443998761433 -63.156040349980685 0 -63.156040349980685 -475.15191406988015 0 0 0 0 41.806156052930874 111.03200060033123 0 111.03200060033123 -315.20916639054485 0 0 0 0 13.205979026082332 83.372113548291964 0 83.372113548291964 -189.12687929156527 0 0 0 0 9.3631538722159338 61.723384128665614 0 61.723384128665614 -91.199343585166702 0 0 0 0 23.019826223380733 89.062699787573365 0 89.062699787573365 -87.9686278454476 0 0 0 0 99.698163946020941 282.34281205150364 0 282.34281205150364 -137.80109291175177 0 0 0 0 68.378232281383134 180.93520576694937 0 180.93520576694937 73.850715295935515 0 0 0 0 -85.884948503152373 53.680090515583288 0 53.680090515583288 471.42205075775564 0 0 0 0 27.118644817641346 42.732119389235208 0 42.732119389235208 -3.932534931908549 0 0 0 0 126.74744158783642 319.43975862825755 0 319.43975862825755 -524.62850256657657 0 0 0 0 88.70689561742347 196.1258053182537 0 196.1258053182537 84.100521568558179 0 0 0 0 179.1773095787014 152.25466226438516 0 152.25466226438516 54.185535451208125 0 0 0 0 25.645661616579673 100.27744171033555 0 100.27744171033555 44.41656384897442 0 0 0 0 -11.456183865125322 41.544332835498444 0 41.544332835498444 -21.634302893236065 0 0 0 0 69.985698296746705 79.024845077175996 0 79.024845077175996 100.10833291469316 0 0 0 0 18.532715751401149 59.55737303386735 0 59.55737303386735 -26.553612150879893 0 0 0 0 1.0259373851258715 16.46511441768962 0 16.46511441768962 -24.92141341783281 0 0 0 0 26.208542263390207 56.716647587397489 0 56.716647587397489 -71.095510995286674 0 0 0 0 1.7402833916763107 61.814685510947157 0 61.814685510947157 58.183060330484011 0 0 0 0 25.474484168492438 92.796109594517802 0 92.796109594517802 -15.352690522457124 0 0 0 0 9.7468444997257393 122.33794474152819 0 122.33794474152819 11.778275593521812 0 0 0 0 0.68549029961788577 8.7197796693001379 0 8.7197796693001379 -18.765007322139013 0 0 0 0 17.255035573920395 68.18728220750927 0 68.18728220750927 -59.614459798765893 0 0 0 0 25.272719421078989 53.117768575737855 0 53.117768575737855 11.819320648976145 0 0 0 0 41.91772971231785 97.199065386885195 0 97.199065386885195 -90.142418549883587 0 0 0 0 31.359391348536956 57.808535975946086 0 57.808535975946086 15.544119246328904 0 0 0 0 1.4400921389401447 85.209636774090995 0 85.209636774090995 -66.656729229194752 0 0 0 0 47.074093999365459 111.14538208258045 0 111.14538208258045 -69.09766449489689 0 0 0 0 -28.979651974475019 37.911622665051709 0 37.911622665051709 176.44293711850605 0 0 0 0 5.8961481880008222 41.674047271171865 0 41.674047271171865 -79.570392031531171 0 0 0 0 31.253922630578018 100.50973754888037 0 100.50973754888037 -61.780781352692429 0 0 0 0 96.957848352412839 84.833806527625711 0 84.833806527625711 -101.37588433406199 0 0 0 0 -5.090435841816543 118.56295331031288 0 118.56295331031288 -71.981897565405234 0 0 0 0 68.654641051974977 113.99115668041122 0 113.99115668041122 -127.60244449517268 0 0 0 0 31.949955679607228 99.922300085665483 0 99.922300085665483 -62.607618964984795 0 0 0 0 266.92280058425422 545.19755580290007 0 545.19755580290007 555.00006578055218 0 0 0 0 44.591693801472502 593.64928852291246 0 593.64928852291246 885.27917178254302 0 0 0 0 448.04785948321205 512.46790433987849 0 512.46790433987849 104.70928427748549 0 0 0 0 48.586276202307999 479.31422417075669 0 479.31422417075669 467.92836186797558 0 0 0 0 0.68978973138556299 43.477339958092692 0 43.477339958092692 -83.870413686926071 0 0 0 0 74.254074242709976 26.832303862669505 0 26.832303862669505 -99.796747320899158 0 0 0 0 14.742575396781831 30.860590859315494 0 30.860590859315494 104.1830474373112 0 0 0 0 161.83452178788866 207.54139723057185 0 207.54139723057185 -58.897575318222835 0 0 0 0 -153.0316998078506 166.83815629619994 0 166.83815629619994 557.34711595123281 0 0 0 0 -15.593669592522673 57.413442049522821 0 57.413442049522821 -9.8137705460162508 0 0 0 0 -206.24532137959068 258.91559815774235 0 258.91559815774235 -242.58268554586539 0 0 0 0 55.164702634339847 112.3808959505759 0 112.3808959505759 -586.44126301666984 0 0 0 0 -53.566219365715369 -99.481487022469082 0 -99.481487022469082 -527.87328215544403 0 0 0 0 -1.1281819734581333 4.6163277790500743 0 4.6163277790500743 -17.132675033848702 0 0 0 0 117.09898342009774 132.84359009678383 0 132.84359009678383 -366.73582623873517 0 0 0 0 24.473254122043727 -117.87900176122275 0 -117.87900176122275 -806.57023088384449 0 0 0 0 -9.6310072105597904 6.9782102629124836 0 6.9782102629124836 14.547691661117682 0 0 0 0 156.27902438513229 562.18659368390945 0 562.18659368390945 51.016768124300143 0 0 0 0 331.99403624620572 235.92268371079081 0 235.92268371079081 -241.35270339503586 0 0 0 0 5.2959859461547367 51.960686438156401 0 51.960686438156401 -101.52169206810589 0 0 0 0 51.610470210082894 -50.03031100573935 0 -50.03031100573935 -79.532463022467709 0 0 0 0 -346.74195611815776 254.55735319221276 0 254.55735319221276 -204.40302255728602 0 0 0 0 -29.95352848161383 15.284346944368735 0 15.284346944368735 -272.26764293457381 0 0 0 0 10.515007646561571 68.483395236075012 0 68.483395236075012 -253.29859045420017 0 0 0 0 62.514144596799269 115.44318795778236 0 115.44318795778236 -181.69894908919377 0 0 0 0 66.730281322883457 92.210360742337798 0 92.210360742337798 -249.74869133511675 0 0 0 0 4.9621060809350084 51.937191172854853 0 51.937191172854853 -106.92207704338264 0 0 0 0 185.95061779793832 255.79232722706001 0 255.79232722706001 -174.95518409551369 0 0 0 0 203.42997935938001 -13.626837415027694 0 -13.626837415027694 -178.88574688804874 0 0 0 0 -7.9537355187840149 100.20323558619566 0 100.20323558619566 -184.37961241211087 0 0 0 0 -37.929104607459578 38.286710007777884 0 38.286710007777884 -35.624286433477891 0 0 0 0 6.6765657417531656 60.154234645819088 0 60.154234645819088 -113.1748299389219 0 0 0 0 26.305072763606859 76.723825887669591 0 76.723825887669591 -112.584947358715 0 0 0 0 -44.698696339267372 74.678610899754858 0 74.678610899754858 -112.92690872649837 0 0 0 0 -31.370187132437422 30.406709726583358 0 30.406709726583358 -13.370899244284374 0 0 0 0 -54.394423754661602 48.485817373362806 0 48.485817373362806 -107.15745234548376 0 0 0 0 -42.665959501471562 49.725064776507665 0 49.725064776507665 -34.499246268555538 0 0 0 0 403.41123226616583 185.70839966945641 0 185.70839966945641 -25.843692187147099 0 0 0 0 -99.398895439329863 153.52455180020479 0 153.52455180020479 9.4572098089938663 0 0 0 0 374.40906016779718 103.22108644080072 0 103.22108644080072 -33.354753305728082 0 0 0 0 390.09689856709247 971.91186840464798 0 971.91186840464798 320.6610810385464 0 0 0 0 440.62618876487977 131.09808304213948 0 131.09808304213948 -162.21118119862513 0 0 0 0 218.89872554812609 354.60595500682757 0 354.60595500682757 135.49111697569242 0 0 0 0 -68.774818863292239 -8.2791150714583637 0 -8.2791150714583637 42.461081340949022 0 0 0 0 -8.0952464900765335 262.68311187374638 0 262.68311187374638 175.40693151499363 0 0 0 0 -23.337119726935271 -7.3330839388654567 0 -7.3330839388654567 20.695466883131303 0 0 0 0 16.824304682473667 30.169382096140907 0 30.169382096140907 24.519121496850858 0 0 0 0 81.83659482999974 133.54082906933036 0 133.54082906933036 -92.092100202979054 0 0 0 0 38.150455272749241 67.512439776211977 0 67.512439776211977 57.200219131540507 0 0 0 0 -4.8734331507360871 1.6071579371915377 0 1.6071579371915377 4.2264805259909508 0 0 0 0 -1.4758041283470575 2.1665625983735026 0 2.1665625983735026 -2.5052645815738686 0 0 0 0 218.34962467899277 58.053212320934108 0 58.053212320934108 -0.6871514324011514 0 0 0 0 38.46008425775517 -6.0559999818506185 0 -6.0559999818506185 -118.02978363593866 0 0 0 0 4.620366358391518 46.718549571865026 0 46.718549571865026 -94.903002254697014 0 0 0 0 105.50322854377555 89.941914079914568 0 89.941914079914568 -34.601611306294217 0 0 0 0 44.029225004856926 137.2832372731209 0 137.2832372731209 -45.918654740351485 0 0 0 0 -7.5131354442979283 22.000521419315447 0 22.000521419315447 -25.389172118125799 0 0 0 0 -3.4083476497661191 27.080579565257977 0 27.080579565257977 -42.191158243494101 0 0 0 0 8.1149073361771116 28.612595160611818 0 28.612595160611818 -14.089524488750612 0 0 0 0 -9.2887093069593902 90.541228907168261 0 90.541228907168261 -31.995717556885211 0 0 0 0 95.470213896267524 159.95739598707587 0 159.95739598707587 -5.5185989875906216 0 0 0 0 -24.65040424449456 41.121924163536164 0 41.121924163536164 -16.849866887040378 0 0 0 0 -7.8573689002478204 94.094662204239285 0 94.094662204239285 -49.745563570817467 0 0 0 0 -12.079516535252878 84.838434950783267 0 84.838434950783267 -40.625012605611118 0 0 0 0 -9.1759965913142878 65.32795386341968 0 65.32795386341968 -52.652782120392658 0 0 0 0 -6.4380723015792682 77.57373301347252 0 77.57373301347252 -57.905055734270718 0 0 0 0 -2.1111656246248458 53.323217034674599 0 53.323217034674599 -74.665687219909159 0 0 0 0 -9.4904595951147712 69.649599576703622 0 69.649599576703622 -81.365709778852761 0 0 0 0 -2.3614046559614508 51.696640808644588 0 51.696640808644588 -87.236204516608268 0 0 0 0 0.70629860000190092 63.230834262576536 0 63.230834262576536 -51.189780552434968 0 0 0 0 14.211623180932293 53.574720163029269 0 53.574720163029269 -47.473771811026381 0 0 0 0 -4.7554822418246658 69.511190369572432 0 69.511190369572432 -24.529651176999323 0 0 0 0 92.117656143178465 175.52184306838899 0 175.52184306838899 109.2590258474811 0 0 0 0 14.059322001142306 1.541770841645274 0 1.541770841645274 -21.60263733434428 0 0 0 0 46.5441191664695 92.030449824702373 0 92.030449824702373 -47.328445644627209 0 0 0 0 111.36815355196086 159.17528150956059 0 159.17528150956059 -13.950197674384981 0 0 0 0 -11.204127003249008 38.829029499466486 0 38.829029499466486 -75.911873551584421 0 0 0 0 128.53614782754448 149.45103357544576 0 149.45103357544576 -24.313717516808538 0 0 0 0 56.990357364060401 117.28065621214773 0 117.28065621214773 12.950280573626515 0 0 0 0 418.43142639608232 -66.031983609875169 0 -66.031983609875169 -118.20433665506425 0 0 0 0 416.76467252799193 -101.91915278448141 0 -101.91915278448141 -129.9340165280737 0 0 0 0 283.8328787927112 -30.848977987159742 0 -30.848977987159742 -97.205910747899907 0 0 0 0 437.7912145648661 -36.595169347914634 0 -36.595169347914634 -223.95688699861057 0 0 0 0 405.52821280125499 -66.354846537931735 0 -66.354846537931735 -417.57686853577616 0 0 0 0 439.74825678846537 20.905983103686594 0 20.905983103686594 -201.0382833906333 0 0 0 0 322.72439422866773 -13.075742344924947 0 -13.075742344924947 -136.66593928323709 0 0 0 0 404.89069509821093 35.107040250506543 0 35.107040250506543 -114.05150078993756 0 0 0 0 -17.339981279777021 77.903121409326559 0 77.903121409326559 -60.087499386630952 0 0 0 0 14.413599205305676 27.062942521849322 0 27.062942521849322 7.2283650152471068 0 0 0 0 330.39251579719348 94.087993376189843 0 94.087993376189843 -14.624323503887354 0 0 0 0 143.78021411401824 67.179378082844778 0 67.179378082844778 11.326232249324676 0 0 0 0 -7.6145604843465833 91.32593186588656 0 91.32593186588656 -50.233661580132321 0 0 0 0 -34.902627000935354 66.049843343702378 0 66.049843343702378 -67.491158777818782 0 0 0 0 -12.727610036130784 78.798952350864056 0 78.798952350864056 -63.961243748432025 0 0 0 0 -20.461901416390447 83.715992042343714 0 83.715992042343714 -66.559431907895487 0 0 0 0 -13.639632210871241 65.911507392069325 0 65.911507392069325 -80.248630540343584 0 0 0 0 -21.979160875571779 74.7553759207658 0 74.7553759207658 -89.477989622508176 0 0 0 0 -106.0724471956752 100.47446622930875 0 100.47446622930875 -72.368077512335731 0 0 0 0 -77.691425882473595 75.488358410773799 0 75.488358410773799 -69.462183904659469 0 0 0 0 -64.782993480986946 103.86047144510667 0 103.86047144510667 -104.32091143896105 0 0 0 0 -21.321382346176506 76.302394044701941 0 76.302394044701941 -96.627100909070577 0 0 0 0 331.7537949649959 -237.89689985860605 0 -237.89689985860605 131.31681950345956 0 0 0 0 -84.191506500880479 158.65848905545135 0 158.65848905545135 -120.32824425914441 0 0 0 0 13.774944068346834 10.49973482761223 0 10.49973482761223 10.427023329767735 0 0 0 0 187.1621705030343 -253.75889121426735 0 -253.75889121426735 131.03591677627992 0 0 0 0 319.45159755247005 -367.77047412950196 0 -367.77047412950196 186.96496975050832 0 0 0 0 643.39038999113473 -217.42468136336538 0 -217.42468136336538 -76.294055962469429 0 0 0 0 453.38780670314191 -0.57982144389097812 0 -0.57982144389097812 -93.426843098248355 0 0 0 0 64.050511780704255 -82.934450937551446 0 -82.934450937551446 10.581163855822524 0 0 0 0 405.70426314411088 -238.3732500895494 0 -238.3732500895494 -68.725549412509281 0 0 0 0 2.5967879526157667 0.059623251797489729 0 0.059623251797489729 -0.043176177246721181 0 0 0 0 -269.05442294757995 -195.32160120435583 0 -195.32160120435583 -4.4129474540386582 0 0 0 0 233.60811084579564 -362.16660520157347 0 -362.16660520157347 -872.075584598977 0 0 0 0 206.97947536940228 -116.70811439075624 0 -116.70811439075624 -102.60570560244378 0 0 0 0 269.28961527934371 -188.99115780723514 0 -188.99115780723514 -163.5784019142593 0 0 0 0 -1078.1025879849058 -64.622222690093622 0 -64.622222690093622 165.66589486884277 0 0 0 0 -758.30978247987878 503.5240931647204 0 503.5240931647204 -445.38577345387603 0 0 0 0 18.508848689457864 108.63957525744627 0 108.63957525744627 -14.171144629697665 0 0 0 0 -84.96676224390103 -73.271831108431797 0 -73.271831108431797 3.1031565451376082 0 0 0 0 180.80478182452134 176.54347315902123 0 176.54347315902123 -338.38233410672547 0 0 0 0 -623.63065405722773 -183.74517415912123 0 -183.74517415912123 160.53814640018436 0 0 0 0 1.8604486832772302 1.8401032209602022 0 1.8401032209602022 1.1945987112332546 0 0 0 0 4.6746283706442036 1.2919068754622742 0 1.2919068754622742 -0.11902791841846039 0 0 0 0 48.312383319746459 66.532005107410441 0 66.532005107410441 -6.0005870116729056 0 0 0 0 202.15645867426792 338.0346811467607 0 338.0346811467607 -276.17437588985194 0 0 0 0 406.22017215491633 190.77968759823852 0 190.77968759823852 -350.85088497283868 0 0 0 0 318.33542627403949 -28.401131292819628 0 -28.401131292819628 -254.42160830617649 0 0 0 0 26.612834171268332 54.760985194901878 0 54.760985194901878 -82.268268098465342 0 0 0 0 9.2815870258030913 5.36392076812254 0 5.36392076812254 2.3693553048447598 0 0 0 0 79.548610755689879 -40.209306197750266 0 -40.209306197750266 -468.87908128916752 0 0 0 0 -0.29754571267403662 335.37847898662585 0 335.37847898662585 -411.31782342278893 0 0 0 0 60.445167300773392 220.15384310753143 0 220.15384310753143 -394.96406855966779 0 0 0 0 138.2448305262642 188.71834397849307 0 188.71834397849307 -517.80882893780654 0 0 0 0 128.11454272302581 249.40996427932987 0 249.40996427932987 -318.83534038334619 0 0 0 0 199.38773555992907 267.78504075972342 0 267.78504075972342 -550.03098762157606 0 0 0 0 166.1645712926545 342.19676565013287 0 342.19676565013287 -924.06622579629766 0 0 0 0 143.95040769177285 59.822900800048956 0 59.822900800048956 -230.70085377953728 0 0 0 0 53.41993425000328 309.29407074596384 0 309.29407074596384 -349.79706556859696 0 0 0 0 223.65002745074162 347.98435735607927 0 347.98435735607927 -569.57082255276327 0 0 0 0 192.99977536144411 218.65194978412819 0 218.65194978412819 -616.1635513715155 0 0 0 0 194.0167527350859 166.93079090123501 0 166.93079090123501 -545.22455812235421 0 0 0 0 151.45078979193931 -139.67421289972117 0 -139.67421289972117 -160.49274245376 0 0 0 0 74.948884423167328 127.71604961490084 0 127.71604961490084 -544.75799782494141 0 0 0 0 69.153124945037689 135.20205903104488 0 135.20205903104488 -317.43918699680944 0 0 0 0 -338.54693797702203 148.65652070545912 0 148.65652070545912 -170.22595774407819 0 0 0 0 37.869552105451021 22.704359647422734 0 22.704359647422734 -200.24707387189846 0 0 0 0 28.900917083044988 242.00884525002766 0 242.00884525002766 -86.285599999580882 0 0 0 0 24.98457632809675 198.78811800565927 0 198.78811800565927 137.8941321761813 0 0 0 0 34.422222224581219 212.1772881677316 0 212.1772881677316 -236.01423462633102 0 0 0 0 -397.62366152125242 659.30135783828882 0 659.30135783828882 1088.039662912619 0 0 0 0 601.01697100470392 245.9194140053587 0 245.9194140053587 -203.10348827600683 0 0 0 0 -897.92102832139699 878.56876900888165 0 878.56876900888165 -423.40378163414425 0 0 0 0 424.97961702826581 229.98180043753192 0 229.98180043753192 -1163.5515260330139 0 0 0 0 425.16462981187033 258.5541540589038 0 258.5541540589038 -274.12117762575508 0 0 0 0 -1176.6914414002122 -334.41947359970072 0 -334.41947359970072 419.64103424363566 0 0 0 0 251.96987835470304 10.760192430501775 0 10.760192430501775 -714.09620734516648 0 0 0 0 -6.5995794221967223 8.3697888673293903 0 8.3697888673293903 -11.090932566292111 0 0 0 0 182.02095802856275 568.55589196428627 0 568.55589196428627 607.12613108782034 0 0 0 0 -19.525369178547408 221.43370958358537 0 221.43370958358537 266.38319292863343 0 0 0 0 -24.56186130460992 209.84220820216615 0 209.84220820216615 244.7949158180536 0 0 0 0 207.78336412636236 320.97324291700477 0 320.97324291700477 340.69488978601612 0 0 0 0 348.19756761952885 507.74832760852996 0 507.74832760852996 583.31226051540534 0 0 0 0 -513.81267208246572 -189.53838557815152 0 -189.53838557815152 103.03318860663239 0 0 0 0 1.1207755753340507 -0.29014951024385738 0 -0.29014951024385738 -0.41250657199894292 0 0 0 0 -97.573092206595902 6.1507961257848365 0 6.1507961257848365 -13.636791843934589 0 0 0 0 -170.60717374196247 43.806625115499628 0 43.806625115499628 66.863554724848655 0 0 0 0 -195.61808999700042 -29.346814163612521 0 -29.346814163612521 32.211295991341103 0 0 0 0 -1.3345795033937549 0.53680998607860175 0 0.53680998607860175 1.5139144771410287 0 0 0 0 122.49678511650745 343.62611126893739 0 343.62611126893739 445.79353426254875 0 0 0 0 -39.523111528404115 175.06830135550717 0 175.06830135550717 416.73361196246651 0 0 0 0 124.45489192631794 34.827982998419429 0 34.827982998419429 156.08936454997934 0 0 0 0 19.498962543890229 311.00895945431876 0 311.00895945431876 501.03335115596565 0 0 0 0 170.05297971593973 495.24568608681739 0 495.24568608681739 652.71459459209518 0 0 0 0 71.592891558007977 310.40919815720599 0 310.40919815720599 778.55291090430114 0 0 0 0 173.70596514354838 259.21776719625132 0 259.21776719625132 395.99087036876233 0 0 0 0 -13.447460314193449 474.8035926026447 0 474.8035926026447 1031.5802797224933 0 0 0 0 3.5609295638278411 5.0398588416908803 0 5.0398588416908803 -1.0367078594385462 0 0 0 0 57.68777290359867 -79.814673673202378 0 -79.814673673202378 -637.76580693617757 0 0 0 0 54.429441714699351 -21.794974728510169 0 -21.794974728510169 -495.83717609535768 0 0 0 0 7.2798047267913404 6.395844339961446 0 6.395844339961446 -0.22804957102778056 0 0 0 0 9.3485221300859251 12.637137241318747 0 12.637137241318747 -18.50859216693312 0 0 0 0 33.086831728534889 87.615279502247404 0 87.615279502247404 -301.94197474587781 0 0 0 0 49.709661440534546 53.241887825694448 0 53.241887825694448 -350.53720812672827 0 0 0 0 -2.5692298042449693 103.0042303560208 0 103.0042303560208 -368.12954223540873 0 0 0 0 82.505323205003151 57.122885904571149 0 57.122885904571149 -522.08356359253594 0 0 0 0 341.49799447561236 575.30416965119502 0 575.30416965119502 431.43480473237832 0 0 0 0 178.22812313848226 227.22521727886533 0 227.22521727886533 87.391780719255166 0 0 0 0 556.27250544796334 396.80525668212294 0 396.80525668212294 650.32729041883886 0 0 0 0 20.425412353471984 330.33087295520289 0 330.33087295520289 789.1681776567948 0 0 0 0 182.70220083763343 35.940824605885609 0 35.940824605885609 298.25479550941827 0 0 0 0 38.228887920428861 229.29346530858447 0 229.29346530858447 717.53716426490519 0 0 0 0 216.77892341881829 419.69332586566878 0 419.69332586566878 728.34536919338461 0 0 0 0 -50.557969949382823 306.59497754764107 0 306.59497754764107 1016.6834313760301 0 0 0 0 26.076698388302248 574.89668173996654 0 574.89668173996654 2030.8748334100328 0 0 0 0 101.73877324831847 276.47613585721456 0 276.47613585721456 1003.0380348468134 0 0 0 0 3.3615407247512366 4.288456665103773 0 4.288456665103773 0.80272827197730923 0 0 0 0 6.6973120893890155 380.47642049635579 0 380.47642049635579 1038.461530756093 0 0 0 0 144.52680395849893 440.89603122581639 0 440.89603122581639 969.5871261618945 0 0 0 0 -8.5726058090029049 19.785082296535229 0 19.785082296535229 2.3313175730589837 0 0 0 0 -21.711053934821393 341.26919185189672 0 341.26919185189672 1009.0959403499737 0 0 0 0 -14.59563848284597 417.521055865177 0 417.521055865177 926.0825654432374 0 0 0 0 -26.844595941365696 421.29137699381135 0 421.29137699381135 938.40722323922819 0 0 0 0 -210.50049367784959 47.67719846113323 0 47.67719846113323 976.89281318851317 0 0 0 0 -44.04656494255687 639.82387723427883 0 639.82387723427883 1300.3739131318869 0 0 0 0 -28.208049813489197 453.08061703362773 0 453.08061703362773 847.54017333939191 0 0 0 0 -12.035711337870453 -26.20336713818233 0 -26.20336713818233 213.77155847842141 0 0 0 0 86.059604309251881 449.79561572268676 0 449.79561572268676 623.29258860394475 0 0 0 0 -12.715644705043815 334.47719974852964 0 334.47719974852964 825.81108328106529 0 0 0 0 18.248761111619388 125.4674792493679 0 125.4674792493679 -502.25324989248111 0 0 0 0 52.181670460748137 100.99070879773717 0 100.99070879773717 -487.53097139580495 0 0 0 0 -34.610890517573168 59.49188942596264 0 59.49188942596264 -1.0888755793985379 0 0 0 0 39.027378191341995 30.571143718589155 0 30.571143718589155 -453.5298760700889 0 0 0 0 40.586088352745719 102.6968626933085 0 102.6968626933085 -464.93109972975071 0 0 0 0 17.743417546116689 95.708214720347314 0 95.708214720347314 -402.54543647869286 0 0 0 0 16.031686110487499 125.10781698473147 0 125.10781698473147 -400.3700817164804 0 0 0 0 -5.7708361889272055 121.14627612613549 0 121.14627612613549 -400.5152083283665 0 0 0 0 -11.971214475895977 96.798748888541013 0 96.798748888541013 -400.095478757401 0 0 0 0 -31.736017733208428 71.367636017497261 0 71.367636017497261 -316.23021728152116 0 0 0 0 5.9670482445206376 34.941254760845538 0 34.941254760845538 -97.3008249545789 0 0 0 0 9.4962345001392521 18.204762864173361 0 18.204762864173361 -16.464392852261629 0 0 0 0 30.296766840336204 83.697036094672512 0 83.697036094672512 -496.51468692534638 0 0 0 0 -61.13273973408468 99.948955378156825 0 99.948955378156825 -459.77596913319576 0 0 0 0 21.913881307766133 22.822167069147326 0 22.822167069147326 -405.32897443493857 0 0 0 0 4.6307845635391836 20.46288263790197 0 20.46288263790197 -19.930721072594558 0 0 0 0 22.947322437823459 122.0263020851562 0 122.0263020851562 -607.27952866215492 0 0 0 0 26.752185786841437 33.785874634686706 0 33.785874634686706 -304.07517936362046 0 0 0 0 -41.175236007878993 84.961087560062879 0 84.961087560062879 -75.350696549148779 0 0 0 0 8.6655982118139523 50.543807316042518 0 50.543807316042518 -96.019770181712701 0 0 0 0 45.585603547226128 101.83011220377193 0 101.83011220377193 -245.78444574146852 0 0 0 0 12.094941522993395 134.52702374089131 0 134.52702374089131 -212.48090487452282 0 0 0 0 -40.656074201884621 116.98844707911485 0 116.98844707911485 -196.66461167646048 0 0 0 0 -11.633978265419501 135.57038979709978 0 135.57038979709978 -193.61735887941177 0 0 0 0 -1.4982723447028548 106.23491174632545 0 106.23491174632545 -219.42057703167666 0 0 0 0 -44.1509367794024 146.07846807004898 0 146.07846807004898 -77.683729898064485 0 0 0 0 -29.291613982606577 14.9836853600209 0 14.9836853600209 -198.70212943961815 0 0 0 0 2.8490875774605229 102.77529448227142 0 102.77529448227142 -286.3998759095557 0 0 0 0 12.978193889361137 95.288464267541713 0 95.288464267541713 -357.28584401388798 0 0 0 0 -13.157786683397717 134.14635035650281 0 134.14635035650281 -350.86324052361306 0 0 0 0 -20.845960508100688 96.32816071759953 0 96.32816071759953 -221.98815352126257 0 0 0 0 -132.26133219299527 -14.944159176679932 0 -14.944159176679932 -40.021194759508944 0 0 0 0 7.6098355592814571 33.208335392870026 0 33.208335392870026 -7.9433184367388705 0 0 0 0 -128.2154480717827 91.855426654710755 0 91.855426654710755 123.90837527817712 0 0 0 0 153.7176758607884 86.316518787460836 0 86.316518787460836 17.206590553490969 0 0 0 0 -7.0279926547185116 65.289065233978363 0 65.289065233978363 53.91941140878717 0 0 0 0 -20.957087083908846 144.03850863568368 0 144.03850863568368 42.54550156469486 0 0 0 0 18.299679505342283 55.675265418498384 0 55.675265418498384 83.287300211999536 0 0 0 0 22.735183404399358 47.596797849033081 0 47.596797849033081 -88.56413079776064 0 0 0 0 -23.568650700522994 60.056222502189485 0 60.056222502189485 -12.459447116649244 0 0 0 0 66.392667520756731 213.98814982657314 0 213.98814982657314 130.22721182262285 0 0 0 0 3.1270445440350159 14.01539566946667 0 14.01539566946667 -84.92304728536692 0 0 0 0 76.580923637902742 108.69396331995085 0 108.69396331995085 -49.146873138852243 0 0 0 0 26.090506560103677 102.92719274189585 0 102.92719274189585 -4.6828052484197542 0 0 0 0 33.575821041855306 100.50552104687085 0 100.50552104687085 -81.069492084934609 0 0 0 0 98.484885791574925 92.783367659045325 0 92.783367659045325 -23.746996142232092 0 0 0 0 6.0289601092048528 48.452743012570281 0 48.452743012570281 -17.56074878682594 0 0 0 0 -7.4982860450131312 50.776956723282993 0 50.776956723282993 -21.861415423796473 0 0 0 0 33.918648909097101 70.293741673747718 0 70.293741673747718 3.2748614924566937 0 0 0 0 -14.596636368580221 98.078502205898985 0 98.078502205898985 -6.7622113608740619 0 0 0 0 58.787144284543501 109.32221301833556 0 109.32221301833556 -2.4415652610623511 0 0 0 0 -9.717091492820165 67.307757139620975 0 67.307757139620975 49.547013547973293 0 0 0 0 -53.785566019243561 81.300222173245857 0 81.300222173245857 22.687673372332938 0 0 0 0 -65.191868381974928 86.960875460870739 0 86.960875460870739 30.903021532227285 0 0 0 0 -5.4844358196132816 117.55144825357638 0 117.55144825357638 10.668343198482034 0 0 0 0 5.9779133750707842 93.856990135795058 0 93.856990135795058 -21.294339648360619 0 0 0 0 6.6952253114025382 46.475361165587714 0 46.475361165587714 19.309000844057479 0 0 0 0 -46.178049815964187 45.767828693227784 0 45.767828693227784 41.741066426737234 0 0 0 0 -4.751226530230241 37.358678811031226 0 37.358678811031226 -39.370005473197381 0 0 0 0 9.3777326936469763 61.280999807495391 0 61.280999807495391 -35.885691682742618 0 0 0 0 -2.4585677036647837 4.0694559654891975 0 4.0694559654891975 12.777734190618531 0 0 0 0 -16.85336297358117 18.020293836389101 0 18.020293836389101 1.6605275720139616 0 0 0 0 -64.96403459622303 65.008241660935482 0 65.008241660935482 25.304711398566724 0 0 0 0 -129.7903603711602 47.983691912340873 0 47.983691912340873 36.669382667529135 0 0 0 0 -54.251951493974047 -21.663427597000918 0 -21.663427597000918 5.4742138883302687 0 0 0 0 169.08881702183862 369.24292477391282 0 369.24292477391282 64.553137303490075 0 0 0 0 -249.85298816492286 -61.247490496018145 0 -61.247490496018145 10.696476105167676 0 0 0 0 -1.3602895041608463 1.3378405208447504 0 1.3378405208447504 -1.0513043766274563 0 0 0 0 -93.623358577300678 96.447782013434335 0 96.447782013434335 56.007699496214627 0 0 0 0 -25.460837229788012 80.925353315273242 0 80.925353315273242 75.861688328353921 0 0 0 0 -167.11977791380195 61.173410424467875 0 61.173410424467875 42.683109359793889 0 0 0 0 -54.823526583866624 161.97567732730022 0 161.97567732730022 -14.004730386470328 0 0 0 0 -214.16123147946928 201.0127749052117 0 201.0127749052117 21.286082598555367 0 0 0 0 -322.35606417075905 98.847878515945922 0 98.847878515945922 78.949471580286627 0 0 0 0 11.402955030982412 65.779267564595557 0 65.779267564595557 -251.05423253537674 0 0 0 0 6.6394635320466477 -100.29425386693038 0 -100.29425386693038 -172.47348609720939 0 0 0 0 -45.376289115512918 63.934312708293874 0 63.934312708293874 204.2237057529419 0 0 0 0 44.100138946651015 85.892362418049132 0 85.892362418049132 -27.231224802218101 0 0 0 0 32.57060520015429 80.741172517265312 0 80.741172517265312 -19.200596301569451 0 0 0 0 199.98429641851544 284.2431375736669 0 284.2431375736669 28.202322997014562 0 0 0 0 4.0801726377612795 92.730557047153638 0 92.730557047153638 -309.0806471080673 0 0 0 0 -17.415024394542343 313.50637723696923 0 313.50637723696923 81.263522171560908 0 0 0 0 -61.233182774187298 321.34080619167071 0 321.34080619167071 122.41057440603981 0 0 0 0 23.8529366099404 81.570757237507038 0 81.570757237507038 -23.122540277953696 0 0 0 0 135.21228150949173 140.31058740087587 0 140.31058740087587 -349.77217436567844 0 0 0 0 328.61795237159095 111.79404680806329 0 111.79404680806329 -387.1190491546804 0 0 0 0 319.19775958400032 -84.418596710315228 0 -84.418596710315228 126.22615249015507 0 0 0 0 297.24505034003232 397.61831614655603 0 397.61831614655603 169.69956838637881 0 0 0 0 77.121538946725195 8.2336731350551418 0 8.2336731350551418 -40.23899484215508 0 0 0 0 32.278370010870276 274.87463036147165 0 274.87463036147165 280.19477860822644 0 0 0 0 243.64406798966047 123.64230913008578 0 123.64230913008578 248.99707201396086 0 0 0 0 -3.0913183676427991 4.1420569745202407 0 4.1420569745202407 -0.83998245741655353 0 0 0 0 -7.5512708602709608 30.283187654069479 0 30.283187654069479 0.34020221464743372 0 0 0 0 31.99020430388191 40.25968787259626 0 40.25968787259626 -35.04419081248443 0 0 0 0 8.6505483457599723 10.177145428638966 0 10.177145428638966 -0.84038624231425274 0 0 0 0 12.661799300622079 19.327383439936966 0 19.327383439936966 -33.423440621096233 0 0 0 0 1.5797023358882143 -7.4954380994295207 0 -7.4954380994295207 -58.238247832450725 0 0 0 0 -0.044560917823602608 4.4326942922292751 0 4.4326942922292751 -2.2352060076126747 0 0 0 0 24.342310252206516 14.317872507315769 0 14.317872507315769 -59.74666282038902 0 0 0 0 512.03751632747299 251.70808600298915 0 251.70808600298915 72.027843322204717 0 0 0 0 209.71927897546993 167.45734519492544 0 167.45734519492544 90.826651814037177 0 0 0 0 0.52466189142262465 2.3204028984113165 0 2.3204028984113165 0.87290787053009922 0 0 0 0 53.496334452611336 165.05971840335314 0 165.05971840335314 645.59515899114194 0 0 0 0 60.791263484934461 261.13605473731513 0 261.13605473731513 393.0118250544183 0 0 0 0 -52.78797718086571 115.07135560792449 0 115.07135560792449 217.74538898756691 0 0 0 0 47.654792613517202 280.73603229490982 0 280.73603229490982 192.87903092852321 0 0 0 0 234.86455770291286 235.87499514641331 0 235.87499514641331 160.98410780708946 0 0 0 0 -8.1140346250467701 197.42206948964304 0 197.42206948964304 218.61516446361929 0 0 0 0 -26.348707492586982 241.93142179248753 0 241.93142179248753 113.34008421291946 0 0 0 0 -49.427777508666622 222.49479018174316 0 222.49479018174316 125.65264652264887 0 0 0 0 -58.845360100844118 245.16891907226454 0 245.16891907226454 115.87155049176363 0 0 0 0 -12.279713289659412 87.439314074425056 0 87.439314074425056 -32.823592381722847 0 0 0 0 -18.97488952528726 62.698116823763911 0 62.698116823763911 24.579537446597186 0 0 0 0 -142.24757627598592 15.950334972643759 0 15.950334972643759 41.549482185024317 0 0 0 0 38.321403270754672 -49.471352678361654 0 -49.471352678361654 -190.14604168800724 0 0 0 0 -157.92385524198471 73.341609347713529 0 73.341609347713529 74.824178221915645 0 0 0 0 157.41147851525602 277.74040716865238 0 277.74040716865238 -0.83914017638295491 0 0 0 0 19.907980349496938 395.78649172006942 0 395.78649172006942 312.21180413908343 0 0 0 0 11.276413426070604 92.390798508574107 0 92.390798508574107 -0.095358789117609699 0 0 0 0 41.2250022990047 142.17428932262806 0 142.17428932262806 13.894958895103855 0 0 0 0 -4.1664563171216287 246.50787393847656 0 246.50787393847656 257.39137593850899 0 0 0 0 -3.977423746677232 237.08185429193225 0 237.08185429193225 230.08111159746471 0 0 0 0 -9.5806667950315259 36.373005673843323 0 36.373005673843323 20.950768963652102 0 0 0 0 -11.302629451078246 78.767737869398843 0 78.767737869398843 35.657165189575608 0 0 0 0 -38.951437946785518 23.922932882924215 0 23.922932882924215 1.6331844330852618 0 0 0 0 -8.2235234982828445 17.107545434481125 0 17.107545434481125 -0.47537375355818767 0 0 0 0 27.742864346539136 44.81870854695444 0 44.81870854695444 5.3715330242412165 0 0 0 0 -2.7712141659700364 32.976580460035002 0 32.976580460035002 -9.1775452833335862 0 0 0 0 50.187985437388249 29.273761668805918 0 29.273761668805918 -15.366084919924319 0 0 0 0 -39.809839123673655 36.908067251688536 0 36.908067251688536 14.703789824773253 0 0 0 0 183.71580991090741 46.065969423303613 0 46.065969423303613 -117.53765331339673 0 0 0 0 11.506852898965008 75.725719652029511 0 75.725719652029511 32.549681320542732 0 0 0 0 21.330108212321647 80.183826282955124 0 80.183826282955124 37.695480284500718 0 0 0 0 33.65182314208505 55.373151737097942 0 55.373151737097942 36.487034989413587 0 0 0 0 341.37596073155873 139.41512695552956 0 139.41512695552956 -79.423603969422402 0 0 0 0 -31.286923420688254 162.64178552545854 0 162.64178552545854 39.825590371066937 0 0 0 0 -4.8100396708030075 34.479039068554656 0 34.479039068554656 -46.168208435304649 0 0 0 0 5.3379710321574834 6.1867090279469323 0 6.1867090279469323 -14.188964840230824 0 0 0 0 13.027188333245409 48.265673670143045 0 48.265673670143045 22.679454390849912 0 0 0 0 -15.2439265983121 36.731653889350127 0 36.731653889350127 -14.569079819120816 0 0 0 0 3.3385435263644467 38.920365452743681 0 38.920365452743681 7.2558076676359633 0 0 0 0 -8.0085191282942105 31.306719053288681 0 31.306719053288681 6.007157827382656 0 0 0 0 -115.36417426666594 42.058534057279758 0 42.058534057279758 50.751368218603602 0 0 0 0 7.3306110477569746 12.353211343644944 0 12.353211343644944 43.961798347794684 0 0 0 0 8.9611704598244444 32.003628260445041 0 32.003628260445041 30.542332081672129 0 0 0 0 -75.871938241031785 164.2324943592821 0 164.2324943592821 88.487233491439838 0 0 0 0 -9.3180517870059703 136.75400574519881 0 136.75400574519881 -168.87389577781141 0 0 0 0 -0.8173267142972378 0.95521874226147929 0 0.95521874226147929 -1.3300719926353963 0 0 0 0 15.207989661874308 -105.48198713418606 0 -105.48198713418606 -273.561273890351 0 0 0 0 -46.430423690049793 192.43618758596131 0 192.43618758596131 -254.745052265308 0 0 0 0 -4.3299842076958157 26.874894779415627 0 26.874894779415627 26.926742312272836 0 0 0 0 -8.6343362146494655 165.49392722882226 0 165.49392722882226 47.592240320758719 0 0 0 0 -6.907323675666234 33.120947420014673 0 33.120947420014673 -52.373305330265097 0 0 0 0 -51.234652954204648 69.429877139664313 0 69.429877139664313 49.511287127399555 0 0 0 0 92.159764833064401 142.78032836937655 0 142.78032836937655 -82.92093751495122 0 0 0 0 -3.4021781869237202 3.7049595401542774 0 3.7049595401542774 -62.117960770949139 0 0 0 0 5.8751015135330817 -132.14069608056434 0 -132.14069608056434 -464.9020507557434 0 0 0 0 97.626634807798837 288.38758533920918 0 288.38758533920918 26.269954269446316 0 0 0 0 138.54895377400226 32.282927972879406 0 32.282927972879406 -168.32939788230578 0 0 0 0 22.544776078328141 21.430623635231314 0 21.430623635231314 162.46202542283572 0 0 0 0 -8.3757713508072698 2.7999734163133354 0 2.7999734163133354 -2.0295053508671543 0 0 0 0 19.142712864777423 112.83582273995853 0 112.83582273995853 166.00796839456234 0 0 0 0 135.85004584735361 -20.038533755103344 0 -20.038533755103344 -241.69369739107788 0 0 0 0 23.952028328192682 44.168058553059382 0 44.168058553059382 88.349667958274949 0 0 0 0 32.094736074912362 91.112406568230654 0 91.112406568230654 57.275892163612298 0 0 0 0 7.6719313743815292 87.135520455456572 0 87.135520455456572 79.512636657909752 0 0 0 0 74.518154203062295 82.018839616692276 0 82.018839616692276 79.516607098470558 0 0 0 0 28.613082578238391 67.756014487866196 0 67.756014487866196 22.220337950289831 0 0 0 0 -27.901884552571573 61.322104623621271 0 61.322104623621271 57.656291194100049 0 0 0 0 -32.6884163572322 79.051888342713937 0 79.051888342713937 108.90147819665435 0 0 0 0 -59.737677786913991 63.897838685181341 0 63.897838685181341 101.7714158652816 0 0 0 0 -77.119893716953811 80.633492255015881 0 80.633492255015881 50.458005147062067 0 0 0 0 -31.037937685468933 61.853637266547594 0 61.853637266547594 56.908510063483845 0 0 0 0 -30.789669603281254 61.400593174592359 0 61.400593174592359 6.3644825332594337 0 0 0 0 -75.796713094896404 22.580416886798048 0 22.580416886798048 30.986228295994806 0 0 0 0 9.2632378441849141 136.19269364505453 0 136.19269364505453 -208.89963734941557 0 0 0 0 15.763027861703449 98.484299239301436 0 98.484299239301436 8.5926881974301068 0 0 0 0 -80.053688485757448 177.26887757248915 0 177.26887757248915 93.715824461680768 0 0 0 0 -2.2361091111737323 1.4678331140189727 0 1.4678331140189727 -0.72826841959445687 0 0 0 0 -76.018367294789641 122.65396610001335 0 122.65396610001335 272.8615981927469 0 0 0 0 -238.44462088725049 134.16839087937842 0 134.16839087937842 3.4802424891822739 0 0 0 0 -15.485400536752422 182.26151540590217 0 182.26151540590217 -264.30289479210478 0 0 0 0 -94.661384275808814 145.20007027149404 0 145.20007027149404 178.17627022205124 0 0 0 0 -10.607156907546596 15.758131190032145 0 15.758131190032145 55.453976875167427 0 0 0 0 0.20613111469455703 5.5238640174409639 0 5.5238640174409639 10.474982088512803 0 0 0 0 45.949900627541865 -9.7948632394109154 0 -9.7948632394109154 35.766920899055549 0 0 0 0 -0.76088620576047106 101.88809379054874 0 101.88809379054874 7.6995112380536739 0 0 0 0 45.668437673659355 57.217362048011637 0 57.217362048011637 -14.415795855915349 0 0 0 0 -35.116999709243828 -51.812494082765625 0 -51.812494082765625 -113.05165470846987 0 0 0 0 70.885561239767412 101.41406620491762 0 101.41406620491762 -176.96284072831622 0 0 0 0 25.904700076005611 28.342034962352045 0 28.342034962352045 7.3227649436012143 0 0 0 0 9.1375977739226748 38.015345975259415 0 38.015345975259415 -29.110961773957797 0 0 0 0 157.08681887933926 13.556216267148557 0 13.556216267148557 -107.48450382646115 0 0 0 0 30.680746987928103 41.961059175514038 0 41.961059175514038 -1.6193606955961997 0 0 0 0 24.990236449395695 50.958224974798128 0 50.958224974798128 9.9313561374355004 0 0 0 0 53.492254109737473 122.04734943781841 0 122.04734943781841 -4.8056703837501118 0 0 0 0 50.027565956575927 80.079589044529712 0 80.079589044529712 -23.092229489819147 0 0 0 0 2.624099453453173 41.076436447320916 0 41.076436447320916 -73.898097332273835 0 0 0 0 57.042465368032936 80.787261696408677 0 80.787261696408677 -91.925613388326383 0 0 0 0 62.418700334950699 92.154874506311899 0 92.154874506311899 -59.670689652077272 0 0 0 0 51.170254128497618 53.569503276332398 0 53.569503276332398 -88.744294986063323 0 0 0 0 51.315008330164858 4.944962775472959 0 4.944962775472959 -27.669400558321371 0 0 0 0 48.034370672195109 3.557585025154367 0 3.557585025154367 -15.422292265604483 0 0 0 0 47.652216599140957 -4.7575914767003269 0 -4.7575914767003269 -126.87868351949146 0 0 0 0 15.543928987862628 4.503544320006398 0 4.503544320006398 -3.3548453233037776 0 0 0 0 62.408076162086218 96.478753252435126 0 96.478753252435126 -130.60653196042108 0 0 0 0 54.595604748890764 39.55659408342035 0 39.55659408342035 -18.865857654804131 0 0 0 0 8.98297566741401 17.501124806194326 0 17.501124806194326 -34.747368230057589 0 0 0 0 56.394118959982734 46.522654531974695 0 46.522654531974695 -22.421845989472786 0 0 0 0 -5.529752793568413 36.128155922682424 0 36.128155922682424 -13.053340078229951 0 0 0 0 -58.529560944065452 57.945716677626478 0 57.945716677626478 97.638076510513201 0 0 0 0 61.859660654205072 96.61313675098063 0 96.61313675098063 -12.757366374964477 0 0 0 0 92.151389763927 29.075587676026771 0 29.075587676026771 16.642536384919367 0 0 0 0 13.451140619870877 14.235827448938508 0 14.235827448938508 -35.9856746312837 0 0 0 0 43.967604010558716 28.458052593174216 0 28.458052593174216 -42.849472390778828 0 0 0 0 43.524460939025744 41.729046194234343 0 41.729046194234343 -16.059849947167095 0 0 0 0 39.852147073062952 83.542542011593468 0 83.542542011593468 125.33715124063747 0 0 0 0 58.38137875667303 66.005342087968529 0 66.005342087968529 -22.465102772184764 0 0 0 0 13.885147032445275 14.753405894382766 0 14.753405894382766 -39.54820295738358 0 0 0 0 -11.691534345136276 18.440234151866157 0 18.440234151866157 26.534618316364856 0 0 0 0 252.02508529321494 70.66028995479428 0 70.66028995479428 -31.232660474517616 0 0 0 0 59.553879154140304 54.27176518705528 0 54.27176518705528 -40.349015787888675 0 0 0 0 114.6360029671182 -23.813830915760263 0 -23.813830915760263 -48.526520238257945 0 0 0 0 -0.83610052824025693 31.353724137999528 0 31.353724137999528 -29.604905358489418 0 0 0 0 6.4728945738897892 41.365491000287875 0 41.365491000287875 -4.3019157468806952 0 0 0 0 13.526081639442367 7.722815342509584 0 7.722815342509584 -9.0021981953161117 0 0 0 0 12.077597681281361 20.918260206722834 0 20.918260206722834 -52.338808307139885 0 0 0 0 201.85711272236313 33.157913725072831 0 33.157913725072831 -168.96766449083225 0 0 0 0 98.946940465946682 291.34714738972252 0 291.34714738972252 23.54645384545438 0 0 0 0 -7.7838707029571035 38.70142313766258 0 38.70142313766258 -19.271524998608527 0 0 0 0 59.533637767057371 74.943853182667226 0 74.943853182667226 -6.9742510184792081 0 0 0 0 -14.975329241424333 199.70895692780323 0 199.70895692780323 182.29093100828686 0 0 0 0 17.352474799525226 58.609305974954623 0 58.609305974954623 148.6237332448909 0 0 0 0 2.5730624997304403 199.80301881388004 0 199.80301881388004 42.09752869028307 0 0 0 0 28.313446649393882 62.744612955255434 0 62.744612955255434 -60.86761729628779 0 0 0 0 4.6261844654059985 8.01967732935708 0 8.01967732935708 0.88758165282200707 0 0 0 0 -88.882983052146301 74.562049259766354 0 74.562049259766354 -21.981395030976273 0 0 0 0 82.833445150377884 105.66466608685369 0 105.66466608685369 38.623268555122195 0 0 0 0 5.0733091487923758 9.6656282748740558 0 9.6656282748740558 -9.4059627694200003 0 0 0 0 93.264441785599047 138.85035769128808 0 138.85035769128808 -94.937062851255178 0 0 0 0 82.759068073006347 35.541038006282179 0 35.541038006282179 31.263449488295009 0 0 0 0 -633.03998269690419 -36.571244589598791 0 -36.571244589598791 149.25110524665797 0 0 0 0 208.90954194375081 88.604623588063987 0 88.604623588063987 -185.50353077051113 0 0 0 0 0.7605334582064387 0.26935072792645443 0 0.26935072792645443 -5.0947658493447534 0 0 0 0 -17.143162904685596 305.43358753083157 0 305.43358753083157 -315.40099715114047 0 0 0 0 -47.496362235680863 215.60237929509458 0 215.60237929509458 -128.49769900242973 0 0 0 0 -53.191105079607951 263.51872488054869 0 263.51872488054869 -1.0809248171863146 0 0 0 0 -472.10837937916949 116.51195830895449 0 116.51195830895449 -166.95602450371371 0 0 0 0 -9.4538319221560414 19.798292336307441 0 19.798292336307441 -18.702383995900163 0 0 0 0 0.60571175299005109 11.341340218947323 0 11.341340218947323 -30.444989322527988 0 0 0 0 875.62939617282609 -147.34257819742197 0 -147.34257819742197 -605.30551969027147 0 0 0 0 380.79919198043353 459.56875114515424 0 459.56875114515424 -1327.3006630257732 0 0 0 0 416.98505795975507 183.665552797087 0 183.665552797087 -180.0523690195696 0 0 0 0 439.09384360611148 -358.77491754976654 0 -358.77491754976654 -208.1762889038946 0 0 0 0 -2.8623891644523525 24.875250541087539 0 24.875250541087539 -36.930791711685117 0 0 0 0 683.89615790765447 247.61694041897408 0 247.61694041897408 -224.8598075209884 0 0 0 0 24.351855431749755 39.854891462152409 0 39.854891462152409 -22.989840924419696 0 0 0 0 -83.152619976339338 609.54156700984458 0 609.54156700984458 -36.388609162604553 0 0 0 0 -6.414238258356221 25.93153855961485 0 25.93153855961485 -38.532928605160009 0 0 0 0 -2.9757259673642693 24.823974603496026 0 24.823974603496026 -28.233396021532826 0 0 0 0 -17.761756769150395 14.815897835997333 0 14.815897835997333 2.771989727944316 0 0 0 0 -7.5235877480226918 23.551724231278058 0 23.551724231278058 -12.570133371045813 0 0 0 0 -1.5682157995906891 28.910412830889982 0 28.910412830889982 -16.597836013796041 0 0 0 0 -32.616772956884233 29.078903925837949 0 29.078903925837949 281.59739210355838 0 0 0 0 -22.631739290053687 26.474948813420113 0 26.474948813420113 -19.313264664634858 0 0 0 0 -49.427615057762523 64.275853120703687 0 64.275853120703687 36.665226843266282 0 0 0 0 -45.192296915927727 45.494634884969855 0 45.494634884969855 17.160011474043131 0 0 0 0 -43.563101266480771 26.360759656563459 0 26.360759656563459 22.718079907921492 0 0 0 0 -13.386135281032281 3.2947437858632469 0 3.2947437858632469 17.574716257530042 0 0 0 0 -43.165455998168909 89.60938855263521 0 89.60938855263521 78.025261019880418 0 0 0 0 -21.568136289803078 102.70910708364681 0 102.70910708364681 74.272729544973117 0 0 0 0 -149.59017572008452 8.1392760867602192 0 8.1392760867602192 63.192093394099174 0 0 0 0 -63.778995539716561 -52.2921759692872 0 -52.2921759692872 -95.802944717404898 0 0 0 0 10.307802822477242 56.511025573374354 0 56.511025573374354 -193.66268077092536 0 0 0 0 37.153137155655713 175.22145250514586 0 175.22145250514586 40.929777656376245 0 0 0 0 37.799597202840232 202.356331742365 0 202.356331742365 -192.64978530126973 0 0 0 0 6.8763000397448195 -93.703071134448692 0 -93.703071134448692 -197.75392035720654 0 0 0 0 -3.6731542749714379 1.581030202385854 0 1.581030202385854 1.2024329624603638 0 0 0 0 -163.88813834309985 -6.2998900229285937 0 -6.2998900229285937 16.780641004865174 0 0 0 0 31.302752024414076 60.544642138680501 0 60.544642138680501 -3.8146031655342085 0 0 0 0 -7.9162507111614104 41.69094353201217 0 41.69094353201217 11.053846707840421 0 0 0 0 -20.008180074657503 8.6727129733808397 0 8.6727129733808397 15.002537142718211 0 0 0 0 -145.87869581528912 140.50175290648713 0 140.50175290648713 -59.700675114741898 0 0 0 0 -25.024342923214135 54.593559197448485 0 54.593559197448485 -1.9755248410874628 0 0 0 0 35.102341069279646 79.637339106986474 0 79.637339106986474 -76.644777770772635 0 0 0 0 -39.762834630115321 88.448468837406836 0 88.448468837406836 16.078542271992774 0 0 0 0 44.060991112277407 73.873555670408678 0 73.873555670408678 -34.932497310030158 0 0 0 0 49.677375485924131 83.32133853848427 0 83.32133853848427 -2.9451488809572766 0 0 0 0 27.053084109305928 73.269524894451024 0 73.269524894451024 0.97927238019838114 0 0 0 0 23.370209737939149 55.667790051009433 0 55.667790051009433 -29.194750572685734 0 0 0 0 29.910952450285549 49.227010562382929 0 49.227010562382929 -51.34004557634762 0 0 0 0 9.0288563828216866 38.58712530543562 0 38.58712530543562 -52.101635383678513 0 0 0 0 -18.069647727978008 28.829457773350441 0 28.829457773350441 10.98419936044229 0 0 0 0 -5.7045447538930603 17.081024368560975 0 17.081024368560975 -43.72705316489737 0 0 0 0 -23.14307444653798 35.283900522149821 0 35.283900522149821 12.020925930722747 0 0 0 0 -14.999463114392711 46.533084705180954 0 46.533084705180954 0.12010550167906331 0 0 0 0 -3.774170631695938 36.110313154270017 0 36.110313154270017 16.902613939431134 0 0 0 0 -17.873403117373527 57.200467214934179 0 57.200467214934179 -18.695440086652525 0 0 0 0 6.9414493127551395 40.930346656612528 0 40.930346656612528 1.1267367086402373 0 0 0 0 16.935592700418056 48.083042529811792 0 48.083042529811792 -36.743375684898638 0 0 0 0 10.477242559256695 50.234075891086377 0 50.234075891086377 8.8194722993337962 0 0 0 0 20.922202992016537 63.774582702455518 0 63.774582702455518 0.85730710176176217 0 0 0 0 11.08901144315314 94.230501237492717 0 94.230501237492717 -44.619589304908004 0 0 0 0 -19.672512463446765 61.628507893081405 0 61.628507893081405 -0.080135686570429243 0 0 0 0 -34.872973172474303 83.070535712671699 0 83.070535712671699 -25.445596600853605 0 0 0 0 -82.303861945838435 85.182759688032093 0 85.182759688032093 6.0562196357932407 0 0 0 0 -34.439486310016946 86.693978735303972 0 86.693978735303972 4.0334521419135854 0 0 0 0 -8.7350919501526931 24.629067828756504 0 24.629067828756504 -5.3585908867862031 0 0 0 0 7.4609942052537299 56.809800121040894 0 56.809800121040894 -21.562857237542516 0 0 0 0 27.830349894388746 69.071512106807404 0 69.071512106807404 -23.403528148293844 0 0 0 0 -54.296306844713399 116.58713474983597 0 116.58713474983597 -30.267848727598903 0 0 0 0 28.631412090986942 78.220051721722939 0 78.220051721722939 -2.0288271450262982 0 0 0 0 28.176416126232652 72.888624517414428 0 72.888624517414428 -1.1693682217446622 0 0 0 0 14.503683262308186 59.31634335751005 0 59.31634335751005 -27.107930942835083 0 0 0 0 39.360302442910324 79.152153982911841 0 79.152153982911841 0.41688895267725457 0 0 0 0 12.545393631036859 62.690034822648158 0 62.690034822648158 3.4009556237870129 0 0 0 0 63.749436237056216 63.408196898632013 0 63.408196898632013 -75.561367289410555 0 0 0 0 -27.707363574979354 64.070865013131879 0 64.070865013131879 24.126216499775182 0 0 0 0 12.438811423296887 47.378510590474278 0 47.378510590474278 -7.356771435154144 0 0 0 0 46.205358040862336 64.714147822898667 0 64.714147822898667 -145.35418834621669 0 0 0 0 99.46837792889437 2.9108096828167618 0 2.9108096828167618 -173.07974387636932 0 0 0 0 24.133465922090181 -342.13569757148798 0 -342.13569757148798 -48.787047463003546 0 0 0 0 -67.321160777346449 -270.30243666611204 0 -270.30243666611204 241.62930551136378 0 0 0 0 10.75545010313985 3.1149203838561448 0 3.1149203838561448 0.66942059206571969 0 0 0 0 405.11611289917914 363.12628799756203 0 363.12628799756203 -292.4532586656569 0 0 0 0 237.68574422155143 172.31475162199786 0 172.31475162199786 -459.77053659949161 0 0 0 0 -50.492009831793126 45.795621823621332 0 45.795621823621332 -122.27612032966863 0 0 0 0 -47.64017416939987 82.219402814177556 0 82.219402814177556 -126.92954559859936 0 0 0 0 -128.12085909480993 -12.702485495101428 0 -12.702485495101428 -125.44700459248816 0 0 0 0 -161.24952827534071 -139.26704864134081 0 -139.26704864134081 -269.32974884560099 0 0 0 0 11.389753461211617 18.372271427968712 0 18.372271427968712 5.5870191358945078 0 0 0 0 0.25332168500695851 0.59037352068418159 0 0.59037352068418159 -2.3169623477921846 0 0 0 0 -1.901513735062963 28.593865818380436 0 28.593865818380436 -18.82611918040493 0 0 0 0 28.251859338920973 -14.465212200229871 0 -14.465212200229871 -13.36948483948072 0 0 0 0 -52.25993905859616 51.310143366674311 0 51.310143366674311 -140.14140991582099 0 0 0 0 12.213556811520299 22.796490486200696 0 22.796490486200696 11.360563388561658 0 0 0 0 7.9663582196687992 17.258242383826101 0 17.258242383826101 5.4729922621981189 0 0 0 0 41.076812456684593 11.971114972744545 0 11.971114972744545 -168.66705672128592 0 0 0 0 -0.54717633237078012 2.0748814227185335 0 2.0748814227185335 1.6684911699913982 0 0 0 0 18.932636819962681 55.746083416539477 0 55.746083416539477 33.005152803767487 0 0 0 0 16.517759325258339 -0.31433801169623621 0 -0.31433801169623621 21.843688709257549 0 0 0 0 -29.191836296560723 -33.586213795802905 0 -33.586213795802905 132.61123785712698 0 0 0 0 -2.0008187208821271 20.543394570737064 0 20.543394570737064 -17.332578048244756 0 0 0 0 5.0606037486977584 64.057568272997742 0 64.057568272997742 92.810674983509671 0 0 0 0 22.141943850301686 34.503431180412008 0 34.503431180412008 -1.6319952758203726 0 0 0 0 21.006623485903219 31.747198618541006 0 31.747198618541006 -1.2789244965988473 0 0 0 0 8.0962784069906775 23.214698311479879 0 23.214698311479879 -10.651026112347608 0 0 0 0 -1.72799033734535 14.178672810882091 0 14.178672810882091 -21.33889012573232 0 0 0 0 77.36585326692159 137.65038439493219 0 137.65038439493219 -154.96285595408699 0 0 0 0 48.522963975621678 37.599435210824595 0 37.599435210824595 -18.929909208833124 0 0 0 0 45.728851879056492 31.805435448732169 0 31.805435448732169 -24.721775324287592 0 0 0 0 58.173111818309735 46.525324226779048 0 46.525324226779048 -13.490839292389865 0 0 0 0 48.512242969313547 33.720030875534576 0 33.720030875534576 7.0752865911053959 0 0 0 0 38.002392302062958 31.080709999729152 0 31.080709999729152 6.5019360336882528 0 0 0 0 -57.509093131901722 -30.253357214383527 0 -30.253357214383527 -6.1743614382721717 0 0 0 0 54.062425391193528 16.277254790169536 0 16.277254790169536 -28.101476007193924 0 0 0 0 11.890786645863685 3.9887314113197476 0 3.9887314113197476 -17.788774702628189 0 0 0 0 0.75424497002401303 -2.5788339811877563 0 -2.5788339811877563 -9.391717578057694 0 0 0 0 28.688220226234989 51.535984380687296 0 51.535984380687296 34.79669444533647 0 0 0 0 15.774099008154437 1.7723079262092085 0 1.7723079262092085 -6.3818160520908691 0 0 0 0 -48.29477786038251 22.115792240991141 0 22.115792240991141 -20.722031199285993 0 0 0 0 90.47019060933053 -125.83282723063894 0 -125.83282723063894 -345.47017879464329 0 0 0 0 -56.970377962446946 -16.140868557413341 0 -16.140868557413341 -38.451154323120136 0 0 0 0 -73.466636282595118 -109.32390138338451 0 -109.32390138338451 177.06135785285733 0 0 0 0 -71.251302374903389 -70.558812370029045 0 -70.558812370029045 -16.498980939926696 0 0 0 0 -98.597948797074423 32.195763622483355 0 32.195763622483355 65.270912686661177 0 0 0 0 -75.214474404462635 -32.138516064136638 0 -32.138516064136638 81.838271636312129 0 0 0 0 -83.038050583606946 59.812330813652807 0 59.812330813652807 187.6878374083899 0 0 0 0 -62.60740107662059 -23.16254463691439 0 -23.16254463691439 -8.5403017905882734 0 0 0 0 4.9664730474705721 4.4375289833988063 0 4.4375289833988063 -0.055435120288166218 0 0 0 0 -28.733355355690037 48.607528488530079 0 48.607528488530079 -54.374419498009956 0 0 0 0 2.5350363775037401 4.2126524868266699 0 4.2126524868266699 2.5050072134127817 0 0 0 0 -66.105479258601918 82.72298771205169 0 82.72298771205169 -66.009486519789789 0 0 0 0 -66.261528798415384 36.019336837081937 0 36.019336837081937 -14.02339358899917 0 0 0 0 9.6497599837657617 18.657496297484613 0 18.657496297484613 -31.30375688469212 0 0 0 0 -62.655967482473443 23.384532311130897 0 23.384532311130897 26.915402971673757 0 0 0 0 -88.873873047923553 30.155210649681976 0 30.155210649681976 45.134712265717098 0 0 0 0 -110.75865023200095 68.624918767411145 0 68.624918767411145 10.094167478986492 0 0 0 0 -92.6226354247774 33.808985275245504 0 33.808985275245504 49.1423059412773 0 0 0 0 -96.697049215865263 92.226564337935997 0 92.226564337935997 7.8688569924852345 0 0 0 0 -167.04641414334583 27.711132024152903 0 27.711132024152903 -24.879463540448342 0 0 0 0 -103.98096341626206 -41.809593104066153 0 -41.809593104066153 -114.68949258496286 0 0 0 0 -49.692620278960931 11.921030594246986 0 11.921030594246986 -106.42737254314125 0 0 0 0 91.350998556330524 15.123002887121402 0 15.123002887121402 -273.75740344054066 0 0 0 0 175.18082898861212 176.11400583213253 0 176.11400583213253 -196.52782316836237 0 0 0 0 -14.238105876459485 99.66321779894497 0 99.66321779894497 70.530524269095622 0 0 0 0 95.100781588425207 15.999890413580943 0 15.999890413580943 133.6041927546903 0 0 0 0 -80.353468633154989 218.96190508027939 0 218.96190508027939 -62.217713741440093 0 0 0 0 450.66525509565417 -151.60574079883372 0 -151.60574079883372 109.92767976578034 0 0 0 0 60.484830044206319 94.647044803226891 0 94.647044803226891 278.74484114674851 0 0 0 0 40.340734977015018 28.388033216237091 0 28.388033216237091 63.22985167803381 0 0 0 0 735.61930793953115 -51.020849682197877 0 -51.020849682197877 45.048044470982859 0 0 0 0 490.97845732173391 207.70653401756135 0 207.70653401756135 251.73511752318882 0 0 0 0 -57.597535030630752 8.720161518707755 0 8.720161518707755 523.04279484238941 0 0 0 0 18.841400276497552 -54.181648844707524 0 -54.181648844707524 86.39323632515152 0 0 0 0 -9.1438964413564463 234.51371580692648 0 234.51371580692648 22.017899027079693 0 0 0 0 3.7601228923678676 3.3939062005213145 0 3.3939062005213145 3.6334191533466651 0 0 0 0 -142.29127522473209 162.34785228929104 0 162.34785228929104 3.496275879064342 0 0 0 0 -124.13022324979102 109.08715663119801 0 109.08715663119801 -112.1418187225172 0 0 0 0 493.42859574960812 -530.68721246206769 0 -530.68721246206769 291.44522095794673 0 0 0 0 17.685137591244825 -241.34062259194525 0 -241.34062259194525 331.82048831152497 0 0 0 0 -141.02680591118769 85.394688751322974 0 85.394688751322974 -53.321694193669828 0 0 0 0 -50.555617407222371 94.185307771942462 0 94.185307771942462 -150.07263080120902 0 0 0 0 -1.6544675220900444 101.66183643841941 0 101.66183643841941 -125.16139878955437 0 0 0 0 -6.5288223154749403 126.98034721476142 0 126.98034721476142 -87.548384564710432 0 0 0 0 -43.5976117053699 115.22239965200424 0 115.22239965200424 -91.14604013657663 0 0 0 0 -33.642794708361038 136.0004246863391 0 136.0004246863391 -155.84030025138054 0 0 0 0 -53.987572813385555 120.83512928341224 0 120.83512928341224 -115.51315714829252 0 0 0 0 -14.212825744396469 89.539399416040396 0 89.539399416040396 -107.94379332567405 0 0 0 0 -20.540595087687052 83.038633081581793 0 83.038633081581793 -110.933777165832 0 0 0 0 -2.5716090854443792 57.336474574149179 0 57.336474574149179 -106.07477217761334 0 0 0 0 0.72756717138418026 62.782361945282901 0 62.782361945282901 -104.16312518998166 0 0 0 0 19.001141861635915 75.156496562092798 0 75.156496562092798 -120.37865710997721 0 0 0 0 21.031765864960732 46.415413383184386 0 46.415413383184386 -108.95914776914287 0 0 0 0 14.913708241194399 36.365250681279576 0 36.365250681279576 -124.29710663566948 0 0 0 0 47.694104244998016 57.359735406338586 0 57.359735406338586 -135.78905854618642 0 0 0 0 68.516945145276622 94.485161181975855 0 94.485161181975855 -115.95622792089125 0 0 0 0 64.569063935914073 39.52888640773017 0 39.52888640773017 -125.27387259015813 0 0 0 0 18.859497502248814 75.728081993365777 0 75.728081993365777 -120.98431959043955 0 0 0 0 10.07661547353473 115.67977848142618 0 115.67977848142618 -108.54638692821027 0 0 0 0 -7.1219117098336824 103.91480640604277 0 103.91480640604277 -97.452464885966037 0 0 0 0 44.714541341733408 135.9225362846496 0 135.9225362846496 -78.019252337282524 0 0 0 0 46.491145888357195 95.587731344792701 0 95.587731344792701 -108.95826242212206 0 0 0 0 81.652101241814307 129.72689818601066 0 129.72689818601066 -76.388599987491034 0 0 0 0 -6.1977180031150283 128.63740138904541 0 128.63740138904541 -47.003063034804654 0 0 0 0 113.39391078988501 80.619607508968329 0 80.619607508968329 -131.70620714693723 0 0 0 0 86.747170358524272 56.944026276149089 0 56.944026276149089 -145.10956316808006 0 0 0 0 207.45587096951294 106.90174675444723 0 106.90174675444723 -141.23812831984833 0 0 0 0 122.10214902045072 169.01722342986614 0 169.01722342986614 -56.943841286527459 0 0 0 0 273.31880391577943 299.93432363869215 0 299.93432363869215 1.3516868617807631 0 0 0 0 298.39438144587257 133.18943281164684 0 133.18943281164684 -153.92889008254406 0 0 0 0 43.409809687375912 171.19565025197517 0 171.19565025197517 -21.044444525963627 0 0 0 0 108.9629872061837 151.3606870569638 0 151.3606870569638 -79.090922515886632 0 0 0 0 69.351073453033678 208.8228237512958 0 208.8228237512958 29.720482493983582 0 0 0 0 5.5508036009522357 187.72780011108989 0 187.72780011108989 68.600375004636589 0 0 0 0 5.8167421936918799 185.02032348362263 0 185.02032348362263 69.864401860657381 0 0 0 0 -74.234861057723265 143.51157089800108 0 143.51157089800108 149.03410867546336 0 0 0 0 -43.45959726840033 140.42872312916734 0 140.42872312916734 4.6868874558131211 0 0 0 0 -26.804363638748811 171.84862231591251 0 171.84862231591251 62.985179216469987 0 0 0 0 -80.827584774102888 152.76020382225397 0 152.76020382225397 51.594749768381007 0 0 0 0 -83.354831030827427 112.18558266066248 0 112.18558266066248 44.074145986342046 0 0 0 0 -104.99064143988835 117.77500279295782 0 117.77500279295782 1.643172617215896 0 0 0 0 -117.33652556388915 69.173205003637122 0 69.173205003637122 -45.911011583026266 0 0 0 0 -111.32324922552959 98.005631441643345 0 98.005631441643345 85.082340000953991 0 0 0 0 -127.61485862991958 126.60774035088252 0 126.60774035088252 5.3472235725203063 0 0 0 0 -85.985415018396225 139.99746759275149 0 139.99746759275149 0.82993811782216653 0 0 0 0 -71.356443447293714 107.14573382305389 0 107.14573382305389 -48.484241298327106 0 0 0 0 -14.029553870829886 157.80514492783914 0 157.80514492783914 -3.7864147500949912 0 0 0 0 53.185809475202404 65.214940860038041 0 65.214940860038041 -91.963658689390286 0 0 0 0 16.492912166755559 88.220258725457825 0 88.220258725457825 -103.95755996904336 0 0 0 0 16.166172498029482 53.142091910514864 0 53.142091910514864 -54.439911760418909 0 0 0 0 -2.8232060032805748 72.665584816524643 0 72.665584816524643 -35.816802760942664 0 0 0 0 16.617559776703274 65.115660837924224 0 65.115660837924224 -70.21545119700022 0 0 0 0 -12.650527995117955 79.015379897944513 0 79.015379897944513 -75.292976430821 0 0 0 0 -11.365924807615841 58.506148992255476 0 58.506148992255476 -81.755558133358136 0 0 0 0 15.866288286390045 75.924635209317785 0 75.924635209317785 -102.46802067689714 0 0 0 0 -85.448653498482599 63.445099486241816 0 63.445099486241816 -79.953726395731792 0 0 0 0 -39.458651648258638 42.762866753764683 0 42.762866753764683 -70.662325734796468 0 0 0 0 -60.160306452728037 14.483021074702265 0 14.483021074702265 -98.616553162923083 0 0 0 0 -60.778526657350085 16.241971193812788 0 16.241971193812788 -91.74652735782729 0 0 0 0 -14.063805904048422 26.057973008442787 0 26.057973008442787 -86.368345878960099 0 0 0 0 -10.477471826030524 27.772497937112348 0 27.772497937112348 -90.436542091461888 0 0 0 0 -2.3852649400432711 60.090298776805867 0 60.090298776805867 -63.381198430724908 0 0 0 0 7.9512551061429804 48.359207640365639 0 48.359207640365639 -71.57640415255446 0 0 0 0 -17.144934367555834 43.207953563280171 0 43.207953563280171 -65.820929856810835 0 0 0 0 -3.7200144167018152 33.46498316861107 0 33.46498316861107 -88.770558678428642 0 0 0 0 15.744695043524189 31.731669080458232 0 31.731669080458232 -99.298552711901721 0 0 0 0 -1.6660787199707556 54.370719538404956 0 54.370719538404956 -76.97465379172354 0 0 0 0 -3.3709493162659783 32.953911195923865 0 32.953911195923865 -93.761917367053684 0 0 0 0 -1.0860974899073881 14.520460696607188 0 14.520460696607188 -115.55667684983928 0 0 0 0 9.8528958282604435 11.578720353572862 0 11.578720353572862 -114.91424005354202 0 0 0 0 25.280318439725306 4.5690611203172011 0 4.5690611203172011 -146.40972194596543 0 0 0 0 80.650191898645971 9.2509228535200236 0 9.2509228535200236 -158.07934497485257 0 0 0 0 22.923042713928226 -23.435190647098352 0 -23.435190647098352 -175.45217180158943 0 0 0 0 111.89532956478433 25.055396322684828 0 25.055396322684828 -155.65645871458401 0 0 0 0 134.47519265184928 38.712506060284795 0 38.712506060284795 -195.50966382044135 0 0 0 0 116.13204277507975 37.3646726939769 0 37.3646726939769 -149.30898148484994 0 0 0 0 -412.01637537788156 79.153443864342989 0 79.153443864342989 -175.97471732119902 0 0 0 0 -121.69880213104625 -32.955541342133074 0 -32.955541342133074 -148.81818167684833 0 0 0 0 -207.90345859414992 -44.82679750258103 0 -44.82679750258103 -116.6501005476166 0 0 0 0 -72.186178543721326 -53.567241060722154 0 -53.567241060722154 -178.99643250182089 0 0 0 0 -5.2670104531862307 -6.1496666587190703 0 -6.1496666587190703 -159.8245988934068 0 0 0 0 -66.869608390967187 -29.34596347855404 0 -29.34596347855404 -131.20787107376964 0 0 0 0 -5.2238815438977326 -6.5520277607138269 0 -6.5520277607138269 -123.54966977244476 0 0 0 0 -70.813346734919833 15.060485494155728 0 15.060485494155728 -98.18795994942775 0 0 0 0 -34.306002354020166 79.608543845562963 0 79.608543845562963 -104.22259776029387 0 0 0 0 -34.80332076162631 93.042263015799108 0 93.042263015799108 -103.16054853546666 0 0 0 0 31.355339821675443 104.40246919673518 0 104.40246919673518 -163.84930465003708 0 0 0 0 -196.03966738416079 125.81778329372537 0 125.81778329372537 -103.42614935274469 0 0 0 0 76.977255742945999 116.77674955425027 0 116.77674955425027 -273.90370583484764 0 0 0 0 43.037174217339917 30.135381823433988 0 30.135381823433988 -10.425953839524141 0 0 0 0 25.820077588432468 70.540404751489405 0 70.540404751489405 -78.627917437581345 0 0 0 0 11.712181095630548 3.7695966698991512 0 3.7695966698991512 0.69736441996474241 0 0 0 0 21.975480351582519 39.176478073160979 0 39.176478073160979 -129.95910742442356 0 0 0 0 54.78043867868837 37.937892690271838 0 37.937892690271838 -4.9146640222970746 0 0 0 0 49.858311477652023 43.718684317209409 0 43.718684317209409 -155.37879315589089 0 0 0 0 15.4922853823896 -0.099508505334497954 0 -0.099508505334497954 -11.131845342359043 0 0 0 0 58.300690608299192 60.511099641953479 0 60.511099641953479 -122.81889355456224 0 0 0 0 39.937313125432411 41.346006838650283 0 41.346006838650283 -27.951971331058303 0 0 0 0 3.8613548209838022 17.76224970077649 0 17.76224970077649 -22.621490722077738 0 0 0 0 56.296602693175373 45.329403775169339 0 45.329403775169339 -17.508736173869693 0 0 0 0 28.4224689974664 25.579894200641235 0 25.579894200641235 15.346794413110104 0 0 0 0 233.94574377781555 338.60639732462005 0 338.60639732462005 25.27670594213123 0 0 0 0 39.462529516405993 43.049863710974023 0 43.049863710974023 -24.081391265230195 0 0 0 0 35.31276549762697 45.937955161265563 0 45.937955161265563 -4.6701376097553293 0 0 0 0 35.361631292220409 29.940286645956803 0 29.940286645956803 -18.976279737958976 0 0 0 0 28.196768984493247 39.183458312025323 0 39.183458312025323 23.431679498833546 0 0 0 0 14.145490086542353 3.2450840897762845 0 3.2450840897762845 -6.196043669371079 0 0 0 0 263.87262251872244 91.334312435355969 0 91.334312435355969 -220.77432844924624 0 0 0 0 -99.534580429661673 128.19361290614324 0 128.19361290614324 221.63360003105481 0 0 0 0 61.057913998280895 37.44133579857953 0 37.44133579857953 -195.95817078089749 0 0 0 0 -157.53755531941579 -14.432819071851554 0 -14.432819071851554 10.499529161956161 0 0 0 0 -149.31704700692296 11.866900178807555 0 11.866900178807555 94.385074148187414 0 0 0 0 -7.1762726105571346 235.17323012366251 0 235.17323012366251 194.5671472756585 0 0 0 0 3.1714259657823867 2.586502094003805 0 2.586502094003805 0.41999518560657378 0 0 0 0 91.475275058781335 290.00818811292993 0 290.00818811292993 143.30853553925408 0 0 0 0 -246.43080319113369 -54.310086208803114 0 -54.310086208803114 -78.191049484299583 0 0 0 0 7.779654987185495 56.477951082866639 0 56.477951082866639 7.3225186843774281 0 0 0 0 11.613546456395852 29.72609069738246 0 29.72609069738246 6.0418016175390221 0 0 0 0 37.902491574594023 34.933347519021481 0 34.933347519021481 4.4081592401598755 0 0 0 0 54.471473048957705 60.769796825363301 0 60.769796825363301 5.6667847922544752 0 0 0 0 3.186930528163348 8.2455568389534477 0 8.2455568389534477 5.2247069913004225 0 0 0 0 -4.9160011093226785 41.49207643455884 0 41.49207643455884 -5.9191493874423031 0 0 0 0 27.699774788992933 21.633601670979886 0 21.633601670979886 11.756467288681165 0 0 0 0 12.104379936590703 57.769666267500725 0 57.769666267500725 0.56098756840219721 0 0 0 0 2.3511664600758522 18.782758994149134 0 18.782758994149134 1.4565539027879026 0 0 0 0 16.979962966388484 25.162274977668858 0 25.162274977668858 17.359564418293303 0 0 0 0 7.7922518791101538 29.606173410511474 0 29.606173410511474 74.362394037016202 0 0 0 0 10.399147666917997 25.305540717265103 0 25.305540717265103 20.183331827996881 0 0 0 0 -2.8979529977587344 7.8701450712996497 0 7.8701450712996497 25.358588121032881 0 0 0 0 15.756093533927924 22.87206266807334 0 22.87206266807334 21.142119070522313 0 0 0 0 12.164395929714978 13.800831860004024 0 13.800831860004024 4.1790946882318636 0 0 0 0 18.409744158698231 27.472509834748053 0 27.472509834748053 19.058828851615544 0 0 0 0 27.105607063809977 23.326262990307271 0 23.326262990307271 -14.64457961573477 0 0 0 0 31.36907580353909 47.015216110145047 0 47.015216110145047 35.587694584508426 0 0 0 0 32.646616093217744 61.884976625413401 0 61.884976625413401 58.192592262756079 0 0 0 0 22.135448790692628 23.389339051553776 0 23.389339051553776 -14.335346272586236 0 0 0 0 27.642134143599833 46.241528486527386 0 46.241528486527386 22.282934158582066 0 0 0 0 -0.92221735089576384 5.2731548068462359 0 5.2731548068462359 4.2455375118544509 0 0 0 0 -3.4722917214239715 39.958731054197415 0 39.958731054197415 -18.610952585189807 0 0 0 0 20.112322431450593 50.524174489539291 0 50.524174489539291 102.08320387009007 0 0 0 0 38.527888792807062 80.652655301753839 0 80.652655301753839 6.5291057166759856 0 0 0 0 39.450940997048747 64.39895877057279 0 64.39895877057279 59.118935101912939 0 0 0 0 39.496029287889542 114.1078171730187 0 114.1078171730187 -106.20132021866448 0 0 0 0 -25.752472623795256 55.166583387905121 0 55.166583387905121 1.5751160164363682 0 0 0 0 -13.786312120017101 44.08449369603477 0 44.08449369603477 4.7606214366678614 0 0 0 0 -37.329428350347371 30.849555539865833 0 30.849555539865833 -0.52530577180732507 0 0 0 0 14.437006173769987 8.6590563803474652 0 8.6590563803474652 5.4368301827344112 0 0 0 0 -209.65122535565024 72.572057492470776 0 72.572057492470776 0.6818855729943607 0 0 0 0 -1.7903411237751747 1.2701949292308612 0 1.2701949292308612 1.434410230688286 0 0 0 0 -43.311239224918609 175.85567934794744 0 175.85567934794744 0.1638301367056556 0 0 0 0 8.5927385084638672 4.1184966080487158 0 4.1184966080487158 -4.9648682271469227 0 0 0 0 21.534178793714091 19.317492760317691 0 19.317492760317691 4.689842729610973 0 0 0 0 12.374486947579499 11.884040014767379 0 11.884040014767379 6.139017365356267 0 0 0 0 8.6778411394616342 5.5492097183778242 0 5.5492097183778242 4.8600880793237593 0 0 0 0 1.0207802610067276 2.4025038647331094 0 2.4025038647331094 4.2894996736068833 0 0 0 0 23.402894156222828 12.659212635830045 0 12.659212635830045 0.016103427900816314 0 0 0 0 7.8579783786674753 -1.2702196016419407 0 -1.2702196016419407 -5.9659784443642252 0 0 0 0 19.35715624976001 15.005533329458558 0 15.005533329458558 -0.003017369707834402 0 0 0 0 22.163310291949529 11.765581540224957 0 11.765581540224957 3.7374480763101019 0 0 0 0 14.710386211142577 11.740467425021052 0 11.740467425021052 0.70590779314807151 0 0 0 0 10.227927995131722 15.462980932708888 0 15.462980932708888 0.00030039278499316424 0 0 0 0 10.108239611947283 11.942806859155098 0 11.942806859155098 2.9942591858416563 0 0 0 0 14.092574891918048 16.738360345618275 0 16.738360345618275 0.91103024754602302 0 0 0 0 19.96098806062173 13.560553385400453 0 13.560553385400453 0.044097605437855236 0 0 0 0 16.903350931430403 12.576162189977538 0 12.576162189977538 -0.3706210161535779 0 0 0 0 24.777236758865911 25.249028509962955 0 25.249028509962955 -3.3530971318978118 0 0 0 0 2.9969331891981899 8.2346589104430876 0 8.2346589104430876 -3.5817210983533414 0 0 0 0 10.235694236274867 12.331047651437984 0 12.331047651437984 2.6152140100020915 0 0 0 0 18.260462538582942 16.046000561764231 0 16.046000561764231 -21.173489887907635 0 0 0 0 19.222373240394518 9.7456241148611298 0 9.7456241148611298 -18.409496770123951 0 0 0 0 11.416638597576585 12.359501759699896 0 12.359501759699896 3.3029337003347692 0 0 0 0 3.8937191004092711 25.292505721947236 0 25.292505721947236 -11.441137472167611 0 0 0 0 2.7793382275848408 0.8161399597729968 0 0.8161399597729968 -3.9665894306079963 0 0 0 0 7.7304577473828431 16.613277847063728 0 16.613277847063728 -2.0605732920230366 0 0 0 0 -1.9044501800367541 5.6198247000567108 0 5.6198247000567108 -1.7138777550429154 0 0 0 0 -1.9830448751190488 39.728658133433782 0 39.728658133433782 -18.626730062385832 0 0 0 0 -72.754450121395166 31.412434639103594 0 31.412434639103594 32.242933070025174 0 0 0 0 21.756866733640894 31.559976070502245 0 31.559976070502245 13.873226039751898 0 0 0 0 21.675607527828106 16.224508007268014 0 16.224508007268014 -2.2043534514232306 0 0 0 0 15.337384482140447 14.23675545896451 0 14.23675545896451 0.97669271099101707 0 0 0 0 5.9391428365979664 32.773287389762118 0 32.773287389762118 -17.34705834829947 0 0 0 0 19.821992461427726 31.640655362709367 0 31.640655362709367 14.646112768765306 0 0 0 0 16.051419920343051 25.687547641693527 0 25.687547641693527 18.174710166291334 0 0 0 0 7.3180055917429883 9.2005135878836484 0 9.2005135878836484 -1.5597747600245384 0 0 0 0 129.85157479365444 34.073063627583906 0 34.073063627583906 -54.305418768250092 0 0 0 0 66.102816537145372 45.958341802586801 0 45.958341802586801 -56.485103901919501 0 0 0 0 49.220352596574855 46.667260446831278 0 46.667260446831278 -33.825997407024261 0 0 0 0 86.152328877729815 12.399155361468729 0 12.399155361468729 -38.881939428101759 0 0 0 0 27.608777343625661 18.143767707500956 0 18.143767707500956 -31.034376506962872 0 0 0 0 27.918056057498774 23.746874152439887 0 23.746874152439887 -14.713153051299741 0 0 0 0 -23.578488917793948 17.626936721659149 0 17.626936721659149 -11.834613674582215 0 0 0 0 23.312082762349746 -3.9200320151139749 0 -3.9200320151139749 -33.399571324742283 0 0 0 0 94.657837599206687 -13.67638544960937 0 -13.67638544960937 -32.088824294809456 0 0 0 0 -75.716108511754896 -31.333008752213573 0 -31.333008752213573 58.73101482274069 0 0 0 0 -18.143042642971977 95.170344523903623 0 95.170344523903623 -58.040015935570409 0 0 0 0 2.0521778399187482 -0.49796346311367756 0 -0.49796346311367756 -0.92486933464724075 0 0 0 0 13.496467979227582 7.9720102613822945 0 7.9720102613822945 -0.62071734108002374 0 0 0 0 0.53635236383342999 17.263515180904506 0 17.263515180904506 -12.003262622252805 0 0 0 0 -2.6430993816953219 11.280262865671773 0 11.280262865671773 4.8883535768015491 0 0 0 0 171.20936585070626 -16.01300689184427 0 -16.01300689184427 -38.722598740569083 0 0 0 0 73.983816421183292 86.473694963904563 0 86.473694963904563 -45.369316213007551 0 0 0 0 117.59986514429943 123.2548743665393 0 123.2548743665393 -69.813086647482123 0 0 0 0 76.461744498909695 32.77913518956484 0 32.77913518956484 35.76670241728425 0 0 0 0 90.771132510789812 131.79639497406606 0 131.79639497406606 130.00158033218759 0 0 0 0 8.0673632867327019 2.5941076573916462 0 2.5941076573916462 -0.28682749060043022 0 0 0 0 3.0954317758857908 5.8141977763297206 0 5.8141977763297206 6.1085342156239335 0 0 0 0 -0.81665232134446342 9.4436537941655843 0 9.4436537941655843 -2.0874798649492732 0 0 0 0 2.4290744917252596 13.583921051103971 0 13.583921051103971 1.7377776089706458 0 0 0 0 2.0838413404994562 0.31576675534373067 0 0.31576675534373067 1.0118066600891211 0 0 0 0 6.3807152080223659 16.391133906785399 0 16.391133906785399 -1.8535634086874779 0 0 0 0 -0.70412181631490967 8.7647221198567422 0 8.7647221198567422 -1.8672775198155875 0 0 0 0 -1.792343320987678 0.41876196490048301 0 0.41876196490048301 2.9950903379200327 0 0 0 0 602.26661816445676 23.093306994967861 0 23.093306994967861 -100.57969936127483 0 0 0 0 -8.2012544178946882 13.986280938279378 0 13.986280938279378 -0.010872773942537606 0 0 0 0 -8.6499425454832135 -1.776823863699974 0 -1.776823863699974 -0.96236365917502553 0 0 0 0 -0.037138347278224515 0.92965320007904495 0 0.92965320007904495 3.3106181511044497 0 0 0 0 3.2237832602100758 6.7445316176405932 0 6.7445316176405932 4.9954010963404016 0 0 0 0 -160.29852890072789 752.54358769828832 0 752.54358769828832 -0.83882345596794039 0 0 0 0 -776.51641351866499 101.69080994007891 0 101.69080994007891 342.94966418584227 0 0 0 0 1834.5061517948507 1282.8503875698152 0 1282.8503875698152 0.94878203321748511 0 0 0 0 4429.9759163536082 488.31020798475879 0 488.31020798475879 -827.38364688234287 0 0 0 0 475.1314922644442 -643.27380350924795 0 -643.27380350924795 -235.33103210430136 0 0 0 0 449.60235530411001 85.676481815055013 0 85.676481815055013 -125.98643662390532 0 0 0 0 -91.408710186664393 35.908307968944428 0 35.908307968944428 -62.899953392421594 0 0 0 0 -155.53240731791993 -515.51198941438633 0 -515.51198941438633 -44.488666871446185 0 0 0 0 -115.16982944260235 913.96732063845411 0 913.96732063845411 -0.28483400010736659 0 0 0 0 1569.6067916888069 377.7208988771381 0 377.7208988771381 -655.88638820963388 0 0 0 0 -317.50272425012372 284.79664588489686 0 284.79664588489686 -358.22394376691955 0 0 0 0 -118.78322360692255 1382.3423489520283 0 1382.3423489520283 1836.5075847981097 0 0 0 0 1932.699787313788 1069.9663388800254 0 1069.9663388800254 -2013.8443294222598 0 0 0 0 8.2006342113825283 8.3815248344890563 0 8.3815248344890563 4.5311922672044318 0 0 0 0 1469.6893778556296 1406.4855366292104 0 1406.4855366292104 723.65090144593705 0 0 0 0 1.0663665978760526 19.382021891383754 0 19.382021891383754 12.373818442307481 0 0 0 0 -238.1792769703726 194.75643908213169 0 194.75643908213169 41.714656853408087 0 0 0 0 140.88821406480338 -9.9644790624297457 0 -9.9644790624297457 -19.807975166666438 0 0 0 0 348.99485333202824 484.01017655545729 0 484.01017655545729 -210.50553776206175 0 0 0 0 2155.7141629877433 1004.3582052023958 0 1004.3582052023958 636.81723373327986 0 0 0 0 1996.6821781542976 1509.5272143698385 0 1509.5272143698385 -47.296199427357351 0 0 0 0 1458.1496188092242 310.69092184041801 0 310.69092184041801 34.330674668810389 0 0 0 0 50.491578548436593 39.820101085403621 0 39.820101085403621 -34.094655211127247 0 0 0 0 -9.0431014208339775 36.150192276953021 0 36.150192276953021 -26.829908003797755 0 0 0 0 33.849513072158175 44.057830319365166 0 44.057830319365166 1.4674664443155052 0 0 0 0 -0.23882371878780573 23.426687002494425 0 23.426687002494425 12.836359817612333 0 0 0 0 43.129620598328074 47.0541474075726 0 47.0541474075726 -23.456748157550464 0 0 0 0 36.465971599528586 29.139483372995528 0 29.139483372995528 21.045798920589732 0 0 0 0 817.8085953749669 171.73457036605396 0 171.73457036605396 43.756948292902962 0 0 0 0 468.49818030200186 122.56281222758844 0 122.56281222758844 78.557474236979033 0 0 0 0 865.29481510618803 323.5251322756576 0 323.5251322756576 263.99774146382697 0 0 0 0 208.93030683020697 848.18017165356287 0 848.18017165356287 486.5695711599983 0 0 0 0 61.774989811284286 754.38828696632117 0 754.38828696632117 856.97956930195505 0 0 0 0 106.06157014703149 417.74705703122527 0 417.74705703122527 959.37375338836864 0 0 0 0 212.28820831454505 61.056801408216415 0 61.056801408216415 342.27812673110748 0 0 0 0 212.42107205136017 334.68739858468325 0 334.68739858468325 233.36598370289721 0 0 0 0 662.04049592492811 686.25598237880331 0 686.25598237880331 498.24459802344791 0 0 0 0 288.70389883139069 288.38137641499634 0 288.38137641499634 252.47851677727886 0 0 0 0 464.10783101598372 85.029648326534698 0 85.029648326534698 -9.5614093827607576 0 0 0 0 451.41247941276379 274.32382583817525 0 274.32382583817525 19.091403204685776 0 0 0 0 365.91242699453142 109.64277695874625 0 109.64277695874625 -169.66741273943626 0 0 0 0 292.84215880416377 202.46074390140711 0 202.46074390140711 -50.807015512124053 0 0 0 0 273.41191700927811 179.267636929937 0 179.267636929937 -326.90070964721963 0 0 0 0 -0.33735954020812642 232.96506997181859 0 232.96506997181859 276.1844813610951 0 0 0 0 255.93080279529386 173.9523452387657 0 173.9523452387657 72.495077478073654 0 0 0 0 213.34962259127133 188.89871041227161 0 188.89871041227161 -327.25642364341593 0 0 0 0 380.16972867826917 283.04644779501177 0 283.04644779501177 -762.65627769783896 0 0 0 0 266.36777098137827 405.0465526880289 0 405.0465526880289 -267.85326415262534 0 0 0 0 406.44009192681369 182.3319610320832 0 182.3319610320832 -168.14427471850649 0 0 0 0 357.98468107999724 285.96552076585795 0 285.96552076585795 -338.4871369501343 0 0 0 0 311.31776181235909 312.87634385966521 0 312.87634385966521 -290.42748249229044 0 0 0 0 403.23511395526293 321.53837007527181 0 321.53837007527181 -548.47474378964398 0 0 0 0 311.60290852088656 345.55944051952974 0 345.55944051952974 -253.08704186316754 0 0 0 0 141.44660922512412 621.64222621967201 0 621.64222621967201 -417.99166216476442 0 0 0 0 -16.937219059760537 451.14810139723704 0 451.14810139723704 -72.974828232938307 0 0 0 0 480.60312599108511 15.152464233382489 0 15.152464233382489 16.986852778572938 0 0 0 0 99.202668672487562 206.24082271359657 0 206.24082271359657 163.98307515744818 0 0 0 0 614.09574165843514 146.56383469636785 0 146.56383469636785 15.203025059967331 0 0 0 0 -3.9635132463500184 6.763947018058758 0 6.763947018058758 -0.2067954255169866 0 0 0 0 -30.470281663816422 40.523788337595761 0 40.523788337595761 96.664607673505088 0 0 0 0 43.459583818108655 23.471467902062237 0 23.471467902062237 -11.244490556153153 0 0 0 0 356.46201512093467 -128.21963245383813 0 -128.21963245383813 -34.094718219501374 0 0 0 0 -1.6536553660464364 6.5055109427011075 0 6.5055109427011075 4.443886617967884 0 0 0 0 62.215193779762558 124.77719643499586 0 124.77719643499586 -8.7137228748470079 0 0 0 0 18.848825048577446 12.035831531425657 0 12.035831531425657 -0.96830586233627969 0 0 0 0 -100.50998274549784 -64.21623911660572 0 -64.21623911660572 189.81678419529635 0 0 0 0 13.606917340299333 8.1091674368799431 0 8.1091674368799431 -9.2295328670043091 0 0 0 0 21.792217285893642 8.7251204914146854 0 8.7251204914146854 -11.058864141348749 0 0 0 0 6.9670038182558756 24.999795644222104 0 24.999795644222104 -15.825625513258274 0 0 0 0 20.26835240041013 1.801820105037649 0 1.801820105037649 -14.122509159665213 0 0 0 0 65.069049641899142 29.415286472336447 0 29.415286472336447 2.4010673947050236 0 0 0 0 -0.66410484849801754 26.468068834077457 0 26.468068834077457 8.421499273878851 0 0 0 0 539.50799171856465 92.535501927179666 0 92.535501927179666 -18.093770459614461 0 0 0 0 -59.283020488459442 678.75191450868442 0 678.75191450868442 126.06755885636449 0 0 0 0 -181.07619650230481 610.898039984153 0 610.898039984153 150.9128473127239 0 0 0 0 -401.81156730934526 766.10104386557578 0 766.10104386557578 948.9191241190274 0 0 0 0 -2028.4641342147188 2277.4027027626289 0 2277.4027027626289 2404.1582703521635 0 0 0 0 84.425414395973547 65.612938156048656 0 65.612938156048656 36.863436514449972 0 0 0 0 -39.026135377731407 198.39748744569806 0 198.39748744569806 -774.25571690997458 0 0 0 0 2.9497558355615183 550.76839196924266 0 550.76839196924266 -851.75303537882792 0 0 0 0 -166.66450935115427 256.90214984599879 0 256.90214984599879 -846.38407324277068 0 0 0 0 76.028144925114248 667.01713188881331 0 667.01713188881331 -765.21221247920766 0 0 0 0 -306.65235435399882 1080.0929395957137 0 1080.0929395957137 -855.78434501151787 0 0 0 0 237.49711617499634 315.56497204568586 0 315.56497204568586 -1797.349309047655 0 0 0 0 -349.05477930408779 7.8646607847913401 0 7.8646607847913401 -306.61382763881556 0 0 0 0 215.11117834358254 185.91467730889963 0 185.91467730889963 -1175.491911426594 0 0 0 0 90.049106213482446 431.80672012525611 0 431.80672012525611 78.399102092240355 0 0 0 0 83.977749081237562 452.96169033173646 0 452.96169033173646 233.61184910598968 0 0 0 0 -394.57241856622477 567.018605742207 0 567.018605742207 215.86082776607509 0 0 0 0 669.40620875926106 1184.1798083786689 0 1184.1798083786689 977.40963012589782 0 0 0 0 219.24564188954446 99.125793539671577 0 99.125793539671577 1004.1771877117571 0 0 0 0 304.09056879338459 262.34574443904421 0 262.34574443904421 134.9181015530703 0 0 0 0 -162.25508166272994 603.34740005212734 0 603.34740005212734 2011.8929497590871 0 0 0 0 -473.8934382980442 678.32971456142332 0 678.32971456142332 2307.0418115493958 0 0 0 0 -44.875903932512301 1052.3176155363353 0 1052.3176155363353 839.34569562372053 0 0 0 0 -162.07854971648339 836.22227949728403 0 836.22227949728403 919.42199220636394 0 0 0 0 -384.50042721844875 829.81145700650086 0 829.81145700650086 1358.9284690339846 0 0 0 0 -97.920227582642838 518.29058248165529 0 518.29058248165529 879.89751977546257 0 0 0 0 -323.70711529648906 540.83037064853852 0 540.83037064853852 1279.7135379948522 0 0 0 0 29.156062026748259 -52.034185678512586 0 -52.034185678512586 182.32822058701277 0 0 0 0 -33.702371489651341 146.05545238395644 0 146.05545238395644 903.76110004613292 0 0 0 0 -2.3695621500701236 -515.10419212164561 0 -515.10419212164561 1793.5992458433211 0 0 0 0 4.7753622286508204 27.515745844222785 0 27.515745844222785 46.284187993344517 0 0 0 0 -1146.3603076555155 931.48085259147774 0 931.48085259147774 -727.99585419752111 0 0 0 0 -69.821022052681656 168.09984788610745 0 168.09984788610745 214.305151062199 0 0 0 0 -281.728148402648 1483.0085782683236 0 1483.0085782683236 1469.0684647393828 0 0 0 0 1.45931678352094 7.2321301790756181 0 7.2321301790756181 21.943250572192596 0 0 0 0 18.383419691963354 980.09753020290373 0 980.09753020290373 -400.26107528078137 0 0 0 0 -977.38077671694555 523.13954665546044 0 523.13954665546044 -266.33223602163343 0 0 0 0 -180.15556361426485 515.72131202478761 0 515.72131202478761 -980.30416258408513 0 0 0 0 -109.76638969909467 621.74320891335174 0 621.74320891335174 -120.23352551217249 0 0 0 0 -187.92303947423352 869.47098565558554 0 869.47098565558554 -343.47727428960934 0 0 0 0 13.003800962787111 16.971430569723822 0 16.971430569723822 10.362616318462983 0 0 0 0 -536.10341431712322 1394.8666304079129 0 1394.8666304079129 -1103.3261717827118 0 0 0 0 4.9394119176119418 13.745305086214046 0 13.745305086214046 9.4793233877728653 0 0 0 0 -570.25798733766715 672.68164259676269 0 672.68164259676269 -1042.7810341987824 0 0 0 0 -707.6977429108656 580.47908615522101 0 580.47908615522101 -0.45034602232044563 0 0 0 0 -407.92598278362129 560.21911923387961 0 560.21911923387961 -625.96948156983126 0 0 0 0 -500.45747659997141 480.80768145165348 0 480.80768145165348 -487.26207173761941 0 0 0 0 -2056.0004719158751 1557.232208760106 0 1557.232208760106 -1211.6478738478036 0 0 0 0 -2270.3198890182102 1674.1122711148346 0 1674.1122711148346 -1207.9570317371399 0 0 0 0 -2270.3198890179046 1674.1122711151838 0 1674.1122711151838 -1207.9570317387115 0 0 0 0 -2017.8928462637887 1676.5854128414503 0 1676.5854128414503 -1270.8365353061236 0 0 0 0 -2270.3198890183121 1674.1122711146309 0 1674.1122711146309 -1207.9570317378384 0 0 0 0 -2166.3575305798004 1703.4641367049189 0 1703.4641367049189 -1274.2652095554076 0 0 0 0 -1212.3581961566306 897.67500798434776 0 897.67500798434776 -742.30242744834686 0 0 0 0 -418.18717874771028 899.81985850786441 0 899.81985850786441 -1495.1189604159299 0 0 0 0 -1960.2763028886875 1473.0044577467852 0 1473.0044577467852 -1171.7073491627234 0 0 0 0 -911.95566457825771 1362.6512062111869 0 1362.6512062111869 -1924.981355623735 0 0 0 0 -210.2631893546677 204.06336778080549 0 204.06336778080549 -0.34165113123890478 0 0 0 0 -1505.875471378793 1670.6503255578864 0 1670.6503255578864 -1923.3490338629522 0 0 0 0 -1.7501331320743105 7.0056356123239425 0 7.0056356123239425 3.5228397367143316 0 0 0 0 4.9815076730111798 3.3141578652376396 0 3.3141578652376396 -17.443058311566062 0 0 0 0 158.44259566334222 19.874598519381834 0 19.874598519381834 -89.248725389043102 0 0 0 0 -2213.93724720004 1968.6340337764395 0 1968.6340337764395 -1455.1433258489997 0 0 0 0 -1802.936782603545 1332.3010034871404 0 1332.3010034871404 -1227.6522986983691 0 0 0 0 -1543.1550836219649 1723.0985658717982 0 1723.0985658717982 -1633.4961892145802 0 0 0 0 -1954.0565493118484 1968.2918910711523 0 1968.2918910711523 -1779.8029025825963 0 0 0 0 -2013.7879124383944 2002.7196262492944 0 2002.7196262492944 -1671.336195361102 0 0 0 0 -832.71533392422134 2139.4244870576367 0 2139.4244870576367 -1927.4361509868759 0 0 0 0 75.715520599878801 205.00615754741011 0 205.00615754741011 -262.94998152103653 0 0 0 0 -1258.4858061995001 876.92522791822557 0 876.92522791822557 -3.5973615182083449 0 0 0 0 126.45288279247325 71.321464288848802 0 71.321464288848802 -126.50503350683721 0 0 0 0 18.812495427379034 49.848353078637643 0 49.848353078637643 -9.1649142155317946 0 0 0 0 70.473011041140126 58.676570669791545 0 58.676570669791545 -37.167782769960468 0 0 0 0 106.56797298083075 32.718570962173544 0 32.718570962173544 -71.401183443034824 0 0 0 0 -7.695532943114813 111.17032094084425 0 111.17032094084425 -67.842759537343227 0 0 0 0 -20.260881744961807 98.133518319162249 0 98.133518319162249 89.682848894852214 0 0 0 0 22.354678954440715 49.425227780988138 0 49.425227780988138 -13.652501122380698 0 0 0 0 -0.44225797148101265 85.296163169241481 0 85.296163169241481 -12.994172296661418 0 0 0 0 -28.260152998227568 237.86867762682959 0 237.86867762682959 -25.520011491855257 0 0 0 0 -22.879434892060999 208.77385041021626 0 208.77385041021626 97.818169483623933 0 0 0 0 46.155203777303541 243.43233366728964 0 243.43233366728964 0.63317262127384311 0 0 0 0 -0.68374791858514072 165.49270388232253 0 165.49270388232253 309.18680078731268 0 0 0 0 -11.771573634410743 105.6294318340224 0 105.6294318340224 74.36039725268347 0 0 0 0 73.449901936837705 308.05618155382399 0 308.05618155382399 219.85946821596008 0 0 0 0 -26.927713189565111 -63.053509412129642 0 -63.053509412129642 -84.395983931797673 0 0 0 0 0.61057528128549166 4.2475812852305239 0 4.2475812852305239 1.3696366598635805 0 0 0 0 -40.408173400785017 93.745117670412583 0 93.745117670412583 486.64717337441834 0 0 0 0 -0.73270167342857917 3.4929849064178029 0 3.4929849064178029 0.97884082029775499 0 0 0 0 2.4449093081784667 106.28161246783566 0 106.28161246783566 -172.2553249927405 0 0 0 0 112.82567344519339 79.087473378254799 0 79.087473378254799 90.610648376954487 0 0 0 0 76.457038571206795 231.03315925954666 0 231.03315925954666 262.9009329991386 0 0 0 0 26.276296365265807 -1.6773053749384417 0 -1.6773053749384417 169.11980994592886 0 0 0 0 34.198473442993418 54.579389468737645 0 54.579389468737645 38.698453099408653 0 0 0 0 -2.1747968302079244 -26.773695929776295 0 -26.773695929776295 329.46379123759107 0 0 0 0 93.513232358542155 -28.828394111456873 0 -28.828394111456873 28.322628317253475 0 0 0 0 22.47578881567938 49.836090703033506 0 49.836090703033506 -12.730513986583304 0 0 0 0 -52.841446234699106 -30.914475534114899 0 -30.914475534114899 426.91202117827925 0 0 0 0 -27.290514820941098 -52.896808075822264 0 -52.896808075822264 380.49832153054012 0 0 0 0 -188.97952444410475 -40.721071542211575 0 -40.721071542211575 328.16866552288411 0 0 0 0 -16.023021338827675 -88.538947984037804 0 -88.538947984037804 337.87984617301117 0 0 0 0 -75.22806183949433 -88.459740587051783 0 -88.459740587051783 289.85646631495911 0 0 0 0 -75.141506112871866 -152.96196300808515 0 -152.96196300808515 345.81583906157175 0 0 0 0 -44.463008051825454 -102.98018888702791 0 -102.98018888702791 295.41141342444098 0 0 0 0 61.229597918900254 -134.27451851314254 0 -134.27451851314254 301.99481314571312 0 0 0 0 88.797023477207404 -174.43417092544769 0 -174.43417092544769 324.67221614561277 0 0 0 0 110.21557124822357 64.748833127127 0 64.748833127127 419.92944624499069 0 0 0 0 261.7004393794341 1.2208482375644962 0 1.2208482375644962 212.34966116853502 0 0 0 0 156.09439593421484 72.759188096788421 0 72.759188096788421 246.30080247251499 0 0 0 0 10.112145822131424 125.99614371808275 0 125.99614371808275 234.43644240860885 0 0 0 0 16.555426821396395 -68.12102553355362 0 -68.12102553355362 202.98955853706866 0 0 0 0 38.890093728070497 61.196342496579746 0 61.196342496579746 81.709275626667932 0 0 0 0 -9.576212364147068 53.538208914033021 0 53.538208914033021 -96.209591443897807 0 0 0 0 3.316817041097238 19.096854744435404 0 19.096854744435404 83.152948531977017 0 0 0 0 4.5797005178174004 4.4318982877011877 0 4.4318982877011877 0.000290898751700297 0 0 0 0 27.288299310908769 29.203947198649985 0 29.203947198649985 52.680677397060208 0 0 0 0 8.1112094008048814 6.8463017920295215 0 6.8463017920295215 0.94358573590072581 0 0 0 0 2.3893922572182191 4.4726338966884214 0 4.4726338966884214 -0.57936909051258567 0 0 0 0 4.8829809876915533 8.0471538182464428 0 8.0471538182464428 112.47047219137312 0 0 0 0 -0.8600331204778513 3.5589241696310978 0 3.5589241696310978 0.89677663980006628 0 0 0 0 23.784734078973997 13.592433069308754 0 13.592433069308754 -168.64768623243435 0 0 0 0 111.09857988964359 177.93873158789938 0 177.93873158789938 -4.5792180861314407 0 0 0 0 28.269092086899036 52.533816528455645 0 52.533816528455645 104.80169962115724 0 0 0 0 -1.5269801907652436 28.109339986594932 0 28.109339986594932 142.44499930029269 0 0 0 0 25.156699793369626 76.149212919139245 0 76.149212919139245 156.19996100227945 0 0 0 0 13.711087640469486 74.185208583643544 0 74.185208583643544 175.14211587126192 0 0 0 0 2.933124479593971 50.236096224220091 0 50.236096224220091 193.86772566421132 0 0 0 0 4.022508409802299 6.3242776263474241 0 6.3242776263474241 1.7263901826332102 0 0 0 0 3.6478371137927752 1.1037128285679501 0 1.1037128285679501 0.099227276557940058 0 0 0 0 -32.608711724504246 23.605315503009479 0 23.605315503009479 -170.21562940907461 0 0 0 0 -38.104948290587345 12.889533892142936 0 12.889533892142936 -0.31743113111588173 0 0 0 0 -9.7916642428317573 10.258248562022345 0 10.258248562022345 -5.9879991937050363 0 0 0 0 -0.68696766193968983 4.0467568043397932 0 4.0467568043397932 1.0430610410324448 0 0 0 0 51.325204671215033 60.586900992435403 0 60.586900992435403 -154.25640349125752 0 0 0 0 4.3135533967324591 16.459720655817364 0 16.459720655817364 294.6822587360075 0 0 0 0 2.0202187409886392 65.947906485722342 0 65.947906485722342 169.65486055641668 0 0 0 0 114.31770307010447 61.193275005221949 0 61.193275005221949 398.36532638165227 0 0 0 0 -33.847072613643832 -66.591455977744772 0 -66.591455977744772 391.34406077087624 0 0 0 0 -165.66418286632688 33.802710602918523 0 33.802710602918523 409.60302122295252 0 0 0 0 -139.66929535976328 -51.115222043658434 0 -51.115222043658434 268.2904856572859 0 0 0 0 -138.38237697866862 124.62699525542848 0 124.62699525542848 180.61064112564054 0 0 0 0 -27.140314884716645 -17.75592292395595 0 -17.75592292395595 266.8766430196265 0 0 0 0 7.1896320142914192 5.5833910298788396 0 5.5833910298788396 428.11710988380219 0 0 0 0 -100.61336683228546 197.24931370757804 0 197.24931370757804 213.21037268692453 0 0 0 0 22.281832252399653 51.5446835780605 0 51.5446835780605 -12.789994371987831 0 0 0 0 -138.74189114524779 168.49783745161403 0 168.49783745161403 673.16098741981114 0 0 0 0 23.662524229609062 313.79196158272339 0 313.79196158272339 299.26530571226613 0 0 0 0 -65.606578626888222 181.602700633106 0 181.602700633106 379.43095606662246 0 0 0 0 28.558033743945998 192.85947520653281 0 192.85947520653281 88.975415974942734 0 0 0 0 25.755221418716872 52.299232999757862 0 52.299232999757862 -14.096514405901843 0 0 0 0 -99.560834070827696 288.46703823939242 0 288.46703823939242 513.61713695684011 0 0 0 0 11.186117302073399 54.334453614632366 0 54.334453614632366 142.9919328200267 0 0 0 0 37.812163885624614 216.60742663880228 0 216.60742663880228 -405.99690890705097 0 0 0 0 36.083351093446254 258.82657921618011 0 258.82657921618011 -58.299793126105214 0 0 0 0 75.161535045486858 38.436071801133053 0 38.436071801133053 13.056318578373961 0 0 0 0 -53.520811883616261 207.78354411464534 0 207.78354411464534 30.775005275529111 0 0 0 0 -19.335083394482353 109.74343397124176 0 109.74343397124176 -335.77866408096452 0 0 0 0 -110.68987732815003 256.13680702931015 0 256.13680702931015 79.248465877228227 0 0 0 0 -49.465967010954046 244.0343335567668 0 244.0343335567668 -204.06601308961399 0 0 0 0 -128.49836527651132 106.44469951844803 0 106.44469951844803 35.350474082661094 0 0 0 0 -260.20396017831808 351.13209632215148 0 351.13209632215148 -243.57705212837755 0 0 0 0 23.039744593610521 86.270974737824872 0 86.270974737824872 -85.709161095299351 0 0 0 0 101.37032039870974 206.84274428557546 0 206.84274428557546 -773.2455772801186 0 0 0 0 -278.69566006077639 126.93483544948594 0 126.93483544948594 -313.54624628133024 0 0 0 0 -368.91091328294715 519.23171297073714 0 519.23171297073714 -270.74873356410535 0 0 0 0 -383.66369520231092 187.86525583830371 0 187.86525583830371 305.73203756927978 0 0 0 0 19.371635411641506 11.468530019853347 0 11.468530019853347 3.8573577361734124 0 0 0 0 -140.35679080526461 453.66862924487214 0 453.66862924487214 -341.08434053759265 0 0 0 0 -159.90509492394631 548.92752409609966 0 548.92752409609966 -674.81907318651793 0 0 0 0 -141.15311210323125 393.23024043106125 0 393.23024043106125 -278.1579722261522 0 0 0 0 -106.35344023627113 388.26121181133203 0 388.26121181133203 -297.74381965689827 0 0 0 0 -96.144053956144489 430.9741113599739 0 430.9741113599739 -357.67040041377186 0 0 0 0 -112.30283390847035 399.11505517351907 0 399.11505517351907 -315.86129800830531 0 0 0 0 -70.059361866646213 404.75332979549421 0 404.75332979549421 -335.19818623788888 0 0 0 0 -82.799008119356586 451.82944781766855 0 451.82944781766855 -408.81987172336085 0 0 0 0 -118.11423263236065 436.4527510800981 0 436.4527510800981 -349.02776858051948 0 0 0 0 -143.10204875064665 317.49395047802682 0 317.49395047802682 -320.93762999179307 0 0 0 0 -90.605770877278701 355.47375717743125 0 355.47375717743125 -295.06450398624293 0 0 0 0 -107.71055204639561 221.21960506628966 0 221.21960506628966 -361.75530487425567 0 0 0 0 -88.456181387657125 373.16029183234787 0 373.16029183234787 -519.37876749190036 0 0 0 0 -108.08129318681313 210.15738728888391 0 210.15738728888391 -682.85602945517348 0 0 0 0 -156.16683710640064 249.98996369220549 0 249.98996369220549 -200.45779110978765 0 0 0 0 -180.44589095143874 118.09979817706062 0 118.09979817706062 -105.7244960986427 0 0 0 0 -225.68428995234717 160.4252422326681 0 160.4252422326681 211.32290201564956 0 0 0 0 -115.26383347609953 205.99978409612959 0 205.99978409612959 -27.117748077405849 0 0 0 0 -144.12463867659972 293.65615232408163 0 293.65615232408163 -238.33253242755018 0 0 0 0 -251.72309913442587 264.36612586410774 0 264.36612586410774 -59.37298461930186 0 0 0 0 -202.41264154154487 90.987918210721546 0 90.987918210721546 162.96341736076283 0 0 0 0 -276.49031622153416 109.28042535670102 0 109.28042535670102 176.08014154406555 0 0 0 0 -244.81134137745403 120.67355214949771 0 120.67355214949771 172.44979615288321 0 0 0 0 -414.97005514668854 326.03913301222201 0 326.03913301222201 -27.992112265783362 0 0 0 0 -367.68695683819533 348.53097478039854 0 348.53097478039854 -17.402620794862742 0 0 0 0 -162.1411306377704 271.10266740967927 0 271.10266740967927 -112.38344782276545 0 0 0 0 -262.45340865073376 433.59131863657967 0 433.59131863657967 -234.98028213591897 0 0 0 0 -269.52962366906286 445.58900693474425 0 445.58900693474425 -252.71187892113812 0 0 0 0 -114.93857070839294 428.43264562558034 0 428.43264562558034 -329.68200885533588 0 0 0 0 -162.12856842996553 453.63528717888403 0 453.63528717888403 -337.52907287598646 0 0 0 0 -211.29907152883243 510.448112316677 0 510.448112316677 -402.11317459333804 0 0 0 0 -318.81305475140107 470.00875994356466 0 470.00875994356466 -245.20809194084723 0 0 0 0 -324.56312242388958 511.7826885425311 0 511.7826885425311 -353.54843851683836 0 0 0 0 -503.97159874574936 512.40438483016987 0 512.40438483016987 -193.12995909887832 0 0 0 0 -303.05116533339606 512.81347902951529 0 512.81347902951529 -1066.5504867968389 0 0 0 0 25.068133101653473 22.42632894366858 0 22.42632894366858 5.5038431459483164 0 0 0 0 42.719934230996842 -266.41027131903638 0 -266.41027131903638 -129.34224386590358 0 0 0 0 -299.27098539550207 598.94353287329432 0 598.94353287329432 -752.33054392892245 0 0 0 0 -305.45110913034296 545.05143775587203 0 545.05143775587203 -753.52001514088442 0 0 0 0 -422.33364374762459 536.59571078669978 0 536.59571078669978 -571.29582097864477 0 0 0 0 -526.66910858408664 680.3654492025089 0 680.3654492025089 -741.76620547519997 0 0 0 0 -450.29692359552428 633.56435185251758 0 633.56435185251758 -543.85420890996465 0 0 0 0 -402.0827439694549 523.54077522142325 0 523.54077522142325 -354.56475070918168 0 0 0 0 -236.51196640491253 556.65480128934723 0 556.65480128934723 -570.86743759986712 0 0 0 0 -197.216872189485 472.2867283266969 0 472.2867283266969 -403.91784352331888 0 0 0 0 -114.30021549743833 487.77933916053735 0 487.77933916053735 -511.95406738558086 0 0 0 0 -4.6931672942009754 355.70281158894068 0 355.70281158894068 -544.55152967217145 0 0 0 0 -95.195399889489636 472.41245930804871 0 472.41245930804871 -683.86176166438963 0 0 0 0 -95.253999413718702 470.13115564535838 0 470.13115564535838 -761.88116499874741 0 0 0 0 -268.4702542705927 518.3303213299514 0 518.3303213299514 -562.73606432043016 0 0 0 0 59.731133541092277 415.33981572615448 0 415.33981572615448 -1068.3462076353608 0 0 0 0 -177.73725305870175 518.95564492535777 0 518.95564492535777 -781.80811966242618 0 0 0 0 -19.505062932574219 428.38665937415681 0 428.38665937415681 -917.14648430247325 0 0 0 0 203.48425600063638 245.12305319178267 0 245.12305319178267 -986.50507719287998 0 0 0 0 65.135443681196193 311.91143371205544 0 311.91143371205544 -754.34552891051862 0 0 0 0 65.906837168382481 312.17769578873413 0 312.17769578873413 -766.44537859549746 0 0 0 0 -20.166023096520803 420.57387484074025 0 420.57387484074025 -858.6827806008514 0 0 0 0 262.58820013422519 155.98735626600683 0 155.98735626600683 -869.12490152404644 0 0 0 0 -136.79069366137264 551.04994255589554 0 551.04994255589554 -985.85153902985621 0 0 0 0 -269.75162699509383 562.51610650161456 0 562.51610650161456 -890.17957737343386 0 0 0 0 -284.69897223393491 524.16453820698371 0 524.16453820698371 -917.19882495596539 0 0 0 0 -178.54513246525312 530.90900463488651 0 530.90900463488651 -882.40055963670602 0 0 0 0 -320.0380353188375 579.82013408691273 0 579.82013408691273 -1001.6372088387725 0 0 0 0 -548.35007989295991 636.98740441404516 0 636.98740441404516 -882.07339607487665 0 0 0 0 -385.54079824172368 560.90031125488167 0 560.90031125488167 -846.89129358931677 0 0 0 0 -345.64952528884169 620.76358558030915 0 620.76358558030915 -872.51283886155579 0 0 0 0 -483.84654182306258 615.15744801989058 0 615.15744801989058 -1008.5772900840966 0 0 0 0 415.2909772041603 1120.9652023027302 0 1120.9652023027302 115.15121638961864 0 0 0 0 76.49351582557739 46.341889109439137 0 46.341889109439137 14.496619122828086 0 0 0 0 331.10276787128532 141.90516603321885 0 141.90516603321885 -737.90057369641727 0 0 0 0 337.24014388179057 157.78308083821321 0 157.78308083821321 -580.35850307968212 0 0 0 0 284.06479313221644 84.857093742612051 0 84.857093742612051 -271.16323398501845 0 0 0 0 288.51276142074494 41.873832381621469 0 41.873832381621469 -496.50339047017042 0 0 0 0 235.27518519019941 7.7809479461575393 0 7.7809479461575393 -267.93693569902553 0 0 0 0 167.0193859928695 189.09043243750057 0 189.09043243750057 72.024844575236784 0 0 0 0 205.04578016951564 119.01368450396694 0 119.01368450396694 104.91553194614971 0 0 0 0 39.078996063602972 106.64457115597907 0 106.64457115597907 138.41788639072911 0 0 0 0 246.61424540125881 118.02953366453585 0 118.02953366453585 -189.77406671267818 0 0 0 0 79.80667134813848 225.05402683024295 0 225.05402683024295 -75.482395279905177 0 0 0 0 3.3559061412233859 394.08795793924946 0 394.08795793924946 -458.21698173063487 0 0 0 0 198.11411256395513 352.68905551690841 0 352.68905551690841 -574.14923164584343 0 0 0 0 49.653455416904762 127.79399886576721 0 127.79399886576721 -158.08403483027359 0 0 0 0 -129.94357378321001 242.82935256583733 0 242.82935256583733 -211.56649963522796 0 0 0 0 225.64361296058632 180.01887633130536 0 180.01887633130536 -303.29028319215286 0 0 0 0 138.62848206126364 243.82846424914896 0 243.82846424914896 -227.30232873313071 0 0 0 0 162.24291298011667 239.19567290623672 0 239.19567290623672 -316.46143824810861 0 0 0 0 47.803354692994617 271.80072932137409 0 271.80072932137409 -305.48449599285959 0 0 0 0 175.66952306835447 286.43680766205944 0 286.43680766205944 -497.38286444853293 0 0 0 0 -197.51946031849366 365.25500118322088 0 365.25500118322088 -344.97846726342505 0 0 0 0 63.314847675559577 255.06970083224587 0 255.06970083224587 -339.32176153408363 0 0 0 0 -382.69855913787615 106.63525119822589 0 106.63525119822589 -215.32422973885696 0 0 0 0 -78.244524187815841 -81.664134801321779 0 -81.664134801321779 -312.8078594789913 0 0 0 0 173.09006316470914 -16.957898490712978 0 -16.957898490712978 -297.55895091054845 0 0 0 0 -125.89610824754345 13.436145346349804 0 13.436145346349804 -142.86561561867711 0 0 0 0 16.744893123803195 34.691890935326228 0 34.691890935326228 -206.5332523258221 0 0 0 0 132.72449802712435 -27.048857228735869 0 -27.048857228735869 -138.42055515499669 0 0 0 0 65.575084519688971 69.410938838802394 0 69.410938838802394 87.176021972736635 0 0 0 0 172.80744098726427 -49.318774535848206 0 -49.318774535848206 -165.23991048721655 0 0 0 0 86.752897874888731 -43.060088662845374 0 -43.060088662845374 -164.60836288158316 0 0 0 0 125.78197382112558 -18.001322775075096 0 -18.001322775075096 -375.60076906219911 0 0 0 0 44.966548841073802 39.573109711522847 0 39.573109711522847 6.0244989190024185 0 0 0 0 46.379852020803952 38.926863709407172 0 38.926863709407172 14.788770138286949 0 0 0 0 -49.421731672249734 118.5965009409847 0 118.5965009409847 -51.227051610330818 0 0 0 0 -32.619671276944246 317.95963352125978 0 317.95963352125978 93.650895285172737 0 0 0 0 278.14116397273028 107.79973430623068 0 107.79973430623068 -751.97164984827396 0 0 0 0 41.136285837004834 207.03164395194472 0 207.03164395194472 -344.46883974201046 0 0 0 0 -93.912624001706718 233.40006478241412 0 233.40006478241412 -137.27878588461317 0 0 0 0 134.73921316997439 -1.7371251949371072 0 -1.7371251949371072 -343.00118489033775 0 0 0 0 2.1885826494835783 357.22810273751384 0 357.22810273751384 -574.75896348794595 0 0 0 0 139.81341162641183 192.44004896844854 0 192.44004896844854 -565.40651654114481 0 0 0 0 66.793039074567787 253.91665391816787 0 253.91665391816787 -411.53464083618019 0 0 0 0 -73.265571155206999 409.8646793235821 0 409.8646793235821 -382.48550919629633 0 0 0 0 -32.710111174848862 389.71115656546317 0 389.71115656546317 -466.16493558681395 0 0 0 0 -72.941584234475158 394.18222681357292 0 394.18222681357292 -347.31258339746273 0 0 0 0 -65.303198564186459 360.80714623010135 0 360.80714623010135 -306.00937808203162 0 0 0 0 -17.365777655828424 303.39389465277782 0 303.39389465277782 -266.51154718006728 0 0 0 0 -124.02279165272193 356.00822192869964 0 356.00822192869964 -209.02296461747028 0 0 0 0 -265.84056907395279 284.85026586407912 0 284.85026586407912 119.12861326581333 0 0 0 0 33.407199828070588 49.517272505618166 0 49.517272505618166 -63.738470699521713 0 0 0 0 -6.9155596304542257 43.951740690825147 0 43.951740690825147 37.307451825156761 0 0 0 0 80.881924282221007 199.28163197860704 0 199.28163197860704 -102.99166706984397 0 0 0 0 293.93777586614306 143.19930855020357 0 143.19930855020357 -211.55019531905418 0 0 0 0 -19.493916697916575 16.89709437059355 0 16.89709437059355 32.455901851033559 0 0 0 0 10.156376417231513 1.5866877701046178 0 1.5866877701046178 -46.566927909756487 0 0 0 0 45.599917753287116 63.511787445518166 0 63.511787445518166 35.502811266781862 0 0 0 0 -37.488211212454189 9.6215591180043702 0 9.6215591180043702 -52.67219691479113 0 0 0 0 6.5314512917194776 17.186672819095605 0 17.186672819095605 -28.1926339320583 0 0 0 0 85.063005090341903 36.336349927762058 0 36.336349927762058 -301.92178166811209 0 0 0 0 -83.349982427316718 -109.83494520301247 0 -109.83494520301247 -117.99796353117563 0 0 0 0 131.91012015557499 71.245742378967407 0 71.245742378967407 67.997009113518288 0 0 0 0 198.23254408838693 -124.64055434307375 0 -124.64055434307375 -144.18174638102209 0 0 0 0 136.18951939037652 1.9914078721558326 0 1.9914078721558326 5.9252037991464022 0 0 0 0 146.46708477153879 13.764645165545517 0 13.764645165545517 -7.8409798312350176 0 0 0 0 109.87103453870805 -14.756850512494566 0 -14.756850512494566 10.644079607300228 0 0 0 0 5.7692627365603357 12.894795713939757 0 12.894795713939757 8.8650124530616807 0 0 0 0 167.77137803731603 73.577889770225738 0 73.577889770225738 106.49116673145909 0 0 0 0 286.01175409997813 193.84381930466043 0 193.84381930466043 -42.533123523349786 0 0 0 0 -13.207743284438038 -48.179656603593685 0 -48.179656603593685 437.65445182225085 0 0 0 0 -96.317176939948695 114.22887049008568 0 114.22887049008568 169.16494853816403 0 0 0 0 162.8185932119668 22.369868214504095 0 22.369868214504095 -28.117008091867319 0 0 0 0 -2.8840642235626888 10.967447549544374 0 10.967447549544374 0.62490624433651476 0 0 0 0 -86.655724086100236 177.63481199360103 0 177.63481199360103 21.331977081426885 0 0 0 0 -338.4112430223613 89.387741171754897 0 89.387741171754897 245.52983348284033 0 0 0 0 1239.76081057179 903.31242007322362 0 903.31242007322362 679.81211707921466 0 0 0 0 772.67759205999755 237.67113610322122 0 237.67113610322122 390.96127264037204 0 0 0 0 897.94970914854821 194.49798567714424 0 194.49798567714424 362.9004504068289 0 0 0 0 270.01737992520066 1090.6734337135495 0 1090.6734337135495 1012.0436328354408 0 0 0 0 -95.761894013194251 764.88969523977721 0 764.88969523977721 955.38578014766972 0 0 0 0 245.17823839772609 736.2296686316331 0 736.2296686316331 932.37316296014978 0 0 0 0 264.67120407284165 457.87427784600732 0 457.87427784600732 483.10383012171224 0 0 0 0 559.73641468587448 313.28511849232746 0 313.28511849232746 465.05230868121726 0 0 0 0 366.87832675769459 76.539535024261568 0 76.539535024261568 362.80717412941158 0 0 0 0 63.989109212001495 -114.21348813851364 0 -114.21348813851364 358.42439550705603 0 0 0 0 69.790037790023234 -169.26471863155803 0 -169.26471863155803 307.39114519956638 0 0 0 0 -191.88780606484215 -59.655429114674916 0 -59.655429114674916 340.51185291551519 0 0 0 0 -66.026921815260721 -226.80919782677665 0 -226.80919782677665 391.29913851907622 0 0 0 0 543.97760829145409 -196.21677315165289 0 -196.21677315165289 276.78038381959777 0 0 0 0 -276.34761767402233 -31.226741978578502 0 -31.226741978578502 342.95709569288738 0 0 0 0 -212.11971605394592 -22.235828717838558 0 -22.235828717838558 283.55995486854226 0 0 0 0 -202.27500225920812 -159.52335347649932 0 -159.52335347649932 415.97473107810947 0 0 0 0 -505.07979901104409 100.35581922961865 0 100.35581922961865 326.21625332179246 0 0 0 0 -354.57778360546581 178.82308164097776 0 178.82308164097776 136.6171999280341 0 0 0 0 -292.09825191925484 -91.202455953876779 0 -91.202455953876779 393.40815941730398 0 0 0 0 -649.97926756013476 205.91602366665029 0 205.91602366665029 356.51547790132463 0 0 0 0 -365.37687755543448 160.93850223820482 0 160.93850223820482 51.162667803786462 0 0 0 0 -467.1762159113714 277.11662728822557 0 277.11662728822557 -8.1226566284312867 0 0 0 0 -741.7610132706759 350.88336665232782 0 350.88336665232782 34.312837289951858 0 0 0 0 -628.00495371771103 593.47022345638834 0 593.47022345638834 -274.36003044163226 0 0 0 0 -479.69919247843427 394.23182903606721 0 394.23182903606721 -96.170136770117097 0 0 0 0 -601.33904524162062 417.76148964947788 0 417.76148964947788 37.923956678336253 0 0 0 0 823.8206093436529 -387.26753231570183 0 -387.26753231570183 383.67740090365987 0 0 0 0 -516.05984456681654 -185.22167747677122 0 -185.22167747677122 847.95822800899623 0 0 0 0 877.57183014319889 -1090.3460280125873 0 -1090.3460280125873 2003.0418794858269 0 0 0 0 -388.52809804366552 346.95532209699741 0 346.95532209699741 458.50729429413332 0 0 0 0 -619.32753475073514 581.55442305175347 0 581.55442305175347 -722.81660787240253 0 0 0 0 -537.42550005338853 183.75982277924777 0 183.75982277924777 281.43400483787991 0 0 0 0 -252.94270037337265 1282.0122456210811 0 1282.0122456210811 -1021.574810889957 0 0 0 0 -420.27325073652901 1335.1198117708846 0 1335.1198117708846 -425.52689545624889 0 0 0 0 -339.43044424289837 825.47306277396274 0 825.47306277396274 -2064.7211191108509 0 0 0 0 -69.50610479691386 2056.3925209444133 0 2056.3925209444133 -2530.1370359261346 0 0 0 0 -148.87766905645549 1987.6642679062861 0 1987.6642679062861 -921.62184199941112 0 0 0 0 -988.55974076156417 2050.1818175975641 0 2050.1818175975641 3015.0699014968122 0 0 0 0 15.512106845562812 2432.917356591759 0 2432.917356591759 -1969.9762502209051 0 0 0 0 148.74543114044354 2476.2031559298775 0 2476.2031559298775 -565.41184168861946 0 0 0 0 -817.32563405329711 3242.2425991884083 0 3242.2425991884083 366.97782790812198 0 0 0 0 -457.8264724982655 956.93305162155593 0 956.93305162155593 486.92045294458512 0 0 0 0 -716.07715431964607 700.03404741105624 0 700.03404741105624 -534.46040341554908 0 0 0 0 -547.22224001979339 540.06188615981955 0 540.06188615981955 -758.66117092251079 0 0 0 0 -574.8101361752706 491.45140462580457 0 491.45140462580457 -354.95778491569217 0 0 0 0 -705.00286375537962 421.70302341860133 0 421.70302341860133 -700.39764442847809 0 0 0 0 -775.28705063922098 611.6442524001759 0 611.6442524001759 -352.80648043664405 0 0 0 0 -871.48138445724908 241.03860500641167 0 241.03860500641167 142.44676609995076 0 0 0 0 261.20984159191721 489.27230460767169 0 489.27230460767169 -3731.0856095305644 0 0 0 0 -610.47665434110968 367.88054735322658 0 367.88054735322658 -2213.0582632185542 0 0 0 0 -677.83029790023284 725.22848327385145 0 725.22848327385145 -697.81916944406839 0 0 0 0 -941.71020747689181 -565.46139098785352 0 -565.46139098785352 -2339.4977506903888 0 0 0 0 -1035.3843903200759 437.27363022777718 0 437.27363022777718 -700.45225692431256 0 0 0 0 -934.89522072589898 602.85595922639186 0 602.85595922639186 -1033.0374813928502 0 0 0 0 -784.43727466964629 441.43476659647422 0 441.43476659647422 -1054.7608033152792 0 0 0 0 -699.9400038899912 565.79856873487006 0 565.79856873487006 -1049.9800849857857 0 0 0 0 -1056.8850882150437 458.71100322886195 0 458.71100322886195 -1039.7469078551512 0 0 0 0 -825.66015246932511 351.73411121219397 0 351.73411121219397 -1613.7556314185495 0 0 0 0 -1206.5223462252761 236.36785722759669 0 236.36785722759669 -1140.4333136069326 0 0 0 0 -1480.8808558981109 -233.98331532109296 0 -233.98331532109296 -1520.6074156719078 0 0 0 0 -724.6911858075182 485.80215198890073 0 485.80215198890073 -1244.8909482658346 0 0 0 0 -522.24507290037582 578.40434618701693 0 578.40434618701693 -984.39404041263333 0 0 0 0 -796.25126260719844 642.60120393120451 0 642.60120393120451 -800.50064040138386 0 0 0 0 -777.09370061001391 513.81164809525944 0 513.81164809525944 -957.67530016147066 0 0 0 0 -508.20066608164871 -1099.1307078105583 0 -1099.1307078105583 -698.2416425053234 0 0 0 0 205.36819859439856 -224.27817414852325 0 -224.27817414852325 -724.006089542876 0 0 0 0 105.96638071583584 -136.40038485897821 0 -136.40038485897821 -272.26675750297727 0 0 0 0 111.38477009633789 -50.640333451068727 0 -50.640333451068727 -197.16485701088095 0 0 0 0 -240.41044344916008 -477.32915437076008 0 -477.32915437076008 -428.45851851967745 0 0 0 0 -805.16834161238512 -361.04914025086327 0 -361.04914025086327 146.15473427626421 0 0 0 0 -100.61487672413932 -14.773859161301516 0 -14.773859161301516 19.778373283828842 0 0 0 0 -492.38636143531767 271.32677658388275 0 271.32677658388275 397.80311439622892 0 0 0 0 -303.33251184446272 142.07360148837324 0 142.07360148837324 276.91078745381674 0 0 0 0 -270.96570509648882 441.42184691049624 0 441.42184691049624 416.6909272130215 0 0 0 0 -843.0001120188972 11.419932737888303 0 11.419932737888303 342.75402390104136 0 0 0 0 165.78278335135838 444.5823853058173 0 444.5823853058173 314.07453432993498 0 0 0 0 109.00326188057079 539.24351069813929 0 539.24351069813929 694.19797674278379 0 0 0 0 -143.37306688055105 154.12874529320106 0 154.12874529320106 425.6890706490085 0 0 0 0 -446.20732807950117 202.30566029775946 0 202.30566029775946 448.99018490299932 0 0 0 0 -175.02045347704552 -176.22667342525529 0 -176.22667342525529 21.208404616627377 0 0 0 0 -33.848546644061571 494.28800389419484 0 494.28800389419484 711.53796450927621 0 0 0 0 130.02290885325056 107.95529331815487 0 107.95529331815487 213.01613248659851 0 0 0 0 76.068342127487995 270.70300818736723 0 270.70300818736723 623.69744810223347 0 0 0 0 255.39386504344293 86.183624370096368 0 86.183624370096368 -161.54253049951512 0 0 0 0 -27.559406713349745 98.805630838411162 0 98.805630838411162 229.75263761867245 0 0 0 0 663.96793778895517 2579.3570163406839 0 2579.3570163406839 -4114.8875346526875 0 0 0 0 86.68493874637295 45.45913688221475 0 45.45913688221475 13.022036297547565 0 0 0 0 251.63350881118095 422.03980604719254 0 422.03980604719254 366.26539879047778 0 0 0 0 544.67117123410571 295.92396395868855 0 295.92396395868855 339.31497073461651 0 0 0 0 -408.66433904226869 3578.6337410286651 0 3578.6337410286651 73.945891716291953 0 0 0 0 6.8704601516942887 10.89809443523248 0 10.89809443523248 0.19575257546550517 0 0 0 0 -500.28606424138707 4077.4549173279083 0 4077.4549173279083 -1951.7957043423978 0 0 0 0 -2018.6337713733883 2964.7321771931893 0 2964.7321771931893 -457.37216101854574 0 0 0 0 496.82511039375095 312.07711412040226 0 312.07711412040226 538.43072331258736 0 0 0 0 465.84874400240369 537.03064025519416 0 537.03064025519416 427.89015734264103 0 0 0 0 365.46094493014971 468.91578436040436 0 468.91578436040436 713.06495153320429 0 0 0 0 331.1462080840065 625.42772697969485 0 625.42772697969485 781.21649136283668 0 0 0 0 274.75918243319029 486.06396311311983 0 486.06396311311983 904.62166382877331 0 0 0 0 306.30011185567128 599.74165759925381 0 599.74165759925381 1266.821856031369 0 0 0 0 337.58131984155625 79.033093656835263 0 79.033093656835263 1000.9815126735484 0 0 0 0 317.08926862785302 -37.297303740193456 0 -37.297303740193456 425.75073709370918 0 0 0 0 223.96791292080889 -478.94557229454222 0 -478.94557229454222 1954.9706990564555 0 0 0 0 43.615879779856925 16.816099638266891 0 16.816099638266891 4.5082573546838987 0 0 0 0 2553.3732317744725 -878.52185064009973 0 -878.52185064009973 -5102.6009340556666 0 0 0 0 -454.31657871889183 174.14700996117608 0 174.14700996117608 4500.5442457819881 0 0 0 0 -206.19413353429991 1339.8639618040906 0 1339.8639618040906 4225.4261455552078 0 0 0 0 3058.357085555188 -517.61820407597406 0 -517.61820407597406 -3873.2230591912739 0 0 0 0 1029.8279009104299 -2169.1204061285243 0 -2169.1204061285243 -4324.0747181914339 0 0 0 0 -2418.5710148575745 -2303.2549998044706 0 -2303.2549998044706 -2324.7357331435196 0 0 0 0 -4389.7203155733441 -618.23547705310921 0 -618.23547705310921 963.22127797984285 0 0 0 0 -439.77281689082156 -306.40307763597229 0 -306.40307763597229 -2922.4604171102401 0 0 0 0 -321.54810690725571 1482.0505340791424 0 1482.0505340791424 -1135.2566064459097 0 0 0 0 3264.7955435026452 1894.1365063400881 0 1894.1365063400881 -1717.7105330755439 0 0 0 0 745.57135912406375 3580.7061858140223 0 3580.7061858140223 1093.4120762475941 0 0 0 0 1064.8609694094921 1570.2685300533485 0 1570.2685300533485 1124.5020086831937 0 0 0 0 3313.9689020104415 394.29315245339239 0 394.29315245339239 360.06700572187401 0 0 0 0 40.79706305531387 24.287152579131657 0 24.287152579131657 14.232583285859761 0 0 0 0 54.555360846890835 941.22819115086895 0 941.22819115086895 1084.2154101999467 0 0 0 0 -172.93536495249282 688.42583187652053 0 688.42583187652053 492.46895040015806 0 0 0 0 -185.4555553965256 1028.2916187028313 0 1028.2916187028313 1141.8855406087823 0 0 0 0 352.13520001554571 907.38488981858245 0 907.38488981858245 936.30681270985951 0 0 0 0 -534.50651974513312 126.56363257889461 0 126.56363257889461 463.94525088129512 0 0 0 0 -467.65309775911737 450.69436062761815 0 450.69436062761815 803.46613746391813 0 0 0 0 2576.5440821699085 -891.82036866808994 0 -891.82036866808994 -3743.9313500291319 0 0 0 0 2324.3809729531058 284.98814826684247 0 284.98814826684247 -3408.7526978800815 0 0 0 0 1613.2852106065693 974.84409811029036 0 974.84409811029036 -335.1498520918758 0 0 0 0 1425.2969319513286 2860.4143934290041 0 2860.4143934290041 1052.6361225655419 0 0 0 0 654.86522548360517 2446.9052964371513 0 2446.9052964371513 2946.7461585137644 0 0 0 0 -472.45563420042527 67.884999356791013 0 67.884999356791013 749.90247490484035 0 0 0 0 54.823673665836395 -72.704747717994906 0 -72.704747717994906 -105.96398098904319 0 0 0 0 -36.284123163932236 312.97885016402142 0 312.97885016402142 648.63092578606302 0 0 0 0 -236.45053119302975 44.069966182900316 0 44.069966182900316 664.814072580426 0 0 0 0 240.32369680983538 243.00195576815895 0 243.00195576815895 481.19233614933182 0 0 0 0 -54.911095974792261 364.51207803888974 0 364.51207803888974 446.73403725072785 0 0 0 0 14.768093623190964 7.0845199890191566 0 7.0845199890191566 -6.1328646973605743 0 0 0 0 -185.20739455520379 591.69570761029172 0 591.69570761029172 1842.1221708045923 0 0 0 0 511.01539200436673 334.04146170915919 0 334.04146170915919 991.38555830781115 0 0 0 0 -86.173562926996965 524.96900508321414 0 524.96900508321414 2225.6490012609829 0 0 0 0 244.22327772526478 694.59844332739158 0 694.59844332739158 1838.4796812128625 0 0 0 0 -46.526791573109222 492.12203581035646 0 492.12203581035646 1461.825942143565 0 0 0 0 -41.745968354145589 787.02553653758514 0 787.02553653758514 1742.5451075674064 0 0 0 0 47.524084854638204 760.37897071088082 0 760.37897071088082 1745.5934813982021 0 0 0 0 151.3896583794849 1387.7691097769894 0 1387.7691097769894 2478.6667974436641 0 0 0 0 394.28753864052123 675.82410725776572 0 675.82410725776572 779.5040056703001 0 0 0 0 397.11633349210024 873.48487098798796 0 873.48487098798796 1219.7232841611985 0 0 0 0 849.50590708434174 1102.6179789367961 0 1102.6179789367961 1085.3509845807203 0 0 0 0 169.72825083848147 570.53375111597416 0 570.53375111597416 1116.5213788086694 0 0 0 0 373.15131514857057 413.93941668443586 0 413.93941668443586 565.59013895349926 0 0 0 0 361.72171574135427 477.94647884191363 0 477.94647884191363 610.36884967664082 0 0 0 0 154.20625572888821 725.83172750995436 0 725.83172750995436 1280.5030353259208 0 0 0 0 782.95854450120532 570.85720504466008 0 570.85720504466008 988.99171061885863 0 0 0 0 374.99894209216291 707.76409343872365 0 707.76409343872365 1441.6765766620956 0 0 0 0 276.72753090821061 526.18841610140953 0 526.18841610140953 1479.9821627804922 0 0 0 0 356.90091578540159 443.2683913265937 0 443.2683913265937 410.65841105455911 0 0 0 0 272.21080673941469 -96.220541358197806 0 -96.220541358197806 -155.69710012509313 0 0 0 0 9.7390331278381268 7.7653883099605707 0 7.7653883099605707 -1.5270927964360439 0 0 0 0 56.766971308068605 73.528757137559296 0 73.528757137559296 -326.58330778806703 0 0 0 0 -141.77955302089686 305.34422828918468 0 305.34422828918468 1286.3163732516769 0 0 0 0 21.756792358774049 22.602794636623059 0 22.602794636623059 -4.7565570705814793 0 0 0 0 393.19619391421293 651.87241700382583 0 651.87241700382583 1554.4466479886469 0 0 0 0 14.466560788028232 17.774564709196426 0 17.774564709196426 -3.935177617817132 0 0 0 0 295.16840177448466 704.17679922880779 0 704.17679922880779 1663.4300893666368 0 0 0 0 81.941883864419651 327.33262102583103 0 327.33262102583103 -509.94273257363238 0 0 0 0 -99.098715648578946 215.02337161953983 0 215.02337161953983 -36.808916150199366 0 0 0 0 58.284557002030851 3.2538918757063584 0 3.2538918757063584 -782.40435498695297 0 0 0 0 54.320514064034796 169.18452667912061 0 169.18452667912061 -250.2228981788794 0 0 0 0 35.558748312548232 165.84855803106484 0 165.84855803106484 -232.16673395434918 0 0 0 0 34.695371033842093 200.67339381288912 0 200.67339381288912 -233.92353581654288 0 0 0 0 22.867070629785303 206.17116454727511 0 206.17116454727511 -92.75756029887998 0 0 0 0 19.154136593410328 171.95412519787737 0 171.95412519787737 -110.43610598483065 0 0 0 0 19.060179085354321 140.33010313097475 0 140.33010313097475 -202.00837645947468 0 0 0 0 26.388578581478214 144.55290160477307 0 144.55290160477307 -151.91252351632284 0 0 0 0 -23.319829845524509 159.88626887051214 0 159.88626887051214 -90.729305361528532 0 0 0 0 -58.278579517018443 94.539908460854349 0 94.539908460854349 -18.800539390285849 0 0 0 0 22.150952913114452 126.36199325180496 0 126.36199325180496 -67.382041005897918 0 0 0 0 30.988667826615142 34.781680910068616 0 34.781680910068616 18.765344727218604 0 0 0 0 41.590995271741122 88.744455931057018 0 88.744455931057018 -95.593180157477036 0 0 0 0 130.74751221635961 8.9240432449878426 0 8.9240432449878426 62.41640082433878 0 0 0 0 -6.1752324223416508 44.322067626349963 0 44.322067626349963 3.4535223518905696 0 0 0 0 1.3843562078817513 10.223576439146399 0 10.223576439146399 7.769167668731626 0 0 0 0 -49.814310704965692 414.72199871644978 0 414.72199871644978 790.42755845468491 0 0 0 0 28.545541320540678 26.97850742177576 0 26.97850742177576 1.2571005796029127 0 0 0 0 -53.639668291114162 179.01971146795722 0 179.01971146795722 1150.4156534198264 0 0 0 0 96.652937028207816 -91.7670482965259 0 -91.7670482965259 707.64768698246553 0 0 0 0 23.341785106007592 102.49448521964223 0 102.49448521964223 -50.590458437007328 0 0 0 0 19.153190721546707 75.677539516193065 0 75.677539516193065 -120.25432978264871 0 0 0 0 -0.79435116560239294 2.4065107196442739 0 2.4065107196442739 -5.0011737048043869 0 0 0 0 -116.05365508869727 79.692540937543527 0 79.692540937543527 158.78346761990542 0 0 0 0 -249.91607459387888 -44.551816326660628 0 -44.551816326660628 188.0992405294819 0 0 0 0 -1.8288790197217821 4.8066580377780497 0 4.8066580377780497 -18.30301949601764 0 0 0 0 317.94192136776837 33.779583226341856 0 33.779583226341856 -70.876783943778719 0 0 0 0 179.20846408944635 -130.55828566723358 0 -130.55828566723358 152.82739026419586 0 0 0 0 467.37673753473791 542.05970978018013 0 542.05970978018013 321.35031298958893 0 0 0 0 188.11648735394556 359.72377625579247 0 359.72377625579247 1152.6652132564341 0 0 0 0 813.29159042431274 857.70324478695693 0 857.70324478695693 1003.0354759164857 0 0 0 0 158.9095765586535 330.40672317223289 0 330.40672317223289 922.70967256156291 0 0 0 0 493.69504886457435 415.87472921406879 0 415.87472921406879 340.81858962730621 0 0 0 0 137.29107914774795 -16.576310340278724 0 -16.576310340278724 195.45067409498733 0 0 0 0 109.42616082652967 252.291248575184 0 252.291248575184 604.00596796027094 0 0 0 0 292.04248525928415 100.44764502211183 0 100.44764502211183 57.870276464545896 0 0 0 0 355.76302823117294 678.99823484851368 0 678.99823484851368 1054.5061126437795 0 0 0 0 411.36187933260226 326.94440446532099 0 326.94440446532099 549.36443334012074 0 0 0 0 249.08151528082089 146.70526819647057 0 146.70526819647057 142.44127858847605 0 0 0 0 202.13980761531275 210.8090043496486 0 210.8090043496486 681.12593945978733 0 0 0 0 171.37215326326987 338.66072704402904 0 338.66072704402904 535.98347252391977 0 0 0 0 277.10570253262767 492.09199631781496 0 492.09199631781496 2055.2230212084396 0 0 0 0 284.16878823522711 751.05928984427374 0 751.05928984427374 1574.3479454172775 0 0 0 0 -150.71907628987174 354.93082170178059 0 354.93082170178059 6.177976732768002 0 0 0 0 262.34047454762913 162.85226393301127 0 162.85226393301127 -1573.5906948318698 0 0 0 0 316.52591473114808 1004.6374440133204 0 1004.6374440133204 307.09110461613454 0 0 0 0 5.5762010165002494 8.0722998067088554 0 8.0722998067088554 -0.66545605255913642 0 0 0 0 6.9590579204959795 1414.8135718346239 0 1414.8135718346239 3412.5718943607935 0 0 0 0 441.10440669780655 1086.9991099277031 0 1086.9991099277031 771.29179821185971 0 0 0 0 1158.5794587100681 1677.0784887371774 0 1677.0784887371774 1088.7928980060738 0 0 0 0 374.63721937767696 787.42056250351015 0 787.42056250351015 1001.9305437145449 0 0 0 0 328.58264252220397 1410.6891349408397 0 1410.6891349408397 994.6195149952473 0 0 0 0 550.64763033137933 1144.6788204567765 0 1144.6788204567765 -89.500085809500888 0 0 0 0 383.8243785090508 358.80475425935583 0 358.80475425935583 1955.7284485696873 0 0 0 0 304.14612560342357 701.69925966770097 0 701.69925966770097 900.74896315528895 0 0 0 0 80.429279562406009 99.196963546080951 0 99.196963546080951 1999.9158345286924 0 0 0 0 229.17389207068481 40.056460662373865 0 40.056460662373865 -195.60220900222339 0 0 0 0 2.1068108350344801 3.9832970555764007 0 3.9832970555764007 3.7885826033571988 0 0 0 0 -162.88709119644773 258.51425068717981 0 258.51425068717981 576.85359856428113 0 0 0 0 158.35683520284147 -78.917628147870346 0 -78.917628147870346 502.75531560000672 0 0 0 0 79.129320459018345 77.519730732685275 0 77.519730732685275 40.998481117181655 0 0 0 0 3.2366164929699153 -230.08575579834724 0 -230.08575579834724 890.35189061290657 0 0 0 0 14.058206460365 35.213259154857496 0 35.213259154857496 -163.20319739672414 0 0 0 0 -26.899373587046284 42.546095136473014 0 42.546095136473014 -127.69015495724034 0 0 0 0 21.584456187046499 64.702094683535279 0 64.702094683535279 -4.7351601149962175 0 0 0 0 8.40485535883181 10.807016421441276 0 10.807016421441276 6.6119859057681936 0 0 0 0 -36.054395385607222 59.361351371721184 0 59.361351371721184 -149.6302218248602 0 0 0 0 -9.1948251535213785 64.122902338953281 0 64.122902338953281 -189.91858942080944 0 0 0 0 -33.073545276976802 13.347516814746086 0 13.347516814746086 -69.034775119042024 0 0 0 0 153.53107890287356 5.5138025509149884 0 5.5138025509149884 -271.46672675333639 0 0 0 0 28.480207212692562 63.104181199231277 0 63.104181199231277 -4.9766397228334514 0 0 0 0 -39.270645474600315 110.86113601846409 0 110.86113601846409 71.317161265338655 0 0 0 0 512.97803075075353 440.82648611078912 0 440.82648611078912 43.950512876144785 0 0 0 0 -35.678402727629873 161.52391731121315 0 161.52391731121315 107.27781302592484 0 0 0 0 -31.375468293088488 58.724515448062448 0 58.724515448062448 164.2303908506583 0 0 0 0 -52.359535153460456 96.081683592070476 0 96.081683592070476 159.77187729105935 0 0 0 0 -33.627284989348937 58.118517258905854 0 58.118517258905854 -95.857937367327395 0 0 0 0 -33.320052981289336 45.321843551027996 0 45.321843551027996 73.723394430053304 0 0 0 0 -31.566910701320012 168.75267191458443 0 168.75267191458443 -121.58313892383012 0 0 0 0 9.4856083140330156 164.2602715402827 0 164.2602715402827 -93.241013053477218 0 0 0 0 -17.168214151461143 137.223438223009 0 137.223438223009 -58.592409496428445 0 0 0 0 11.87925045134034 157.91093614156853 0 157.91093614156853 -98.384109160069784 0 0 0 0 -9.9854762087925337 152.69627148371364 0 152.69627148371364 -36.916902618424501 0 0 0 0 1.5658233889334952 126.1144481637366 0 126.1144481637366 8.3656521669472568 0 0 0 0 2.3953710174828302 194.41661529738485 0 194.41661529738485 -40.609481730833068 0 0 0 0 17.023505900418968 171.60416235138109 0 171.60416235138109 -72.169767217099434 0 0 0 0 -49.219736948085483 212.40332254976238 0 212.40332254976238 74.765479775131098 0 0 0 0 -96.125439374518464 250.19575478077604 0 250.19575478077604 222.38407265276328 0 0 0 0 21.100388671911787 178.77488413997708 0 178.77488413997708 -38.209201566627598 0 0 0 0 -45.378327832800096 124.80317352957445 0 124.80317352957445 403.52977773181919 0 0 0 0 -29.604809927812312 49.211831405205885 0 49.211831405205885 316.24092681059483 0 0 0 0 -9.7650605056987843 112.40050741599407 0 112.40050741599407 119.71347018675078 0 0 0 0 -52.61272351612206 164.97327135253454 0 164.97327135253454 220.50175712654891 0 0 0 0 -39.372588223253842 29.196061864073272 0 29.196061864073272 339.05415291840472 0 0 0 0 -57.068048447879846 88.333152589471865 0 88.333152589471865 255.32592007395579 0 0 0 0 53.551275618359796 -15.820720069394156 0 -15.820720069394156 273.21500352737348 0 0 0 0 -9.5229604335618205 54.23007527361915 0 54.23007527361915 245.24060108188132 0 0 0 0 22.137405473848048 42.456958113616565 0 42.456958113616565 242.90701033169171 0 0 0 0 -61.489012409227144 -77.363349031264079 0 -77.363349031264079 590.31725525110596 0 0 0 0 25.029815751535352 93.476121149607934 0 93.476121149607934 -217.87532098421798 0 0 0 0 16.783791639456808 17.157474046568069 0 17.157474046568069 13.601796037246402 0 0 0 0 12.921597973463349 65.623354929082666 0 65.623354929082666 -5.3678391048262508 0 0 0 0 9.0063154091690194 111.02352431111512 0 111.02352431111512 -169.53255774927675 0 0 0 0 384.26868952636141 217.13855786956992 0 217.13855786956992 -387.39471826752469 0 0 0 0 -13.170666415200685 76.455596863692335 0 76.455596863692335 -128.56421888981276 0 0 0 0 6.5309263876115438 23.352451996455784 0 23.352451996455784 -180.27406189493922 0 0 0 0 0.75578764472447801 84.47162623287295 0 84.47162623287295 7.738422066823432 0 0 0 0 29.015271586758445 25.994378539544826 0 25.994378539544826 -15.06614691631809 0 0 0 0 1.0022624061173246 107.28729870739664 0 107.28729870739664 -245.34278521070519 0 0 0 0 2.3791852147537043 69.844265468425291 0 69.844265468425291 1.5795836008318034 0 0 0 0 -6.9018378543696599 103.1437182961381 0 103.1437182961381 234.27835799631248 0 0 0 0 43.843170065782033 149.22365463263122 0 149.22365463263122 276.0375865032056 0 0 0 0 -86.289395341722411 124.26307242456824 0 124.26307242456824 274.03335432044696 0 0 0 0 -57.29145080014132 85.297016951495607 0 85.297016951495607 316.36484204295266 0 0 0 0 -49.773110224399716 -0.43387226556660607 0 -0.43387226556660607 208.17300755703764 0 0 0 0 -63.96366089527146 53.33227740151051 0 53.33227740151051 271.68015988412662 0 0 0 0 -29.278587954642717 30.958341924495471 0 30.958341924495471 275.52522634403431 0 0 0 0 302.50121803146612 643.62381918298706 0 643.62381918298706 559.17010367909097 0 0 0 0 -97.736133834056091 -29.278488639873103 0 -29.278488639873103 442.81755969446385 0 0 0 0 -46.480282782576978 232.31529332566424 0 232.31529332566424 536.75074459641473 0 0 0 0 282.28373043370084 368.29603913490428 0 368.29603913490428 22.392195802327478 0 0 0 0 17.820419595879201 79.420846804076376 0 79.420846804076376 3.3504138337951712 0 0 0 0 55.857207646098686 85.300352430102066 0 85.300352430102066 -55.990184132951072 0 0 0 0 65.912193063355517 42.990783411459233 0 42.990783411459233 -2.4249507259955863 0 0 0 0 16.306235240376623 21.529121720851947 0 21.529121720851947 -15.525863434732074 0 0 0 0 4.2014626866741764 44.508298233967395 0 44.508298233967395 -14.464522119474324 0 0 0 0 -19.895905383848003 41.932594726546085 0 41.932594726546085 -255.19365721568101 0 0 0 0 37.215309280138172 13.376938715258802 0 13.376938715258802 -151.89700994995655 0 0 0 0 12.090256305702184 41.635929698338501 0 41.635929698338501 -14.876846962584525 0 0 0 0 78.18255381945346 79.030613571485446 0 79.030613571485446 -256.78229877702643 0 0 0 0 2.0129398446006235 42.994023099054175 0 42.994023099054175 -18.541144891161821 0 0 0 0 58.326316533733916 125.64503028549916 0 125.64503028549916 201.72948782324966 0 0 0 0 120.27891424049449 270.06142748275306 0 270.06142748275306 417.70206451036938 0 0 0 0 8.9506889026789622 9.6601610176533939 0 9.6601610176533939 -12.002530606201169 0 0 0 0 213.95435247410205 266.41447859589243 0 266.41447859589243 382.66159738927672 0 0 0 0 -28.007708116463618 52.030185302981408 0 52.030185302981408 -76.728824447884108 0 0 0 0 2.0800252091561902 4.0234017257538426 0 4.0234017257538426 0.55229523151516702 0 0 0 0 85.917498970084125 115.11582661056309 0 115.11582661056309 -253.40355684777023 0 0 0 0 -1450.5051892566262 -281.28917632892262 0 -281.28917632892262 474.43518410407705 0 0 0 0 1303.0467089021695 -82.081189580261707 0 -82.081189580261707 330.42851160619466 0 0 0 0 316.74408788210712 60.640590152950608 0 60.640590152950608 323.19429579048665 0 0 0 0 -0.98806004343097875 -4.5938583636306305 0 -4.5938583636306305 -5.8344793772398589 0 0 0 0 343.68024945707293 154.37374011443171 0 154.37374011443171 112.52863688822981 0 0 0 0 -626.67378569063294 131.80569442307387 0 131.80569442307387 345.06607848476415 0 0 0 0 162.70326945024772 170.9519668062303 0 170.9519668062303 57.208253301490913 0 0 0 0 195.34925978928004 17.969322067418943 0 17.969322067418943 -8.6981511730118655 0 0 0 0 95.113613499990606 73.831773384357803 0 73.831773384357803 -37.83603528241656 0 0 0 0 3.6402323658257956 56.82577036319708 0 56.82577036319708 73.164916766210808 0 0 0 0 -4.1754145216254983 83.734077597146097 0 83.734077597146097 12.943986538477475 0 0 0 0 65.096252981922589 188.6528554057295 0 188.6528554057295 -65.962438582097093 0 0 0 0 17.563426745298784 106.16092438490159 0 106.16092438490159 193.29692010697181 0 0 0 0 -10.057097817836166 20.070010488766627 0 20.070010488766627 -20.187116304646267 0 0 0 0 43.940194445664929 161.40402451855425 0 161.40402451855425 158.81074621257721 0 0 0 0 52.370274040105869 61.455077371399966 0 61.455077371399966 -71.853872214414878 0 0 0 0 1.2290544224961195 95.568283716791484 0 95.568283716791484 67.102486600055272 0 0 0 0 -0.46538509806850925 10.899521725201339 0 10.899521725201339 19.397267449665378 0 0 0 0 22.135359083556978 68.396565696544712 0 68.396565696544712 -9.4779698088168516 0 0 0 0 -3.5798509216239722 22.073928664426063 0 22.073928664426063 -11.29081469994334 0 0 0 0 15.802824684426554 37.955261934012668 0 37.955261934012668 -5.7119387852454366 0 0 0 0 62.185201434382179 71.308444314934604 0 71.308444314934604 -190.44567472122435 0 0 0 0 16.531585880476342 42.107878355086257 0 42.107878355086257 -2.7499861021081049 0 0 0 0 25.198891036954592 44.722992175680702 0 44.722992175680702 -56.433588571922883 0 0 0 0 13.016881254676264 50.865291972986597 0 50.865291972986597 -59.525623895904573 0 0 0 0 19.414210242743138 33.822171871564933 0 33.822171871564933 -75.213394669903209 0 0 0 0 19.95208175899873 37.385230993978283 0 37.385230993978283 11.042657379883224 0 0 0 0 23.178031744340842 43.310445686969615 0 43.310445686969615 -85.279649800810148 0 0 0 0 20.056978265669244 44.95364735158104 0 44.95364735158104 7.9801297552197159 0 0 0 0 43.041855613628286 68.650881779776682 0 68.650881779776682 -125.81283579503156 0 0 0 0 24.55264108744511 34.288677421690224 0 34.288677421690224 -9.9677529034580772 0 0 0 0 50.069298353053455 65.257461674838851 0 65.257461674838851 -87.241105754561431 0 0 0 0 20.730868127222493 55.505900733867747 0 55.505900733867747 -18.573347883037059 0 0 0 0 46.294670251249045 49.517629534690059 0 49.517629534690059 5.0192978880641022 0 0 0 0 -12.232048736965226 60.411446273818001 0 60.411446273818001 3.0130940447415924 0 0 0 0 70.988824655076314 17.194878562811937 0 17.194878562811937 -81.68396051817399 0 0 0 0 34.425230891769864 100.83168251800895 0 100.83168251800895 5.7430950844827464 0 0 0 0 48.443010386756214 72.05974784904538 0 72.05974784904538 -64.16407475517326 0 0 0 0 68.01055322359025 84.115920585194544 0 84.115920585194544 -89.285315234757036 0 0 0 0 10.870730088994605 42.807201043848181 0 42.807201043848181 -104.17284282566652 0 0 0 0 13.938513505598351 57.688559485612842 0 57.688559485612842 -7.8547411070599207 0 0 0 0 33.801959492185233 36.115449417259171 0 36.115449417259171 -24.953916296217823 0 0 0 0 24.528039517816069 87.131356489378959 0 87.131356489378959 -1.599030044490064 0 0 0 0 3.3391727647085645 88.182274371065432 0 88.182274371065432 -15.108570868789684 0 0 0 0 31.591321012241679 54.138849399954779 0 54.138849399954779 2.3852235605736496 0 0 0 0 -1.4194048618231854 44.917299875660717 0 44.917299875660717 -22.863322258246626 0 0 0 0 16.784038417956921 62.186240694095972 0 62.186240694095972 34.806343260738046 0 0 0 0 23.478769280061897 120.11803259966109 0 120.11803259966109 -2.2680353915129672 0 0 0 0 39.02711656732464 68.862358445369523 0 68.862358445369523 44.051030977640934 0 0 0 0 4.1755779152927346 19.518881620838187 0 19.518881620838187 16.45334276737583 0 0 0 0 29.646900031077621 122.89213377376473 0 122.89213377376473 108.16053831321187 0 0 0 0 15.030214760273338 36.601446179030063 0 36.601446179030063 100.44224785694678 0 0 0 0 -77.279096958365699 92.671924839938583 0 92.671924839938583 183.57679937865032 0 0 0 0 17.719037196729914 103.11642309988383 0 103.11642309988383 74.124922512146441 0 0 0 0 -5.4279027285059414 36.372384676786481 0 36.372384676786481 6.3697814261600456 0 0 0 0 29.281322839309723 55.434989828303515 0 55.434989828303515 23.830120473001443 0 0 0 0 311.73550132069795 -692.50348730339465 0 -692.50348730339465 -871.13522915267822 0 0 0 0 -233.17852307055182 85.615595980420039 0 85.615595980420039 -400.52288854929793 0 0 0 0 53.771841546739779 152.71643803937877 0 152.71643803937877 66.909090424116584 0 0 0 0 698.52719432537924 786.59366814733949 0 786.59366814733949 -1002.0757118562178 0 0 0 0 60.208133527164563 70.659596749124134 0 70.659596749124134 40.824171577583954 0 0 0 0 -327.58262391821336 -251.48712391812296 0 -251.48712391812296 -76.765120829404623 0 0 0 0 366.80599188391716 965.18357930033562 0 965.18357930033562 1150.7555960531608 0 0 0 0 260.84526780933356 -841.9007867635446 0 -841.9007867635446 911.97284290948301 0 0 0 0 1562.3380567535605 -17.253250695212046 0 -17.253250695212046 -394.85800118682346 0 0 0 0 786.38550194375966 818.63831481968009 0 818.63831481968009 -305.71097893505794 0 0 0 0 10.532465830456658 12.309663851921982 0 12.309663851921982 13.074099410792144 0 0 0 0 248.7953966115092 -753.95932505359815 0 -753.95932505359815 1645.3545472412006 0 0 0 0 679.66826517661207 115.71304409890672 0 115.71304409890672 -455.57346375197812 0 0 0 0 -334.26280705783392 -360.17240946695529 0 -360.17240946695529 -307.58999780916929 0 0 0 0 -359.95328990271446 152.72501289196225 0 152.72501289196225 123.19330089817959 0 0 0 0 -0.43468521136193061 0.98103518387546274 0 0.98103518387546274 -4.7510072215899584 0 0 0 0 -267.62454220685504 -58.459830756612064 0 -58.459830756612064 -91.232783424740774 0 0 0 0 -334.88894564032671 517.9946326338395 0 517.9946326338395 1197.0366254053715 0 0 0 0 -346.15799479476482 324.99322334247699 0 324.99322334247699 -112.25315524519101 0 0 0 0 173.93857687128911 203.75027543475153 0 203.75027543475153 -1042.3465472316238 0 0 0 0 -238.65483601186588 613.95768204417254 0 613.95768204417254 -703.33938460612262 0 0 0 0 -696.58842482179534 407.1984618439019 0 407.1984618439019 -44.802718725273735 0 0 0 0 238.59553697969022 237.48147122152295 0 237.48147122152295 -1179.9669350104377 0 0 0 0 -69.159858430501117 16.361538860164728 0 16.361538860164728 35.453863036964322 0 0 0 0 -485.86468745441027 522.65870426661922 0 522.65870426661922 -325.70165605432703 0 0 0 0 6.3788732663056811 1.1168154093281828 0 1.1168154093281828 -11.937295627357685 0 0 0 0 83.342775075521786 799.20519678628625 0 799.20519678628625 -1095.6190394120895 0 0 0 0 -34.583927932644201 -139.76741744071842 0 -139.76741744071842 -326.39380804024404 0 0 0 0 117.2002607609993 -131.62280878720048 0 -131.62280878720048 -731.32771147362655 0 0 0 0 59.085212746322213 59.873847957213002 0 59.873847957213002 -277.03785699710716 0 0 0 0 -95.33137118896957 411.51486933170963 0 411.51486933170963 -546.19049968030595 0 0 0 0 251.8517049006814 327.74252627259921 0 327.74252627259921 -658.69138326346001 0 0 0 0 527.35885931636221 488.44571527052904 0 488.44571527052904 -783.93474368259194 0 0 0 0 205.19470292294318 570.95372218301054 0 570.95372218301054 -681.89410805542138 0 0 0 0 469.77726837013688 582.60268746652582 0 582.60268746652582 -895.1806505653949 0 0 0 0 361.73142162666045 507.01876770429953 0 507.01876770429953 -657.07942049099074 0 0 0 0 340.4625865677408 515.02626999857603 0 515.02626999857603 -580.0877857157775 0 0 0 0 426.82014168760725 497.43309437404241 0 497.43309437404241 -784.71978315952583 0 0 0 0 418.19377746212922 393.21147239812126 0 393.21147239812126 -667.47180442648823 0 0 0 0 413.3806127245989 519.24898901249981 0 519.24898901249981 -800.72770938805479 0 0 0 0 183.8416129290672 471.79820406554063 0 471.79820406554063 -693.81620275387831 0 0 0 0 121.06161254496692 731.33504500749405 0 731.33504500749405 -1220.1841844505116 0 0 0 0 -556.65089275133505 754.30855822613012 0 754.30855822613012 -428.70306458692357 0 0 0 0 -75.944443970620341 -369.5693263647554 0 -369.5693263647554 968.75451042969507 0 0 0 0 -95.365439600684113 373.86570477943314 0 373.86570477943314 -259.32910761440507 0 0 0 0 38.43292180833663 35.315493757067088 0 35.315493757067088 31.642247804998874 0 0 0 0 32.256154640464956 -103.86503970956983 0 -103.86503970956983 434.04509318244527 0 0 0 0 -198.91080244191198 171.66983978150893 0 171.66983978150893 162.57782046899956 0 0 0 0 -6.3555845101238475 22.3686960010848 0 22.3686960010848 14.991069853522461 0 0 0 0 -226.18745663079608 293.56406618580513 0 293.56406618580513 456.48590490451897 0 0 0 0 66.265931594814163 63.890778407106268 0 63.890778407106268 43.23718262523559 0 0 0 0 -265.39738439032953 278.97434370774863 0 278.97434370774863 799.80006877187407 0 0 0 0 -6.0960461437947515 29.006201686235698 0 29.006201686235698 13.832055322693122 0 0 0 0 853.56832989906252 -177.49301751280291 0 -177.49301751280291 -252.82536396047362 0 0 0 0 488.10798884444648 -1130.3618817180072 0 -1130.3618817180072 -174.337625915643 0 0 0 0 -314.61314307174325 413.35423297897432 0 413.35423297897432 946.09476893974352 0 0 0 0 106.35223621694604 638.34329422539304 0 638.34329422539304 805.67382775420265 0 0 0 0 -210.47896767283964 -2.3195071290901979 0 -2.3195071290901979 478.91263361214351 0 0 0 0 -225.63862841940136 -49.018092898477335 0 -49.018092898477335 809.93970572422654 0 0 0 0 -93.644510053891281 202.86332102576125 0 202.86332102576125 -48.827452972160245 0 0 0 0 21.896112161542987 -162.38052765907923 0 -162.38052765907923 397.57704911741894 0 0 0 0 601.15119094198053 414.39488830500886 0 414.39488830500886 141.8752944933658 0 0 0 0 9.4696287877495706 4.1974185164359312 0 4.1974185164359312 12.662046280403445 0 0 0 0 8.4535222972064332 8.1753757127481492 0 8.1753757127481492 -16.590504296821194 0 0 0 0 -141.376332730797 152.33044657915525 0 152.33044657915525 -35.720210001643864 0 0 0 0 36.958984619147714 63.05345402210142 0 63.05345402210142 46.71752302391684 0 0 0 0 132.66939335445568 83.132839679303288 0 83.132839679303288 -117.20577434131701 0 0 0 0 -48.576452960885945 -58.713830255757784 0 -58.713830255757784 185.60764442750224 0 0 0 0 54.153733418028963 68.606426037932579 0 68.606426037932579 47.420826423522698 0 0 0 0 -19.272605570407904 770.49677417849307 0 770.49677417849307 -335.32939890822308 0 0 0 0 -193.57326052045937 133.68493123030203 0 133.68493123030203 722.35097723972285 0 0 0 0 -254.94790723900405 64.406216741404933 0 64.406216741404933 493.03829532119562 0 0 0 0 -89.880584473750787 -4.7926675929775229 0 -4.7926675929775229 79.184063362743473 0 0 0 0 -76.991529764345614 -75.36616314634739 0 -75.36616314634739 401.1455035171457 0 0 0 0 4.8539996804744874 -3.1109980521638079 0 -3.1109980521638079 -3.3364795677509136 0 0 0 0 -0.075651396298781037 29.729640543937421 0 29.729640543937421 -49.694811811838008 0 0 0 0 5.3789912003849167 172.66154177665157 0 172.66154177665157 222.47165207437865 0 0 0 0 -678.18925992766162 527.08630017580435 0 527.08630017580435 -333.41711045477678 0 0 0 0 20.978852913001901 112.55268419766435 0 112.55268419766435 -285.03289258007135 0 0 0 0 -182.48307428622502 108.19541616216156 0 108.19541616216156 30.729421065032511 0 0 0 0 10.869664248879417 -113.79987585226081 0 -113.79987585226081 -123.3081755417661 0 0 0 0 97.442355440856772 2.3644995325121272 0 2.3644995325121272 28.3932672933297 0 0 0 0 201.91293369125924 67.55927521528065 0 67.55927521528065 -121.44967572345411 0 0 0 0 171.73932275103289 143.67781345907861 0 143.67781345907861 -18.859794588621298 0 0 0 0 32.269909957656637 34.659436549525708 0 34.659436549525708 25.684307559124136 0 0 0 0 -43.037818183118361 68.419896092964336 0 68.419896092964336 -48.653293304130784 0 0 0 0 210.88452050267369 68.700300717871869 0 68.700300717871869 -108.68901405840734 0 0 0 0 18.891630540779147 48.055918345214252 0 48.055918345214252 -9.9388335383240474 0 0 0 0 -51.923599211266264 42.655317214870593 0 42.655317214870593 1.9348535139288288 0 0 0 0 7.9587028008964467 62.328377603635602 0 62.328377603635602 21.991413775371626 0 0 0 0 3.5377371448557824 51.843084805761464 0 51.843084805761464 -7.5383939992170781 0 0 0 0 49.301818200326409 68.299714350218295 0 68.299714350218295 -1.0513528587792678 0 0 0 0 -41.510202770793683 66.423563885270113 0 66.423563885270113 -25.733822054470181 0 0 0 0 6.2859908251434717 171.41891145276441 0 171.41891145276441 -22.155652339366497 0 0 0 0 -113.3726907720993 168.79694860332529 0 168.79694860332529 -15.023129551234888 0 0 0 0 -191.88935245202447 100.11324437693111 0 100.11324437693111 27.04043058262323 0 0 0 0 9.9547487306172115 101.19548609460526 0 101.19548609460526 -46.524581549339928 0 0 0 0 -90.270474531003856 181.17878697955166 0 181.17878697955166 -62.009027618565597 0 0 0 0 -35.570907451328821 145.50971913684043 0 145.50971913684043 -64.434888209536439 0 0 0 0 6.7525922782078851 98.445230928227829 0 98.445230928227829 2.4004817631212063 0 0 0 0 -31.974971694537089 150.12615590933274 0 150.12615590933274 -59.606668513675686 0 0 0 0 24.086559557861563 46.226273121774511 0 46.226273121774511 68.821630471752599 0 0 0 0 -185.84214799683673 326.35788865701647 0 326.35788865701647 -74.342804155865451 0 0 0 0 -109.66585945052793 72.433765516027051 0 72.433765516027051 136.64741307378063 0 0 0 0 1.422970507709465 5.6492515718784304 0 5.6492515718784304 10.837567779138325 0 0 0 0 63.438820378418313 365.45776208732423 0 365.45776208732423 -262.92076865251875 0 0 0 0 142.96890235262981 -1.9065857774476171 0 -1.9065857774476171 10.050090860080672 0 0 0 0 483.97171726710803 213.48656068641139 0 213.48656068641139 -517.0997304233897 0 0 0 0 -5.6066511946264654 158.41103289931198 0 158.41103289931198 -143.77680108151981 0 0 0 0 4.3239498392795213 85.120838557937532 0 85.120838557937532 -31.246447806552169 0 0 0 0 -9.4828612165438244 122.51190568682796 0 122.51190568682796 -10.231241128276451 0 0 0 0 -15.205277587927412 99.260797775423271 0 99.260797775423271 116.31945355241623 0 0 0 0 22.152377301885281 109.86870264806203 0 109.86870264806203 -5.2961837723269127 0 0 0 0 54.590427181770792 117.90497798049182 0 117.90497798049182 -43.665387691638898 0 0 0 0 38.957070091844798 102.55409201458679 0 102.55409201458679 -16.829834280288196 0 0 0 0 -1.0271863240169807 1.8345402439449572 0 1.8345402439449572 5.8307905220672751 0 0 0 0 -375.30308907388826 282.99223038728815 0 282.99223038728815 39.724127204302931 0 0 0 0 -443.98349361627334 -37.584966022448498 0 -37.584966022448498 508.16925064104726 0 0 0 0 -272.25513469969883 604.37981903786567 0 604.37981903786567 -194.21089252759703 0 0 0 0 227.36209250823595 366.11570416738687 0 366.11570416738687 -129.91463579321862 0 0 0 0 16.01131721422226 29.686587843954882 0 29.686587843954882 55.52336474320208 0 0 0 0 -143.03439985963632 167.0032706128186 0 167.0032706128186 53.435969239537371 0 0 0 0 78.94139111583354 12.512576847657328 0 12.512576847657328 -81.448486008506734 0 0 0 0 -133.53759045194602 44.241899494809331 0 44.241899494809331 14.449978876044042 0 0 0 0 -111.68711800538586 66.747454959520837 0 66.747454959520837 18.222068519622553 0 0 0 0 -54.023574389142595 87.340130538205813 0 87.340130538205813 47.025219521456165 0 0 0 0 -4.6818328601657413 102.34650958780549 0 102.34650958780549 24.221254697200493 0 0 0 0 -61.438480719720246 188.03526131458057 0 188.03526131458057 18.041267929511378 0 0 0 0 -3.2729234994039871 -65.213334255964583 0 -65.213334255964583 118.04311380389845 0 0 0 0 12.555945420637727 108.93301812723803 0 108.93301812723803 -28.061586622650793 0 0 0 0 -8.3687939340125013 36.226474783079539 0 36.226474783079539 155.09706187303527 0 0 0 0 0.021025388326961547 75.606581236923375 0 75.606581236923375 142.78094405453885 0 0 0 0 98.989891278441064 -31.884490063064732 0 -31.884490063064732 257.89548078426924 0 0 0 0 -13.473152932652738 124.52796888156445 0 124.52796888156445 251.62397532084287 0 0 0 0 -4.8028008824621793 129.69774454327126 0 129.69774454327126 82.300433075040928 0 0 0 0 -15.926428489183309 73.411065783198865 0 73.411065783198865 2.3459038074652199 0 0 0 0 38.992581242229789 51.723509070950968 0 51.723509070950968 27.872434909600997 0 0 0 0 -42.14252237288747 42.618445150772459 0 42.618445150772459 29.132645095247426 0 0 0 0 -54.834677361941431 81.03147046113736 0 81.03147046113736 2.2501018840266624 0 0 0 0 0.0076275697647361085 69.592323012333509 0 69.592323012333509 -29.674425536970375 0 0 0 0 -32.54149401273753 73.619536558973778 0 73.619536558973778 -27.399910034422646 0 0 0 0 -45.735020567663014 50.311229971906869 0 50.311229971906869 -42.053227724565659 0 0 0 0 -17.081168242744752 66.324076011915167 0 66.324076011915167 -40.857286995684262 0 0 0 0 -164.29215910116181 18.060542365190486 0 18.060542365190486 71.003445692265814 0 0 0 0 -223.74570390966255 53.442989954011864 0 53.442989954011864 -602.34857161072432 0 0 0 0 -97.297223682398908 35.93768654618907 0 35.93768654618907 -28.024234941636678 0 0 0 0 -592.44613916793605 -85.899786546549876 0 -85.899786546549876 -40.728979551699013 0 0 0 0 -537.27174755310989 42.816141057075583 0 42.816141057075583 226.99384622217622 0 0 0 0 -648.57668215165631 325.90190646317251 0 325.90190646317251 224.22862705250736 0 0 0 0 -3.5552813423779526 3.1735553471583131 0 3.1735553471583131 14.061081524993597 0 0 0 0 -199.99355867921258 333.69376598469535 0 333.69376598469535 16.069254856411135 0 0 0 0 -325.55619841910084 49.565404586290242 0 49.565404586290242 204.79863206294249 0 0 0 0 -496.21874686294177 98.94185751745681 0 98.94185751745681 548.72606873972109 0 0 0 0 -34.054901234238059 60.705471083718294 0 60.705471083718294 -15.479287840673351 0 0 0 0 -0.07857688820513431 27.314696665976953 0 27.314696665976953 7.0456500180007424 0 0 0 0 11.032979803769052 18.157391155554706 0 18.157391155554706 23.982093646810881 0 0 0 0 1618.0344873199938 -2037.0379950110801 0 -2037.0379950110801 2912.2234845687635 0 0 0 0 0.93298546132137972 0.46610563361822699 0 0.46610563361822699 -7.0118126542919299 0 0 0 0 1.1702923606402749 6.4273493177542065 0 6.4273493177542065 19.393692142848181 0 0 0 0 -809.55269059012062 2210.9797088672785 0 2210.9797088672785 4648.3099140933482 0 0 0 0 -1378.5886447472149 -870.19837855057267 0 -870.19837855057267 6498.0511078696873 0 0 0 0 -652.61893069586949 2048.7043171472906 0 2048.7043171472906 2324.928768797472 0 0 0 0 -556.47299423677032 696.96457258482405 0 696.96457258482405 2944.7298242244869 0 0 0 0 -647.81330690962204 296.37873028506147 0 296.37873028506147 1623.2883754036739 0 0 0 0 -144.52220603142632 -400.26167604114744 0 -400.26167604114744 202.3155086921397 0 0 0 0 -259.53831168463512 -784.66356809508579 0 -784.66356809508579 2224.282719801995 0 0 0 0 -366.95827047774219 277.85706207885232 0 277.85706207885232 1558.0966779775918 0 0 0 0 -310.82264469264192 126.38656133390032 0 126.38656133390032 546.78656040677015 0 0 0 0 -317.01151044366998 79.67052106965275 0 79.67052106965275 417.18067445603083 0 0 0 0 509.65172474764404 838.83417010900303 0 838.83417010900303 663.2040587724041 0 0 0 0 640.88899500747266 1849.2568382056684 0 1849.2568382056684 700.53300120828499 0 0 0 0 -302.99978301674128 1274.4162588256004 0 1274.4162588256004 572.16815458456404 0 0 0 0 512.6033096347237 2534.5822532277816 0 2534.5822532277816 0.58784186564832774 0 0 0 0 1.1375480657911525 3232.8452204355613 0 3232.8452204355613 1906.8842117681634 0 0 0 0 -359.19377726504899 342.90341249565245 0 342.90341249565245 -296.90110455336981 0 0 0 0 -448.67689248605166 534.60067304850236 0 534.60067304850236 -343.52495626300515 0 0 0 0 -274.50459498047712 181.35809644324763 0 181.35809644324763 -0.51573614445478766 0 0 0 0 748.47929479044433 1038.6647181663775 0 1038.6647181663775 -588.79177714871184 0 0 0 0 1.2154788336554248 4.8094847119593638 0 4.8094847119593638 3.7804627075597637 0 0 0 0 -461.8321139831678 -54.991265187803947 0 -54.991265187803947 161.32313136695302 0 0 0 0 -32.400374987366376 48.32862367699272 0 48.32862367699272 -488.9234747624123 0 0 0 0 -142.41011237162456 -81.87821085183532 0 -81.87821085183532 132.69045161643953 0 0 0 0 -306.30225072982648 769.3570424649115 0 769.3570424649115 -512.28007481538225 0 0 0 0 481.18126437634055 182.13673242958248 0 182.13673242958248 -365.81597411357507 0 0 0 0 3.2962838734986804 8.9208329575344152 0 8.9208329575344152 7.8105009213209939 0 0 0 0 -486.43081401471864 347.57396321822307 0 347.57396321822307 568.2766171599942 0 0 0 0 -169.60077522446227 -276.88081352837617 0 -276.88081352837617 914.83597220943193 0 0 0 0 312.25006813490472 599.98566891317023 0 599.98566891317023 881.65976004808954 0 0 0 0 -201.26984286998777 -68.888344780796615 0 -68.888344780796615 514.76763109004241 0 0 0 0 -56.847461180987011 58.16395988567092 0 58.16395988567092 124.30692497661221 0 0 0 0 -291.19074354658369 173.77219200637774 0 173.77219200637774 598.17269159310672 0 0 0 0 -43.133522145566531 307.88591147247644 0 307.88591147247644 -144.48850865238637 0 0 0 0 161.74771174612397 422.20753715543833 0 422.20753715543833 162.21621050417889 0 0 0 0 -45.436790785432095 152.55113034957321 0 152.55113034957321 -186.58485001709778 0 0 0 0 -139.43071526489803 368.99862602008216 0 368.99862602008216 -43.452756127691828 0 0 0 0 -130.01970370713389 345.22630229278002 0 345.22630229278002 -539.32058099290589 0 0 0 0 -100.76395124866394 439.46333515593142 0 439.46333515593142 -354.77215843601152 0 0 0 0 -203.07251080393326 135.99327714537503 0 135.99327714537503 -319.64986822998617 0 0 0 0 415.07077796328667 -48.404883086532209 0 -48.404883086532209 -43.156701582789537 0 0 0 0 3.8346076764042891 3.333236123655567 0 3.333236123655567 10.830891006895513 0 0 0 0 789.76175532743946 71.232217044045683 0 71.232217044045683 -57.718137067466159 0 0 0 0 47.352527895578532 61.357823141966946 0 61.357823141966946 -223.51060442009475 0 0 0 0 156.06545940383512 371.60376581090895 0 371.60376581090895 -502.20333168595971 0 0 0 0 -389.09533934940555 496.22055948839261 0 496.22055948839261 604.60985751388944 0 0 0 0 -388.76616263214964 544.54102007806796 0 544.54102007806796 669.47826051205629 0 0 0 0 -464.11207858653506 424.45272993319668 0 424.45272993319668 726.69116947351358 0 0 0 0 -0.077239170110487976 5.2155263196029367 0 5.2155263196029367 5.5609905617963591 0 0 0 0 -45.255943285068497 669.53344406704855 0 669.53344406704855 -832.05206756542611 0 0 0 0 -462.55542157476884 347.47131866268319 0 347.47131866268319 -333.3700568866916 0 0 0 0 -60.19306392782164 906.95082637505038 0 906.95082637505038 112.86459578524227 0 0 0 0 27.740576263342518 866.39091855963852 0 866.39091855963852 -305.44380060967524 0 0 0 0 -255.42571363695606 463.14745515228424 0 463.14745515228424 -308.13903446681564 0 0 0 0 -122.65857164098634 671.00347014924409 0 671.00347014924409 -0.42579672986175865 0 0 0 0 -286.9260963124616 516.27558317865805 0 516.27558317865805 -189.98022903855599 0 0 0 0 -485.84819411789067 420.65238787328417 0 420.65238787328417 -0.038928759819584276 0 0 0 0 -91.552932757937469 388.4688436159268 0 388.4688436159268 153.49217002280056 0 0 0 0 603.92326321662404 659.19341609437106 0 659.19341609437106 1.6550795808580006 0 0 0 0 -86.9380766327522 718.47255174175007 0 718.47255174175007 -140.50941819527361 0 0 0 0 456.80694921823306 296.73954519227846 0 296.73954519227846 4.0669847183016827 0 0 0 0 -1140.660279531101 101.78351798783115 0 101.78351798783115 10.454282852850156 0 0 0 0 -246.48478395970596 460.27766061638977 0 460.27766061638977 376.77733258756052 0 0 0 0 -446.88964251377183 938.58781977101171 0 938.58781977101171 -734.30564017518191 0 0 0 0 -13.039792820570796 10.172352971834755 0 10.172352971834755 -11.4341119850057 0 0 0 0 33.457461657875683 -55.764352663245518 0 -55.764352663245518 -1088.6228589416569 0 0 0 0 -1225.52186270009 223.07370549039706 0 223.07370549039706 758.46239317323489 0 0 0 0 -294.12616530139348 330.26031439964208 0 330.26031439964208 96.375053240408306 0 0 0 0 620.36587244347902 1136.3246721683536 0 1136.3246721683536 531.52445885434281 0 0 0 0 -220.11402154211828 574.01714743098637 0 574.01714743098637 200.18601517440402 0 0 0 0 -314.04206810725736 231.45976363448426 0 231.45976363448426 351.63197225324984 0 0 0 0 -1147.2930632096854 -624.44141784008389 0 -624.44141784008389 -191.89723916056391 0 0 0 0 -75.89497847421444 143.04289045128098 0 143.04289045128098 -166.84553469396633 0 0 0 0 84.23508352402132 67.860014709944153 0 67.860014709944153 -28.132874139715568 0 0 0 0 -2.7927683414430078 23.389631088193752 0 23.389631088193752 19.225082530386999 0 0 0 0 17.801857465383364 96.286848863310297 0 96.286848863310297 -20.035386477284192 0 0 0 0 23.122720270478567 80.093133746490139 0 80.093133746490139 -12.623842396817054 0 0 0 0 -32.005758702735903 37.607449385569254 0 37.607449385569254 -26.088731962750387 0 0 0 0 -371.97060498099199 -7.3186931950922371 0 -7.3186931950922371 -7.0053702289442299 0 0 0 0 -7.493076298975879 25.088435567341463 0 25.088435567341463 9.2751986648229376 0 0 0 0 -101.59613096158137 11.713695361981081 0 11.713695361981081 106.62956725459662 0 0 0 0 -162.22044825705234 142.9886547523929 0 142.9886547523929 47.947676152278291 0 0 0 0 65.113220509330858 267.68819139059633 0 267.68819139059633 -150.40153688710416 0 0 0 0 -137.76453582772228 141.22431350072293 0 141.22431350072293 142.83327402097348 0 0 0 0 -51.432160692445365 53.280177094117192 0 53.280177094117192 -34.255480313790599 0 0 0 0 -0.13512216232629726 135.5306322626202 0 135.5306322626202 -8.5346756159851793 0 0 0 0 161.28149424779986 139.74006723612911 0 139.74006723612911 -155.87130960364448 0 0 0 0 -87.057080926999333 326.28948375751497 0 326.28948375751497 -160.05436245732199 0 0 0 0 103.26756291474857 68.794151331497233 0 68.794151331497233 20.598954400574016 0 0 0 0 -306.03416990196274 257.70921146042383 0 257.70921146042383 -48.691250812604267 0 0 0 0 -56.1752379103782 -204.01431710465476 0 -204.01431710465476 -169.24533707463706 0 0 0 0 -392.38267028921109 110.50857895334047 0 110.50857895334047 80.44896414248069 0 0 0 0 -392.48902191506932 338.84074547882483 0 338.84074547882483 493.04068603466658 0 0 0 0 683.60413359900849 293.12798321271839 0 293.12798321271839 -53.236673904728377 0 0 0 0 5.2558284884010078 4.7475474754153595 0 4.7475474754153595 4.8354618822895645 0 0 0 0 348.1926629687805 831.22849585370568 0 831.22849585370568 82.854534263235109 0 0 0 0 -101.15813639288172 319.06965625938574 0 319.06965625938574 105.33636937386473 0 0 0 0 -186.29343077102203 604.1497416386519 0 604.1497416386519 143.91097982920473 0 0 0 0 56.065727409237297 505.63583304470376 0 505.63583304470376 182.26216877809202 0 0 0 0 -111.35735906418267 156.32976971060998 0 156.32976971060998 -76.59741903108079 0 0 0 0 216.96252637468569 183.97988121046001 0 183.97988121046001 -37.53452125394324 0 0 0 0 -4.3115407411552127 13.557203882339167 0 13.557203882339167 -42.245705547424222 0 0 0 0 32.220440779037745 87.406331920792582 0 87.406331920792582 -95.52968938848062 0 0 0 0 270.55700729957607 418.43042434848758 0 418.43042434848758 58.19543200575572 0 0 0 0 -698.7469861482241 164.7703850496182 0 164.7703850496182 110.52973778047362 0 0 0 0 65.665035349069512 95.421255279648904 0 95.421255279648904 77.102906680680462 0 0 0 0 56.960554651774146 171.23855580766758 0 171.23855580766758 -254.64226044026145 0 0 0 0 -61.777265541903034 158.92292927038943 0 158.92292927038943 26.392107589592342 0 0 0 0 37.452030219996232 238.79364255972905 0 238.79364255972905 89.719374975276878 0 0 0 0 3.8364118846802739 193.97347897125292 0 193.97347897125292 30.96876298859388 0 0 0 0 -28.629361962528492 181.42390828791235 0 181.42390828791235 86.207915720704477 0 0 0 0 -32.431356202497682 122.98303117022556 0 122.98303117022556 5.2003977749700425 0 0 0 0 -31.807120612880681 192.81584289516559 0 192.81584289516559 111.03436476484057 0 0 0 0 -27.709737585100811 178.5517677119351 0 178.5517677119351 81.446760603925213 0 0 0 0 -119.55420599814533 186.2693532797457 0 186.2693532797457 239.26101625208685 0 0 0 0 -177.58785361066111 -3.5823125213428284 0 -3.5823125213428284 4.3609013024251908 0 0 0 0 -142.84931399802736 188.31970634422032 0 188.31970634422032 295.87878710124642 0 0 0 0 -77.378488090878818 12.715403807096664 0 12.715403807096664 -93.359284873193246 0 0 0 0 -131.49466397493961 104.38818380548764 0 104.38818380548764 159.70586433324934 0 0 0 0 0.77545519844481703 23.151436630347376 0 23.151436630347376 -65.83231751962569 0 0 0 0 186.16450449138938 -67.450349283757532 0 -67.450349283757532 -72.702981114343856 0 0 0 0 -18.404407378366159 96.30776656281887 0 96.30776656281887 24.446328371093841 0 0 0 0 795.53947237567627 254.27761312689108 0 254.27761312689108 -97.722741920947556 0 0 0 0 13.266003637780585 -5.3054871160446169 0 -5.3054871160446169 -7.437413569537398 0 0 0 0 914.33059987208981 1063.4229140506577 0 1063.4229140506577 740.23173915287771 0 0 0 0 1077.7740815852085 997.04894689280991 0 997.04894689280991 -1316.8045741985698 0 0 0 0 276.15630537943798 -683.38446041083807 0 -683.38446041083807 -999.22438909049379 0 0 0 0 1286.8583721600298 563.05653638872172 0 563.05653638872172 -455.19161710144544 0 0 0 0 3.105729999439454 10.975049231524366 0 10.975049231524366 4.350782457604339 0 0 0 0 27.213113895471906 61.156538295927021 0 61.156538295927021 23.068465785327135 0 0 0 0 1.2391511902009427 -0.92938900435316896 0 -0.92938900435316896 -1.259085028283323 0 0 0 0 911.30966349520895 -74.252615758960019 0 -74.252615758960019 -64.619772390869912 0 0 0 0 1240.1855055177293 -15.903536231722683 0 -15.903536231722683 -321.15972091781441 0 0 0 0 840.0782994808178 65.91422346057152 0 65.91422346057152 -332.41029424231965 0 0 0 0 241.25873452785891 -100.27170244896297 0 -100.27170244896297 -140.84436841962452 0 0 0 0 861.86499776841083 -310.10061861795111 0 -310.10061861795111 -448.67315093820798 0 0 0 0 187.73508845393371 -142.03558342524047 0 -142.03558342524047 80.078610658780235 0 0 0 0 887.05389527024818 -126.59658657467662 0 -126.59658657467662 -151.22490599066077 0 0 0 0 309.56090112382117 -237.53295801926106 0 -237.53295801926106 55.864924044872168 0 0 0 0 7.071309846501606 3.2464380026884356 0 3.2464380026884356 2.3155472534532464 0 0 0 0 739.58302860090771 -609.92420853263684 0 -609.92420853263684 404.66552911823965 0 0 0 0 -2.5557121723395539 14.111732291479711 0 14.111732291479711 -0.032240318459787608 0 0 0 0 1440.8689190059085 -155.97220074913639 0 -155.97220074913639 -165.86842474889272 0 0 0 0 62.780936374678276 32.329183412002749 0 32.329183412002749 -20.927747355264728 0 0 0 0 32.091183488199022 25.12703421479091 0 25.12703421479091 0.027232936473499916 0 0 0 0 49.464460595409037 24.556193091404566 0 24.556193091404566 -23.992218318078812 0 0 0 0 -4.3387711014083834 3.1230136557196602 0 3.1230136557196602 -13.205335769569501 0 0 0 0 21.62853054088643 7.4301355605729782 0 7.4301355605729782 2.7349866394878291 0 0 0 0 100.64686161108693 35.23937595589814 0 35.23937595589814 -49.460608692505048 0 0 0 0 72.207572703504411 15.800023286283249 0 15.800023286283249 17.578105852735462 0 0 0 0 117.43625351783703 93.623927822656697 0 93.623927822656697 -141.12980035424698 0 0 0 0 364.25831380857562 -57.130279197115669 0 -57.130279197115669 -69.493158182391198 0 0 0 0 114.36353904567659 -13.732915506465361 0 -13.732915506465361 -73.113169590709731 0 0 0 0 60.942144819739042 -18.018497496668715 0 -18.018497496668715 -48.380101994713186 0 0 0 0 8.5310052085987991 -7.8173259100149153 0 -7.8173259100149153 -32.820929607594735 0 0 0 0 36.544935196157894 1.0068630855967058 0 1.0068630855967058 -63.717386439093389 0 0 0 0 24.570669957793143 55.517067903869247 0 55.517067903869247 -25.967794672615128 0 0 0 0 22.633404895343119 26.511291691000224 0 26.511291691000224 -25.894915947923437 0 0 0 0 3.7775031771266754 7.3433459576766893 0 7.3433459576766893 -0.53537817237439356 0 0 0 0 7.7449998474375548 17.175474444731378 0 17.175474444731378 -8.5062333469261375 0 0 0 0 39.984920501923625 84.72063924435497 0 84.72063924435497 37.227029834553832 0 0 0 0 58.24063486722298 56.193424768105615 0 56.193424768105615 -24.215581526625101 0 0 0 0 56.033304845710518 15.555289676878601 0 15.555289676878601 -25.658494053204777 0 0 0 0 67.650562867667759 48.141476747448905 0 48.141476747448905 -17.329540705308318 0 0 0 0 62.269651975329907 62.372427020643954 0 62.372427020643954 57.753016057889909 0 0 0 0 -175.56040583141294 50.009464580969507 0 50.009464580969507 20.07855643046787 0 0 0 0 -32.074210564867826 139.97012696764432 0 139.97012696764432 -87.536118290066952 0 0 0 0 -1.0615110706130508 49.674165099611855 0 49.674165099611855 -32.059489315928658 0 0 0 0 28.691676128306426 62.069338772591436 0 62.069338772591436 -62.108430654858239 0 0 0 0 56.295706479460932 16.383027697476791 0 16.383027697476791 -86.191072855493985 0 0 0 0 58.679560722666793 44.194140445921221 0 44.194140445921221 -52.193227050214773 0 0 0 0 18.299948282015976 56.371562783228001 0 56.371562783228001 -23.104209846904268 0 0 0 0 21.713863560027676 36.698617622372694 0 36.698617622372694 -25.590046363970032 0 0 0 0 49.683058800903382 16.023332110140473 0 16.023332110140473 28.640528445772361 0 0 0 0 -42.365204945206642 58.79815745104861 0 58.79815745104861 45.342115200706758 0 0 0 0 44.278775255428627 68.792721435427666 0 68.792721435427666 33.040626821108162 0 0 0 0 -150.87874990061391 -131.53588522724021 0 -131.53588522724021 -119.85645675826072 0 0 0 0 -3.4437709293852095 70.098096123234427 0 70.098096123234427 48.052608404716011 0 0 0 0 16.847288540325565 30.115526274963543 0 30.115526274963543 -42.706151830110798 0 0 0 0 -19.04092687641969 25.202577952339198 0 25.202577952339198 -1.1924191616708413 0 0 0 0 -5.1155092094559222 42.530170531972544 0 42.530170531972544 52.148008546675555 0 0 0 0 72.792809363687411 44.947465648758225 0 44.947465648758225 33.015983749341103 0 0 0 0 -271.92324944530264 -52.825296585579053 0 -52.825296585579053 67.443226457369747 0 0 0 0 220.84299576048215 -706.47769037277612 0 -706.47769037277612 -1096.5195788573328 0 0 0 0 19.364682652823888 20.457521448829567 0 20.457521448829567 -16.783520312975568 0 0 0 0 185.55319657246582 176.91084810823668 0 176.91084810823668 162.11989472480491 0 0 0 0 -0.27900175667298299 -1.5587059369469216 0 -1.5587059369469216 -5.1572662384243912 0 0 0 0 -210.83054162963526 54.959375973858187 0 54.959375973858187 -299.41310559434351 0 0 0 0 -205.72217469275347 -249.27607738220831 0 -249.27607738220831 -17.755228940914094 0 0 0 0 -475.15995190682952 2.7737105762953433 0 2.7737105762953433 1181.42670589115 0 0 0 0 -457.65859554872441 -1178.1241554735316 0 -1178.1241554735316 518.92244175301312 0 0 0 0 -499.26137232378824 120.77314890777052 0 120.77314890777052 819.03568826543415 0 0 0 0 1165.2171990232746 1362.7798912108065 0 1362.7798912108065 145.76401716620603 0 0 0 0 194.2563882934337 23.986379185793339 0 23.986379185793339 -973.86575316909875 0 0 0 0 18.081369895914293 32.296673927606719 0 32.296673927606719 -2.4045190025634113 0 0 0 0 17.185698312037857 36.708383684406726 0 36.708383684406726 -12.164451391785406 0 0 0 0 18.550443815770905 35.69716725613614 0 35.69716725613614 19.441990977737589 0 0 0 0 17.686319711610849 29.659475456443033 0 29.659475456443033 6.5768362870439887 0 0 0 0 27.559023878366133 41.585883003543131 0 41.585883003543131 2.099815609617508 0 0 0 0 12.562193888588808 25.29390917418641 0 25.29390917418641 3.569695575053629 0 0 0 0 40.510469562650542 24.935069863771787 0 24.935069863771787 -5.9480154300908907 0 0 0 0 7.7274883347359946 19.135004308796653 0 19.135004308796653 -12.281397010988343 0 0 0 0 34.894580782110637 3.9858339308603945 0 3.9858339308603945 -2.2614761742907774 0 0 0 0 39.645553799855406 17.492874001240125 0 17.492874001240125 -37.680968817949179 0 0 0 0 33.460575700839399 24.803913437724987 0 24.803913437724987 -0.31777458000578918 0 0 0 0 28.571127153332782 13.244134582979314 0 13.244134582979314 4.8016068509459728 0 0 0 0 20.123278001747309 7.8322097476121542 0 7.8322097476121542 1.8951310390514209 0 0 0 0 15.208498919437261 13.572578470841108 0 13.572578470841108 -13.234177030695719 0 0 0 0 17.210772513088642 4.5230761868360503 0 4.5230761868360503 -3.3931450125938625 0 0 0 0 0.83973077966351184 -1.7729786796711977 0 -1.7729786796711977 2.8080822932986393 0 0 0 0 51.048448839475896 -34.898602346130247 0 -34.898602346130247 -5.8166448439587839 0 0 0 0 17.434738688447396 8.1330402221465192 0 8.1330402221465192 -0.030206214112695307 0 0 0 0 35.211942698049825 -21.595646207177197 0 -21.595646207177197 -16.264416070247535 0 0 0 0 30.373867451802653 10.338644301089516 0 10.338644301089516 16.053484653264604 0 0 0 0 13.861083900085617 5.0684811414112403 0 5.0684811414112403 -2.7441628586417295 0 0 0 0 -0.49636718976080374 2.7806277021870756 0 2.7806277021870756 0.31442303946913341 0 0 0 0 4.554394959617639 4.4223606487939833 0 4.4223606487939833 -0.0027833119820570573 0 0 0 0 5.7709373920515645 23.159143313198001 0 23.159143313198001 0.045939507312141359 0 0 0 0 11.845906240763725 9.8285915709930123 0 9.8285915709930123 36.875966661013081 0 0 0 0 23.568313197241878 42.00748102718353 0 42.00748102718353 54.054325381948729 0 0 0 0 27.715952779246436 30.704539614504029 0 30.704539614504029 65.799994127592072 0 0 0 0 53.693567626891308 49.698648575023981 0 49.698648575023981 31.187371132278713 0 0 0 0 32.642016861970973 54.158088441524228 0 54.158088441524228 -8.2909486265977463 0 0 0 0 18.420386523932393 55.798985160290613 0 55.798985160290613 100.1891020764815 0 0 0 0 -264.37762405004469 461.4922752273942 0 461.4922752273942 452.4097865728836 0 0 0 0 327.0341130558445 180.23502530854603 0 180.23502530854603 17.636054965492804 0 0 0 0 3.9859697777558267 6.8179986932942853 0 6.8179986932942853 -7.7580472427927134 0 0 0 0 55.32656179357582 279.26996986531958 0 279.26996986531958 159.32753098083776 0 0 0 0 39.969384508091025 326.99815058901731 0 326.99815058901731 228.27584223664599 0 0 0 0 -31.30876467001508 222.2245930712379 0 222.2245930712379 304.5552221096732 0 0 0 0 11.368512273707893 180.82557339475898 0 180.82557339475898 91.775716690986883 0 0 0 0 188.66555382688966 360.66926396197232 0 360.66926396197232 -328.326360088613 0 0 0 0 52.18337933872624 24.966025090836212 0 24.966025090836212 11.591350083997412 0 0 0 0 171.17728792692651 252.65137042705464 0 252.65137042705464 -277.55892359640529 0 0 0 0 -117.48589167023238 234.81008866086813 0 234.81008866086813 69.973794275225373 0 0 0 0 -225.39576199308067 185.26813091995791 0 185.26813091995791 327.14955219805415 0 0 0 0 519.48816835512116 30.755924485645664 0 30.755924485645664 -246.43599990635903 0 0 0 0 129.74233208996884 -202.90555774314998 0 -202.90555774314998 166.6265885176399 0 0 0 0 154.94384400307899 -112.64313557057176 0 -112.64313557057176 52.708160751208197 0 0 0 0 486.1743416419049 2.5595637698570499 0 2.5595637698570499 -173.82902362867026 0 0 0 0 -210.15724856758607 -91.192922081434517 0 -91.192922081434517 105.81801342765539 0 0 0 0 -113.94858432251203 175.1379605854745 0 175.1379605854745 295.80912753484154 0 0 0 0 546.96834375479375 -176.98847901525733 0 -176.98847901525733 -1.319915667110763 0 0 0 0 98.474323283240665 -237.04755799628037 0 -237.04755799628037 34.118319272340159 0 0 0 0 17.739084776468587 10.144956830689495 0 10.144956830689495 5.7876619424970386 0 0 0 0 373.25636073986243 63.37419117349782 0 63.37419117349782 3.0552788515387874 0 0 0 0 535.15766878661816 723.98880217351689 0 723.98880217351689 675.88107388440403 0 0 0 0 1033.7329093375156 194.72764100888162 0 194.72764100888162 -11.459523758880096 0 0 0 0 207.17180287775409 355.0160999399377 0 355.0160999399377 192.09346994788029 0 0 0 0 401.05016993437675 73.048718001567977 0 73.048718001567977 -2.8737876767991111 0 0 0 0 217.18691384379053 101.03257032002148 0 101.03257032002148 -2.1405775265811826 0 0 0 0 208.4130802473519 -84.079757289124245 0 -84.079757289124245 71.01398927338596 0 0 0 0 502.28876293085341 -176.18509396742593 0 -176.18509396742593 -17.99668241028121 0 0 0 0 129.0539720321176 -152.02037184172877 0 -152.02037184172877 44.9483765597397 0 0 0 0 114.7487238945323 -42.408238152725971 0 -42.408238152725971 65.432595898651925 0 0 0 0 106.86426725095953 43.413896710640984 0 43.413896710640984 99.437706612385227 0 0 0 0 43.400840061251074 152.64415587357507 0 152.64415587357507 -32.756735578841472 0 0 0 0 156.19874189811162 80.992505994543535 0 80.992505994543535 -2.0304642408882501 0 0 0 0 67.944947377043718 89.431047270723866 0 89.431047270723866 -159.98665639491082 0 0 0 0 99.703167580733862 0.95610281472909264 0 0.95610281472909264 2.1663977283460554 0 0 0 0 189.22460814268561 35.329600411430874 0 35.329600411430874 -117.97361716571322 0 0 0 0 206.48569992469857 98.126416629493178 0 98.126416629493178 -26.344163588000811 0 0 0 0 174.43733068884467 -23.637868776335381 0 -23.637868776335381 -29.990961986139155 0 0 0 0 204.74239793345623 2.0920754495164147 0 2.0920754495164147 -26.641732176558435 0 0 0 0 199.58952225391113 34.51905659789918 0 34.51905659789918 -82.054312327803927 0 0 0 0 366.0544766710118 99.707549898084835 0 99.707549898084835 49.396450865708175 0 0 0 0 4.771268157682357 -1.7570817389621709 0 -1.7570817389621709 -0.54087089387014231 0 0 0 0 262.98734533844254 -112.31106423793972 0 -112.31106423793972 0.047377241557114758 0 0 0 0 83.012317862405325 -173.9824671024071 0 -173.9824671024071 17.251358682260616 0 0 0 0 112.19640492291364 -16.498008125243359 0 -16.498008125243359 338.56215678092849 0 0 0 0 115.30468049089541 173.79654700574611 0 173.79654700574611 -225.96410254208604 0 0 0 0 125.5497563237368 137.97756689309244 0 137.97756689309244 -473.39160043436277 0 0 0 0 199.73193792210077 334.93989894360857 0 334.93989894360857 -156.64197425762904 0 0 0 0 176.03060446782911 29.589115001799655 0 29.589115001799655 17.815031218651711 0 0 0 0 134.31181525556713 156.65137167695229 0 156.65137167695229 -243.61454637846327 0 0 0 0 158.38206920271477 -9.5292751043780299 0 -9.5292751043780299 -125.47330548370519 0 0 0 0 36.446466627487098 124.83938597092492 0 124.83938597092492 -118.85964425295066 0 0 0 0 84.568384979756956 70.129115291361813 0 70.129115291361813 -297.34148508471117 0 0 0 0 -63.34542737697484 222.08559612494719 0 222.08559612494719 -184.0049183425881 0 0 0 0 -49.930411966917745 154.22573686462056 0 154.22573686462056 -550.03887620805472 0 0 0 0 -90.412081598813529 239.34809965219756 0 239.34809965219756 -319.76961248216867 0 0 0 0 -17.778971331688808 416.31606076118987 0 416.31606076118987 -826.35464767084704 0 0 0 0 -167.01567523037738 294.98220073636003 0 294.98220073636003 -383.73217159416527 0 0 0 0 35.159732274206874 24.8716327586178 0 24.8716327586178 14.040641761440654 0 0 0 0 122.30897464280861 -85.20364333424186 0 -85.20364333424186 796.09041257675563 0 0 0 0 -22.301680940283404 -264.06209121437496 0 -264.06209121437496 798.09496957597003 0 0 0 0 213.04617020981095 -10.219671186008782 0 -10.219671186008782 710.99611594592716 0 0 0 0 401.62659339083621 92.194518940057606 0 92.194518940057606 -777.54702320545766 0 0 0 0 13.272644289471941 9.3353368355036039 0 9.3353368355036039 6.4066175009517536 0 0 0 0 229.44638988826046 235.6828847536126 0 235.6828847536126 -577.92265119383956 0 0 0 0 761.08116383718152 486.34963136904116 0 486.34963136904116 -538.86378636690552 0 0 0 0 1195.061026737676 725.67426376471485 0 725.67426376471485 1235.3402309256198 0 0 0 0 471.1163902857661 1108.4553798739362 0 1108.4553798739362 1781.8181293857415 0 0 0 0 21.595125282692607 107.37752020368134 0 107.37752020368134 2465.6061381131003 0 0 0 0 -132.75866851587489 424.90340541880505 0 424.90340541880505 1285.959282977954 0 0 0 0 -298.80297098778101 -61.908868954635182 0 -61.908868954635182 177.62099791994842 0 0 0 0 -0.34908369963017094 -0.52634252132284587 0 -0.52634252132284587 2.6371073816803801 0 0 0 0 -24.872984921668831 172.03385754725605 0 172.03385754725605 174.31065181944723 0 0 0 0 32.505315069251424 61.799913012719472 0 61.799913012719472 -4.177284868820399 0 0 0 0 192.26430530483776 148.00231257314226 0 148.00231257314226 -198.01206722405914 0 0 0 0 203.79919403642452 860.19614395287454 0 860.19614395287454 1976.4307244756783 0 0 0 0 42.636257707296181 25.463500962609317 0 25.463500962609317 -2.6341290677223883 0 0 0 0 1036.5622358123946 352.14988364450255 0 352.14988364450255 954.88945431414322 0 0 0 0 34.63335150301873 62.466049205823708 0 62.466049205823708 -8.1202219449041486 0 0 0 0 -55.056710542718065 112.57729148168437 0 112.57729148168437 67.405823827004951 0 0 0 0 2.5570227469610245 9.728442228205779 0 9.728442228205779 24.588326995752055 0 0 0 0 196.9943189015612 804.84945840386717 0 804.84945840386717 1564.7830941545835 0 0 0 0 371.27893049705017 1166.882506394817 0 1166.882506394817 1393.6449885317925 0 0 0 0 385.34334024512282 1236.0215856482664 0 1236.0215856482664 1710.2663373799296 0 0 0 0 772.72035772841627 771.92945413244161 0 771.92945413244161 541.34039575024508 0 0 0 0 978.57453304487717 1582.4470401806593 0 1582.4470401806593 2177.0263355824209 0 0 0 0 222.01459044168041 459.30850644651628 0 459.30850644651628 1563.5558263054845 0 0 0 0 261.78849070535034 303.99706229626463 0 303.99706229626463 383.17055950889335 0 0 0 0 -730.18644901255539 608.463052815634 0 608.463052815634 112.64238415430009 0 0 0 0 -361.57172380428528 -96.14870280255127 0 -96.14870280255127 392.40637346130097 0 0 0 0 6.2851916544807978 14.430669463459928 0 14.430669463459928 20.974239246796003 0 0 0 0 -281.81991578128509 -57.905587897217629 0 -57.905587897217629 306.11922948239226 0 0 0 0 -696.68035957590109 635.0916740777534 0 635.0916740777534 2830.0479797908483 0 0 0 0 571.27397132011538 1380.4065130645577 0 1380.4065130645577 -229.95775612645775 0 0 0 0 2.4559318163762214 7.7033721329659812 0 7.7033721329659812 12.785414197768858 0 0 0 0 -458.64597921097447 -566.5802186284875 0 -566.5802186284875 761.46234095236287 0 0 0 0 -721.08339692970185 989.62034075303382 0 989.62034075303382 3486.1561157154356 0 0 0 0 333.87460004686 750.20402910298799 0 750.20402910298799 1831.9403114096785 0 0 0 0 19.490036559721432 17.553712921946726 0 17.553712921946726 1.7505242598235986 0 0 0 0 -58.319944950606441 1065.1644915423531 0 1065.1644915423531 2908.9104619934187 0 0 0 0 -81.154784634465614 619.64353116844813 0 619.64353116844813 587.26105563980673 0 0 0 0 3.6537048102154017 7.0502437634828965 0 7.0502437634828965 0.90856484246804037 0 0 0 0 -437.79033651362988 623.958177508066 0 623.958177508066 3938.3236960040658 0 0 0 0 -266.98380123908282 398.59192620728936 0 398.59192620728936 724.30191288058995 0 0 0 0 7.9361267923159176 32.512158500228907 0 32.512158500228907 170.67321112522768 0 0 0 0 -478.39135164559411 910.35803903638589 0 910.35803903638589 -111.18212805533949 0 0 0 0 63.738522612613451 28.603802612449726 0 28.603802612449726 -168.21121476186818 0 0 0 0 230.16600372780522 307.7181015364622 0 307.7181015364622 -568.48049765644828 0 0 0 0 188.19526879063051 502.06591000487242 0 502.06591000487242 39.242551408337022 0 0 0 0 338.50281820779492 959.72682926538619 0 959.72682926538619 -335.28856448925762 0 0 0 0 11.295514257246396 800.19872713547375 0 800.19872713547375 940.05045529779454 0 0 0 0 108.68534684485348 7.8151137660934182 0 7.8151137660934182 721.80599616553809 0 0 0 0 625.96716672548791 463.09435987899633 0 463.09435987899633 -24.225452100712573 0 0 0 0 -257.6128138887434 158.1915438692813 0 158.1915438692813 200.59773212647997 0 0 0 0 2.5535597934327541 6.3359773969801907 0 6.3359773969801907 9.6838595144912176 0 0 0 0 -553.75723596152966 -20.758871857251506 0 -20.758871857251506 1003.490932737499 0 0 0 0 -26.384752486897924 719.29884788486743 0 719.29884788486743 1000.1542846814045 0 0 0 0 -259.63682806798897 48.812399511347394 0 48.812399511347394 571.1207839776398 0 0 0 0 51.185336341156471 36.214723750970585 0 36.214723750970585 19.819871153363707 0 0 0 0 -252.28684192706714 83.799170229205629 0 83.799170229205629 541.88716308618677 0 0 0 0 -108.48582027375232 199.37173147126305 0 199.37173147126305 -428.22527229667321 0 0 0 0 -127.36127038477025 316.32968661420637 0 316.32968661420637 -443.39043542990112 0 0 0 0 8.5560789877199568 322.02145683792332 0 322.02145683792332 -825.43461106123505 0 0 0 0 -10.347057520164526 111.54358483391115 0 111.54358483391115 -432.25876712556055 0 0 0 0 -19.305963888597034 311.44148629806762 0 311.44148629806762 -346.51342007730273 0 0 0 0 394.10769780357805 -74.053749675538711 0 -74.053749675538711 -751.88356634198863 0 0 0 0 -765.65523896779632 416.33471693662796 0 416.33471693662796 -231.9234252187598 0 0 0 0 -2.1614919326880297 6.8069795038448433 0 6.8069795038448433 -14.500904716224227 0 0 0 0 1512.4645465862122 1083.1197602725297 0 1083.1197602725297 -2194.9497748147114 0 0 0 0 -205.59194709055009 252.26495369224722 0 252.26495369224722 -77.198085116755465 0 0 0 0 -957.11113384298369 -716.72449886717368 0 -716.72449886717368 -1598.3381592786754 0 0 0 0 163.79343653579417 -24.722557723758655 0 -24.722557723758655 -554.47577313893999 0 0 0 0 262.40036305176909 638.57459588651545 0 638.57459588651545 -291.57129755180358 0 0 0 0 63.992701898367102 43.764859991267805 0 43.764859991267805 22.841566203331453 0 0 0 0 214.21305633234078 549.83562317834185 0 549.83562317834185 -644.9576576217587 0 0 0 0 60.713773298281012 213.35959654202088 0 213.35959654202088 -375.53317070074991 0 0 0 0 46.631417143926228 140.60506506487036 0 140.60506506487036 -436.5716591799719 0 0 0 0 163.63154991943156 272.87317937915577 0 272.87317937915577 -727.77448981543421 0 0 0 0 77.350560672290158 132.86316948520835 0 132.86316948520835 -403.17587438624696 0 0 0 0 -6.0551043325540377 235.56365658421419 0 235.56365658421419 -396.13731527436812 0 0 0 0 -379.48877022384841 545.17942158936057 0 545.17942158936057 -912.3757524297398 0 0 0 0 -146.25838773806754 143.40451385724373 0 143.40451385724373 -562.28160715546255 0 0 0 0 83.001494404750446 49.452543654267238 0 49.452543654267238 23.661311193081204 0 0 0 0 101.12839527861644 57.036209723354503 0 57.036209723354503 29.788492310493439 0 0 0 0 68.763431053579552 128.05680354924698 0 128.05680354924698 -429.46253945892749 0 0 0 0 857.20274051296292 1042.3665865826188 0 1042.3665865826188 -604.0061873769082 0 0 0 0 62.900500119234493 117.48987649900118 0 117.48987649900118 -448.17761503266229 0 0 0 0 141.26457138633123 77.877665249528945 0 77.877665249528945 -161.63175071232399 0 0 0 0 151.09639327647164 119.24731666513253 0 119.24731666513253 -54.6357032864762 0 0 0 0 51.405916301373509 92.306427598032315 0 92.306427598032315 -131.64671792945592 0 0 0 0 328.86280808622541 -106.66891939648485 0 -106.66891939648485 -547.33601108781295 0 0 0 0 -1.4816486345573594 -1.5956684015265239 0 -1.5956684015265239 -1.4030219182204178 0 0 0 0 376.50690763621242 -267.45091072536889 0 -267.45091072536889 -109.74149769751239 0 0 0 0 228.00233449721418 219.71675587640857 0 219.71675587640857 -1016.2433521682033 0 0 0 0 179.21436253421052 132.39734784490975 0 132.39734784490975 -453.12792393111158 0 0 0 0 87.352328542110627 239.21199004025038 0 239.21199004025038 -574.34349937817751 0 0 0 0 -53.874652384169167 500.52213155908976 0 500.52213155908976 -381.461979416752 0 0 0 0 23.126639664944378 436.09754859844361 0 436.09754859844361 -340.66379890794633 0 0 0 0 -15.277982112005702 493.70813788997475 0 493.70813788997475 -663.77852946264829 0 0 0 0 34.864161519930349 426.48555771201973 0 426.48555771201973 -581.01364725039457 0 0 0 0 -28.477757212578581 390.25604439666586 0 390.25604439666586 -1060.0336133109813 0 0 0 0 -61.754720911078039 693.70352508490032 0 693.70352508490032 -500.93513686578081 0 0 0 0 -98.15600370982429 723.44591198493072 0 723.44591198493072 -308.73053775796143 0 0 0 0 -177.88759645799291 759.96744570985902 0 759.96744570985902 -164.54877078303252 0 0 0 0 -59.513801158005663 601.69637993260767 0 601.69637993260767 -110.86624196950288 0 0 0 0 -59.057363119540241 467.0025632468496 0 467.0025632468496 -28.599628236857825 0 0 0 0 5.6360939886362758 187.49591723999765 0 187.49591723999765 -112.04858283344947 0 0 0 0 -69.733979473443469 424.19332309268066 0 424.19332309268066 -145.98786423696356 0 0 0 0 64.607934339874191 225.3487346326292 0 225.3487346326292 -159.87702512228134 0 0 0 0 23.674694126457325 162.74763731157145 0 162.74763731157145 -130.36982275282207 0 0 0 0 -13.110949682893988 651.62813736095541 0 651.62813736095541 90.294789629959268 0 0 0 0 -76.993253688473487 378.45936348420582 0 378.45936348420582 558.81091198886133 0 0 0 0 -120.14452679430542 623.29531299788323 0 623.29531299788323 251.03207267263497 0 0 0 0 -11.654076268867357 716.96727269755138 0 716.96727269755138 136.8721492307377 0 0 0 0 -169.3453854432446 702.2880150295714 0 702.2880150295714 159.99983628038899 0 0 0 0 -214.13578318843793 776.83060549915353 0 776.83060549915353 98.11267414446047 0 0 0 0 -260.86083335457079 592.94054617194342 0 592.94054617194342 262.10710517750067 0 0 0 0 -450.15903492750658 640.10289882828511 0 640.10289882828511 522.0311248604703 0 0 0 0 -589.77451673916948 701.5575892528359 0 701.5575892528359 370.56282798985922 0 0 0 0 -521.73998260678491 836.47356627409681 0 836.47356627409681 102.61815301575552 0 0 0 0 -520.89755487555522 792.88008072443699 0 792.88008072443699 458.08800169573624 0 0 0 0 -400.36918451215024 452.4080389220253 0 452.4080389220253 624.30121570560004 0 0 0 0 -625.68154813277943 738.04741147386812 0 738.04741147386812 531.50747759479827 0 0 0 0 -449.6183990946447 935.35929646391014 0 935.35929646391014 514.87000921138224 0 0 0 0 -488.48086213318311 840.29046207273268 0 840.29046207273268 355.8843354918863 0 0 0 0 -447.49533255201095 977.90266317888199 0 977.90266317888199 356.85338609339669 0 0 0 0 -315.16389881307987 1015.4273252082639 0 1015.4273252082639 360.05901087660459 0 0 0 0 -321.22863962051633 921.75430680144382 0 921.75430680144382 66.835347340078442 0 0 0 0 -285.26296183235536 821.68706286258021 0 821.68706286258021 344.98763056540338 0 0 0 0 -197.16134050948313 845.63257745605733 0 845.63257745605733 88.72143855135073 0 0 0 0 -173.0933886101775 917.95939676091075 0 917.95939676091075 -313.86826757094241 0 0 0 0 -185.23621103972255 1005.0300633120132 0 1005.0300633120132 -424.93716801161645 0 0 0 0 -221.1601228252257 927.34157728510399 0 927.34157728510399 -32.601132380268155 0 0 0 0 -232.69957454243558 950.56957829169551 0 950.56957829169551 -175.05100259118626 0 0 0 0 -190.40037933221902 960.47431493015029 0 960.47431493015029 -364.1907039918151 0 0 0 0 -287.71274533911492 1069.7552887300408 0 1069.7552887300408 -4.5414180218649562 0 0 0 0 -252.09170471184189 1076.4113602775979 0 1076.4113602775979 -215.14664840990008 0 0 0 0 -367.40108798319125 932.22206697214642 0 932.22206697214642 -56.404688062262721 0 0 0 0 -311.29181326873368 1106.4123998837968 0 1106.4123998837968 360.47468718041637 0 0 0 0 -108.16094636917114 1077.2769722770063 0 1077.2769722770063 -40.36412150815886 0 0 0 0 -161.25781888730126 1085.2906037408684 0 1085.2906037408684 -51.194809868565699 0 0 0 0 -220.92346888949396 951.05473919827273 0 951.05473919827273 60.825779090369906 0 0 0 0 -303.33897717456421 1236.0396760210533 0 1236.0396760210533 793.29110240263253 0 0 0 0 -66.994510532458662 909.96496150600979 0 909.96496150600979 401.56955212083994 0 0 0 0 -33.762821892807551 1190.0099166922464 0 1190.0099166922464 859.71641231470858 0 0 0 0 -440.99595879565459 502.04035748297065 0 502.04035748297065 2300.8189127626756 0 0 0 0 -309.20131322280213 455.88049145416517 0 455.88049145416517 794.7715664277116 0 0 0 0 -165.42740454606246 814.86016818386634 0 814.86016818386634 923.25552755875651 0 0 0 0 -159.74315100038075 1043.6560363410608 0 1043.6560363410608 1285.3301477487112 0 0 0 0 -79.49482341791736 1063.8924946106163 0 1063.8924946106163 410.97315367381088 0 0 0 0 -143.43176378928183 849.01626123939423 0 849.01626123939423 884.45050942090165 0 0 0 0 -0.32243690385075752 1096.3040360623854 0 1096.3040360623854 745.27836142040724 0 0 0 0 -51.413706162245944 812.93368465159801 0 812.93368465159801 142.96951779964002 0 0 0 0 -291.83540589110635 789.58696996430444 0 789.58696996430444 141.57457317995795 0 0 0 0 -250.1859776822821 1037.1102710796877 0 1037.1102710796877 -132.84229914069874 0 0 0 0 -185.54583863566222 844.18256465612649 0 844.18256465612649 171.15807347949158 0 0 0 0 -166.70818986549421 880.68339403370919 0 880.68339403370919 -482.12780357826705 0 0 0 0 0.095126298401737586 909.10027557382637 0 909.10027557382637 -420.09060050841799 0 0 0 0 -456.20544273480482 525.80476453433221 0 525.80476453433221 -682.47802422797395 0 0 0 0 -0.88141366335548998 663.43354797925235 0 663.43354797925235 -1014.1298218076772 0 0 0 0 2.7290780121655871 1.4442299000717966 0 1.4442299000717966 -4.4179475862330548 0 0 0 0 -4.7467314184759744 763.85999744114815 0 763.85999744114815 -906.83052639305788 0 0 0 0 -735.14714467406156 687.57202670649713 0 687.57202670649713 -914.34588182480729 0 0 0 0 0.16876138028459309 -0.39871406615079508 0 -0.39871406615079508 -5.2677102282084434 0 0 0 0 -312.91049873307929 497.70588023378514 0 497.70588023378514 -722.97840793739306 0 0 0 0 -574.35420971509302 754.55504027431016 0 754.55504027431016 -652.2237014915645 0 0 0 0 -502.23771395922813 1114.386390272226 0 1114.386390272226 -563.47880247532339 0 0 0 0 -715.47440018328916 1047.1236189453314 0 1047.1236189453314 -933.43337437577429 0 0 0 0 -265.29070106046856 586.53830437350553 0 586.53830437350553 -1158.3918616305164 0 0 0 0 1.8105953285099758 1.3366557199941269 0 1.3366557199941269 -2.9012629797168188 0 0 0 0 -191.68363456612042 1200.7652004031138 0 1200.7652004031138 -506.1223107236292 0 0 0 0 -247.35363609323394 779.4491608277167 0 779.4491608277167 -823.76166307536187 0 0 0 0 -146.85633286290977 833.41731491236715 0 833.41731491236715 -892.42970899816282 0 0 0 0 -64.938941769083613 755.40414226038956 0 755.40414226038956 -753.18859410216828 0 0 0 0 -162.56602839753032 929.83974947067327 0 929.83974947067327 -389.67126306211867 0 0 0 0 -74.530242473585531 627.68669902686088 0 627.68669902686088 -677.34258780784512 0 0 0 0 -75.041889358326443 754.74762359715533 0 754.74762359715533 -1227.5830460977595 0 0 0 0 -249.93156583366726 793.4394265583669 0 793.4394265583669 -864.45681440891349 0 0 0 0 -195.33388427825412 737.86414897605573 0 737.86414897605573 -969.77904837956157 0 0 0 0 -187.16729494399624 708.84980702432949 0 708.84980702432949 -867.6947266824136 0 0 0 0 -522.68895335917477 1170.5669330290839 0 1170.5669330290839 -1370.6895969486795 0 0 0 0 40.264603350107791 -179.74648433909169 0 -179.74648433909169 -1132.387780687216 0 0 0 0 166.66281813272508 -73.795590906389407 0 -73.795590906389407 -1504.2476418290462 0 0 0 0 175.1519480611023 540.54212683672813 0 540.54212683672813 -2301.0065145929912 0 0 0 0 114.32600112952059 462.11312340636141 0 462.11312340636141 -1218.6451194527472 0 0 0 0 105.53345288326091 402.14595727395499 0 402.14595727395499 -1207.4117336316995 0 0 0 0 130.77081192960031 446.57568282196735 0 446.57568282196735 -1207.4691176763822 0 0 0 0 -182.81225224897207 496.14098777883919 0 496.14098777883919 -1165.2984001592376 0 0 0 0 3.4463020587572828 60.232961304489436 0 60.232961304489436 -278.01594133440085 0 0 0 0 -179.47487670145347 273.44696979517175 0 273.44696979517175 -273.51151879099052 0 0 0 0 4.4462058300051126 8.6737416508199772 0 8.6737416508199772 -16.763538309561227 0 0 0 0 -11.438789998465722 26.523932391468492 0 26.523932391468492 -20.431177451052662 0 0 0 0 -139.41361297467665 -74.718114651353972 0 -74.718114651353972 -114.36132834690943 0 0 0 0 -897.27046685095411 911.86798076539708 0 911.86798076539708 -226.17369336190222 0 0 0 0 -9.2206953991861269 7.6661463908831138 0 7.6661463908831138 -8.8183201756875178 0 0 0 0 -1.5551761911920039 335.05261953575609 0 335.05261953575609 -1178.7564738499641 0 0 0 0 -54.428914032352623 1169.6828021426445 0 1169.6828021426445 -2565.3078116352699 0 0 0 0 -497.25665677592042 463.12808978918838 0 463.12808978918838 -2646.4966717941861 0 0 0 0 1.6642890058029138 0.034311305842152251 0 0.034311305842152251 -7.827420448091118 0 0 0 0 207.32113196111095 8.7987571168159775 0 8.7987571168159775 -3234.8469154215709 0 0 0 0 -1230.0000099325553 1639.2154755421798 0 1639.2154755421798 -1572.418570296315 0 0 0 0 -71.254341974286945 161.22161588591553 0 161.22161588591553 588.81959360784458 0 0 0 0 -52.352176331638475 119.2722326790099 0 119.2722326790099 531.53090795512981 0 0 0 0 0.1349617654257928 113.33179835038965 0 113.33179835038965 509.13682724964747 0 0 0 0 25.190867392899236 141.72968584361297 0 141.72968584361297 406.23092432864723 0 0 0 0 -2.9770469920108553 -0.19090089997293092 0 -0.19090089997293092 -0.62137385025524416 0 0 0 0 52.35768739930063 202.7678740725205 0 202.7678740725205 512.33610990887428 0 0 0 0 70.308896360122162 189.80447164620364 0 189.80447164620364 62.530796327700955 0 0 0 0 9.7887997548095882 80.910835863262037 0 80.910835863262037 -661.01110119753503 0 0 0 0 -55.11587776907254 96.990655140096351 0 96.990655140096351 306.4330698970698 0 0 0 0 -9.0471677677659272 3.6705380859621215 0 3.6705380859621215 -2.6643161111360847 0 0 0 0 120.87543129641563 323.13717094806816 0 323.13717094806816 -365.16232024915371 0 0 0 0 -286.06905031150018 19.925600890087026 0 19.925600890087026 -355.40787786970759 0 0 0 0 -513.77373170043575 809.40679685508803 0 809.40679685508803 540.50183860096149 0 0 0 0 35.695687055478629 -60.180737927439623 0 -60.180737927439623 55.487074460135773 0 0 0 0 104.23262529153726 63.482588656721418 0 63.482588656721418 54.412222765982733 0 0 0 0 443.55583491869038 167.1418171720361 0 167.1418171720361 89.614529271895663 0 0 0 0 4.4577963559918317 1.040943107301409 0 1.040943107301409 14.442727630989665 0 0 0 0 -19.373198245272874 12.479770248347904 0 12.479770248347904 14.220224208745304 0 0 0 0 -22.723050435000914 -35.423958930045046 0 -35.423958930045046 195.98095124336032 0 0 0 0 -39.044664861925412 84.637457700111554 0 84.637457700111554 149.09587507485048 0 0 0 0 0.92622319550719112 130.40277032609447 0 130.40277032609447 87.338951660429302 0 0 0 0 -18.410779674071819 -1.9320396413568233 0 -1.9320396413568233 112.77761120312061 0 0 0 0 501.29886353861366 241.05750990632623 0 241.05750990632623 140.45416559958539 0 0 0 0 14.651424538300489 92.699499553249552 0 92.699499553249552 -27.780311519261886 0 0 0 0 1.5710114745326678 2.2082804995149843 0 2.2082804995149843 10.985651203237033 0 0 0 0 6.384990198072046 30.316292734201852 0 30.316292734201852 25.578046007743978 0 0 0 0 -129.05757515699952 385.99832581601368 0 385.99832581601368 900.01460537324476 0 0 0 0 124.6259804876172 47.81504089198279 0 47.81504089198279 -208.40279943160567 0 0 0 0 1.5359020947830686 -2.3397785260944204 0 -2.3397785260944204 -0.033382285991633509 0 0 0 0 -38.838521680270787 -68.653433243227482 0 -68.653433243227482 55.607442479499639 0 0 0 0 -98.105850381427445 70.345961297985923 0 70.345961297985923 57.108507046070372 0 0 0 0 15.800180703517981 585.15745675466951 0 585.15745675466951 1098.6438566119396 0 0 0 0 0.14239565630506945 5.148651345559216 0 5.148651345559216 15.146092622444655 0 0 0 0 594.52831463345501 -680.47365703182368 0 -680.47365703182368 829.11433727551776 0 0 0 0 1264.7354080849545 181.01103917576165 0 181.01103917576165 -237.15036563730973 0 0 0 0 -87.696951014833758 79.551522602172554 0 79.551522602172554 -178.47041764236201 0 0 0 0 -81.582728873603628 -300.07371325365966 0 -300.07371325365966 1381.7154091328575 0 0 0 0 74.555202761592227 262.25684284435556 0 262.25684284435556 595.7562715686654 0 0 0 0 -370.22255311520712 38.921301364232022 0 38.921301364232022 816.03823887588806 0 0 0 0 -0.46591688574699219 80.384886102579912 0 80.384886102579912 560.63684489781008 0 0 0 0 -167.97739211312728 -172.64703369865038 0 -172.64703369865038 311.02865939236654 0 0 0 0 0.026428947632666677 31.976451161022851 0 31.976451161022851 53.891018385482312 0 0 0 0 -3.2818864685299332 -2.0384611375503425 0 -2.0384611375503425 2.5528267549638173 0 0 0 0 -1.2957269500620896 14.095867720880051 0 14.095867720880051 44.856482498482364 0 0 0 0 17.841938260549796 24.001790034819351 0 24.001790034819351 5.7044014976418111 0 0 0 0 -3.96841582669731 39.911728109028218 0 39.911728109028218 -3.4405433320716838 0 0 0 0 -0.002046666297246702 31.187767043604254 0 31.187767043604254 11.797564277749188 0 0 0 0 0.3204168897937052 15.684155094641028 0 15.684155094641028 -5.4266757661753218 0 0 0 0 -0.010411313618533313 31.38607177987069 0 31.38607177987069 -25.290335090765439 0 0 0 0 5.3359380941607242 2.8982654712008369 0 2.8982654712008369 3.5388097562645697 0 0 0 0 12.617829902846267 10.310339755843799 0 10.310339755843799 9.1066707541820477 0 0 0 0 -40.822389730528812 9.3236992660604301 0 9.3236992660604301 535.98883841121278 0 0 0 0 -107.98422330975245 333.72211438255329 0 333.72211438255329 301.23721758135798 0 0 0 0 -296.33020304555248 959.61390254320577 0 959.61390254320577 1349.2993567732974 0 0 0 0 -92.690070038002887 79.105350099720681 0 79.105350099720681 2573.5525842899078 0 0 0 0 0.31439704139484093 1199.8697736879512 0 1199.8697736879512 1527.5105255316339 0 0 0 0 0.91735479033025058 4.8201375475619983 0 4.8201375475619983 4.0820141000988599 0 0 0 0 -292.89375683982507 1240.4778158211011 0 1240.4778158211011 -968.00143600903903 0 0 0 0 -78.812154501662008 324.617255286008 0 324.617255286008 -193.43490762221336 0 0 0 0 -568.37304085477081 468.03088660831781 0 468.03088660831781 -186.13132391619001 0 0 0 0 -234.46219392218336 162.1302671699159 0 162.1302671699159 -359.94622899768365 0 0 0 0 -18.391251235452728 289.79200248734514 0 289.79200248734514 -404.23411326164933 0 0 0 0 2.2681334684349963 7.174862501099085 0 7.174862501099085 7.0992601888504652 0 0 0 0 -95.579736142783077 -62.842231470862316 0 -62.842231470862316 126.40500152085588 0 0 0 0 19.817009064663864 18.197127150899455 0 18.197127150899455 12.457346667045968 0 0 0 0 4.7784460114671674 41.287591355832774 0 41.287591355832774 34.516877426358406 0 0 0 0 -2.1342016294227051 5.4234119567639425 0 5.4234119567639425 4.780970791820522 0 0 0 0 531.65101789739856 -591.74480228451284 0 -591.74480228451284 -259.8255377740893 0 0 0 0 -260.95762088321862 403.05212638798366 0 403.05212638798366 -240.73480118081352 0 0 0 0 -336.82649658733862 421.74617642564772 0 421.74617642564772 -212.27740121994066 0 0 0 0 21.354146069463297 24.480597210711295 0 24.480597210711295 20.173929891610101 0 0 0 0 -482.09987119509606 170.99233131228357 0 170.99233131228357 -7.0053766808014188 0 0 0 0 -212.2245205132931 410.6572413778722 0 410.6572413778722 -361.49629224809905 0 0 0 0 -167.60708418099966 207.47086170588591 0 207.47086170588591 -309.46407094890219 0 0 0 0 -184.55811014212668 205.0597104663193 0 205.0597104663193 -248.07798209981411 0 0 0 0 -236.24807937252535 347.52580766772257 0 347.52580766772257 -327.69105395247607 0 0 0 0 -244.99504485690341 300.07510429854256 0 300.07510429854256 20.431788170710206 0 0 0 0 -528.20967540726269 471.97190011740531 0 471.97190011740531 -462.38447553644801 0 0 0 0 1.6873240246740124 10.691368284234493 0 10.691368284234493 8.8680990035401521 0 0 0 0 3.1903144072044256 10.249673159068657 0 10.249673159068657 7.1230502512037503 0 0 0 0 -401.30716810025115 558.62801561254582 0 558.62801561254582 -680.5050885693272 0 0 0 0 -444.41712791277678 597.02297922855723 0 597.02297922855723 171.16407400931348 0 0 0 0 -362.36587218873319 686.67300511414396 0 686.67300511414396 102.75947692188493 0 0 0 0 -589.37630814676231 1017.5092975019252 0 1017.5092975019252 212.65473819810722 0 0 0 0 -363.43814209261473 960.50628684393087 0 960.50628684393087 -405.37370052997721 0 0 0 0 -452.93345977426725 741.88310399291731 0 741.88310399291731 -508.2169378271501 0 0 0 0 -590.92457704432309 798.95381978058867 0 798.95381978058867 104.97136615927002 0 0 0 0 -533.8918253776792 694.631406970635 0 694.631406970635 -291.11786184835364 0 0 0 0 -411.24108960322337 946.7921301286915 0 946.7921301286915 -643.85384604638239 0 0 0 0 -402.01767043226573 966.98121277399696 0 966.98121277399696 -958.78924116943381 0 0 0 0 -627.37146383531217 661.63564318909266 0 661.63564318909266 -825.281112791341 0 0 0 0 -249.95446886592981 654.56495719359555 0 654.56495719359555 -1604.9975607812812 0 0 0 0 -112.32669911553967 1001.9221329010616 0 1001.9221329010616 -895.22299210358324 0 0 0 0 -276.53631049743854 740.86013129363346 0 740.86013129363346 -1105.1364234541688 0 0 0 0 -112.34782451143838 1022.8847915244514 0 1022.8847915244514 -1694.8609653882713 0 0 0 0 5.7610370419643004 109.89484162485496 0 109.89484162485496 304.63199317544786 0 0 0 0 2.3803255684376836 4.5157794596342278 0 4.5157794596342278 1.9532153557555034 0 0 0 0 -178.45171923469752 1063.3800593674714 0 1063.3800593674714 -1457.8341088433226 0 0 0 0 -139.53147098774207 160.56136997917201 0 160.56136997917201 -241.55921680078063 0 0 0 0 -133.14325759261556 -52.313361875054397 0 -52.313361875054397 260.59387821811833 0 0 0 0 -148.91298328312405 410.40980203929576 0 410.40980203929576 -171.05649055686081 0 0 0 0 -76.462387149600545 600.57991929441778 0 600.57991929441778 286.82420328676767 0 0 0 0 -215.8712691301771 467.64392982239224 0 467.64392982239224 -113.47821908871265 0 0 0 0 245.59854758343135 286.26819647747834 0 286.26819647747834 -299.64279128199269 0 0 0 0 -357.7987609529082 724.75781797853779 0 724.75781797853779 520.29803627865476 0 0 0 0 2.0129635089340638 2.2904638423154324 0 2.2904638423154324 0.47279946123660466 0 0 0 0 -112.67633240364376 173.05347973710013 0 173.05347973710013 -331.99923433024014 0 0 0 0 -210.88750256750791 266.04893259324126 0 266.04893259324126 -373.84427678011707 0 0 0 0 -277.16439575181721 360.52910956006599 0 360.52910956006599 -460.79471415196895 0 0 0 0 -78.077945081226062 441.68883613583967 0 441.68883613583967 -592.74184568169176 0 0 0 0 6.0452465157432016 636.30331621770347 0 636.30331621770347 -212.1315784464532 0 0 0 0 5.1241400339407051 7.7715961394482846 0 7.7715961394482846 8.8477473220784759 0 0 0 0 -140.66764715462341 -440.75443339493359 0 -440.75443339493359 1670.5490332695554 0 0 0 0 -27.270755934383487 -414.36239859494162 0 -414.36239859494162 1012.4290863632559 0 0 0 0 -324.67190260688949 326.46807787046782 0 326.46807787046782 -388.14900024202507 0 0 0 0 -141.63797074512695 236.49144596425685 0 236.49144596425685 -554.60786136990464 0 0 0 0 65.354450433973398 445.87926430460175 0 445.87926430460175 -354.8102924246341 0 0 0 0 -341.88566587619425 447.62741729239497 0 447.62741729239497 298.90335514851904 0 0 0 0 15.83467426464 20.179019584762685 0 20.179019584762685 19.349143626222244 0 0 0 0 -237.44731686338127 550.64486069189979 0 550.64486069189979 -383.87365307853179 0 0 0 0 -552.53818742734438 -170.76436687688147 0 -170.76436687688147 1329.5215183928558 0 0 0 0 225.93867035422591 -665.0913562119531 0 -665.0913562119531 1107.484643118567 0 0 0 0 -350.82419574147207 -338.97355140470972 0 -338.97355140470972 978.99752542839997 0 0 0 0 35.175585832766956 -271.20407107905339 0 -271.20407107905339 520.28373097136864 0 0 0 0 -332.51860393298557 -121.22775648358947 0 -121.22775648358947 860.86703402048443 0 0 0 0 399.37518861787976 -116.59557730786764 0 -116.59557730786764 135.75082790403394 0 0 0 0 -66.045613066584338 -176.48232940416347 0 -176.48232940416347 872.02005833915246 0 0 0 0 -122.94006614049431 75.090201198974682 0 75.090201198974682 198.40290937629879 0 0 0 0 -0.96892678625158624 0.30749809428000674 0 0.30749809428000674 0.23774067653432951 0 0 0 0 15.43224005279626 3.8193102549939795 0 3.8193102549939795 135.01543513473007 0 0 0 0 -18.251294608766329 -274.67317438163082 0 -274.67317438163082 724.29322673676506 0 0 0 0 -18.408758107871847 -1.6345008459394847 0 -1.6345008459394847 9.3310532895393887 0 0 0 0 344.90431649202947 -460.02487925327296 0 -460.02487925327296 818.46077327195962 0 0 0 0 0.73527912991244193 27.073832656595727 0 27.073832656595727 48.358615853061309 0 0 0 0 -5.5276535045995843 42.395236958283931 0 42.395236958283931 104.66288226049801 0 0 0 0 -2.0525579638352269 6.2012641060654232 0 6.2012641060654232 17.376061462119701 0 0 0 0 2.0179485755324151 20.621175452358784 0 20.621175452358784 64.827419754349606 0 0 0 0 -4.5300087787618395 28.896720605924202 0 28.896720605924202 86.382010763016297 0 0 0 0 -0.4313400961982552 22.116841954753909 0 22.116841954753909 71.588585709107065 0 0 0 0 -86.687183961534174 -21.00851956081533 0 -21.00851956081533 113.74803229041572 0 0 0 0 5.8604035667667631 -2.8691817145590903 0 -2.8691817145590903 100.52590484268148 0 0 0 0 6.4881476455484517 45.138861390485545 0 45.138861390485545 77.445681573022739 0 0 0 0 -85.779299835616257 30.105550665728515 0 30.105550665728515 90.493206218176056 0 0 0 0 -85.650154339236906 26.684033641999122 0 26.684033641999122 152.20690638562883 0 0 0 0 -158.71653205389157 3.6641702591441572 0 3.6641702591441572 144.96414623599048 0 0 0 0 -145.2491227426508 54.697370519916149 0 54.697370519916149 230.16922520180378 0 0 0 0 -20.626043151598424 90.714660185258253 0 90.714660185258253 144.02190853103821 0 0 0 0 -38.870410443516448 19.93230346164637 0 19.93230346164637 148.86897615137423 0 0 0 0 -16.597999487072229 -38.584163071594958 0 -38.584163071594958 179.73994870136085 0 0 0 0 -10.765206012292765 30.699485552562692 0 30.699485552562692 113.84533794147137 0 0 0 0 73.512829228508053 -114.09551834878403 0 -114.09551834878403 197.23851879686117 0 0 0 0 160.99183943661046 54.586284153207089 0 54.586284153207089 154.25635619762033 0 0 0 0 -669.89735868498974 197.2069706470993 0 197.2069706470993 1823.5482221067141 0 0 0 0 -37.059208592152572 122.56743889435165 0 122.56743889435165 272.69279447205918 0 0 0 0 -321.57429815246724 5.3305730431602569 0 5.3305730431602569 315.0074159652595 0 0 0 0 -10.193360885270181 -1.8995859020572112 0 -1.8995859020572112 0.34440470947931967 0 0 0 0 -70.402623958536424 -59.452006622414046 0 -59.452006622414046 1301.7695791160427 0 0 0 0 -60.42965817297727 13.027479293362887 0 13.027479293362887 1221.6400730592068 0 0 0 0 -566.80372184336011 309.27830021951013 0 309.27830021951013 302.27542419580845 0 0 0 0 0.81400901853174901 2.1187815668451719 0 2.1187815668451719 1.8424567239171097 0 0 0 0 -178.33748087880667 332.12412404625138 0 332.12412404625138 298.93069651121914 0 0 0 0 -662.48158401090768 116.36531303810261 0 116.36531303810261 590.76580924965674 0 0 0 0 -2.3422775890225012 -0.33549889479235162 0 -0.33549889479235162 0.98968958707291055 0 0 0 0 -79.501980724337045 -115.05641657115484 0 -115.05641657115484 230.46545288239076 0 0 0 0 -753.86827869489207 294.08390321714251 0 294.08390321714251 1046.9418004703657 0 0 0 0 566.53168254423508 -80.490685723045317 0 -80.490685723045317 709.17061009846293 0 0 0 0 -210.93169608645258 731.35566897025274 0 731.35566897025274 583.53984782312909 0 0 0 0 -151.38365451619029 -121.93269095090363 0 -121.93269095090363 240.22466210165294 0 0 0 0 -285.50356375283445 -88.977133412692638 0 -88.977133412692638 254.97473162357346 0 0 0 0 -36.194578952272423 -74.671221257871366 0 -74.671221257871366 197.91691303956031 0 0 0 0 -77.364151695481269 -56.513506296570995 0 -56.513506296570995 192.48379901980479 0 0 0 0 -221.19779606804514 -6.9334493448968715 0 -6.9334493448968715 291.35945833320875 0 0 0 0 -76.643293631175766 -64.040369062131504 0 -64.040369062131504 256.81017728209008 0 0 0 0 -71.54888917489734 145.84491820130461 0 145.84491820130461 315.17936009589175 0 0 0 0 -488.78828372804855 150.5302262422374 0 150.5302262422374 315.83099117796519 0 0 0 0 -206.67431694785046 377.4744762675773 0 377.4744762675773 501.96070764874457 0 0 0 0 -17.341135367983952 474.32474887652643 0 474.32474887652643 510.87521052557713 0 0 0 0 -118.84862824314041 151.22125639038859 0 151.22125639038859 347.89958070062858 0 0 0 0 119.12857860117219 242.73535480559804 0 242.73535480559804 329.07295578155208 0 0 0 0 -377.81641915993532 192.11508389324445 0 192.11508389324445 303.7778740459762 0 0 0 0 -329.22219142265385 -3.507884869541158 0 -3.507884869541158 -66.587293123651762 0 0 0 0 1267.5328762453282 462.2061397629659 0 462.2061397629659 -971.09054877825838 0 0 0 0 -284.38610551980673 249.15641141334345 0 249.15641141334345 213.09333736720146 0 0 0 0 -140.18231789156562 297.4848780569082 0 297.4848780569082 242.12044621644964 0 0 0 0 -558.28259481603163 541.83824200333038 0 541.83824200333038 387.00198848177752 0 0 0 0 -554.46724806362181 540.87347906727518 0 540.87347906727518 386.31349384928035 0 0 0 0 -233.21136183575436 502.10920234562582 0 502.10920234562582 248.32063370300602 0 0 0 0 -621.29706345155137 423.61933598080032 0 423.61933598080032 300.63413803806179 0 0 0 0 -564.97056646678175 508.92208465969361 0 508.92208465969361 284.52507452394639 0 0 0 0 -531.81603874843495 415.08591840506324 0 415.08591840506324 238.274260904931 0 0 0 0 -461.73486178030726 507.8702734070539 0 507.8702734070539 141.28009019218371 0 0 0 0 -254.05120366853953 456.05737593495724 0 456.05737593495724 69.877624292435939 0 0 0 0 -408.81104985217098 477.36727957129915 0 477.36727957129915 390.29487246511871 0 0 0 0 -325.82459973568621 193.62103912465682 0 193.62103912465682 398.35764424575609 0 0 0 0 -414.08864043628273 373.35266916422552 0 373.35266916422552 111.01789558639575 0 0 0 0 -429.49960733433545 357.68922836113052 0 357.68922836113052 -232.59060031855915 0 0 0 0 -400.8416238026839 282.49854383526326 0 282.49854383526326 -134.1145814886986 0 0 0 0 -473.57594424484705 481.25157704491721 0 481.25157704491721 25.433571445464622 0 0 0 0 -641.43708060623612 392.72137215021939 0 392.72137215021939 -151.95275468472391 0 0 0 0 -436.30838577920804 474.38546263283752 0 474.38546263283752 -126.76215519799734 0 0 0 0 -574.30691161358959 552.02621656872589 0 552.02621656872589 38.984218064673769 0 0 0 0 -577.42750953907671 402.39073458452913 0 402.39073458452913 52.668415033032943 0 0 0 0 -569.15346167542157 395.46920515356942 0 395.46920515356942 -365.26421238578769 0 0 0 0 -544.98471710988088 480.87361379642971 0 480.87361379642971 -490.07103789540997 0 0 0 0 -638.48584576284338 494.20159700569639 0 494.20159700569639 -320.64259346828476 0 0 0 0 -600.70809628326606 206.62293747177227 0 206.62293747177227 -365.88080430094851 0 0 0 0 -301.90505494309764 294.71646062242507 0 294.71646062242507 -441.80606419922697 0 0 0 0 -284.75166926905513 251.8123558351881 0 251.8123558351881 -122.73220217382914 0 0 0 0 -458.65954152276754 212.64626100865325 0 212.64626100865325 -131.3779094611964 0 0 0 0 -201.96729375503492 631.81811271108018 0 631.81811271108018 -534.62707823559322 0 0 0 0 -348.33456967135135 202.17291529102658 0 202.17291529102658 -316.2655608348432 0 0 0 0 -301.56210645921237 170.8117991843319 0 170.8117991843319 -482.769966873675 0 0 0 0 3.4213956146264195 4.3804268031750127 0 4.3804268031750127 1.9737549236617724 0 0 0 0 -402.59535280453747 275.76395794607447 0 275.76395794607447 -298.66515441668889 0 0 0 0 -197.90456998349691 252.04723502738852 0 252.04723502738852 -527.53000035760488 0 0 0 0 -468.4091274907405 169.79186989289883 0 169.79186989289883 -534.63700208206865 0 0 0 0 -422.09324142128571 445.62725563481285 0 445.62725563481285 -811.67339092180191 0 0 0 0 -147.19538655012366 777.42700133698645 0 777.42700133698645 -1548.0091128288695 0 0 0 0 -536.72173673233192 314.12527913313897 0 314.12527913313897 -942.92429424717557 0 0 0 0 -190.43178102190723 997.34514941600355 0 997.34514941600355 -816.68300397440908 0 0 0 0 -150.88557958661113 759.61808506540547 0 759.61808506540547 -1199.6039634895715 0 0 0 0 -216.2703851962724 869.05009364461876 0 869.05009364461876 -1174.1987000354347 0 0 0 0 -55.040650484981597 889.48663008183939 0 889.48663008183939 -1271.3055619404113 0 0 0 0 -350.19110915272904 1016.8453153772643 0 1016.8453153772643 -1337.1567521457837 0 0 0 0 9.5152409383008489 963.95923683574074 0 963.95923683574074 -2541.6193643987972 0 0 0 0 -250.76234996077255 1559.7944102266883 0 1559.7944102266883 -1181.4051688044274 0 0 0 0 -496.55230582183867 1299.2069159945713 0 1299.2069159945713 741.75347351918208 0 0 0 0 11.825391981576104 -49.184730044464231 0 -49.184730044464231 -183.50764810859982 0 0 0 0 -614.43739037036721 541.01675927775068 0 541.01675927775068 -379.49077498277939 0 0 0 0 49.165220352013421 640.38979244339498 0 640.38979244339498 -1257.2183461739041 0 0 0 0 -330.30970810622966 1316.1739243466709 0 1316.1739243466709 -2304.6623710911081 0 0 0 0 -356.13919464436185 1035.4629590690347 0 1035.4629590690347 -1226.309919345802 0 0 0 0 -4.8588722851542911 6.7068374441165304 0 6.7068374441165304 -14.892075544042683 0 0 0 0 -1284.4601928693737 946.98607926932891 0 946.98607926932891 -281.6099950114658 0 0 0 0 -1394.7218540091417 1024.7852538234802 0 1024.7852538234802 -1297.7210797902153 0 0 0 0 -1029.2748109621753 614.40234596223672 0 614.40234596223672 -871.47622356490319 0 0 0 0 -1228.4055720785691 -152.20920475283492 0 -152.20920475283492 -1828.1778219949083 0 0 0 0 -595.78067384996211 542.91550402590974 0 542.91550402590974 -1068.2864068037597 0 0 0 0 -516.84736265212996 365.81641347848927 0 365.81641347848927 -628.35146907646413 0 0 0 0 -566.33506701848819 183.97828598965862 0 183.97828598965862 -948.97450831070455 0 0 0 0 -565.2874113657308 644.50450961382921 0 644.50450961382921 -869.58008323067043 0 0 0 0 -1071.7836693142308 395.12273265417753 0 395.12273265417753 -503.55699738429303 0 0 0 0 -599.98498529329663 586.09417232876513 0 586.09417232876513 -565.17205524285237 0 0 0 0 -125.37920649709122 463.80273873194528 0 463.80273873194528 -1081.2065852044907 0 0 0 0 -126.9640924520354 454.06122613000844 0 454.06122613000844 -834.17777834973822 0 0 0 0 40.068358502117917 299.34575015962946 0 299.34575015962946 -1367.1312866019944 0 0 0 0 -619.41596347748418 1121.0276454335872 0 1121.0276454335872 -2202.1562599594399 0 0 0 0 -179.30597659602063 651.43313507048879 0 651.43313507048879 -1738.9173100776388 0 0 0 0 -133.926175835717 402.79975132690379 0 402.79975132690379 -1028.9562532066484 0 0 0 0 -169.83250696604955 -176.64266039177346 0 -176.64266039177346 -579.53168288408051 0 0 0 0 -51.021916691577644 -527.04328209117011 0 -527.04328209117011 -2617.0408415096772 0 0 0 0 40.56531637734588 -253.71701662943633 0 -253.71701662943633 -1102.2760254231762 0 0 0 0 -100.6521205361496 -113.0254414775336 0 -113.0254414775336 -343.21615235567015 0 0 0 0 -3.0541642797697364 34.494264341290432 0 34.494264341290432 -18.941265557886808 0 0 0 0 102.7985568537697 74.472565916468739 0 74.472565916468739 -18.474662235304777 0 0 0 0 24.147967383469222 -12.859058204347093 0 -12.859058204347093 -584.7815790329114 0 0 0 0 61.127067800072837 -27.225891947804485 0 -27.225891947804485 -600.33371335061452 0 0 0 0 39.505634594286676 -0.43686784848978277 0 -0.43686784848978277 -621.86859033567816 0 0 0 0 74.32904622825663 -71.610938753509799 0 -71.610938753509799 -730.98470515629742 0 0 0 0 116.5796470050991 50.063044518727111 0 50.063044518727111 -842.20974864094387 0 0 0 0 112.36630774748483 49.12681815009455 0 49.12681815009455 -664.87777721333987 0 0 0 0 112.85222856789915 123.89077263190484 0 123.89077263190484 -743.63224976082347 0 0 0 0 103.40775337806554 135.57408438722268 0 135.57408438722268 -757.2622500496218 0 0 0 0 119.64790585663286 126.49680311507291 0 126.49680311507291 -1009.534290333715 0 0 0 0 -18.782945102801023 290.6156566969712 0 290.6156566969712 -619.58991125247121 0 0 0 0 20.932497029432852 329.95349130654176 0 329.95349130654176 -607.11446408282791 0 0 0 0 -23.526968879683409 267.21177789009562 0 267.21177789009562 -355.72946080274414 0 0 0 0 75.765246252914949 267.92236235549899 0 267.92236235549899 -562.28287191950221 0 0 0 0 -164.05361120234011 421.26641612941603 0 421.26641612941603 -276.07653173839208 0 0 0 0 -255.08717688525212 322.16351523051617 0 322.16351523051617 -63.907371978726587 0 0 0 0 -103.0184069472889 425.01225566416906 0 425.01225566416906 -624.82737393047137 0 0 0 0 -379.21271878988773 453.00264024136959 0 453.00264024136959 -305.35140275641243 0 0 0 0 -378.51192353668739 548.23537752846096 0 548.23537752846096 -560.43571647972112 0 0 0 0 -679.46049003091321 586.36448506654233 0 586.36448506654233 -222.5026942367258 0 0 0 0 -528.31367864992353 428.00719449366443 0 428.00719449366443 36.792998938464734 0 0 0 0 -513.62574316487007 446.17544067853305 0 446.17544067853305 -145.15875998535921 0 0 0 0 -350.42908038391033 477.52334304644683 0 477.52334304644683 -309.49241002124472 0 0 0 0 -482.30130632892542 303.79168806765301 0 303.79168806765301 249.98967993955739 0 0 0 0 -567.2390356745309 457.64388789326767 0 457.64388789326767 43.379138293795222 0 0 0 0 -571.21492085774662 421.6578592895421 0 421.6578592895421 155.57780264187022 0 0 0 0 -669.1881122590421 390.01625853687074 0 390.01625853687074 421.34288220456438 0 0 0 0 -705.25886203644041 312.0877980406658 0 312.0877980406658 257.42597441697944 0 0 0 0 -462.17247626829339 133.9903269106544 0 133.9903269106544 316.45912748265982 0 0 0 0 -213.18789686329546 267.06099783160244 0 267.06099783160244 90.352408600538183 0 0 0 0 -39.639074209160754 323.50114438375385 0 323.50114438375385 -202.80601469985049 0 0 0 0 -240.66430614854471 213.51090862617821 0 213.51090862617821 103.78602433197375 0 0 0 0 -381.34839807226672 377.14229402364435 0 377.14229402364435 -75.224033840697302 0 0 0 0 -98.164904465022119 -53.781950474291079 0 -53.781950474291079 109.51298958324332 0 0 0 0 225.25840624358534 135.2344161102319 0 135.2344161102319 260.78729801026202 0 0 0 0 -4.642099980185435 3.8657614692045001 0 3.8657614692045001 -1.4494281459901401 0 0 0 0 -60.398079874710675 82.085720226139529 0 82.085720226139529 243.93960924950443 0 0 0 0 82.318659024213048 412.24809337408033 0 412.24809337408033 369.99075005929626 0 0 0 0 -690.53246243616741 222.80024400811453 0 222.80024400811453 322.17753876938423 0 0 0 0 -847.07091681243037 298.1856894144621 0 298.1856894144621 375.01348485408016 0 0 0 0 -939.87107663968345 428.70968836237921 0 428.70968836237921 298.22857583474979 0 0 0 0 -739.55208556204161 315.31713011155807 0 315.31713011155807 -395.28772732901052 0 0 0 0 -890.34402955116275 113.6262387770621 0 113.6262387770621 381.04388615908101 0 0 0 0 -1069.7258937496335 463.54015254554452 0 463.54015254554452 -425.84391249743203 0 0 0 0 -1080.9555015041115 561.85621512534271 0 561.85621512534271 -110.34517911443982 0 0 0 0 19.917695583775867 28.783798875307355 0 28.783798875307355 33.878596253963778 0 0 0 0 -1188.6502574199512 779.21825532397906 0 779.21825532397906 -191.98485620955762 0 0 0 0 -403.71515941764119 55.141156403611149 0 55.141156403611149 203.15860761536169 0 0 0 0 -1225.8212855618476 704.96530268797505 0 704.96530268797505 -521.53580952915763 0 0 0 0 -1822.5242984350916 1119.5669478850796 0 1119.5669478850796 -64.603539976294996 0 0 0 0 -99.31300641267444 531.37297655257862 0 531.37297655257862 -204.28103094778999 0 0 0 0 -807.62554984936651 361.01780984052039 0 361.01780984052039 2.7081957551490632 0 0 0 0 146.17915304479538 329.72288772319735 0 329.72288772319735 -231.93581727401761 0 0 0 0 -1116.6188239420735 966.35191618892713 0 966.35191618892713 17.867808575014351 0 0 0 0 -972.65640958859876 47.037260400287778 0 47.037260400287778 375.08033023891767 0 0 0 0 -246.63333196532039 607.34054692549398 0 607.34054692549398 -180.5658911062128 0 0 0 0 160.32408452448726 82.65404121492611 0 82.65404121492611 11.105131538628484 0 0 0 0 -3.3815468646301667 2.055142361458195 0 2.055142361458195 -0.49038275304972956 0 0 0 0 146.908179818809 12.711210041328286 0 12.711210041328286 158.81422477257729 0 0 0 0 303.11434037994331 164.36368630354991 0 164.36368630354991 271.68272333745699 0 0 0 0 357.95515349011839 138.04773486121485 0 138.04773486121485 115.26893763349653 0 0 0 0 517.62388809821277 341.75763988281687 0 341.75763988281687 212.26474551412684 0 0 0 0 117.65574595227372 284.83477757815854 0 284.83477757815854 163.09712150321593 0 0 0 0 -75.609653978710412 333.1198048138358 0 333.1198048138358 220.70943398161035 0 0 0 0 574.7933279327699 368.17215412009318 0 368.17215412009318 209.41349703687592 0 0 0 0 495.01102872105548 501.71202274064126 0 501.71202274064126 11.519037882268094 0 0 0 0 -173.7084844820929 58.851676701804536 0 58.851676701804536 453.60217426104646 0 0 0 0 949.77814741091424 752.28522984506981 0 752.28522984506981 48.824120755947661 0 0 0 0 880.36720662254083 341.40276986403114 0 341.40276986403114 -60.078658036152774 0 0 0 0 -1045.0512875143759 581.97311210272892 0 581.97311210272892 -866.72727708342427 0 0 0 0 -1047.5800384321337 848.87172082659526 0 848.87172082659526 313.30816897384648 0 0 0 0 -1500.6642916327364 981.74895515239996 0 981.74895515239996 -2062.2049240658525 0 0 0 0 33.235481100721728 47.439236272380398 0 47.439236272380398 43.001773497027571 0 0 0 0 -1279.8169244862129 1853.1735990221391 0 1853.1735990221391 -341.220615755381 0 0 0 0 204.77112732203386 152.57115972799511 0 152.57115972799511 -1404.9209968083451 0 0 0 0 169.84080920593078 -95.935852470228838 0 -95.935852470228838 -881.21034933077317 0 0 0 0 106.49528398891562 454.01132309475724 0 454.01132309475724 -2299.7928481709532 0 0 0 0 -1433.3217790205672 1194.1844209055089 0 1194.1844209055089 343.73996508275832 0 0 0 0 -9.052579736827397 12.985287651914859 0 12.985287651914859 -19.418399708274052 0 0 0 0 -96.913793181287474 769.53043243941647 0 769.53043243941647 -984.6727731358551 0 0 0 0 -11.867736551111307 16.715804597321565 0 16.715804597321565 50.185287410822184 0 0 0 0 -1217.0686694966571 622.46295956551694 0 622.46295956551694 -225.19106418686533 0 0 0 0 -809.34596445864008 970.61621839068175 0 970.61621839068175 -551.48217010661028 0 0 0 0 -239.10360780986957 1116.9968755905138 0 1116.9968755905138 -1785.3045000421698 0 0 0 0 -622.13220327897579 967.79990010776964 0 967.79990010776964 -797.33888055247735 0 0 0 0 -387.02569923305418 737.44910110873025 0 737.44910110873025 -661.21443895707489 0 0 0 0 -626.44186209506734 988.28572836776038 0 988.28572836776038 -600.65776662270946 0 0 0 0 -601.82553060588543 1304.5764248380219 0 1304.5764248380219 -734.8643686316791 0 0 0 0 -535.72718744596932 3389.7292004568735 0 3389.7292004568735 -3272.2466112583643 0 0 0 0 -1344.4732789527043 2017.7134627135383 0 2017.7134627135383 -985.03202994004823 0 0 0 0 -2243.1053773434251 4089.8675346117307 0 4089.8675346117307 994.61850491981022 0 0 0 0 -2699.0820491068298 2338.7591169759689 0 2338.7591169759689 3987.9960161822382 0 0 0 0 -5.9374981608085591 13.168330926452764 0 13.168330926452764 14.308015578542872 0 0 0 0 -94.468634142293013 26.900563428941496 0 26.900563428941496 -58.374376132960606 0 0 0 0 -156.37526214204991 123.8643394934661 0 123.8643394934661 5.4925021267335978 0 0 0 0 -108.77243727045425 -11.833669235385969 0 -11.833669235385969 158.27070473009007 0 0 0 0 -44.852635288780789 38.789506669928016 0 38.789506669928016 38.241399206494947 0 0 0 0 3.2273247302509844 77.264056559946766 0 77.264056559946766 -30.866441050131471 0 0 0 0 -750.91368254199551 726.45451073789354 0 726.45451073789354 -502.10762088162301 0 0 0 0 -30.857094986407731 44.294989498913324 0 44.294989498913324 41.558938113989086 0 0 0 0 17.417259594600182 165.73422901031881 0 165.73422901031881 -36.035738878251777 0 0 0 0 -33.986184520981624 -67.145441442954649 0 -67.145441442954649 188.17009352185255 0 0 0 0 -101.60845087771304 121.03819496292272 0 121.03819496292272 104.06799647713342 0 0 0 0 -9.586206959997071 109.12710398506897 0 109.12710398506897 -167.71801166573459 0 0 0 0 -64.346291995551951 -5.0235071269975613 0 -5.0235071269975613 9.6838013563625456 0 0 0 0 -43.282832038927154 153.32247533283089 0 153.32247533283089 -56.574492010826361 0 0 0 0 -108.70828122425883 -60.651798189978763 0 -60.651798189978763 88.105236634048197 0 0 0 0 70.645953012470272 175.86352906196953 0 175.86352906196953 -280.50198850360903 0 0 0 0 -40.076634657470549 -5.594465024272024 0 -5.594465024272024 -1.7771997780598348 0 0 0 0 -152.53995689742442 -31.917551212151011 0 -31.917551212151011 335.12794485113409 0 0 0 0 -222.70620649967168 -106.53306509779577 0 -106.53306509779577 259.51018101587761 0 0 0 0 -50.923074122591061 44.268120063046808 0 44.268120063046808 -92.971310164099123 0 0 0 0 -193.15133981021063 134.68300841288328 0 134.68300841288328 187.91899605641902 0 0 0 0 31.004656702837906 40.299643422251236 0 40.299643422251236 44.836199251685116 0 0 0 0 -455.3488303367194 316.6060331864137 0 316.6060331864137 90.058036921964231 0 0 0 0 -82.203717723255977 -23.573312582724611 0 -23.573312582724611 118.33326592306003 0 0 0 0 -172.45446877870563 -80.031419335557075 0 -80.031419335557075 231.14926301306696 0 0 0 0 -65.473832647723611 -293.02073443846166 0 -293.02073443846166 641.32382538245656 0 0 0 0 260.81688207328261 -397.30183385864802 0 -397.30183385864802 214.67251286425926 0 0 0 0 117.89563230643398 196.8402793006735 0 196.8402793006735 -387.93781740718623 0 0 0 0 -19.097035595691409 -2.6073514161870879 0 -2.6073514161870879 -0.55282217750144547 0 0 0 0 112.76065318236942 -173.47964434623827 0 -173.47964434623827 26.18647951541061 0 0 0 0 -52.232687957846792 -174.72710321557861 0 -174.72710321557861 238.97833230582864 0 0 0 0 94.618372825032566 228.10547426936319 0 228.10547426936319 -154.84461082130611 0 0 0 0 -115.48500941006569 -129.4599495153152 0 -129.4599495153152 -68.695069038512884 0 0 0 0 -16.036589280083263 48.566878494123181 0 48.566878494123181 41.946518580352013 0 0 0 0 -206.1043798551982 99.290165163293523 0 99.290165163293523 584.39926235448002 0 0 0 0 -3.5711028804787475 4.3778609320136468 0 4.3778609320136468 5.2186312705393272 0 0 0 0 15.191646441642661 -420.77061099086234 0 -420.77061099086234 773.77186239260993 0 0 0 0 19.312314279406564 65.730870740842533 0 65.730870740842533 397.39433001181169 0 0 0 0 -195.13278930928209 -17.496632299920066 0 -17.496632299920066 367.88575581931764 0 0 0 0 267.39705185127968 -101.75929436923445 0 -101.75929436923445 199.42245806670087 0 0 0 0 13.688980984326918 -203.55207055322126 0 -203.55207055322126 161.16074663510562 0 0 0 0 -32.929358168708859 136.62796623211125 0 136.62796623211125 -75.326049739223436 0 0 0 0 -48.071107533050963 138.77366822814292 0 138.77366822814292 -70.221991910086217 0 0 0 0 -54.322166209138231 190.04297967450293 0 190.04297967450293 -117.77160689222683 0 0 0 0 -30.046930625627283 174.27541357035852 0 174.27541357035852 -111.57249481393228 0 0 0 0 -116.06509284747881 148.93303318151993 0 148.93303318151993 -90.471653632893322 0 0 0 0 -54.38710495113628 160.74604305692901 0 160.74604305692901 -88.475211352675615 0 0 0 0 -54.73143686013475 115.24305525204497 0 115.24305525204497 -62.805238776094484 0 0 0 0 6.8254747267736207 60.160802194354346 0 60.160802194354346 33.538674531217637 0 0 0 0 16.775208065984771 320.08402376773665 0 320.08402376773665 -238.1961864808527 0 0 0 0 441.75051969055494 516.53410504637577 0 516.53410504637577 -666.76831663789199 0 0 0 0 -15.907707362654037 120.89465446899976 0 120.89465446899976 -194.15481783257928 0 0 0 0 -4.602055075982264 -0.71971962240176879 0 -0.71971962240176879 -0.62743953338611291 0 0 0 0 -305.17107104239403 211.15675170533177 0 211.15675170533177 -554.62270696552878 0 0 0 0 -27.460183637711452 26.73525249024533 0 26.73525249024533 -496.86478639249799 0 0 0 0 -3.5407664934936633 53.315851476259851 0 53.315851476259851 44.897019775640601 0 0 0 0 476.90718778179144 411.08980502234044 0 411.08980502234044 105.42753446777351 0 0 0 0 209.55201588902855 540.73599392866709 0 540.73599392866709 1018.9178106752915 0 0 0 0 434.9359180421452 597.82005589354048 0 597.82005589354048 508.55299745601951 0 0 0 0 -870.27866565471049 -93.834160184833308 0 -93.834160184833308 385.6333003829568 0 0 0 0 239.10011318033503 560.71785365789219 0 560.71785365789219 1002.8330112693693 0 0 0 0 -1.7041525023355462 1.1368206960051737 0 1.1368206960051737 17.440307431096826 0 0 0 0 -536.95381624477159 359.4035611226227 0 359.4035611226227 1227.7873927814289 0 0 0 0 74.028187084302772 57.7219945496945 0 57.7219945496945 441.31505653745626 0 0 0 0 223.2972312396887 -107.46040095421449 0 -107.46040095421449 46.56197810487356 0 0 0 0 45.644688330645295 269.40616784996746 0 269.40616784996746 1226.2837451866289 0 0 0 0 -12.437449281071366 30.487338236398131 0 30.487338236398131 -30.948216233504624 0 0 0 0 23.26535521914866 -200.61977066934128 0 -200.61977066934128 49.918053822344518 0 0 0 0 2.8057941425363424 238.90078649275085 0 238.90078649275085 233.49176387804619 0 0 0 0 17.06362771379645 303.15629248053301 0 303.15629248053301 168.18910957881781 0 0 0 0 307.60185910512519 202.62682796457375 0 202.62682796457375 -66.251409653057635 0 0 0 0 298.01026626999374 158.81187696915731 0 158.81187696915731 -54.289459577892558 0 0 0 0 381.92361145315226 155.34030895159958 0 155.34030895159958 -78.687636839444167 0 0 0 0 792.52294099804567 183.76343657781581 0 183.76343657781581 -82.131685672688036 0 0 0 0 8.2088638964123106 5.4179894998687175 0 5.4179894998687175 -2.3128247542377309 0 0 0 0 423.91991034033708 -101.16447958656863 0 -101.16447958656863 16.36154342161899 0 0 0 0 132.64328422954713 449.65250148589075 0 449.65250148589075 706.21946181540534 0 0 0 0 -128.13490865974381 47.963920969511491 0 47.963920969511491 109.90564091734996 0 0 0 0 -189.55883767725027 279.14709909339217 0 279.14709909339217 -174.23807166827828 0 0 0 0 -414.19434221361007 327.36980052550098 0 327.36980052550098 133.06153406574913 0 0 0 0 -438.6788619577128 522.31192317593741 0 522.31192317593741 -55.135384476881882 0 0 0 0 204.80098347517924 146.55414421580917 0 146.55414421580917 -207.43114339419481 0 0 0 0 230.45865045249229 212.50991360531407 0 212.50991360531407 -44.553585006651701 0 0 0 0 284.62699689046713 268.53661049339644 0 268.53661049339644 -274.21305137235322 0 0 0 0 -793.84973854440614 256.44049697108858 0 256.44049697108858 358.76204382951255 0 0 0 0 8.2530592191335472 11.194977413268461 0 11.194977413268461 11.928112673494354 0 0 0 0 -734.32625207030287 437.0372394672886 0 437.0372394672886 603.72902435710421 0 0 0 0 -725.31255066650192 580.98496793746199 0 580.98496793746199 667.42307866571355 0 0 0 0 -1328.8960179702117 357.42672325890999 0 357.42672325890999 1752.5402931243407 0 0 0 0 126.05955166943022 442.46162930755236 0 442.46162930755236 -150.86609800215592 0 0 0 0 -5.0543641073111587 6.705825577247424 0 6.705825577247424 -5.0962570013283539 0 0 0 0 -173.60272734971659 1028.6592387166347 0 1028.6592387166347 889.70003582088975 0 0 0 0 129.04418770188931 76.312316339051904 0 76.312316339051904 135.65181732072233 0 0 0 0 414.33625150649459 550.82038718857075 0 550.82038718857075 314.61043278453508 0 0 0 0 350.92762807221152 212.04931029866566 0 212.04931029866566 198.87342944704505 0 0 0 0 -53.740121872047894 161.37149857539407 0 161.37149857539407 347.01903051368572 0 0 0 0 6.5616558425026597 88.202767060518454 0 88.202767060518454 247.09395253721596 0 0 0 0 -42.604771784921468 58.927825869802291 0 58.927825869802291 62.89981300458021 0 0 0 0 -32.971917314920574 106.24553666190695 0 106.24553666190695 294.03869076581759 0 0 0 0 56.887723988998914 195.34558303337326 0 195.34558303337326 -78.95631503291952 0 0 0 0 -31.407801938461489 130.82056655930501 0 130.82056655930501 110.02526255581324 0 0 0 0 45.007259530524607 326.88784614131146 0 326.88784614131146 8.574721901997691 0 0 0 0 -9.734699004718891 14.855499279216815 0 14.855499279216815 -21.057345905942 0 0 0 0 34.884727673961606 187.80765761677412 0 187.80765761677412 150.02468676529679 0 0 0 0 272.05402830640378 281.81596116940273 0 281.81596116940273 -107.03808521094106 0 0 0 0 -17.934042702079751 245.18375248308985 0 245.18375248308985 97.868790540967893 0 0 0 0 -64.684183115547057 138.48406651750338 0 138.48406651750338 -105.73798315357271 0 0 0 0 5.4932085788199174 5.8341027024297176 0 5.8341027024297176 3.2098715793396622 0 0 0 0 -30.757339709933149 -73.588552055050968 0 -73.588552055050968 296.09721254585565 0 0 0 0 1.2571778733037604 2.3583955354858031 0 2.3583955354858031 2.2240649218550459 0 0 0 0 65.827357920534268 298.94490704208147 0 298.94490704208147 -270.0286218741312 0 0 0 0 -39.099294826970436 34.857950258276105 0 34.857950258276105 -174.02686045206792 0 0 0 0 -145.92770426253264 78.219741491120658 0 78.219741491120658 36.109556311217602 0 0 0 0 -77.418325139966328 12.396694425289752 0 12.396694425289752 176.15764806671359 0 0 0 0 -85.815307629527524 74.356363367609447 0 74.356363367609447 138.73423585821001 0 0 0 0 -39.558730026823469 63.425561464260682 0 63.425561464260682 23.319401881701197 0 0 0 0 -102.1296958574967 61.494091938926431 0 61.494091938926431 134.47591713501242 0 0 0 0 -51.005808206595248 33.707351337721775 0 33.707351337721775 32.599009630528599 0 0 0 0 -89.589680670149392 79.682912386315365 0 79.682912386315365 86.239720129706257 0 0 0 0 -3.4256112400034908 30.421066932372923 0 30.421066932372923 57.454950421899412 0 0 0 0 -29.235600455780514 -26.442438802074321 0 -26.442438802074321 133.74470565461525 0 0 0 0 7.919877942871608 6.5043168746667899 0 6.5043168746667899 22.754450546111926 0 0 0 0 -45.483368292916566 56.938063287082969 0 56.938063287082969 45.678558185885777 0 0 0 0 -198.31763139259419 198.53311143093742 0 198.53311143093742 -77.963834010577557 0 0 0 0 -43.367874500465405 -2.0455131132530369 0 -2.0455131132530369 -1.6142754431275534 0 0 0 0 6.4013184177917424 17.263654355873058 0 17.263654355873058 65.094642092990057 0 0 0 0 -79.36086467707355 -11.870969008802604 0 -11.870969008802604 119.50874392236619 0 0 0 0 -599.47190393156052 430.10926658532571 0 430.10926658532571 -40.050903018032841 0 0 0 0 -441.67443755875138 74.712182649524493 0 74.712182649524493 147.47739619597996 0 0 0 0 1.0752166415469446 29.343832882807789 0 29.343832882807789 71.345139765625532 0 0 0 0 -63.35628428866039 46.309174174872169 0 46.309174174872169 138.71898706142383 0 0 0 0 58.431207891124359 3.1888660216827702 0 3.1888660216827702 84.084606313343102 0 0 0 0 -328.69148969330126 211.4383629560125 0 211.4383629560125 -229.44084065668721 0 0 0 0 -8.8348972771775607 -0.33655382042730153 0 -0.33655382042730153 9.9641422245312263 0 0 0 0 -358.64538859319873 750.56665213989436 0 750.56665213989436 -697.86492375268608 0 0 0 0 -772.95782212537597 441.36858945096265 0 441.36858945096265 83.018686793231609 0 0 0 0 -176.22223708189267 102.5951239787446 0 102.5951239787446 -5.5251877669907117 0 0 0 0 -503.15036910114577 283.39095536084187 0 283.39095536084187 428.15805066641406 0 0 0 0 -176.44992325277417 36.118449660118131 0 36.118449660118131 250.9979553781759 0 0 0 0 -284.9155274383811 -68.329286617963589 0 -68.329286617963589 970.15247180499136 0 0 0 0 0.2056420151373004 5.8311802869653775 0 5.8311802869653775 -8.8094466002156651 0 0 0 0 -546.68124225269275 518.03622045086922 0 518.03622045086922 -120.56190349300959 0 0 0 0 -600.63240762178611 195.47755424542811 0 195.47755424542811 485.5695593512537 0 0 0 0 -177.86367522721412 46.093074374537537 0 46.093074374537537 -31.990496689903011 0 0 0 0 34.573714573132747 31.260417991165923 0 31.260417991165923 -128.3693448623635 0 0 0 0 -314.29057509830454 437.19049248387819 0 437.19049248387819 303.81514560403593 0 0 0 0 -50.019874381556292 21.54431537849814 0 21.54431537849814 -85.76223800137177 0 0 0 0 13.91096347689745 90.719026246248177 0 90.719026246248177 39.198188184691389 0 0 0 0 -3.6263204067215042 45.112614917110356 0 45.112614917110356 42.693116967700099 0 0 0 0 -62.488875262526562 81.724978784863197 0 81.724978784863197 203.84257884982799 0 0 0 0 15.847854707553779 -143.33323819612724 0 -143.33323819612724 209.66143012676912 0 0 0 0 -98.566287220222875 -121.28400048575713 0 -121.28400048575713 624.36524863087106 0 0 0 0 164.68764212404494 248.87033283170967 0 248.87033283170967 -159.53285271190543 0 0 0 0 -13.367562169908922 44.211322611003631 0 44.211322611003631 28.38267661859761 0 0 0 0 138.07695841192617 194.06141385823867 0 194.06141385823867 -152.47188409876981 0 0 0 0 -0.97660678683314472 -217.58369443170523 0 -217.58369443170523 -17.97523953529253 0 0 0 0 -117.60176406877144 177.93299627997385 0 177.93299627997385 295.49873274906713 0 0 0 0 135.44352594157681 39.207400292649254 0 39.207400292649254 369.34082646471506 0 0 0 0 -42.458948935905937 160.56369153486958 0 160.56369153486958 1161.6066839118066 0 0 0 0 275.98018884257181 832.76689268030168 0 832.76689268030168 1223.4959647350338 0 0 0 0 72.195300073304679 503.21362479223899 0 503.21362479223899 669.28687496035127 0 0 0 0 134.31872384005692 451.02747132524382 0 451.02747132524382 684.47967840715137 0 0 0 0 789.01348387351027 567.03533089250413 0 567.03533089250413 493.22686641504697 0 0 0 0 714.63214661544771 906.79704283265164 0 906.79704283265164 702.14550889886596 0 0 0 0 415.77053376391996 722.62972476398136 0 722.62972476398136 719.031398954613 0 0 0 0 132.1323592091212 490.75881484790807 0 490.75881484790807 762.9192221424164 0 0 0 0 570.53385015676031 311.94201832307954 0 311.94201832307954 553.5544985660672 0 0 0 0 0.98097633584950472 1.0171089420136141 0 1.0171089420136141 -10.367581064964636 0 0 0 0 227.8191664412152 467.15312413072388 0 467.15312413072388 -506.01461123484478 0 0 0 0 910.35034450440435 -37.865582569931576 0 -37.865582569931576 -798.13483536162676 0 0 0 0 -1.7050467758604668 8.9307224224373556 0 8.9307224224373556 11.414718737295537 0 0 0 0 -1391.2405203206872 -1212.4557517503035 0 -1212.4557517503035 1224.273750863038 0 0 0 0 -376.71874964999733 307.50965778531827 0 307.50965778531827 559.40175435497076 0 0 0 0 -110.59115723229479 328.95474549958817 0 328.95474549958817 352.34204426156793 0 0 0 0 -117.16086629799975 290.68367969839892 0 290.68367969839892 619.94753241016588 0 0 0 0 -78.289552807837026 392.48456506574075 0 392.48456506574075 417.20579732947226 0 0 0 0 115.20930644805776 426.16273240798182 0 426.16273240798182 384.01269651082112 0 0 0 0 130.06125809968762 558.44031216721396 0 558.44031216721396 548.378971412174 0 0 0 0 -56.938430647860514 326.99688162775783 0 326.99688162775783 549.60999667684246 0 0 0 0 28.49877544544853 36.389698123292177 0 36.389698123292177 1.4749758409773612 0 0 0 0 -133.05295243588625 120.18085958151551 0 120.18085958151551 -91.993674169561928 0 0 0 0 -74.117024644219782 188.61075439896376 0 188.61075439896376 501.51003470499927 0 0 0 0 68.676399824966211 129.58466975105694 0 129.58466975105694 225.92577185436676 0 0 0 0 -20.411293400451541 247.55302919252063 0 247.55302919252063 -257.59226240801945 0 0 0 0 29.781688567862147 4.1703432273970975 0 4.1703432273970975 -90.514970385407651 0 0 0 0 -91.569961782879545 148.28594239762333 0 148.28594239762333 -381.21751449241128 0 0 0 0 17.691149711463652 47.392531201426578 0 47.392531201426578 -81.996292887178726 0 0 0 0 -1.3153463533190006 6.225609030455729 0 6.225609030455729 -23.006393296411161 0 0 0 0 87.46718541305745 119.39720694489824 0 119.39720694489824 127.71459218146583 0 0 0 0 -12.157795899547637 225.07765394421949 0 225.07765394421949 -422.27526969936935 0 0 0 0 19.319096212449949 140.13553391928963 0 140.13553391928963 -64.620669725945845 0 0 0 0 28.640239224099787 187.88011162308339 0 187.88011162308339 -128.68225145315228 0 0 0 0 49.487956053737435 105.9329414941335 0 105.9329414941335 -42.955164361677589 0 0 0 0 33.05105224817089 210.59336000244184 0 210.59336000244184 -12.207333228167045 0 0 0 0 -9.1918276970399404 29.526455944056664 0 29.526455944056664 -38.06584969817564 0 0 0 0 -36.115346415157546 150.51427506761161 0 150.51427506761161 -111.6600757647775 0 0 0 0 97.383644810081023 176.52125520311023 0 176.52125520311023 -9.6885491261946299 0 0 0 0 68.384907392290188 153.38725823683808 0 153.38725823683808 31.508064925607414 0 0 0 0 -10.148104773097629 15.72703974705081 0 15.72703974705081 -26.574129325373903 0 0 0 0 102.11697718394862 112.47812910156949 0 112.47812910156949 -94.996044283747324 0 0 0 0 194.88878444622969 76.213158656443966 0 76.213158656443966 -82.074253226251813 0 0 0 0 94.86095561622642 89.448518965031553 0 89.448518965031553 -135.25881958479886 0 0 0 0 -29.444945018181897 121.37469817115567 0 121.37469817115567 -47.032188617188694 0 0 0 0 -807.47054983708222 515.04264865012647 0 515.04264865012647 120.6618827423772 0 0 0 0 -877.36569672559563 414.45787359773226 0 414.45787359773226 82.310046998701964 0 0 0 0 -552.33369489121833 107.85452529121039 0 107.85452529121039 25.233843585342896 0 0 0 0 -576.42183914878115 81.208268539167562 0 81.208268539167562 42.301342619101661 0 0 0 0 -166.57887761062011 30.300654159774695 0 30.300654159774695 15.635188786720505 0 0 0 0 -334.39203545442433 168.93119521800008 0 168.93119521800008 -57.703202483453424 0 0 0 0 -339.44830033692415 268.05530967828327 0 268.05530967828327 -128.7616536953883 0 0 0 0 -245.35989613842685 408.16029287897072 0 408.16029287897072 79.835459400942909 0 0 0 0 -207.58046437839221 436.59463116128813 0 436.59463116128813 -189.93292329618725 0 0 0 0 -49.382696359127294 433.76146236239356 0 433.76146236239356 -193.09885657929863 0 0 0 0 1.0152049879980041 158.59749767915673 0 158.59749767915673 -411.96630841838669 0 0 0 0 44.812350643769605 350.27661183023247 0 350.27661183023247 -389.09983166994607 0 0 0 0 73.321023905067705 395.33636474358764 0 395.33636474358764 -572.60763575888268 0 0 0 0 -214.69842752296245 85.910459576207359 0 85.910459576207359 -63.784189751507427 0 0 0 0 -206.34212418916286 179.25254248709825 0 179.25254248709825 -125.14396992627437 0 0 0 0 -176.74855507843313 246.68507631909233 0 246.68507631909233 504.58872820452234 0 0 0 0 -43.664094030304113 221.40747281822041 0 221.40747281822041 494.07600663391349 0 0 0 0 243.83300146432885 -175.63620153845204 0 -175.63620153845204 484.49077033474896 0 0 0 0 -239.34492861658555 162.01617198956674 0 162.01617198956674 432.29619250541873 0 0 0 0 -231.15680102880287 160.37304039226365 0 160.37304039226365 484.34238178864325 0 0 0 0 -46.52856551122386 60.529585097494419 0 60.529585097494419 1037.1935788360215 0 0 0 0 -234.31557859672466 -366.37277205752071 0 -366.37277205752071 1127.8033811646128 0 0 0 0 277.41618480999023 295.44733606047885 0 295.44733606047885 -370.37267933360272 0 0 0 0 12.508420392085668 21.967950599900771 0 21.967950599900771 16.212600532991463 0 0 0 0 94.748577936639776 -445.04415965762928 0 -445.04415965762928 731.85614497832285 0 0 0 0 -234.14564008681668 -159.18783251835788 0 -159.18783251835788 731.93227626581211 0 0 0 0 -335.50850415229797 80.588358530294499 0 80.588358530294499 -443.0987058576211 0 0 0 0 1.8900026950076949 -1.0364437462295868 0 -1.0364437462295868 -2.0497083678132793 0 0 0 0 -28.582924124086276 445.40794906576048 0 445.40794906576048 -586.58283358085464 0 0 0 0 486.29220120986429 -80.445073162778499 0 -80.445073162778499 794.98968232413608 0 0 0 0 275.95129014458507 -588.12119755837921 0 -588.12119755837921 1059.2401379348594 0 0 0 0 570.39948860873847 -358.50150000503436 0 -358.50150000503436 812.53288870419783 0 0 0 0 -227.33468582975547 371.63724821733854 0 371.63724821733854 -524.48904996249985 0 0 0 0 2.5865405133646959 -2.5996593308576195 0 -2.5996593308576195 -3.811035528898401 0 0 0 0 148.06080648716306 173.963659007346 0 173.963659007346 -425.83443202313083 0 0 0 0 10.072390747780446 -474.02960717475798 0 -474.02960717475798 1305.7016398633132 0 0 0 0 -186.758838577196 149.81724257372844 0 149.81724257372844 -394.83383521717042 0 0 0 0 11.156542888027616 389.46234250488851 0 389.46234250488851 -1056.6841732841945 0 0 0 0 3.8815812754927492 13.437937078364982 0 13.437937078364982 8.9708283456851472 0 0 0 0 -46.278481132118031 163.18186322805195 0 163.18186322805195 -982.82456420466133 0 0 0 0 -255.03603582073629 196.5402695092971 0 196.5402695092971 -644.51629810069062 0 0 0 0 6.1235319655388594 310.40577617786585 0 310.40577617786585 -714.21772424775736 0 0 0 0 -55.820880993735045 327.32359141434063 0 327.32359141434063 -711.95255318269119 0 0 0 0 -117.25020811750437 253.55916978348705 0 253.55916978348705 -485.99980231584232 0 0 0 0 -15.063717463344801 331.20989396028017 0 331.20989396028017 -613.7593049977138 0 0 0 0 -14.864592030848144 396.93836383189227 0 396.93836383189227 -420.40824600615178 0 0 0 0 155.3195271272416 562.30866066018234 0 562.30866066018234 -321.38108490145578 0 0 0 0 -22.773498264374211 480.40274687065084 0 480.40274687065084 -383.59669341006702 0 0 0 0 -88.028767766809324 482.2282293274111 0 482.2282293274111 -497.70484878732259 0 0 0 0 -41.61655764549505 413.00346799625822 0 413.00346799625822 -425.19972879022953 0 0 0 0 -126.60805125709157 566.22382089466691 0 566.22382089466691 -41.322788448999745 0 0 0 0 165.55184928863309 453.08944978497971 0 453.08944978497971 -84.678776183310902 0 0 0 0 55.603854811270139 249.76278085187164 0 249.76278085187164 -279.40608318502245 0 0 0 0 449.72873904429434 217.86435071599519 0 217.86435071599519 107.90345671581446 0 0 0 0 206.58113101983326 225.12697824243068 0 225.12697824243068 253.23938780518631 0 0 0 0 241.32157685428683 395.30019965192685 0 395.30019965192685 424.50035915328647 0 0 0 0 -2.3244132191289282 2.6492968250701097 0 2.6492968250701097 2.7603939794773353 0 0 0 0 780.92064799233049 861.84631380941914 0 861.84631380941914 42.731802752246736 0 0 0 0 -30.271792728952278 231.37283540884957 0 231.37283540884957 269.99367549364092 0 0 0 0 -0.03900447666819673 302.88727940525246 0 302.88727940525246 47.384751115832785 0 0 0 0 93.072310038929572 354.29215248349408 0 354.29215248349408 106.3826659742806 0 0 0 0 26.106857413600665 303.15560511913782 0 303.15560511913782 -272.97668347853414 0 0 0 0 30.712526113398781 169.25254990118788 0 169.25254990118788 37.84509766589963 0 0 0 0 -20.395918908659951 144.71823540267724 0 144.71823540267724 -43.503676115860117 0 0 0 0 0.03519292208420987 289.17482038711682 0 289.17482038711682 -364.43579128460806 0 0 0 0 4.7542373464239063 142.99541584790768 0 142.99541584790768 -593.69635667743023 0 0 0 0 -60.308118241839111 191.89854522988389 0 191.89854522988389 -310.7595152357062 0 0 0 0 8.4220012703590328 281.44971553622872 0 281.44971553622872 -576.5991793400226 0 0 0 0 -55.546117192410748 222.91858345241326 0 222.91858345241326 -571.1789628785682 0 0 0 0 75.738309130189009 255.61411231045281 0 255.61411231045281 -563.35039068691185 0 0 0 0 -14.634799214567465 255.55738450811759 0 255.55738450811759 -837.65751906457808 0 0 0 0 -65.177265374746639 346.43460414636502 0 346.43460414636502 -693.18827728825272 0 0 0 0 -43.385614947253998 182.40473535610431 0 182.40473535610431 -669.69687173891907 0 0 0 0 -110.9313957139093 293.51214329027061 0 293.51214329027061 -735.07014223043188 0 0 0 0 -227.62880387657788 214.81690828847968 0 214.81690828847968 -786.30480521302525 0 0 0 0 -77.113437245017849 172.39541206399372 0 172.39541206399372 -910.9662163472658 0 0 0 0 -162.29997873440152 414.51780016193152 0 414.51780016193152 -854.12197333829613 0 0 0 0 -21.957899989385623 241.21846770435513 0 241.21846770435513 -656.03110163018027 0 0 0 0 -0.12652513014725508 277.08022670012713 0 277.08022670012713 -841.0393135917293 0 0 0 0 -1.7592807430628454 225.86204534934768 0 225.86204534934768 -874.97994303309679 0 0 0 0 -117.81776048152824 -437.0630604782491 0 -437.0630604782491 1871.9280431482284 0 0 0 0 3.5232239369460103 6.429173484120092 0 6.429173484120092 5.4431083771690361 0 0 0 0 -0.12966322543286424 -5.3502880245761304 0 -5.3502880245761304 -5.477506869729968 0 0 0 0 31.195781502785394 249.77779055628071 0 249.77779055628071 -934.91252067600544 0 0 0 0 -137.48561816790607 43.91349691479445 0 43.91349691479445 1768.6703780349744 0 0 0 0 0.63443758660287131 412.20192060669797 0 412.20192060669797 865.21356051639668 0 0 0 0 -0.2736613816668978 236.61984102727365 0 236.61984102727365 596.57159183266208 0 0 0 0 -65.791337917558849 159.23655422103911 0 159.23655422103911 942.09178392115427 0 0 0 0 177.2695160061121 52.157895760927204 0 52.157895760927204 587.82992761849346 0 0 0 0 97.713398500294716 110.08096188699983 0 110.08096188699983 851.12556576768839 0 0 0 0 151.32415974128526 -105.42893640446709 0 -105.42893640446709 877.1097462366015 0 0 0 0 295.42670704991906 -163.99124159435087 0 -163.99124159435087 849.89923025733151 0 0 0 0 54.493819293798879 119.56346387260419 0 119.56346387260419 -398.53094922634045 0 0 0 0 106.52932405701722 -164.46426876147689 0 -164.46426876147689 1171.700240690232 0 0 0 0 194.87581884869724 -409.37131968443282 0 -409.37131968443282 1441.2147520871549 0 0 0 0 -71.24196496247896 17.115069383258742 0 17.115069383258742 1337.2842106482603 0 0 0 0 354.33745114092017 -534.05399453906284 0 -534.05399453906284 1324.921815650494 0 0 0 0 372.01197822007816 -101.01995244938462 0 -101.01995244938462 1129.4085300146107 0 0 0 0 533.95427623315481 -361.00304096853506 0 -361.00304096853506 1107.3089761001402 0 0 0 0 39.449538111803122 -181.44019904465131 0 -181.44019904465131 1342.8897322117264 0 0 0 0 0.34112611843738705 -361.58864974368043 0 -361.58864974368043 1070.5619836957194 0 0 0 0 23.243764634447871 -249.7479991114169 0 -249.7479991114169 867.09948890127998 0 0 0 0 -3.0507504054694436 -312.99489694810472 0 -312.99489694810472 1162.408329430491 0 0 0 0 24.548964947898639 -248.60407574212877 0 -248.60407574212877 868.0760579777052 0 0 0 0 102.1092651548679 -102.7906741495317 0 -102.7906741495317 499.37621680838492 0 0 0 0 87.708831202413421 -171.62648565912968 0 -171.62648565912968 801.95037931158004 0 0 0 0 77.262270324397832 -160.17657248481555 0 -160.17657248481555 1121.4556957343739 0 0 0 0 111.14331970375497 -76.38208050033063 0 -76.38208050033063 909.54829961607174 0 0 0 0 -8.1920708482357441 -192.14927008166705 0 -192.14927008166705 563.74351323799783 0 0 0 0 173.75488250947092 10.583782383753714 0 10.583782383753714 775.57792524853539 0 0 0 0 252.01765612576855 -395.09188122284104 0 -395.09188122284104 724.34064934528942 0 0 0 0 101.82595480591408 -353.19266415703532 0 -353.19266415703532 856.35595497454051 0 0 0 0 24.196647689423116 -210.04764735745539 0 -210.04764735745539 366.00796925684699 0 0 0 0 21.167460107913939 -91.710464774994762 0 -91.710464774994762 650.29819193150979 0 0 0 0 -265.25613416038686 178.75819149716153 0 178.75819149716153 413.95414532223185 0 0 0 0 -73.050818240328226 286.13828843566625 0 286.13828843566625 110.04892921689407 0 0 0 0 -271.01235128162079 -5.2222327988101824 0 -5.2222327988101824 -308.12710484502895 0 0 0 0 57.03576808096841 233.67177859051844 0 233.67177859051844 407.73075967279101 0 0 0 0 47.441093567409553 69.84616636955252 0 69.84616636955252 690.42394527484794 0 0 0 0 211.65304080632632 24.511290063681372 0 24.511290063681372 364.88683308395412 0 0 0 0 68.429431902157376 133.69410911406521 0 133.69410911406521 477.6330063839946 0 0 0 0 30.914567619831359 35.272868256900438 0 35.272868256900438 321.34325711532438 0 0 0 0 -28.321688375828671 362.83969507596339 0 362.83969507596339 -101.66102114339083 0 0 0 0 113.56323536159471 369.57615318549506 0 369.57615318549506 -160.71940729308335 0 0 0 0 -14.213072099446435 391.20065324668576 0 391.20065324668576 -217.83078412571558 0 0 0 0 -191.72855467008776 583.42607320233401 0 583.42607320233401 -384.03600255432048 0 0 0 0 -68.841383150342153 168.14400416516946 0 168.14400416516946 -77.536588270610082 0 0 0 0 -190.63340018808958 255.75219945822028 0 255.75219945822028 24.548211176123914 0 0 0 0 -178.06309420196339 407.05525655232668 0 407.05525655232668 -162.73538073491 0 0 0 0 -17.935891779288795 340.91939961557313 0 340.91939961557313 -174.40428408201842 0 0 0 0 90.704126291904686 201.3565276363629 0 201.3565276363629 -235.29587116503535 0 0 0 0 94.416428983771766 334.49001488033718 0 334.49001488033718 -395.98074290306249 0 0 0 0 26.030048872838961 434.23618999334758 0 434.23618999334758 -220.59575584407503 0 0 0 0 -19.103586476000601 370.26727124210231 0 370.26727124210231 -309.7928840886525 0 0 0 0 -15.142086016843677 239.05350417673981 0 239.05350417673981 -416.17565854416898 0 0 0 0 -59.089667268970516 278.37086540775272 0 278.37086540775272 -227.54112202502438 0 0 0 0 -51.560451366516645 252.06043943874829 0 252.06043943874829 -351.60033698779807 0 0 0 0 45.345953164389357 232.87225908420805 0 232.87225908420805 -554.90903847960726 0 0 0 0 170.28243157049292 384.96425919490503 0 384.96425919490503 -571.49922928328533 0 0 0 0 -103.86870157814701 77.279401192270598 0 77.279401192270598 -567.03960467448269 0 0 0 0 244.72951786729391 43.380649833250573 0 43.380649833250573 -1410.0413071245111 0 0 0 0 -0.24035537280724384 471.49705991393967 0 471.49705991393967 -640.55633779218442 0 0 0 0 235.45749602676369 92.152538735601411 0 92.152538735601411 98.340891432450007 0 0 0 0 -119.89701176767994 224.6727016599616 0 224.6727016599616 71.992518965133058 0 0 0 0 -10.191245909554709 353.16126596781487 0 353.16126596781487 -74.01705483398473 0 0 0 0 184.79105412316858 288.10088010818799 0 288.10088010818799 -67.596031814413436 0 0 0 0 -200.0354135747184 273.46344005921492 0 273.46344005921492 -122.55173376622179 0 0 0 0 -205.80541313196591 38.381449444961618 0 38.381449444961618 -94.641074772836873 0 0 0 0 28.592769100228907 79.886093345179688 0 79.886093345179688 41.35816768402583 0 0 0 0 11.912031602772913 28.510814446715813 0 28.510814446715813 -108.02785722097906 0 0 0 0 104.10100660356693 280.40735887004848 0 280.40735887004848 25.422850098209892 0 0 0 0 322.93088454700774 364.18539272624912 0 364.18539272624912 82.171740141413466 0 0 0 0 405.9951220699586 271.8169726710621 0 271.8169726710621 495.91006478643976 0 0 0 0 16.59344598672142 1.9708568462447147 0 1.9708568462447147 -2.615457223454257 0 0 0 0 -78.425944129946544 58.743833704865665 0 58.743833704865665 -6.4369164554013309 0 0 0 0 190.87368355010403 187.1492708497899 0 187.1492708497899 212.28959297863912 0 0 0 0 188.3182654446573 139.92600931181369 0 139.92600931181369 -74.992405850305659 0 0 0 0 234.19376951712184 133.69503379509115 0 133.69503379509115 -79.219978392866324 0 0 0 0 413.45599895794294 94.750692048335623 0 94.750692048335623 -88.894852635508869 0 0 0 0 285.38134260493098 21.243835388559091 0 21.243835388559091 64.060282890575763 0 0 0 0 100.66163146140752 70.426867255060642 0 70.426867255060642 -21.186249672500708 0 0 0 0 269.56413168889412 205.55774159325665 0 205.55774159325665 -12.291324072648422 0 0 0 0 67.424238398467423 123.13249215528776 0 123.13249215528776 -58.5871215007719 0 0 0 0 6.0848150577730848 152.83003099995858 0 152.83003099995858 -96.458846068242565 0 0 0 0 -107.68911204760661 39.628879421616148 0 39.628879421616148 -17.319774947020051 0 0 0 0 -181.85039586486528 74.648055499950715 0 74.648055499950715 -9.999857894366869 0 0 0 0 -181.54546657502942 157.76471392480926 0 157.76471392480926 -75.315795092086773 0 0 0 0 -468.02177469305752 161.50259080382239 0 161.50259080382239 9.6184516479661397 0 0 0 0 -306.50777425642445 423.93102187725435 0 423.93102187725435 -234.52020394382271 0 0 0 0 -392.22802637188579 266.00676770897189 0 266.00676770897189 -81.117048241343582 0 0 0 0 -505.20451571363083 341.47909801107926 0 341.47909801107926 -198.31618244785932 0 0 0 0 -418.6429198207934 552.57400222509023 0 552.57400222509023 -465.44118990647257 0 0 0 0 -398.11327821877785 368.17023127167704 0 368.17023127167704 -194.42343582989633 0 0 0 0 -772.67710064750281 758.00248647346234 0 758.00248647346234 -561.73665028746473 0 0 0 0 -659.61320488767706 35.198701514524146 0 35.198701514524146 -56.388477012718795 0 0 0 0 -305.7640689167456 351.52305402274214 0 351.52305402274214 -170.77790490890038 0 0 0 0 -1056.9739550649101 83.43873483526113 0 83.43873483526113 -9.8241834761065547 0 0 0 0 -257.48619993493776 358.41655434773202 0 358.41655434773202 -1058.9974874286108 0 0 0 0 -881.89336691992958 1369.0647806127904 0 1369.0647806127904 -1824.4548599326372 0 0 0 0 -333.63281186098175 267.1928074117277 0 267.1928074117277 -636.26120062151313 0 0 0 0 -12.821431931194553 4.2260970350220504 0 4.2260970350220504 -0.12607003440483311 0 0 0 0 -661.40230345095915 283.09227795142033 0 283.09227795142033 1309.358319064944 0 0 0 0 -1051.904390826392 1043.5387283290638 0 1043.5387283290638 231.71052694071477 0 0 0 0 -87.612636930203522 48.43332922979809 0 48.43332922979809 -11.783622372849251 0 0 0 0 -269.41580442230043 -212.62169922746762 0 -212.62169922746762 -238.41107169087627 0 0 0 0 -480.86979676041665 228.15739804285113 0 228.15739804285113 -76.608599962501103 0 0 0 0 304.00345449989254 592.72680355494231 0 592.72680355494231 125.68178076980985 0 0 0 0 407.35558120154747 487.94378199451057 0 487.94378199451057 -241.74205835949397 0 0 0 0 260.37778248009272 -19.511915195547772 0 -19.511915195547772 -471.98143167687522 0 0 0 0 -143.8026614145092 -96.139152770488181 0 -96.139152770488181 160.41040070250165 0 0 0 0 -55.837503319162352 1.5800553153931105 0 1.5800553153931105 -173.24503406231088 0 0 0 0 -66.897536650584073 46.962086707036121 0 46.962086707036121 -21.149278081134611 0 0 0 0 -21.267828782149145 26.181247902061756 0 26.181247902061756 -57.511175267873895 0 0 0 0 353.74666344875004 599.0733575275226 0 599.0733575275226 57.460588616610039 0 0 0 0 269.76783640269423 207.91560018767268 0 207.91560018767268 -65.35316349704226 0 0 0 0 466.82120105252761 64.940007269344278 0 64.940007269344278 -318.25877922834115 0 0 0 0 458.65055646919791 -50.819339598947408 0 -50.819339598947408 718.43460281278931 0 0 0 0 1067.7259237504368 306.09135624319333 0 306.09135624319333 -88.984026844096661 0 0 0 0 5.9149914213906385 5.2773932682395994 0 5.2773932682395994 1.9307988201422539 0 0 0 0 164.40451382497849 280.26044261423522 0 280.26044261423522 236.75439609371233 0 0 0 0 170.74022829408932 207.17897946159974 0 207.17897946159974 -1.0026349678591941 0 0 0 0 538.40744117265967 789.45732812332426 0 789.45732812332426 925.74214349724934 0 0 0 0 482.31290546178934 607.91636061290956 0 607.91636061290956 161.35402263297919 0 0 0 0 276.50760961978085 402.38661924587905 0 402.38661924587905 -11.357608070578863 0 0 0 0 329.58913709416811 277.62720002546303 0 277.62720002546303 -122.203553519249 0 0 0 0 446.82957076124512 153.9043090385785 0 153.9043090385785 -125.09111446086899 0 0 0 0 661.53966837884036 369.03097045331378 0 369.03097045331378 -104.59723075384682 0 0 0 0 77.572816911402697 33.448768416470557 0 33.448768416470557 -1157.037622543332 0 0 0 0 -0.10383802031110179 13.66152897363726 0 13.66152897363726 -9.4020551081116608 0 0 0 0 54.785429241008387 18.555650807884376 0 18.555650807884376 -246.87893569937842 0 0 0 0 85.978336508223947 176.82714164141726 0 176.82714164141726 -170.68070293784876 0 0 0 0 80.97849560971008 161.07335520100241 0 161.07335520100241 137.60990468648743 0 0 0 0 137.96389994919809 251.27923259525596 0 251.27923259525596 -76.595064819198797 0 0 0 0 17.520625766810554 57.551613921226817 0 57.551613921226817 -31.256899175637955 0 0 0 0 133.99679344973265 228.39614947480732 0 228.39614947480732 67.464921009326645 0 0 0 0 129.95145672837134 407.06626165150828 0 407.06626165150828 64.753950500064093 0 0 0 0 254.0915584908289 458.64518770286941 0 458.64518770286941 -50.449932840570909 0 0 0 0 70.484414055898924 540.38659431362339 0 540.38659431362339 -376.18163489209473 0 0 0 0 86.986220940905696 533.7223744080502 0 533.7223744080502 -280.99039906703229 0 0 0 0 79.197555428778287 175.64499693450944 0 175.64499693450944 -157.20838343369178 0 0 0 0 -22.868214347812682 511.70742086416658 0 511.70742086416658 182.05815173091833 0 0 0 0 -68.174164986258347 344.73260246149198 0 344.73260246149198 423.58985278927685 0 0 0 0 -152.46578183975726 520.81767778245285 0 520.81767778245285 182.20787007407819 0 0 0 0 185.34916817789417 402.06103054272808 0 402.06103054272808 63.551506027239157 0 0 0 0 223.02819352804363 256.1550842412762 0 256.1550842412762 214.47489577397459 0 0 0 0 -65.87094303939557 353.29278176856496 0 353.29278176856496 187.67194224735886 0 0 0 0 -51.64814767336793 195.81820796805414 0 195.81820796805414 281.04832708013942 0 0 0 0 -317.76591216482848 181.91482128136158 0 181.91482128136158 318.96275741895352 0 0 0 0 298.30034269542375 222.01736413409981 0 222.01736413409981 -118.32207914879916 0 0 0 0 348.78245797988347 158.82442775509162 0 158.82442775509162 -182.18788227107439 0 0 0 0 -7.7689753858628166 46.206940139920533 0 46.206940139920533 -73.110943603524674 0 0 0 0 87.250264593712927 111.70248837088639 0 111.70248837088639 15.941931840905454 0 0 0 0 212.37850539083684 350.47492413983241 0 350.47492413983241 139.32029675448302 0 0 0 0 336.78036308299488 363.66748414891072 0 363.66748414891072 11.903569742576565 0 0 0 0 235.77361381569062 401.96906622630445 0 401.96906622630445 142.94872230402291 0 0 0 0 55.498313762964244 62.38905345549756 0 62.38905345549756 -17.256154031900223 0 0 0 0 -23.745089124740488 46.798174507818175 0 46.798174507818175 -66.870888811543765 0 0 0 0 -10.367729464287436 -0.50335574966280205 0 -0.50335574966280205 -0.10311630809843564 0 0 0 0 -38.978024074024489 52.449637196175928 0 52.449637196175928 -24.148944014981453 0 0 0 0 17.281109724372072 105.39892028039867 0 105.39892028039867 82.596700174362923 0 0 0 0 461.60678733904206 290.11524815844314 0 290.11524815844314 -44.012781189303496 0 0 0 0 -256.17096889214008 -26.478057637887105 0 -26.478057637887105 110.92763222487702 0 0 0 0 121.25269125892373 159.67220089265902 0 159.67220089265902 -38.793526694524189 0 0 0 0 -57.022013655963377 56.210719389238022 0 56.210719389238022 -31.632947964373216 0 0 0 0 43.493769993128808 266.70675668880085 0 266.70675668880085 -162.93946897392016 0 0 0 0 148.34517614261131 171.02222030695339 0 171.02222030695339 -1.8241979438826093 0 0 0 0 143.63730044105614 189.37860529234968 0 189.37860529234968 64.170371965963568 0 0 0 0 162.84349370456766 161.33563291995961 0 161.33563291995961 -77.434679847821826 0 0 0 0 119.02753603817109 177.31020241771694 0 177.31020241771694 10.941445976048271 0 0 0 0 45.1230429920397 168.11528552841264 0 168.11528552841264 30.327815439766709 0 0 0 0 121.36978387833983 129.62373029661103 0 129.62373029661103 -60.297718943525979 0 0 0 0 171.81247313118365 273.17145805142172 0 273.17145805142172 14.486911804226111 0 0 0 0 97.406204615988827 -167.89217030472764 0 -167.89217030472764 -6.8241113986223354 0 0 0 0 42.748197777145833 181.34968842599119 0 181.34968842599119 17.7923744248601 0 0 0 0 -51.058224888401021 66.190906892603437 0 66.190906892603437 -38.352754131765295 0 0 0 0 39.848074831374106 155.84281264172023 0 155.84281264172023 218.74826721729187 0 0 0 0 128.23835137725109 274.7966980705678 0 274.7966980705678 102.43479005478002 0 0 0 0 124.88653703774617 180.54882036789786 0 180.54882036789786 -5.1523743723519146 0 0 0 0 129.67035173336626 203.89802711105949 0 203.89802711105949 61.91636549802206 0 0 0 0 180.22531919181347 231.32769518332498 0 231.32769518332498 -63.378972808493927 0 0 0 0 -21.350981718282128 167.83733634622376 0 167.83733634622376 227.20651273616204 0 0 0 0 139.31117832449854 391.99186418399461 0 391.99186418399461 198.12155285592351 0 0 0 0 -26.41725933765364 49.109543294540728 0 49.109543294540728 -70.6801971741221 0 0 0 0 12.126832872661453 45.119642856589962 0 45.119642856589962 -57.910571542346588 0 0 0 0 189.73563871192164 126.76924755087384 0 126.76924755087384 -77.626472648601521 0 0 0 0 40.341838641012146 175.92854017686659 0 175.92854017686659 128.23403766049887 0 0 0 0 -51.582578792284835 173.513440775514 0 173.513440775514 24.409259938231116 0 0 0 0 -56.359497782599647 43.380715403567592 0 43.380715403567592 -35.438162179751089 0 0 0 0 -1.4675532348312572 43.245075899211713 0 43.245075899211713 -83.347885549720118 0 0 0 0 174.43853967346513 101.50772423368471 0 101.50772423368471 -74.67897717042888 0 0 0 0 157.49090394141967 162.44187724254152 0 162.44187724254152 -41.469983510403836 0 0 0 0 -14.842710211834856 25.34383367275824 0 25.34383367275824 -11.179373805829535 0 0 0 0 50.290354828524869 99.763214245360359 0 99.763214245360359 -60.912331668987463 0 0 0 0 10.650141508171146 111.26251837221753 0 111.26251837221753 -21.326376863798941 0 0 0 0 -1.7477393968960868 43.591360912761942 0 43.591360912761942 -73.74860422711744 0 0 0 0 78.384207719223923 130.56478065027477 0 130.56478065027477 -28.797131861116213 0 0 0 0 114.23013060602534 102.69697825574622 0 102.69697825574622 -374.3439772045167 0 0 0 0 2.5680429652951204 2.9009497052352202 0 2.9009497052352202 0.96776002512591219 0 0 0 0 33.415976990458148 80.306397032873065 0 80.306397032873065 -73.669192742285304 0 0 0 0 66.814172885314889 45.716536246293749 0 45.716536246293749 0.87515919956933885 0 0 0 0 318.92201485107944 238.05562518437 0 238.05562518437 -295.34666499829837 0 0 0 0 36.037807686734595 69.225554759894294 0 69.225554759894294 -66.35036711677094 0 0 0 0 31.677178855927195 90.09263801436191 0 90.09263801436191 -85.737262625334552 0 0 0 0 8.1409531101762695 40.199823554557042 0 40.199823554557042 -76.011087708131527 0 0 0 0 49.982498120737944 26.636065439352102 0 26.636065439352102 14.226020237010573 0 0 0 0 -3.4570799076755065 29.691964043209737 0 29.691964043209737 -97.635180919483901 0 0 0 0 6.9875821601981158 5.5172643455696075 0 5.5172643455696075 1.6480008861472015 0 0 0 0 270.90935583614191 102.01858985753643 0 102.01858985753643 -431.95796904652161 0 0 0 0 -179.68783700437052 -6.4527778204683273 0 -6.4527778204683273 -164.70550928141165 0 0 0 0 6.7035179179365514 55.810076103975007 0 55.810076103975007 48.157429209073598 0 0 0 0 13.18656718211696 -4.8586489533806798 0 -4.8586489533806798 -71.179279985779431 0 0 0 0 115.97309978582052 172.78351963677778 0 172.78351963677778 61.983753026805061 0 0 0 0 51.139708189642988 106.84526021848069 0 106.84526021848069 1.9490768003015546 0 0 0 0 71.859267949097557 73.861582977566286 0 73.861582977566286 -52.766912952523853 0 0 0 0 -35.999739788916486 66.750187273798474 0 66.750187273798474 -100.08533331432409 0 0 0 0 6.6298456081131008 67.94435531169438 0 67.94435531169438 -31.737509420938295 0 0 0 0 -22.847826339653693 37.899301237850523 0 37.899301237850523 -50.07145197353384 0 0 0 0 -4.5670884732389823 84.380457889492391 0 84.380457889492391 -60.569971826364053 0 0 0 0 10.506140550191049 61.686589483257194 0 61.686589483257194 -31.097801874464494 0 0 0 0 -69.536548491538269 61.339464184413373 0 61.339464184413373 -25.823042077972787 0 0 0 0 -68.374942715803627 130.09363087952624 0 130.09363087952624 -76.543205791327637 0 0 0 0 -27.610389331603074 48.477417409909322 0 48.477417409909322 4.5178584577224683 0 0 0 0 88.626874389578006 103.06976965314607 0 103.06976965314607 10.418109508615998 0 0 0 0 169.92523805184464 170.43909779183014 0 170.43909779183014 -10.643099772743881 0 0 0 0 81.106480330534396 123.10898916317456 0 123.10898916317456 -42.97938750951289 0 0 0 0 -238.64193178666756 256.3848426755394 0 256.3848426755394 -129.4527342550864 0 0 0 0 -221.37453738829936 218.43669761595447 0 218.43669761595447 -97.266803163198347 0 0 0 0 -283.33189305923588 207.25368918474851 0 207.25368918474851 -61.531282502808608 0 0 0 0 -126.65847956486687 113.025152941751 0 113.025152941751 -62.263258432258482 0 0 0 0 -59.999070483012474 119.1994104510668 0 119.1994104510668 -177.52134091822154 0 0 0 0 -85.583087974853697 76.669990483562287 0 76.669990483562287 -99.984286018559942 0 0 0 0 -124.09571201380459 116.84505244972206 0 116.84505244972206 -58.558027411861985 0 0 0 0 -135.54405659074837 160.5114343270252 0 160.5114343270252 -122.43927047995021 0 0 0 0 -186.18774539003061 199.72346949510575 0 199.72346949510575 -142.04466401460377 0 0 0 0 -158.07181726741328 241.83420645990191 0 241.83420645990191 -209.81930319361709 0 0 0 0 -66.361744823108893 91.31356896138459 0 91.31356896138459 -159.4823498575588 0 0 0 0 -42.056972523096192 140.18512233804358 0 140.18512233804358 -275.70557519816794 0 0 0 0 7.4872761574224 6.7687006298682846 0 6.7687006298682846 2.1617907345108911 0 0 0 0 22.609103587237769 34.654445302125168 0 34.654445302125168 -134.48063390600146 0 0 0 0 -65.292592516576406 89.189977809255652 0 89.189977809255652 -163.62690828507039 0 0 0 0 -223.06628143804846 9.0244415182623925 0 9.0244415182623925 20.580170814748271 0 0 0 0 -25.900496835300146 -3.0820710488042096 0 -3.0820710488042096 -125.70420148810808 0 0 0 0 29.177771287837288 22.635250877956612 0 22.635250877956612 14.913313839388536 0 0 0 0 -118.65303574694553 58.433573713919031 0 58.433573713919031 20.416807734956819 0 0 0 0 162.98793165563256 88.919458928889071 0 88.919458928889071 -344.48305369590526 0 0 0 0 4.9940855660041734 6.4247579657727272 0 6.4247579657727272 2.0437253536902418 0 0 0 0 -59.150424517967622 204.70963005150043 0 204.70963005150043 -386.9461652244936 0 0 0 0 57.637321370682912 111.37703958863494 0 111.37703958863494 -157.52465961603593 0 0 0 0 -55.260692782059778 181.4933586544139 0 181.4933586544139 -368.30360837280386 0 0 0 0 -84.074904124398017 234.15008350790595 0 234.15008350790595 -279.86586683892165 0 0 0 0 -84.350355962713365 194.06716508404497 0 194.06716508404497 -362.65750323781594 0 0 0 0 -66.353818382805912 159.37873554412454 0 159.37873554412454 -450.8862116718883 0 0 0 0 -77.883328233627253 244.37401468592361 0 244.37401468592361 -381.49929356185748 0 0 0 0 1.1965802806180363 3.7584826152490791 0 3.7584826152490791 1.1795084976838801 0 0 0 0 76.9217720986926 204.81305306626382 0 204.81305306626382 -625.44715153634752 0 0 0 0 -233.25173809714033 47.26156926308613 0 47.26156926308613 123.74008263496944 0 0 0 0 95.27294115580662 287.95952383453096 0 287.95952383453096 -451.85298807510117 0 0 0 0 -37.531010769758723 211.28639336257766 0 211.28639336257766 -317.17056278497694 0 0 0 0 107.2540959320213 264.83690307767574 0 264.83690307767574 -507.24998674413655 0 0 0 0 45.411938550503692 234.0027721516999 0 234.0027721516999 -508.5835759686961 0 0 0 0 84.660937491527875 242.97293759896638 0 242.97293759896638 -514.2753433438138 0 0 0 0 106.75248015681427 255.43162263627164 0 255.43162263627164 -507.69481292379351 0 0 0 0 96.160721335480048 263.61564969026222 0 263.61564969026222 -480.69884946620732 0 0 0 0 11.937594764582173 269.64194244127793 0 269.64194244127793 -441.12633739621378 0 0 0 0 3.4056262048543431 252.5561797802402 0 252.5561797802402 -429.17205287098568 0 0 0 0 80.424280696926871 327.20449893633486 0 327.20449893633486 -394.41350511591008 0 0 0 0 12.234719278480043 335.65651473074468 0 335.65651473074468 -388.92203280411195 0 0 0 0 13.339233874901311 359.48267449881496 0 359.48267449881496 -321.15482661037822 0 0 0 0 109.09443041025952 287.16151589839683 0 287.16151589839683 -453.69276729255944 0 0 0 0 102.62352094895323 272.56000702692108 0 272.56000702692108 -482.93318257276678 0 0 0 0 96.825661019101972 358.2636970349231 0 358.2636970349231 -385.84047478530556 0 0 0 0 213.7278003459287 312.48748426830025 0 312.48748426830025 -453.70045727619436 0 0 0 0 -1.0616930250835139 404.77269733740832 0 404.77269733740832 -328.97476363145688 0 0 0 0 0.29567890931502916 414.00335722570526 0 414.00335722570526 -300.73945766748147 0 0 0 0 113.04816356230003 382.09544669496245 0 382.09544669496245 -367.77799057800075 0 0 0 0 -90.939821466206922 384.48681388045952 0 384.48681388045952 -309.7049116634189 0 0 0 0 -94.056830880057532 365.13105435215039 0 365.13105435215039 -257.00833782386326 0 0 0 0 -188.40355775959324 388.6773035207807 0 388.6773035207807 -244.20544997768593 0 0 0 0 -234.57301000482585 316.68146154225497 0 316.68146154225497 -187.18862143454317 0 0 0 0 -178.73304162258864 341.51979672514062 0 341.51979672514062 -182.8729933863201 0 0 0 0 -142.96572790088248 272.54729403422971 0 272.54729403422971 -172.21306898022522 0 0 0 0 -143.84513262785913 291.34669917227438 0 291.34669917227438 -242.75482853321591 0 0 0 0 -115.60349055715778 220.80169478374592 0 220.80169478374592 -199.4082610039768 0 0 0 0 -113.83308513065549 240.92191542730473 0 240.92191542730473 -279.11583552812954 0 0 0 0 -72.102272534219082 309.78426668585598 0 309.78426668585598 -349.44866859633112 0 0 0 0 -54.310892436435097 280.34990468821707 0 280.34990468821707 -327.44364533119369 0 0 0 0 -102.22601193769515 325.24105250583125 0 325.24105250583125 -273.02360445565864 0 0 0 0 132.24867828760762 53.004998746830097 0 53.004998746830097 -676.01378069380735 0 0 0 0 33.078733422291407 17.209782782530965 0 17.209782782530965 -665.83924224980728 0 0 0 0 81.053444744131411 32.138366074548685 0 32.138366074548685 -694.72365341674072 0 0 0 0 61.097787193095428 86.694625135145543 0 86.694625135145543 -606.70340010844666 0 0 0 0 128.4967576631534 122.42908916428496 0 122.42908916428496 -608.64340507672387 0 0 0 0 61.694659916138335 161.55733057044563 0 161.55733057044563 -545.42240474309074 0 0 0 0 7.3399198683182476 66.363589077393044 0 66.363589077393044 -603.42367240081876 0 0 0 0 49.87848473151098 72.030015478736459 0 72.030015478736459 -655.5946812613754 0 0 0 0 72.028780113032553 198.30322710220935 0 198.30322710220935 -537.39190911810874 0 0 0 0 -81.441633416441618 103.55235647537847 0 103.55235647537847 -470.61700405674492 0 0 0 0 99.954500047970214 216.78129425690713 0 216.78129425690713 -526.17087284376248 0 0 0 0 87.2763816427032 228.14160032187283 0 228.14160032187283 -526.74897914369649 0 0 0 0 162.60140946909087 279.37896059729974 0 279.37896059729974 -502.41587370802517 0 0 0 0 189.13233698507975 311.66554287823237 0 311.66554287823237 -410.11088064137584 0 0 0 0 235.3472519362258 213.04588862206947 0 213.04588862206947 -478.56065112003125 0 0 0 0 157.45205192359572 202.94047630140994 0 202.94047630140994 -547.68180636411626 0 0 0 0 161.74554871340661 237.65427621125309 0 237.65427621125309 -483.90693928298788 0 0 0 0 168.09664739789969 150.46082990164382 0 150.46082990164382 -582.32980455282086 0 0 0 0 185.48694136389531 156.99627601363318 0 156.99627601363318 -613.21838041453202 0 0 0 0 170.93051976388961 215.17979477444896 0 215.17979477444896 -435.45711512740309 0 0 0 0 186.62943734534201 160.45582204908351 0 160.45582204908351 -581.79696551347297 0 0 0 0 133.03867992339656 149.45086464846827 0 149.45086464846827 -717.06671238570016 0 0 0 0 113.45914923396776 161.50482449504125 0 161.50482449504125 -554.35972772461173 0 0 0 0 142.74302775210526 195.81702319867327 0 195.81702319867327 -304.82531903931886 0 0 0 0 106.1560046372324 343.59184186066705 0 343.59184186066705 -246.30263021384053 0 0 0 0 71.129566875766614 278.1973054506916 0 278.1973054506916 -387.02037663230294 0 0 0 0 226.47732954320963 186.48708343870567 0 186.48708343870567 -422.7413983495353 0 0 0 0 164.57686491046297 284.51482545247063 0 284.51482545247063 -267.50175960319757 0 0 0 0 243.31053852499463 234.74082789197564 0 234.74082789197564 -237.10643315112975 0 0 0 0 227.93513643273036 238.3424659050288 0 238.3424659050288 -62.157079979515402 0 0 0 0 252.91707340234279 282.2438941888413 0 282.2438941888413 -391.33568857749924 0 0 0 0 258.73710712953471 233.51507235064855 0 233.51507235064855 -286.08811289960431 0 0 0 0 350.48838585325575 322.70637030834405 0 322.70637030834405 -377.37142647073051 0 0 0 0 259.90438871833612 280.69950806280394 0 280.69950806280394 -396.68947275999381 0 0 0 0 273.85428568473435 367.30714916094803 0 367.30714916094803 -284.90710172303079 0 0 0 0 384.08474296111672 280.69589613892822 0 280.69589613892822 -273.07777623223046 0 0 0 0 337.52039082637202 265.48360737072653 0 265.48360737072653 -72.725095655885525 0 0 0 0 426.08491846099059 380.91700494567158 0 380.91700494567158 -206.99981196870795 0 0 0 0 510.33087139468989 255.11022885237617 0 255.11022885237617 -72.112675918571767 0 0 0 0 501.50557664566713 411.37243334265145 0 411.37243334265145 51.73134804808069 0 0 0 0 344.87608445189835 322.54479487344361 0 322.54479487344361 196.43012939875189 0 0 0 0 586.2865533412114 396.17379591575809 0 396.17379591575809 113.08317773981253 0 0 0 0 426.70747710802243 435.11733168609862 0 435.11733168609862 507.24297818714695 0 0 0 0 709.02100555117067 656.96636543272325 0 656.96636543272325 292.84206007855391 0 0 0 0 -44.475823986632747 35.089994161244817 0 35.089994161244817 -18.614777713698402 0 0 0 0 621.77502490545157 385.62918334182905 0 385.62918334182905 257.47329295196687 0 0 0 0 346.4707785716455 460.80355860540658 0 460.80355860540658 293.78507376540801 0 0 0 0 436.92023542803508 331.13642448599967 0 331.13642448599967 4.8969436576735461 0 0 0 0 147.72472177499731 259.03294452526825 0 259.03294452526825 130.88002915743346 0 0 0 0 405.58304749896342 272.73928914905991 0 272.73928914905991 -91.292650146844608 0 0 0 0 155.49024400514463 456.37373314817705 0 456.37373314817705 157.99310993466861 0 0 0 0 238.74442344938871 279.13781989763993 0 279.13781989763993 -59.611152838246198 0 0 0 0 108.5785637046356 343.73371851545016 0 343.73371851545016 -50.047633435802709 0 0 0 0 114.25165175453731 252.89733617576712 0 252.89733617576712 -20.961045203905087 0 0 0 0 -38.356046446991968 291.70409162874512 0 291.70409162874512 -24.08108040807565 0 0 0 0 -192.27597375019104 331.66724439587051 0 331.66724439587051 -442.79017773850137 0 0 0 0 -25.69888694016845 408.44363285013969 0 408.44363285013969 -298.88043292664952 0 0 0 0 -139.53738860387239 448.78574611766453 0 448.78574611766453 -239.7561931289747 0 0 0 0 -310.4080132603558 375.80191396846203 0 375.80191396846203 -265.29818768709447 0 0 0 0 -264.95793861759012 489.30481015246551 0 489.30481015246551 -303.03395706989249 0 0 0 0 -262.95021962789178 378.52134016022683 0 378.52134016022683 -187.2011517019173 0 0 0 0 -205.07558044033067 453.15570765324264 0 453.15570765324264 -260.84586929999205 0 0 0 0 -114.39266684968607 406.25377677211509 0 406.25377677211509 -240.79920161256814 0 0 0 0 -126.07445252628531 432.73200374273438 0 432.73200374273438 -283.13286282918853 0 0 0 0 -126.54146133080394 434.34532705333413 0 434.34532705333413 -266.44302765155589 0 0 0 0 -99.259778186311451 452.69172679517851 0 452.69172679517851 -267.17262886908429 0 0 0 0 116.96369030070491 450.12841403304265 0 450.12841403304265 -328.6542789494124 0 0 0 0 -3.0570366220199503 495.17042795183079 0 495.17042795183079 -291.52382062780089 0 0 0 0 0.99726175639079884 448.77551288633549 0 448.77551288633549 -262.36067471692513 0 0 0 0 219.81013881324907 372.55835125455633 0 372.55835125455633 -385.38711853659129 0 0 0 0 117.45032086957565 389.10418397865908 0 389.10418397865908 -320.73608719218464 0 0 0 0 223.90104771231199 384.89119233486872 0 384.89119233486872 -363.65332558310183 0 0 0 0 220.79035178390041 447.17423420263003 0 447.17423420263003 -304.50443970173365 0 0 0 0 290.90616095095174 350.129998426768 0 350.129998426768 -351.26727404113262 0 0 0 0 362.91206711574341 315.3218059090068 0 315.3218059090068 -266.44178013166311 0 0 0 0 317.52434506564168 465.75985694757401 0 465.75985694757401 -211.95084056578344 0 0 0 0 261.8608258801687 399.782573487013 0 399.782573487013 -290.15233613145756 0 0 0 0 327.41791512002237 363.78020569775981 0 363.78020569775981 -173.5172918183016 0 0 0 0 240.5570403708698 496.70212431174878 0 496.70212431174878 -64.025233201740775 0 0 0 0 442.52606436549104 284.2855339010348 0 284.2855339010348 -94.068790296441875 0 0 0 0 152.65686565770011 494.64964985875122 0 494.64964985875122 -207.03214485578064 0 0 0 0 124.84200733713806 445.67255459079752 0 445.67255459079752 -283.19964920556959 0 0 0 0 125.89408669006662 380.81133231707645 0 380.81133231707645 -179.61123507721459 0 0 0 0 112.21075080151786 441.57921821665514 0 441.57921821665514 -264.59995459330821 0 0 0 0 -9.9284179143869551 451.48645620561365 0 451.48645620561365 -208.37111648939026 0 0 0 0 -65.352712051317212 245.91974412048876 0 245.91974412048876 -84.84755730865254 0 0 0 0 4.8103231678760494 319.54273576804553 0 319.54273576804553 -7.7390453708649147 0 0 0 0 -87.016670066688675 72.692804796939527 0 72.692804796939527 -151.82455996540739 0 0 0 0 404.82405891390954 467.77572169758787 0 467.77572169758787 -34.250938361874432 0 0 0 0 445.04188186107785 323.89469885837025 0 323.89469885837025 268.52141776221106 0 0 0 0 579.36288361510378 373.74124452065007 0 373.74124452065007 -6.4312682142517588 0 0 0 0 115.00668675318593 278.72514307066012 0 278.72514307066012 -43.627667243636097 0 0 0 0 271.40702938901086 589.28797170657344 0 589.28797170657344 488.93716950179078 0 0 0 0 -16.596879226842589 -0.53851482860710576 0 -0.53851482860710576 10.269623004069174 0 0 0 0 519.05381485319231 709.25064448171179 0 709.25064448171179 492.43955610551257 0 0 0 0 858.2022160194465 428.56327828565554 0 428.56327828565554 267.60489650844181 0 0 0 0 537.34172089195636 807.18096490414973 0 807.18096490414973 988.8414177041268 0 0 0 0 -0.49952869351295703 13.821711209968825 0 13.821711209968825 -2.1294960723586991 0 0 0 0 808.79673488374101 570.10750913793891 0 570.10750913793891 312.94388126461786 0 0 0 0 -20.305823861399688 93.152923860438733 0 93.152923860438733 119.39087149437546 0 0 0 0 -20.171665120180933 104.32124910973894 0 104.32124910973894 193.39081146944227 0 0 0 0 20.796059976652032 164.93409940474521 0 164.93409940474521 161.77594780679283 0 0 0 0 7.866402380168438 196.34301649971167 0 196.34301649971167 209.63900691334857 0 0 0 0 -32.007832240749849 147.76167760038152 0 147.76167760038152 270.09787747455266 0 0 0 0 -53.830986211556649 13.98224207720996 0 13.98224207720996 0.68047907620777437 0 0 0 0 26.042444897808309 177.32859526430184 0 177.32859526430184 165.49838041095063 0 0 0 0 -77.623120273055974 179.39394848561824 0 179.39394848561824 -431.74770641243958 0 0 0 0 -96.69417960685314 302.35875272890917 0 302.35875272890917 -770.70613695670181 0 0 0 0 -292.60733228615572 390.39404978469975 0 390.39404978469975 -477.0713852562003 0 0 0 0 -35.166226953180654 9.9640703402901352 0 9.9640703402901352 0.72069414181651847 0 0 0 0 -107.76422823117173 257.61204491932585 0 257.61204491932585 725.77719464748634 0 0 0 0 162.65265766261291 252.04441500256416 0 252.04441500256416 29.088929090117745 0 0 0 0 -202.571436241622 12.405506374845572 0 12.405506374845572 -8.5825802438848768 0 0 0 0 68.515946681749483 266.93116286959048 0 266.93116286959048 -107.71498389609042 0 0 0 0 63.397562644371646 112.98560810118215 0 112.98560810118215 -209.44285872074761 0 0 0 0 59.159077036165399 188.74124909763123 0 188.74124909763123 -47.400752514906344 0 0 0 0 5.5639089045071159 252.72862151985646 0 252.72862151985646 166.52199026930975 0 0 0 0 20.357887154990749 179.94037764601308 0 179.94037764601308 121.32268330414809 0 0 0 0 31.311140913356212 181.32133338627318 0 181.32133338627318 121.3539524856169 0 0 0 0 42.085035123294801 220.26406590445185 0 220.26406590445185 74.364994787283649 0 0 0 0 67.241542496165494 165.01709133041004 0 165.01709133041004 61.928849322117458 0 0 0 0 6.6179795946009108 128.92054374991676 0 128.92054374991676 79.055997231400397 0 0 0 0 31.109599844406603 167.02887258790292 0 167.02887258790292 78.511577680794289 0 0 0 0 55.470413323055254 181.84527856216937 0 181.84527856216937 41.786504891875666 0 0 0 0 44.391606157150818 173.0981654678726 0 173.0981654678726 -1.3934868600617847 0 0 0 0 46.224821038311347 217.33451843212606 0 217.33451843212606 12.465184711458278 0 0 0 0 54.160616398425191 178.60267480998027 0 178.60267480998027 36.672311206071754 0 0 0 0 51.354537295774207 189.41463817344629 0 189.41463817344629 20.44999618354268 0 0 0 0 68.219445972470567 165.90708257427104 0 165.90708257427104 -10.119016749937146 0 0 0 0 48.4764678733045 140.75619088098028 0 140.75619088098028 12.086936607895041 0 0 0 0 -4.1886138471018057 131.9303444884863 0 131.9303444884863 19.78715404586751 0 0 0 0 50.89631865730189 142.77149474783982 0 142.77149474783982 -24.085661022152635 0 0 0 0 69.524786497433524 156.70161710511275 0 156.70161710511275 32.062602038276964 0 0 0 0 74.836416457306768 160.18444050017933 0 160.18444050017933 29.611570706096245 0 0 0 0 67.902506064046975 150.54898643504657 0 150.54898643504657 45.197649145426112 0 0 0 0 51.300169619775261 128.41098660910575 0 128.41098660910575 59.22984126724441 0 0 0 0 66.087173625921423 142.02166804214539 0 142.02166804214539 7.8171796687311144 0 0 0 0 49.409813377948012 122.08065257950147 0 122.08065257950147 38.687024813221797 0 0 0 0 40.980587860482046 137.93215948627949 0 137.93215948627949 31.414288724248763 0 0 0 0 7.032588229078101 117.5574489771825 0 117.5574489771825 19.377412082394585 0 0 0 0 -36.439558434135733 47.195389128097645 0 47.195389128097645 -43.496018567434078 0 0 0 0 488.79029212931709 218.1587797255097 0 218.1587797255097 157.87699632747899 0 0 0 0 431.89922978115646 152.83560110246253 0 152.83560110246253 129.06595387832203 0 0 0 0 -77.715281748591039 51.245793981072723 0 51.245793981072723 -4.0168338360927009 0 0 0 0 402.18520924821678 389.9973959727995 0 389.9973959727995 -260.28474993419513 0 0 0 0 431.53243683527398 289.39533010187733 0 289.39533010187733 79.259746462346811 0 0 0 0 -76.880086682686539 48.418050269531435 0 48.418050269531435 -18.521315208323472 0 0 0 0 364.95751794695389 663.34204242422129 0 663.34204242422129 197.70196860591386 0 0 0 0 -26.784901307401014 17.464635856380482 0 17.464635856380482 -136.92879938548867 0 0 0 0 20.76489718988887 105.3688383733097 0 105.3688383733097 -61.168567392296609 0 0 0 0 -40.480368593149251 102.03549413775045 0 102.03549413775045 -3.2917512794228969 0 0 0 0 309.75934503888129 383.01789893236855 0 383.01789893236855 319.53800875048728 0 0 0 0 -1.0667241569172461 1.8559045623933343 0 1.8559045623933343 -1.097621156515487 0 0 0 0 123.96974026190583 148.82161940883452 0 148.82161940883452 187.89192191155598 0 0 0 0 95.452091426799598 591.23382208107068 0 591.23382208107068 288.84130211039701 0 0 0 0 393.34435001155362 583.17688812199049 0 583.17688812199049 435.57411995325674 0 0 0 0 476.49457395380887 370.29189648943429 0 370.29189648943429 302.31192434161494 0 0 0 0 484.69767426955559 709.20241465908043 0 709.20241465908043 436.92999289694853 0 0 0 0 -47.385903305598049 39.841504210705125 0 39.841504210705125 -21.412045286179961 0 0 0 0 69.587242835492361 168.57242812152617 0 168.57242812152617 62.585329349669337 0 0 0 0 81.679788878594991 146.66612332881778 0 146.66612332881778 56.173074036276375 0 0 0 0 86.414296155946431 150.87455771661962 0 150.87455771661962 29.394831093202811 0 0 0 0 85.029461765341694 146.66398536340785 0 146.66398536340785 26.165337655988424 0 0 0 0 112.83151013078168 133.73162324108125 0 133.73162324108125 16.131788137816329 0 0 0 0 103.6331853908996 156.34171182733735 0 156.34171182733735 28.469981070553331 0 0 0 0 95.847435025594336 148.20914447858246 0 148.20914447858246 35.612032210134203 0 0 0 0 -51.955529795665569 41.74929245852536 0 41.74929245852536 -21.927701067242467 0 0 0 0 95.778758177119016 145.03526385657096 0 145.03526385657096 32.977283654508938 0 0 0 0 369.37722680840579 349.65359279128415 0 349.65359279128415 291.9024080083982 0 0 0 0 61.607133828042606 83.628068308326192 0 83.628068308326192 15.694478670004173 0 0 0 0 116.61954755506304 98.037865607417189 0 98.037865607417189 7.5534108459069103 0 0 0 0 -50.733472578036867 47.406138752995162 0 47.406138752995162 -17.002712593586168 0 0 0 0 72.267323900523479 136.56442252536363 0 136.56442252536363 29.994276814089972 0 0 0 0 296.76889373990707 491.59020249592868 0 491.59020249592868 505.51795387321908 0 0 0 0 -11.373498606338643 12.912989632326344 0 12.912989632326344 -6.9684090349569772 0 0 0 0 764.74814455507294 685.62458838547536 0 685.62458838547536 464.69357582979137 0 0 0 0 1329.5998468916514 431.54386532089848 0 431.54386532089848 336.56925732961827 0 0 0 0 537.69467318619718 261.81945867117247 0 261.81945867117247 411.7982535364863 0 0 0 0 574.70322795963148 489.34996562062224 0 489.34996562062224 330.18237582073925 0 0 0 0 609.46221020021767 226.47172311287432 0 226.47172311287432 213.76251928351121 0 0 0 0 621.54351960288477 246.85626300138392 0 246.85626300138392 124.6864038615131 0 0 0 0 -234.22263171710074 14.337034710057196 0 14.337034710057196 116.02260487173771 0 0 0 0 -17.193326487001542 38.253990772003874 0 38.253990772003874 -44.780715643666881 0 0 0 0 918.82808850484435 768.46457134503726 0 768.46457134503726 204.226583946147 0 0 0 0 -47.292525997421762 106.06073749631651 0 106.06073749631651 147.04391254244547 0 0 0 0 -2.062353636919326 30.339240165130732 0 30.339240165130732 29.339770910607285 0 0 0 0 147.60705497728486 113.81672513486774 0 113.81672513486774 14.747825727146846 0 0 0 0 102.92805803153169 136.67274448746775 0 136.67274448746775 27.771672962728189 0 0 0 0 840.17542675013101 167.1494027082972 0 167.1494027082972 -23.825693957307521 0 0 0 0 -77.717977329535643 213.07366573342551 0 213.07366573342551 -519.47502098758923 0 0 0 0 142.35796241205389 124.00597350235694 0 124.00597350235694 -4.9663327026464685 0 0 0 0 9.1313295616217118 11.019997918436061 0 11.019997918436061 9.8322204786902034 0 0 0 0 163.09036095323245 144.86444905460849 0 144.86444905460849 14.006507242542284 0 0 0 0 165.1825614624895 209.45150360297566 0 209.45150360297566 68.551860784529708 0 0 0 0 32.30500055228913 178.62047550433272 0 178.62047550433272 115.4779921159643 0 0 0 0 107.30580261687282 160.15556430319702 0 160.15556430319702 26.652562592218601 0 0 0 0 73.184455462927872 220.5215415405255 0 220.5215415405255 156.38160059178699 0 0 0 0 128.95675081225727 103.62257946582031 0 103.62257946582031 -714.31773961500585 0 0 0 0 -7.1900496453341134 9.9590054118767313 0 9.9590054118767313 -12.640228411989455 0 0 0 0 228.23254702710983 341.76003275415678 0 341.76003275415678 -718.26055968162109 0 0 0 0 99.880451576427731 386.50512654501472 0 386.50512654501472 -486.10782585786365 0 0 0 0 649.00014929840836 703.74010331372483 0 703.74010331372483 -470.47824889221374 0 0 0 0 1571.9020855824419 -1569.6933027311352 0 -1569.6933027311352 -1354.7783427246723 0 0 0 0 -139.07517491714589 767.89494846555044 0 767.89494846555044 669.86646948241832 0 0 0 0 -215.58605339019414 -25.949944247653548 0 -25.949944247653548 106.8398186006666 0 0 0 0 -449.14312023908133 335.70306762156542 0 335.70306762156542 -239.46680563740665 0 0 0 0 -948.70545584603678 654.39721067967366 0 654.39721067967366 -382.91444427836541 0 0 0 0 1.102196930337314 1.5034918624049851 0 1.5034918624049851 0.60665086817590463 0 0 0 0 -1283.8439237831881 1172.1049133189099 0 1172.1049133189099 -606.83935634215595 0 0 0 0 -604.8889468283852 1191.3818144763488 0 1191.3818144763488 -1187.0217735562983 0 0 0 0 -604.78184837573087 684.42553930243628 0 684.42553930243628 -673.20938903656497 0 0 0 0 -228.8781065112853 628.07241372490535 0 628.07241372490535 -902.51327968004625 0 0 0 0 -414.3782272261451 727.41058618829629 0 727.41058618829629 -737.68416726616852 0 0 0 0 -405.16647727182135 680.5951818586982 0 680.5951818586982 -634.32790271765407 0 0 0 0 -274.18735095972079 502.32103582841955 0 502.32103582841955 -646.1197726207007 0 0 0 0 -322.52884170629841 502.10437301458296 0 502.10437301458296 -568.88476224402984 0 0 0 0 -364.76435794020654 417.25669372634729 0 417.25669372634729 -427.90235267948265 0 0 0 0 -422.65175234281924 551.23502729602478 0 551.23502729602478 -408.79227279225506 0 0 0 0 -410.67204074200708 671.99974230486259 0 671.99974230486259 -644.22268549710986 0 0 0 0 -346.8707559955219 729.0344864869985 0 729.0344864869985 -681.80615345823753 0 0 0 0 -366.01728441560408 715.4410019350762 0 715.4410019350762 -659.27328980833408 0 0 0 0 -362.96608407275926 751.88170461365735 0 751.88170461365735 -709.26323338103248 0 0 0 0 -321.36403904553117 606.61764877066071 0 606.61764877066071 -587.80254783594864 0 0 0 0 -131.95941448262238 544.9512250806456 0 544.9512250806456 -720.59648239401577 0 0 0 0 -215.23735799082351 607.45876186095848 0 607.45876186095848 -696.36760791802953 0 0 0 0 -178.88105973121128 653.49876016229246 0 653.49876016229246 -793.08585955148737 0 0 0 0 1119.9620422178887 -268.03536268899916 0 -268.03536268899916 -141.51224164085579 0 0 0 0 -165.95822308823699 64.038272183906884 0 64.038272183906884 -13.270689325832791 0 0 0 0 488.83336763416446 242.80927776773569 0 242.80927776773569 -50.285789634032426 0 0 0 0 374.14712153139226 34.107346839778984 0 34.107346839778984 -208.64964793717081 0 0 0 0 -8.8054925397966883 17.208916719502156 0 17.208916719502156 28.274478612623554 0 0 0 0 772.19069779186975 70.78952987397679 0 70.78952987397679 -70.477829589141038 0 0 0 0 728.87796442727995 178.9032848812576 0 178.9032848812576 -219.9482012775552 0 0 0 0 -98.08061647509021 83.521616839004309 0 83.521616839004309 82.359141425320558 0 0 0 0 29.82800196744688 126.438854605659 0 126.438854605659 61.168893669895624 0 0 0 0 -27.416798784316512 28.599744007308033 0 28.599744007308033 -29.643669930216873 0 0 0 0 6.4570659995588358 206.35330693806645 0 206.35330693806645 18.56461037979534 0 0 0 0 -39.424465604795842 24.391139909417689 0 24.391139909417689 -2.992011158454261 0 0 0 0 -140.96814860773713 12.306491190771453 0 12.306491190771453 -106.31098931458837 0 0 0 0 136.21440314953679 47.833066984473362 0 47.833066984473362 -405.03617551915158 0 0 0 0 -147.69996192417602 152.61079347049235 0 152.61079347049235 16.830353021786607 0 0 0 0 -98.196291174586804 349.3685768248688 0 349.3685768248688 -505.63592858843913 0 0 0 0 -47.038085683772806 251.85843080390623 0 251.85843080390623 -386.61710251349677 0 0 0 0 -74.849181963312731 269.15289448581825 0 269.15289448581825 -615.45750750679872 0 0 0 0 -350.64308275963413 251.67197235685671 0 251.67197235685671 -150.3801710426219 0 0 0 0 -412.85848791299577 442.96025183646816 0 442.96025183646816 -580.39755332933419 0 0 0 0 -0.35818877429316842 -1.5703058991918937 0 -1.5703058991918937 1.4402968144352144 0 0 0 0 4.0326421507668151 3.7803670471958384 0 3.7803670471958384 10.020077630094505 0 0 0 0 589.99305027887021 245.92179042115458 0 245.92179042115458 -214.9725314975949 0 0 0 0 61.660514137209248 -288.83625543174458 0 -288.83625543174458 324.50080738040197 0 0 0 0 997.21273224904871 -757.44805436049137 0 -757.44805436049137 -568.67337085172767 0 0 0 0 -680.06197484787117 -323.92210980633536 0 -323.92210980633536 -197.91548239366239 0 0 0 0 -12.952180943789131 28.428309722906661 0 28.428309722906661 -33.886042187104167 0 0 0 0 933.24810457108424 1078.4749022216124 0 1078.4749022216124 1294.8251540505644 0 0 0 0 -497.32917528436519 -735.64861203719192 0 -735.64861203719192 -649.55095121543343 0 0 0 0 -406.13612536042274 -296.67190577325164 0 -296.67190577325164 -625.46640866398957 0 0 0 0 -467.10314797695537 -394.02529153226351 0 -394.02529153226351 -779.91795822043059 0 0 0 0 91.780020043188415 -196.29199084985885 0 -196.29199084985885 -465.83392653305054 0 0 0 0 -402.27109312123139 -405.49583054094728 0 -405.49583054094728 -286.88251161055086 0 0 0 0 228.25596915521601 1183.6720681695024 0 1183.6720681695024 318.42219088521233 0 0 0 0 186.28014669715776 1338.6708089787353 0 1338.6708089787353 858.36308119212754 0 0 0 0 357.54264458413672 836.46909847433199 0 836.46909847433199 927.91289413426421 0 0 0 0 -22.043461744928209 1028.2682106599605 0 1028.2682106599605 1008.7238691377424 0 0 0 0 130.93578280048678 708.81684582402522 0 708.81684582402522 868.0624136380975 0 0 0 0 1046.9957507214494 1148.8460228255826 0 1148.8460228255826 941.56324546247561 0 0 0 0 787.51100595987373 668.2704129669055 0 668.2704129669055 1178.8319672132029 0 0 0 0 566.31550899816648 891.43623822890368 0 891.43623822890368 1362.3764738717291 0 0 0 0 907.93992148835241 587.95403799901396 0 587.95403799901396 1229.9834185409818 0 0 0 0 -5.0727952075178706 10.347972565776743 0 10.347972565776743 -11.748866050752213 0 0 0 0 -364.34894136281946 -376.44503711502693 0 -376.44503711502693 -2046.5389181076898 0 0 0 0 371.93762425538443 1713.7286282523746 0 1713.7286282523746 1101.7803801555483 0 0 0 0 361.56565055594115 1975.1048860776496 0 1975.1048860776496 -226.94234256151685 0 0 0 0 -568.39176572705765 1076.5109796110301 0 1076.5109796110301 -1711.4570243848298 0 0 0 0 -778.01292470550834 1134.2961466474553 0 1134.2961466474553 650.43910041339768 0 0 0 0 -743.14414573715112 564.51584286428442 0 564.51584286428442 -280.80007958383067 0 0 0 0 -1090.1609844076593 464.12617022116865 0 464.12617022116865 -243.16622123147317 0 0 0 0 381.74553537281463 -320.01526838917562 0 -320.01526838917562 451.84006476383274 0 0 0 0 -703.86604069420719 536.69877815742802 0 536.69877815742802 -461.45963116271014 0 0 0 0 -699.14269189205913 417.74342006180763 0 417.74342006180763 -1.843590411641344 0 0 0 0 51.296503934281645 -192.27115799554576 0 -192.27115799554576 -133.66266706668466 0 0 0 0 -178.68825366253441 120.22753076627669 0 120.22753076627669 -482.559648259592 0 0 0 0 -608.72540100230253 368.68604679952114 0 368.68604679952114 -1154.9857601250205 0 0 0 0 -406.63145387803524 -30.216119916267417 0 -30.216119916267417 -375.13757723260278 0 0 0 0 -697.26878921331081 340.34319110728393 0 340.34319110728393 -382.39538994827109 0 0 0 0 -833.79701270525402 253.13761367152802 0 253.13761367152802 -280.650564276355 0 0 0 0 127.93451851399732 296.43801340825667 0 296.43801340825667 -308.17186957848298 0 0 0 0 -225.12545683222197 12.440064816319136 0 12.440064816319136 -351.63557232804305 0 0 0 0 80.426687427330762 177.37977591953131 0 177.37977591953131 -207.73826999329322 0 0 0 0 -252.16127773676271 423.45915362023879 0 423.45915362023879 -322.0648892834331 0 0 0 0 408.75512247892038 552.66854266255177 0 552.66854266255177 -169.99167311503697 0 0 0 0 -290.05502153572161 355.19750648882473 0 355.19750648882473 323.82006681017447 0 0 0 0 -316.59580601016205 477.9241402119842 0 477.9241402119842 -150.90932012446501 0 0 0 0 -689.22870179652091 -33.126011716991343 0 -33.126011716991343 -578.6329168588527 0 0 0 0 -635.24722020289482 816.30559793236171 0 816.30559793236171 -490.95517156158894 0 0 0 0 -1546.6433787517672 465.21123745479781 0 465.21123745479781 -297.66190713430842 0 0 0 0 -365.75365502999193 -304.73917876258383 0 -304.73917876258383 -1706.4505537657678 0 0 0 0 -708.78871094062197 246.75929271170025 0 246.75929271170025 -321.21406365331495 0 0 0 0 -958.82106276612103 776.80059878267639 0 776.80059878267639 -1340.1509495242644 0 0 0 0 19.201530410555279 -325.81658160309598 0 -325.81658160309598 -177.86186448683293 0 0 0 0 -415.65810351603432 267.97437207114672 0 267.97437207114672 -987.84599015744607 0 0 0 0 -361.44177313937689 -487.53694781773265 0 -487.53694781773265 -647.24867033031933 0 0 0 0 -54.157640688114043 -479.58613689184858 0 -479.58613689184858 -704.52653552058837 0 0 0 0 0.53157193307671946 13.559525451205019 0 13.559525451205019 -17.884960040895109 0 0 0 0 -12.231729980605451 -208.48152734897667 0 -208.48152734897667 -637.24100925682433 0 0 0 0 1506.6778220353081 37.12120988668903 0 37.12120988668903 578.59643818775658 0 0 0 0 -1.4961528986191155 6.0675267929003951 0 6.0675267929003951 -7.2603818090647323 0 0 0 0 -1829.5655745609838 1333.5296963784131 0 1333.5296963784131 1301.7145814120377 0 0 0 0 -1138.0855094498256 746.67564263885288 0 746.67564263885288 189.61958203047652 0 0 0 0 -725.73122507636435 774.86418535187386 0 774.86418535187386 169.32428987599997 0 0 0 0 -2104.3463209861293 43.821272548140769 0 43.821272548140769 360.47856093413066 0 0 0 0 -3.0414981971805446 5.3058867956626727 0 5.3058867956626727 -8.3298857349367097 0 0 0 0 950.93442860626783 917.91034541326826 0 917.91034541326826 570.42348455698811 0 0 0 0 992.11360850579877 522.0467587698904 0 522.0467587698904 -69.920631146273081 0 0 0 0 634.48389640819369 455.25101334587089 0 455.25101334587089 465.68716880090142 0 0 0 0 451.36744888118483 309.33351978053179 0 309.33351978053179 -21.042322628734837 0 0 0 0 17.609254161197896 313.22370174580828 0 313.22370174580828 417.81275188924701 0 0 0 0 -4.1500434768953696 13.19235356991571 0 13.19235356991571 -31.242055925940321 0 0 0 0 -656.19514808034 239.94322000199372 0 239.94322000199372 36.35035742654145 0 0 0 0 -685.18149766037095 124.18824794639659 0 124.18824794639659 -153.76387345856347 0 0 0 0 -499.50536732039257 578.51881126182968 0 578.51881126182968 137.7253214626071 0 0 0 0 -881.40506785081925 391.65422652600955 0 391.65422652600955 214.0538825064541 0 0 0 0 -82.297155018171978 48.841228483328507 0 48.841228483328507 -16.811259042012338 0 0 0 0 -165.75728199127843 962.74871248537238 0 962.74871248537238 396.22252009540534 0 0 0 0 -199.75975763442693 538.58052080388552 0 538.58052080388552 -73.930814165043557 0 0 0 0 -1008.2567695035486 433.73256745504204 0 433.73256745504204 252.65002087876928 0 0 0 0 39.159161913066782 52.472679614782464 0 52.472679614782464 -184.836143029499 0 0 0 0 77.526466653569514 42.153388805813847 0 42.153388805813847 -262.89981948479181 0 0 0 0 75.384830923445406 251.19366907993208 0 251.19366907993208 164.23184523860255 0 0 0 0 66.697161285956099 155.37496913096584 0 155.37496913096584 13.030936178352931 0 0 0 0 62.500272536006378 181.42206119748698 0 181.42206119748698 -35.056229031397379 0 0 0 0 55.191628729759941 145.50828697541465 0 145.50828697541465 41.359244170049351 0 0 0 0 6.6319981279011699 24.216955810265063 0 24.216955810265063 -10.223882546160894 0 0 0 0 59.686095914496036 50.427156317498884 0 50.427156317498884 -136.35915929578186 0 0 0 0 18.396714035803186 20.206485561267357 0 20.206485561267357 -5.0427687919290172 0 0 0 0 31.280032773585845 86.133554438176361 0 86.133554438176361 75.516053658354394 0 0 0 0 19.586749352839206 62.111387995449377 0 62.111387995449377 -11.867256690322392 0 0 0 0 12.58759741054417 16.891036926211541 0 16.891036926211541 -7.2747443731423047 0 0 0 0 -38.226577966182958 64.55033086273761 0 64.55033086273761 -14.633201110052141 0 0 0 0 7.9699188900019351 16.079965952741091 0 16.079965952741091 -16.058805829958491 0 0 0 0 10.250653895702271 12.334942944638897 0 12.334942944638897 -1.1202092929124774 0 0 0 0 -1.0960071760962364 15.254889780876091 0 15.254889780876091 -8.2034991916876052 0 0 0 0 17.041444315298463 12.610398588951213 0 12.610398588951213 -1.5152633932708284 0 0 0 0 -18.177621370508859 -51.070160848583328 0 -51.070160848583328 140.4678335843746 0 0 0 0 468.07912647590274 -115.16149153023798 0 -115.16149153023798 -86.871879168533269 0 0 0 0 402.60208128208615 61.534735071363684 0 61.534735071363684 -93.453680390630325 0 0 0 0 759.87316893794923 779.55523337302293 0 779.55523337302293 366.58351640323963 0 0 0 0 1211.5766435067126 349.98482726286602 0 349.98482726286602 -146.29931976467924 0 0 0 0 346.64055117818498 283.77873290935167 0 283.77873290935167 32.792205034202198 0 0 0 0 531.8789467046081 528.51522519589344 0 528.51522519589344 525.10337895918929 0 0 0 0 462.07069212795614 289.09185441395175 0 289.09185441395175 23.17303069846821 0 0 0 0 36.190304629082675 -155.09769111504284 0 -155.09769111504284 -487.32735907446477 0 0 0 0 259.14722741942387 280.89729743528005 0 280.89729743528005 235.17302956448111 0 0 0 0 3.0030462653654126 16.660634775840229 0 16.660634775840229 -19.748188196123323 0 0 0 0 1.6148326186165463 2.8049733109341517 0 2.8049733109341517 -8.2908380760888853 0 0 0 0 -32.18774335170383 -5.8130687522625522 0 -5.8130687522625522 -186.90644698218603 0 0 0 0 90.687830590359226 31.371104372148693 0 31.371104372148693 -300.45895633008695 0 0 0 0 220.30501523546263 93.25883901463385 0 93.25883901463385 -343.59816451629922 0 0 0 0 486.0754579663917 297.27874680572495 0 297.27874680572495 -251.81922216839666 0 0 0 0 -216.45641161054664 -255.75078448527165 0 -255.75078448527165 -411.41375184996286 0 0 0 0 141.98145124622533 56.146987519587128 0 56.146987519587128 -402.72217817595265 0 0 0 0 351.5025995659671 -54.572595089826791 0 -54.572595089826791 -508.43698999641674 0 0 0 0 180.7198771807125 84.424835080644698 0 84.424835080644698 -250.35858330986957 0 0 0 0 369.15539555501164 178.01032933674651 0 178.01032933674651 -25.496284643075342 0 0 0 0 22.402960468738456 -284.60057622444765 0 -284.60057622444765 -488.96252188314975 0 0 0 0 584.39890426085185 108.8060683896656 0 108.8060683896656 -544.37931555362229 0 0 0 0 237.78639068474513 300.14796779521384 0 300.14796779521384 -85.533426405600039 0 0 0 0 731.25624623992189 281.23209133891578 0 281.23209133891578 -297.82362094647124 0 0 0 0 265.2453437735785 482.27277563259122 0 482.27277563259122 437.9755714289513 0 0 0 0 536.51999526031796 658.32489711845574 0 658.32489711845574 242.00811530348437 0 0 0 0 125.93278170407939 414.22619769763332 0 414.22619769763332 279.30342861427198 0 0 0 0 260.60866539399922 502.98313149952776 0 502.98313149952776 139.61101905127362 0 0 0 0 128.84269996110379 279.75225972828048 0 279.75225972828048 -31.517442054471758 0 0 0 0 167.0161996239658 267.43671512452966 0 267.43671512452966 -36.054905312106712 0 0 0 0 141.9575423527499 356.19028640267379 0 356.19028640267379 120.91673117024766 0 0 0 0 66.017752347823262 360.90214796588589 0 360.90214796588589 218.83012235326532 0 0 0 0 75.20017361020291 369.96140010665113 0 369.96140010665113 200.38247487337935 0 0 0 0 99.825191404834186 477.9579476671679 0 477.9579476671679 348.17617134332977 0 0 0 0 70.010186279851041 412.51982686822885 0 412.51982686822885 220.88874919567434 0 0 0 0 47.524890407992643 401.53460776897737 0 401.53460776897737 331.43573238732642 0 0 0 0 11.28002299045329 321.2728462637242 0 321.2728462637242 328.39517442941656 0 0 0 0 -36.09303118542266 331.29801612837036 0 331.29801612837036 533.39074235386943 0 0 0 0 -5.1262843315234932 315.28247491946968 0 315.28247491946968 340.83928110588386 0 0 0 0 -8.7189532510556091 253.03196530659852 0 253.03196530659852 400.36309283896844 0 0 0 0 -18.598426495038439 45.407799101478304 0 45.407799101478304 542.80238330296197 0 0 0 0 -27.813144693878712 402.06963760868166 0 402.06963760868166 765.83588742403663 0 0 0 0 251.8998406296414 616.73222186766725 0 616.73222186766725 527.56604694231282 0 0 0 0 23.480321617476875 133.87997090675708 0 133.87997090675708 406.82701796905167 0 0 0 0 43.09631354182136 29.142236999786888 0 29.142236999786888 19.07682713449131 0 0 0 0 -0.43396098322773469 72.378103225950326 0 72.378103225950326 263.35265400923527 0 0 0 0 1584.9600924442348 719.32198853535374 0 719.32198853535374 -162.66187633959635 0 0 0 0 582.95305738148272 1201.9485577595551 0 1201.9485577595551 1280.8568247669573 0 0 0 0 1086.843715246534 792.72312762678484 0 792.72312762678484 -1416.4803202819348 0 0 0 0 441.89885506725113 522.68659462896176 0 522.68659462896176 -1301.5949118744611 0 0 0 0 14.942241169645214 12.178398796731472 0 12.178398796731472 7.2121956281017461 0 0 0 0 -17.562473239420797 105.92514106723684 0 105.92514106723684 2044.5405257790881 0 0 0 0 1183.2038769839346 1258.1256990458241 0 1258.1256990458241 -1317.1445288950672 0 0 0 0 190.02563136763638 912.08997272878332 0 912.08997272878332 -222.19840967190976 0 0 0 0 760.1491717463432 1445.2377409177134 0 1445.2377409177134 -1345.0604346705923 0 0 0 0 166.03365451650461 1082.9602290919138 0 1082.9602290919138 252.48167362885033 0 0 0 0 936.00728960070774 1094.0723836819561 0 1094.0723836819561 -717.39237098981539 0 0 0 0 166.85980474739335 1074.4681248944253 0 1074.4681248944253 314.13463811764086 0 0 0 0 -513.5280597211713 561.45574057944214 0 561.45574057944214 -500.93508297220978 0 0 0 0 208.52817047707504 670.98167351961092 0 670.98167351961092 -392.36446164227164 0 0 0 0 299.80675202919429 990.46111264449655 0 990.46111264449655 -292.50994665122926 0 0 0 0 485.05570114978764 868.59953790899908 0 868.59953790899908 -233.79751262016362 0 0 0 0 181.62631247410172 460.70419818987466 0 460.70419818987466 -63.798058910188274 0 0 0 0 -0.33671946381946327 552.03246376405878 0 552.03246376405878 222.18039297901669 0 0 0 0 -40.276757118946989 583.36834635926061 0 583.36834635926061 202.72055274016384 0 0 0 0 300.09005533146046 600.21737025914172 0 600.21737025914172 151.60517202885967 0 0 0 0 12.110091093694791 849.79192556601629 0 849.79192556601629 166.51761858372629 0 0 0 0 -15.4379124465122 676.66806889674262 0 676.66806889674262 419.72364386101253 0 0 0 0 -193.49434696897515 508.35306406756717 0 508.35306406756717 294.98933015656803 0 0 0 0 -59.67832137006917 840.89210984115925 0 840.89210984115925 506.95204821688822 0 0 0 0 -141.78040972111194 691.31250234451363 0 691.31250234451363 744.1086423211018 0 0 0 0 37.297806323869736 981.344832315237 0 981.344832315237 624.64136808602052 0 0 0 0 -813.26616175493837 812.67019597974286 0 812.67019597974286 -606.83716408074179 0 0 0 0 -457.03473899298842 715.09293703436924 0 715.09293703436924 -582.47222651097945 0 0 0 0 -895.31879446541279 479.27486777594459 0 479.27486777594459 -330.47385234839203 0 0 0 0 -2712.1385311766517 536.22702974038384 0 536.22702974038384 63.054553864996706 0 0 0 0 1310.6625622543506 221.42199471760978 0 221.42199471760978 -86.224966724770638 0 0 0 0 -1.5558088503813678 2.1338839794425937 0 2.1338839794425937 -0.76551894251666397 0 0 0 0 -154.41783587648752 -30.836118230053216 0 -30.836118230053216 -337.24354385509287 0 0 0 0 -138.67801480969501 176.68959684753145 0 176.68959684753145 -38.424923582989237 0 0 0 0 -850.96420435307664 780.90792245798912 0 780.90792245798912 207.32306002990208 0 0 0 0 -80.634310093829782 51.410468724130979 0 51.410468724130979 -3.7226840689243055 0 0 0 0 -262.45810859082371 60.47778397090444 0 60.47778397090444 155.30006195175656 0 0 0 0 221.23762331130064 414.02054838680488 0 414.02054838680488 -841.47425774666772 0 0 0 0 -289.47379715315594 353.85995654563158 0 353.85995654563158 -830.91277150624956 0 0 0 0 -43.123236346967346 76.926629638329644 0 76.926629638329644 -62.091977093262088 0 0 0 0 -485.50714404221401 208.11306877333118 0 208.11306877333118 -507.9941622952465 0 0 0 0 145.87416104823558 180.73034864736474 0 180.73034864736474 -804.29259796624683 0 0 0 0 -835.29057693938762 449.74490017456628 0 449.74490017456628 -577.30804586724844 0 0 0 0 -1001.4822420623799 153.12715434570418 0 153.12715434570418 -722.10102906749671 0 0 0 0 -2026.7604444034514 422.61389772555231 0 422.61389772555231 450.67464575142731 0 0 0 0 -43.479511301296043 73.47343283350493 0 73.47343283350493 -76.775379409368469 0 0 0 0 402.02862965861277 308.8335843957193 0 308.8335843957193 -342.05638092714798 0 0 0 0 -20.804992625867804 31.413121447842425 0 31.413121447842425 -9.7549522627880521 0 0 0 0 79.837770427562646 176.99987028558098 0 176.99987028558098 -672.12469966674325 0 0 0 0 156.07856315486424 128.49921132837153 0 128.49921132837153 -652.69487725159706 0 0 0 0 74.554548252242967 61.688696970544697 0 61.688696970544697 -511.50437063262507 0 0 0 0 -314.46039922069758 197.07903278527374 0 197.07903278527374 -547.06178425269536 0 0 0 0 -34.187712868311351 105.04944669403102 0 105.04944669403102 -125.81066437784102 0 0 0 0 -1823.62576735529 122.99187519728366 0 122.99187519728366 -1779.8816503201706 0 0 0 0 -34.971391837296345 62.96094810834613 0 62.96094810834613 -42.966163569572089 0 0 0 0 -20.620803927811721 80.092478840430431 0 80.092478840430431 -93.257886681320997 0 0 0 0 0.34258498135051063 54.226259292066786 0 54.226259292066786 -95.998634697867374 0 0 0 0 -1079.0217222316451 565.24348483669019 0 565.24348483669019 -338.38632770035474 0 0 0 0 -1152.4698323184869 531.29151451817233 0 531.29151451817233 -209.26974728390633 0 0 0 0 -12.806021983784305 53.058191333914891 0 53.058191333914891 -99.669047946492242 0 0 0 0 11.046612274920335 -88.028147451459517 0 -88.028147451459517 -607.92248296873822 0 0 0 0 -1066.124690653613 454.19729233693215 0 454.19729233693215 -46.810301061996142 0 0 0 0 -543.82246673798329 387.93657613487812 0 387.93657613487812 -204.76301183801115 0 0 0 0 -849.0853424872023 349.50044561614777 0 349.50044561614777 -56.813933701021597 0 0 0 0 -313.67541471252707 172.16828511768108 0 172.16828511768108 -500.61731607357069 0 0 0 0 -899.3123296734716 499.39103211009206 0 499.39103211009206 -611.69549112719869 0 0 0 0 -824.98707506336166 342.99327180264663 0 342.99327180264663 -312.63629194127861 0 0 0 0 -314.21149515454454 196.36356524708935 0 196.36356524708935 50.35674056669086 0 0 0 0 -107.01798726486595 409.83005737541316 0 409.83005737541316 227.06554853451962 0 0 0 0 -262.44651373258057 320.3446696986241 0 320.3446696986241 383.78794685598405 0 0 0 0 -18.092220305079536 526.60318312537129 0 526.60318312537129 194.54190260325413 0 0 0 0 -135.12612347544837 252.90063511046196 0 252.90063511046196 -3.584205502680561 0 0 0 0 -25.191320735320915 275.8950040210475 0 275.8950040210475 -52.976221252276446 0 0 0 0 41.362148056294245 166.14859549847824 0 166.14859549847824 -348.51847645848102 0 0 0 0 182.07972630547374 427.39814022346673 0 427.39814022346673 -189.19081587910841 0 0 0 0 57.531010434933705 290.09052580354546 0 290.09052580354546 -160.88302961695172 0 0 0 0 -95.546724568117497 56.023591967717039 0 56.023591967717039 -243.78735960791892 0 0 0 0 -102.28843541452079 138.22152728586661 0 138.22152728586661 -176.89620620039932 0 0 0 0 -39.887716611542572 56.771219453275634 0 56.771219453275634 -50.74917715949563 0 0 0 0 -94.494812925171573 151.18778316360658 0 151.18778316360658 -243.55222071421304 0 0 0 0 -126.26193269663054 225.81323305533988 0 225.81323305533988 -253.9146420739155 0 0 0 0 -11.415178339538343 28.173788110884868 0 28.173788110884868 9.2120964984894442 0 0 0 0 -44.328093003456161 64.929984737733776 0 64.929984737733776 -44.597309762179975 0 0 0 0 -18.960105382728216 36.864661282537782 0 36.864661282537782 -41.047203565030031 0 0 0 0 -33.795044816917766 47.224286895242692 0 47.224286895242692 -44.201439431018926 0 0 0 0 -55.903674112104 103.18983525858653 0 103.18983525858653 79.131689881734928 0 0 0 0 -22.900074688221437 23.05495674611241 0 23.05495674611241 5.8288201822414152 0 0 0 0 -49.898683508850809 72.216263971695298 0 72.216263971695298 -14.797883106966765 0 0 0 0 -77.800210869987495 100.44493771527959 0 100.44493771527959 -85.124229075119729 0 0 0 0 -53.71008360932683 83.388013665924518 0 83.388013665924518 -97.6473272629446 0 0 0 0 -34.656564930992175 24.913303954046278 0 24.913303954046278 -16.728369011167715 0 0 0 0 -18.646431506457247 26.690464367507957 0 26.690464367507957 4.8826565503732127 0 0 0 0 -57.899878472508135 0.97203758001342067 0 0.97203758001342067 -13.432619794781147 0 0 0 0 -5.7342182102584047 -5.2002286230417667 0 -5.2002286230417667 33.533848596242024 0 0 0 0 -538.90042354343313 591.00102415404763 0 591.00102415404763 -722.71505271352362 0 0 0 0 7.8482553602607172 6.3136851858243972 0 6.3136851858243972 -11.811175960445851 0 0 0 0 -1377.4119178726974 629.65751123666996 0 629.65751123666996 -152.32969837938435 0 0 0 0 -834.1156454984548 754.4031465172593 0 754.4031465172593 -393.33641763728565 0 0 0 0 -983.36814693829274 299.98011393894558 0 299.98011393894558 -412.76226458765404 0 0 0 0 -735.54601533258744 542.30336154660836 0 542.30336154660836 -180.39133775950177 0 0 0 0 -936.81339859482443 307.57635590574228 0 307.57635590574228 -21.568218464002712 0 0 0 0 -973.21635214920229 508.83298627850127 0 508.83298627850127 -140.50274445995456 0 0 0 0 -1087.2377137651129 558.05943107620669 0 558.05943107620669 -466.50332279516442 0 0 0 0 -1080.8992452655239 496.42644539377216 0 496.42644539377216 -93.061393470408802 0 0 0 0 -58.353927640120673 65.456930512959616 0 65.456930512959616 -75.157644318296661 0 0 0 0 -82.587190397634913 82.572540578804137 0 82.572540578804137 -62.767939986199053 0 0 0 0 113.70199012586545 -124.59593318474799 0 -124.59593318474799 -151.0543266540044 0 0 0 0 -38.228244004290076 42.761909838247895 0 42.761909838247895 -37.253561573930398 0 0 0 0 -21.48966856655943 21.126022928343446 0 21.126022928343446 -17.918967911908112 0 0 0 0 -4.3813767663542738 15.012467338129211 0 15.012467338129211 -17.296617976494986 0 0 0 0 -20.506962009414565 32.083338136697421 0 32.083338136697421 -17.303104692837223 0 0 0 0 -39.649887271018422 48.126886425495492 0 48.126886425495492 -43.23482520882709 0 0 0 0 -16.834847536478577 18.508395227287124 0 18.508395227287124 -18.893639678059003 0 0 0 0 -16.175854203360359 35.422291523580498 0 35.422291523580498 -19.549227480929403 0 0 0 0 -74.506159870513542 69.526557034739284 0 69.526557034739284 -47.057401838059988 0 0 0 0 411.20264861094483 240.73322337553691 0 240.73322337553691 -430.67631080134015 0 0 0 0 -459.32255733603688 -12.866033574966423 0 -12.866033574966423 168.5932058567123 0 0 0 0 -1094.4525817802596 340.1159831986879 0 340.1159831986879 418.56814100658084 0 0 0 0 -1006.2716215947453 792.97762589655485 0 792.97762589655485 -144.11115533311386 0 0 0 0 -901.67530805970819 553.87719000614015 0 553.87719000614015 148.47747261345648 0 0 0 0 -872.45723259180795 644.11905063753966 0 644.11905063753966 -129.60300164805085 0 0 0 0 -825.62947383801384 645.78388129662198 0 645.78388129662198 -136.64988789486233 0 0 0 0 -1147.5853155159357 419.85961169191432 0 419.85961169191432 -200.02180836941261 0 0 0 0 -363.14751706814684 568.35469541616021 0 568.35469541616021 -282.68156216107309 0 0 0 0 -888.96767084241992 688.34048209288812 0 688.34048209288812 -43.863801511615748 0 0 0 0 -700.3807562244574 158.83880064866025 0 158.83880064866025 -472.60160813761468 0 0 0 0 -485.59604611929717 550.90779608214325 0 550.90779608214325 242.65279231888417 0 0 0 0 -81.508006782241225 43.993465606492407 0 43.993465606492407 -18.013344853429814 0 0 0 0 -39.196226824088171 -17.530683827684697 0 -17.530683827684697 -135.20082188206288 0 0 0 0 -1.4471810374916192 0.61342708050696615 0 0.61342708050696615 -2.9949393020217201 0 0 0 0 -843.46141026235637 -597.53737751100562 0 -597.53737751100562 389.74628754903097 0 0 0 0 -239.82845609590046 -697.72947109597067 0 -697.72947109597067 -289.63327231341827 0 0 0 0 -38.204617849236456 38.244843197935552 0 38.244843197935552 -51.033076739229728 0 0 0 0 -37.433858792294814 107.66122824746708 0 107.66122824746708 -363.67792104061664 0 0 0 0 -97.300316960588134 129.63306214286422 0 129.63306214286422 -145.67798806328574 0 0 0 0 -106.3658519225919 -12.748953182424884 0 -12.748953182424884 -9.7564508235009271 0 0 0 0 -137.98553622475879 76.613770588245643 0 76.613770588245643 -62.640814199621673 0 0 0 0 -45.229206225773851 3.8468597476785362 0 3.8468597476785362 10.67707051243633 0 0 0 0 -20.065914698651916 8.092270972786352 0 8.092270972786352 2.4545395616962651 0 0 0 0 -113.81590363517989 8.0461516793075134 0 8.0461516793075134 12.827434355131118 0 0 0 0 26.695327992023522 -1.692331724545511 0 -1.692331724545511 -13.251435853278963 0 0 0 0 -2.7348284560385103 1.208055194795584 0 1.208055194795584 0.050724467914449178 0 0 0 0 -39.651308477532446 31.098753718982401 0 31.098753718982401 -22.275178427526392 0 0 0 0 -77.813948158913831 98.570058679546037 0 98.570058679546037 51.434920822845015 0 0 0 0 -156.84649944047669 67.955564993004373 0 67.955564993004373 54.199526339008571 0 0 0 0 -69.676294702831001 8.2136537336118636 0 8.2136537336118636 -30.448219348152634 0 0 0 0 -82.304752033505792 70.86410934136893 0 70.86410934136893 -36.563794413930736 0 0 0 0 -201.92185492950011 -1.7394340409791766 0 -1.7394340409791766 -73.027417080385931 0 0 0 0 50.207617510819546 94.271331442563678 0 94.271331442563678 66.11266552755842 0 0 0 0 -66.173673392063847 212.86656430903167 0 212.86656430903167 164.09490054103662 0 0 0 0 -37.864405632756295 34.828281455162234 0 34.828281455162234 -32.881098112886825 0 0 0 0 -42.267423144568596 22.205779577574404 0 22.205779577574404 -5.623818617208812 0 0 0 0 -5.3251562838254358 171.67806781860418 0 171.67806781860418 -29.609719752756064 0 0 0 0 15.145048675254657 14.332562868505192 0 14.332562868505192 -280.21059487745515 0 0 0 0 -58.092615394649329 -26.262356771578197 0 -26.262356771578197 152.37570044696622 0 0 0 0 -14.039239169977009 107.51927122792404 0 107.51927122792404 -284.63777812876469 0 0 0 0 -69.295490525565242 -8.3158039358140741 0 -8.3158039358140741 -57.301080405952234 0 0 0 0 -147.5255379805858 -15.91321785665059 0 -15.91321785665059 -146.82674138090078 0 0 0 0 -121.32790194435711 97.399094753149257 0 97.399094753149257 -160.12588964277529 0 0 0 0 -81.968088870540299 42.699012591610625 0 42.699012591610625 -18.099378107711601 0 0 0 0 -266.48707054051738 -36.294620334858337 0 -36.294620334858337 -216.98666164382303 0 0 0 0 -63.586515091944875 -72.640293029495297 0 -72.640293029495297 -494.96556661838258 0 0 0 0 -326.39958578271126 470.99751222015766 0 470.99751222015766 -100.37021820927112 0 0 0 0 -153.77800120065763 203.73931703112066 0 203.73931703112066 -342.4973316726464 0 0 0 0 -72.918557175554383 58.052681451641334 0 58.052681451641334 -24.387552157846415 0 0 0 0 -389.55035801149643 370.47913582060391 0 370.47913582060391 -0.29396312058815965 0 0 0 0 -254.15431260265723 204.89505956614084 0 204.89505956614084 31.07838079764042 0 0 0 0 -299.81547639850396 187.10859531598544 0 187.10859531598544 203.90444711095188 0 0 0 0 -314.41164321190445 375.22101903381554 0 375.22101903381554 3.3674045635616494 0 0 0 0 -125.07880484420821 151.6523480288015 0 151.6523480288015 255.29446641360119 0 0 0 0 -78.20354712515109 253.53149660061172 0 253.53149660061172 170.69840039779956 0 0 0 0 -106.82170459268673 270.03478762878149 0 270.03478762878149 268.00634823193832 0 0 0 0 -143.02827114880347 206.75772424146999 0 206.75772424146999 452.22523285354691 0 0 0 0 -143.53392831043311 204.2753404143732 0 204.2753404143732 451.49353763725958 0 0 0 0 -141.29443623877523 155.51193078147844 0 155.51193078147844 378.82999084971379 0 0 0 0 -187.81990281852632 295.82665010850542 0 295.82665010850542 295.81990217372731 0 0 0 0 -34.644039355941459 316.59985397303308 0 316.59985397303308 -325.44507631109809 0 0 0 0 -16.432299094805785 40.783777940261643 0 40.783777940261643 -50.536033315323948 0 0 0 0 -67.787041807460355 196.2247606257697 0 196.2247606257697 -32.128530163237883 0 0 0 0 32.861663900146596 92.713132799157393 0 92.713132799157393 1.9499045636184746 0 0 0 0 -29.108278837550159 93.52981971042189 0 93.52981971042189 -51.814511208463088 0 0 0 0 -75.000329115544446 127.2590789192418 0 127.2590789192418 132.2344142779657 0 0 0 0 -165.73686377390186 55.577962073186427 0 55.577962073186427 85.81134098432085 0 0 0 0 -38.723969253670376 113.25852414720858 0 113.25852414720858 -55.087368852000878 0 0 0 0 -133.98522566354404 62.072919620877656 0 62.072919620877656 407.33670474061364 0 0 0 0 -72.346845763968304 228.30940624098366 0 228.30940624098366 7.2969974557108799 0 0 0 0 -670.55854537103733 335.03321443534514 0 335.03321443534514 40.4877621597916 0 0 0 0 18.414599991365016 86.650885724192776 0 86.650885724192776 30.332840768642342 0 0 0 0 -601.6986992024581 821.92966013598925 0 821.92966013598925 -547.63793192541198 0 0 0 0 -1360.844048166804 -1010.8570465584708 0 -1010.8570465584708 -2192.371702573495 0 0 0 0 9.0093401044935817 52.253602861523767 0 52.253602861523767 -78.734972327048411 0 0 0 0 64.866261958570249 38.027829308555738 0 38.027829308555738 -442.4781004273018 0 0 0 0 29.816124262870289 52.543179334261367 0 52.543179334261367 -250.96770033492794 0 0 0 0 7.0778158170333327 4.4748690642365609 0 4.4748690642365609 -10.228070914183839 0 0 0 0 -360.84972336074134 190.59720065765941 0 190.59720065765941 566.73817431817588 0 0 0 0 -342.95664146210765 569.51725379851268 0 569.51725379851268 521.98846024533486 0 0 0 0 -2.4453874340206561 6.3517315105531011 0 6.3517315105531011 -3.5173484590633137 0 0 0 0 2329.4070968937667 954.60510372887438 0 954.60510372887438 92.687248585440102 0 0 0 0 -126.87687559111509 398.02135931844896 0 398.02135931844896 93.000097329524579 0 0 0 0 229.67390024921406 627.05478102998313 0 627.05478102998313 -790.32833015325014 0 0 0 0 -980.98496479234564 493.52779140143775 0 493.52779140143775 422.2372718931947 0 0 0 0 -462.08224945929396 907.55579540856161 0 907.55579540856161 -654.71434699745441 0 0 0 0 64.417416316586696 388.44773617803548 0 388.44773617803548 -985.13838301546639 0 0 0 0 -83.311338701797467 328.79966104081541 0 328.79966104081541 -647.51236946537392 0 0 0 0 58.278521380694656 68.937093212232867 0 68.937093212232867 -877.35350373997062 0 0 0 0 -3951.1421903114147 -2.9790728324824158 0 -2.9790728324824158 3157.6490002192404 0 0 0 0 -12.228073778937716 7.8645560734864404 0 7.8645560734864404 -5.3898277147222018 0 0 0 0 205.68444694847858 576.55181297643503 0 576.55181297643503 -180.18491944201378 0 0 0 0 -61.516913955541142 50.030395524239118 0 50.030395524239118 -38.269542098277341 0 0 0 0 -661.20272513896907 599.00422466043483 0 599.00422466043483 -15.760725389362051 0 0 0 0 89.321372711659933 -141.60729145246296 0 -141.60729145246296 -260.47909029028233 0 0 0 0 -509.29883659003099 -388.31395334150875 0 -388.31395334150875 -318.62626970050042 0 0 0 0 29.218346876219584 96.567737655825113 0 96.567737655825113 -14.463440943633032 0 0 0 0 -206.36298918838818 354.83071419372664 0 354.83071419372664 -283.21273557104723 0 0 0 0 -12.381034080346325 22.754651572511502 0 22.754651572511502 7.0528170651115261 0 0 0 0 64.673775875169667 835.79831865683445 0 835.79831865683445 -1033.2722690935116 0 0 0 0 307.3878086219338 -7.7681802707447787 0 -7.7681802707447787 -800.65378790482555 0 0 0 0 -31.722200181768038 54.539639472189585 0 54.539639472189585 -68.199007634319301 0 0 0 0 -694.27436494828817 677.02279450136348 0 677.02279450136348 -537.52326228716265 0 0 0 0 -224.35735908060451 701.7939865403132 0 701.7939865403132 -102.02937938747047 0 0 0 0 13.660167960744729 350.38365943221925 0 350.38365943221925 101.5837915074153 0 0 0 0 -399.17546707724978 4.4003317254064314 0 4.4003317254064314 -158.10155066306106 0 0 0 0 -63.029074213704007 281.11988639338051 0 281.11988639338051 108.15932679130162 0 0 0 0 -35.384254507083568 49.779868917104601 0 49.779868917104601 -58.597812592673208 0 0 0 0 -332.07099199789764 192.11442836146023 0 192.11442836146023 86.029705210152315 0 0 0 0 -165.35728196144919 124.7556208269898 0 124.7556208269898 28.610167260238086 0 0 0 0 -1386.339982227626 117.59751087402333 0 117.59751087402333 45.027636608232569 0 0 0 0 1115.0082241488635 749.31697075247121 0 749.31697075247121 -237.32243248813074 0 0 0 0 -6.4459986373565314 7.2149677755868709 0 7.2149677755868709 -5.2921385753957395 0 0 0 0 10.957151766990137 467.61087127960218 0 467.61087127960218 -103.87045176438119 0 0 0 0 -620.58880468329153 956.10503977245253 0 956.10503977245253 -367.77761010825088 0 0 0 0 243.14832860227034 489.70402522497443 0 489.70402522497443 -536.49362796571359 0 0 0 0 -179.19220740866081 1288.9222371105418 0 1288.9222371105418 526.94006752508358 0 0 0 0 -259.89052680858003 208.67540272664519 0 208.67540272664519 246.95637290043669 0 0 0 0 -7.1181785208894297 28.8564653141135 0 28.8564653141135 -49.659794143471196 0 0 0 0 1.1963053390936693 256.77007450605743 0 256.77007450605743 -9.6172423512545606 0 0 0 0 171.48806040268391 490.9932008865062 0 490.9932008865062 -262.54041037516072 0 0 0 0 38.042906193542876 41.820597876459217 0 41.820597876459217 -38.379154354966033 0 0 0 0 -18.712810785882809 42.274600492965284 0 42.274600492965284 -44.168447271821314 0 0 0 0 505.85445707818144 234.68055186157108 0 234.68055186157108 66.387850384055128 0 0 0 0 262.66518600414031 111.10500883043207 0 111.10500883043207 11.415858390635549 0 0 0 0 -10.470573164727192 26.319046623514261 0 26.319046623514261 -37.903171951895303 0 0 0 0 -25.937556065382523 50.031111772298118 0 50.031111772298118 -29.258368238867206 0 0 0 0 25.440111627729493 43.686606049683633 0 43.686606049683633 -41.29825701135178 0 0 0 0 -25.298903721370152 51.150116109421106 0 51.150116109421106 -29.22248787458102 0 0 0 0 -11.358278012158916 25.930254051600294 0 25.930254051600294 -22.898990848996263 0 0 0 0 -31.913435929680418 39.405142742478802 0 39.405142742478802 -19.890426022769134 0 0 0 0 475.00959595897439 177.83371889788032 0 177.83371889788032 116.356979629325 0 0 0 0 798.58956601531281 665.81878750558189 0 665.81878750558189 509.58332641813467 0 0 0 0 819.86951628472525 564.35865153665236 0 564.35865153665236 591.1495838639803 0 0 0 0 792.30515977390314 848.34770141278386 0 848.34770141278386 1289.5501056304311 0 0 0 0 536.38561016520907 251.80557630695148 0 251.80557630695148 405.24957804400765 0 0 0 0 1914.0269724379614 921.2801165678502 0 921.2801165678502 -237.43767523606948 0 0 0 0 -5.9988765568996314 1360.9812388637656 0 1360.9812388637656 1998.2393332344363 0 0 0 0 199.1781974096084 754.23009931834531 0 754.23009931834531 2352.6709266958715 0 0 0 0 -2.8584064413442434 4.6035062263147779 0 4.6035062263147779 -0.39468542742849166 0 0 0 0 -7.1055049191560755 6.5180879314569466 0 6.5180879314569466 4.3574395949823241 0 0 0 0 -227.23785845582825 608.51830511685876 0 608.51830511685876 1053.2009750536017 0 0 0 0 -576.61470945255132 -229.47943413016765 0 -229.47943413016765 88.431729582101298 0 0 0 0 -12.984830000220029 4.7492855132692107 0 4.7492855132692107 22.260499811337141 0 0 0 0 -235.90575112008446 446.3518969864117 0 446.3518969864117 55.049959551222855 0 0 0 0 590.93391436829609 1373.7565264373882 0 1373.7565264373882 1082.4215237550434 0 0 0 0 395.60418910231238 803.36226828663712 0 803.36226828663712 667.08216189310133 0 0 0 0 425.52956032426846 853.45372099455972 0 853.45372099455972 1311.3547528293911 0 0 0 0 618.73439210856668 590.77189047617776 0 590.77189047617776 812.49123970844812 0 0 0 0 -363.60587067142478 -601.40965702011454 0 -601.40965702011454 -736.5927212444949 0 0 0 0 -18.827276137588726 45.453954695301462 0 45.453954695301462 -55.953451497630496 0 0 0 0 535.28508287007935 -265.11970617312909 0 -265.11970617312909 -971.95296243495977 0 0 0 0 423.72678431557142 863.28245255799084 0 863.28245255799084 826.8933208098415 0 0 0 0 741.44085827789968 1065.1875449013223 0 1065.1875449013223 457.02719187608091 0 0 0 0 541.28517636398465 1234.822765160543 0 1234.822765160543 1140.6233516676675 0 0 0 0 -27.741441682764759 63.780360589371988 0 63.780360589371988 -58.518488324837719 0 0 0 0 -307.64067181336577 102.10806388030687 0 102.10806388030687 -869.26178770964179 0 0 0 0 -254.20425860638352 157.43077731887024 0 157.43077731887024 -869.2705498817777 0 0 0 0 -365.58290527177797 160.76743116443092 0 160.76743116443092 -828.49673426860682 0 0 0 0 -186.62620246615552 238.03773150237976 0 238.03773150237976 -610.27840408893098 0 0 0 0 -181.83093756594462 280.21385882319919 0 280.21385882319919 -772.06415279889188 0 0 0 0 -103.19757695526641 292.85673519323245 0 292.85673519323245 -727.65681892562134 0 0 0 0 -108.51194868264338 251.50711784525947 0 251.50711784525947 -690.42680120202567 0 0 0 0 17.066239607600437 273.86524977265071 0 273.86524977265071 -688.15309801447438 0 0 0 0 -101.71847113003605 226.86655867677473 0 226.86655867677473 -561.34024898028292 0 0 0 0 -90.349357201106614 174.30591639870909 0 174.30591639870909 -790.91674922973289 0 0 0 0 86.902809373714263 -241.22610536913635 0 -241.22610536913635 529.90971357841954 0 0 0 0 -51.51722124726129 69.265148992192977 0 69.265148992192977 18.786902451796397 0 0 0 0 -322.8328622159861 148.86179399456978 0 148.86179399456978 -809.15982507491572 0 0 0 0 -155.13080955644909 252.85417172592133 0 252.85417172592133 -872.88977217736829 0 0 0 0 -11.73772413192998 -2.3944556688238805 0 -2.3944556688238805 28.954672378840094 0 0 0 0 257.37075449520489 1093.4877728756092 0 1093.4877728756092 -415.45923386099093 0 0 0 0 -213.29896373974771 906.57937310726629 0 906.57937310726629 536.25063587286786 0 0 0 0 131.0881642443519 -175.02506911512728 0 -175.02506911512728 604.7717936633926 0 0 0 0 -230.32029445800435 -28.752924738344518 0 -28.752924738344518 982.31750273885518 0 0 0 0 -163.70391176401608 254.72893434319394 0 254.72893434319394 318.72522086679601 0 0 0 0 -120.94687803327724 231.41169881985616 0 231.41169881985616 208.2154764631232 0 0 0 0 -86.752341924468055 468.11313449969384 0 468.11313449969384 -153.95271390829657 0 0 0 0 -184.7235344046785 178.07097806069214 0 178.07097806069214 -190.96216255380568 0 0 0 0 -176.65889674528444 237.41589431261491 0 237.41589431261491 209.46186165999825 0 0 0 0 -127.2188684034918 190.98676888570299 0 190.98676888570299 45.931502110188376 0 0 0 0 286.94669172641807 -70.930165509834296 0 -70.930165509834296 -1582.9717372287978 0 0 0 0 -222.65200859753531 54.98191395854883 0 54.98191395854883 -327.1795018058483 0 0 0 0 -80.427087993542955 238.89473129436192 0 238.89473129436192 -190.63874763884451 0 0 0 0 -53.136658937844913 -197.95340108216988 0 -197.95340108216988 6.6767471342900535 0 0 0 0 442.15809064929635 1243.9129825607688 0 1243.9129825607688 99.96406512887279 0 0 0 0 298.00683005635801 241.39611118272296 0 241.39611118272296 373.7475202797923 0 0 0 0 -8.3440597194891097 5.211300015608515 0 5.211300015608515 -3.0532408398987556 0 0 0 0 623.02229182868905 297.33061477241154 0 297.33061477241154 -58.660555367974666 0 0 0 0 426.40757000465965 812.05039873582791 0 812.05039873582791 -1135.0106352249732 0 0 0 0 895.64381013932871 401.98359670588979 0 401.98359670588979 -728.09902660549233 0 0 0 0 920.08748946307969 621.5167471835075 0 621.5167471835075 212.46241473475311 0 0 0 0 867.21499753975513 736.52567936193191 0 736.52567936193191 -34.959714819776309 0 0 0 0 995.45029295345012 492.68768902725424 0 492.68768902725424 140.05006525926001 0 0 0 0 779.7697876492457 1195.491808541743 0 1195.491808541743 -400.29032461072211 0 0 0 0 751.69287054170854 853.20794565205233 0 853.20794565205233 280.24867122856449 0 0 0 0 693.54234039927542 766.97405993390203 0 766.97405993390203 475.15812830070354 0 0 0 0 181.56848183312104 419.04179385517818 0 419.04179385517818 1352.0882273774309 0 0 0 0 381.87557427099819 1257.3849901294234 0 1257.3849901294234 1235.0962753263484 0 0 0 0 655.41087157910079 647.57352977543087 0 647.57352977543087 210.28587720681389 0 0 0 0 -37.206889061341386 -14.745075448785283 0 -14.745075448785283 223.10101355257029 0 0 0 0 -11.519388280380227 6.3503834120633798 0 6.3503834120633798 -0.19888728444984594 0 0 0 0 -75.010674407356419 -14.439596662879012 0 -14.439596662879012 194.34264835030444 0 0 0 0 -37.138317678065505 -40.090681154004869 0 -40.090681154004869 78.633722482056783 0 0 0 0 -0.99486667978635523 -27.392954185334929 0 -27.392954185334929 -9.2168107512115967 0 0 0 0 -7.313558726255792 36.390804536549155 0 36.390804536549155 39.582803968200821 0 0 0 0 -4.5765822322937311 -25.101540655118129 0 -25.101540655118129 220.9342860653303 0 0 0 0 -286.31448912301857 401.40382543423038 0 401.40382543423038 -475.30884438377689 0 0 0 0 -58.730689019898364 68.524842805678531 0 68.524842805678531 -17.569424452472134 0 0 0 0 -296.26634031702633 445.49463841647503 0 445.49463841647503 -284.30263117002323 0 0 0 0 -148.94303821519134 446.9440033046194 0 446.9440033046194 -652.49238659183902 0 0 0 0 -39.411340669828519 54.022305828593318 0 54.022305828593318 28.845588785166811 0 0 0 0 -343.37755709647899 152.56895133442231 0 152.56895133442231 110.16232786060573 0 0 0 0 -23.459253227876616 41.707042845300748 0 41.707042845300748 -41.154617399937706 0 0 0 0 -27.801099817919976 25.64332598334779 0 25.64332598334779 36.612451793775286 0 0 0 0 -163.04843543304014 116.98387825310783 0 116.98387825310783 -225.99159286059876 0 0 0 0 -49.095743137717363 315.12876719458291 0 315.12876719458291 -670.3900866572294 0 0 0 0 -410.66443225563853 551.75836666217947 0 551.75836666217947 -577.32593086607812 0 0 0 0 -51.866538483518525 280.69331690887338 0 280.69331690887338 -915.82163137941825 0 0 0 0 -164.92296376808372 744.71813938382547 0 744.71813938382547 -1366.3256128475186 0 0 0 0 -283.76034619130951 493.61963512015063 0 493.61963512015063 -573.52261324795836 0 0 0 0 22.694751539063873 180.92601533348716 0 180.92601533348716 248.9822542248221 0 0 0 0 0.37717253989831079 164.36187550968134 0 164.36187550968134 238.4838166478421 0 0 0 0 -7.7654762306279963 13.472015197043373 0 13.472015197043373 -16.89887563571515 0 0 0 0 -12.30971164679795 32.441881920623018 0 32.441881920623018 -43.712162179265306 0 0 0 0 -5.593617909886234 174.54733816460976 0 174.54733816460976 297.70333470379228 0 0 0 0 -33.057870760152582 239.11025285587675 0 239.11025285587675 -296.64655071835932 0 0 0 0 -178.85080894344719 362.32649964678421 0 362.32649964678421 -494.55261904394138 0 0 0 0 -58.21292956961463 71.172413972441461 0 71.172413972441461 40.218360149869319 0 0 0 0 -54.551585949811852 132.36181216546174 0 132.36181216546174 237.64156962784 0 0 0 0 -36.985353780182777 129.11071911018007 0 129.11071911018007 232.1145981474765 0 0 0 0 -53.16658780144644 140.07769049447415 0 140.07769049447415 233.88468482363896 0 0 0 0 -81.9523911724973 134.88185112986321 0 134.88185112986321 239.96424560112428 0 0 0 0 -80.417864875736996 133.57463847990584 0 133.57463847990584 230.26998134806854 0 0 0 0 -89.950195301673375 131.10314598943296 0 131.10314598943296 236.25891242878242 0 0 0 0 -11.886676510112011 70.857506346249465 0 70.857506346249465 205.16512971643169 0 0 0 0 -45.167151536761594 228.18644600656671 0 228.18644600656671 -533.28590601266478 0 0 0 0 -68.92698307124374 392.5793476959152 0 392.5793476959152 -255.68344253442774 0 0 0 0 -46.219272458503838 353.43685069667845 0 353.43685069667845 -601.85998518436099 0 0 0 0 -86.60712806173251 177.69022152808839 0 177.69022152808839 -628.01848057335883 0 0 0 0 86.275349375682708 321.72400162933991 0 321.72400162933991 -603.80570165644895 0 0 0 0 -36.355982106702868 265.42541532995165 0 265.42541532995165 -496.07870803533115 0 0 0 0 30.257178449901403 256.91930048516952 0 256.91930048516952 -869.77813492009773 0 0 0 0 -190.93294059384789 82.362742055382114 0 82.362742055382114 479.65802223634728 0 0 0 0 -55.862544379710812 73.356221198508067 0 73.356221198508067 27.611947531607264 0 0 0 0 -205.25321777965291 202.43973637615272 0 202.43973637615272 431.43261408858143 0 0 0 0 -49.69575383796473 38.578508030040211 0 38.578508030040211 281.113738470518 0 0 0 0 -88.222308161586625 85.105603892498493 0 85.105603892498493 317.47711476971017 0 0 0 0 -135.71526774099038 206.88490924757207 0 206.88490924757207 211.92293571498703 0 0 0 0 -113.55901115540473 192.34557692680573 0 192.34557692680573 101.69245192307426 0 0 0 0 -116.84743180507212 147.66589095931886 0 147.66589095931886 237.47235997168173 0 0 0 0 -126.3935070209991 162.88481441700606 0 162.88481441700606 270.43963899318078 0 0 0 0 -79.988166170522163 157.69384037811415 0 157.69384037811415 161.04877855403902 0 0 0 0 -72.1809398944024 142.16705894894767 0 142.16705894894767 162.02357070386279 0 0 0 0 -80.262035758860293 194.4218609256568 0 194.4218609256568 25.611041797312282 0 0 0 0 -72.788055191929743 170.0313200893479 0 170.0313200893479 39.592097344095237 0 0 0 0 -146.27248130654334 306.42132391480618 0 306.42132391480618 39.044065865185985 0 0 0 0 -68.664055885499693 157.13051257620464 0 157.13051257620464 -129.50330073575242 0 0 0 0 -24.70497299085298 19.211271377693116 0 19.211271377693116 3.9194915013088334 0 0 0 0 -4.5897004448997905 67.587186919197848 0 67.587186919197848 -369.64109442534209 0 0 0 0 -39.514844871966488 88.692248603000735 0 88.692248603000735 -55.270163579945802 0 0 0 0 -46.568095251903287 70.637802577948605 0 70.637802577948605 -88.326746490987716 0 0 0 0 -14.950680682304665 120.5275178625925 0 120.5275178625925 -121.3789682808092 0 0 0 0 23.6446153232489 41.247890196251973 0 41.247890196251973 17.83240434417845 0 0 0 0 43.604780018911697 38.766718223381986 0 38.766718223381986 159.29598061452828 0 0 0 0 36.866457110045303 90.529014723745604 0 90.529014723745604 -108.0398919293275 0 0 0 0 5.479921425707289 301.34600876523746 0 301.34600876523746 220.65170895999745 0 0 0 0 59.37498794257408 29.413636758945358 0 29.413636758945358 -87.95339910281109 0 0 0 0 -12.409524245603279 141.37675308767234 0 141.37675308767234 -55.466553821912385 0 0 0 0 15.774046670238022 97.402061871034675 0 97.402061871034675 -47.873613017074604 0 0 0 0 4.6834376050355786 39.659838719864069 0 39.659838719864069 63.413394540169975 0 0 0 0 13.645833168578974 74.984183570054483 0 74.984183570054483 65.852226826864353 0 0 0 0 -31.369380171498051 96.866777171131616 0 96.866777171131616 154.74943457688278 0 0 0 0 -54.083029744302621 159.17757352708031 0 159.17757352708031 56.254388984421894 0 0 0 0 -11.186221096708323 98.40428799779329 0 98.40428799779329 56.446251442168432 0 0 0 0 -11.434163287180127 102.8529888554749 0 102.8529888554749 14.485385388310533 0 0 0 0 -28.77068921449245 103.46633733119961 0 103.46633733119961 55.083314175239138 0 0 0 0 -50.955986178443709 134.2049949598877 0 134.2049949598877 162.26682920032181 0 0 0 0 -84.082932604920643 143.8816216090263 0 143.8816216090263 228.59225917594085 0 0 0 0 -65.589182363211876 123.58231795414758 0 123.58231795414758 167.19866562965763 0 0 0 0 -67.207301299029496 117.73884665086371 0 117.73884665086371 236.48711519622316 0 0 0 0 -34.975340623767806 90.06405310001378 0 90.06405310001378 158.87510632941849 0 0 0 0 -34.817267878941038 85.095636294272026 0 85.095636294272026 308.38001490607894 0 0 0 0 45.664256625605049 13.628142195801047 0 13.628142195801047 186.36098914818285 0 0 0 0 86.692204522427346 153.65503190034087 0 153.65503190034087 139.75920734950341 0 0 0 0 108.28494606382083 73.640934532139909 0 73.640934532139909 99.546167022519512 0 0 0 0 10.756220009647222 85.177021815623903 0 85.177021815623903 108.5333752065053 0 0 0 0 4.3408730894725522 51.881319234445868 0 51.881319234445868 102.35593925580906 0 0 0 0 11.005268782842904 -9.6306853660535126 0 -9.6306853660535126 -22.532850508825504 0 0 0 0 277.0380178084597 134.85554827496435 0 134.85554827496435 -320.29405237140509 0 0 0 0 2.6026914185780186 -0.61126194515515664 0 -0.61126194515515664 -10.285462317205329 0 0 0 0 -27.350781837827526 387.09924650611106 0 387.09924650611106 -457.83093844912401 0 0 0 0 -74.8769766149926 316.23553433667246 0 316.23553433667246 -639.07493309199765 0 0 0 0 -133.3691739855858 56.601969461213912 0 56.601969461213912 -88.826768976633787 0 0 0 0 -36.722907643095823 45.032912524760832 0 45.032912524760832 114.05527699714548 0 0 0 0 -8.1000365409563528 105.69751921870329 0 105.69751921870329 123.31833920331701 0 0 0 0 -5.0127253531618692 7.4389595333552343 0 7.4389595333552343 12.504953722109175 0 0 0 0 -203.64203437132528 354.49200416622921 0 354.49200416622921 -366.22901639034581 0 0 0 0 42.389282684322097 446.37108426372561 0 446.37108426372561 -371.80828614300651 0 0 0 0 21.590293284029656 33.204768799103263 0 33.204768799103263 24.186792749090081 0 0 0 0 -428.03785753529519 336.97635625818748 0 336.97635625818748 104.43314138689857 0 0 0 0 -284.79872897415771 287.82963642943832 0 287.82963642943832 93.557814484620849 0 0 0 0 -195.78276608910528 112.38367949134681 0 112.38367949134681 121.15401231355304 0 0 0 0 -361.62913497829504 164.1800031360234 0 164.1800031360234 128.75118387819111 0 0 0 0 24.21879345815978 127.99000658371006 0 127.99000658371006 132.09872340212314 0 0 0 0 -9.698579043004429 19.263770361811112 0 19.263770361811112 202.77123299711047 0 0 0 0 -4.5797681370459031 118.57492250927498 0 118.57492250927498 318.53551022781994 0 0 0 0 -21.492710242389876 57.125047542409902 0 57.125047542409902 124.54631704456551 0 0 0 0 -92.289198387465149 97.692386161904778 0 97.692386161904778 135.93692361365902 0 0 0 0 31.062405987172312 44.351545418066664 0 44.351545418066664 28.59310841163764 0 0 0 0 58.413552242607693 -88.508570357634198 0 -88.508570357634198 -143.13755654844135 0 0 0 0 -87.076452394001535 164.83036331911899 0 164.83036331911899 171.47785788581677 0 0 0 0 -303.93668633206107 128.88149236306253 0 128.88149236306253 612.27648180914957 0 0 0 0 -77.704153559265109 9.7062252290209337 0 9.7062252290209337 6.8586487741617645 0 0 0 0 95.787021725467639 -3.5011087582097389 0 -3.5011087582097389 546.33564963933122 0 0 0 0 -103.59487964914297 346.11425997635979 0 346.11425997635979 443.22286850673663 0 0 0 0 -345.47037408956385 -72.950781997185004 0 -72.950781997185004 545.61086479048026 0 0 0 0 -10.90523920024134 172.47144926024157 0 172.47144926024157 69.453400544683973 0 0 0 0 -31.859192952271769 43.025037242996859 0 43.025037242996859 236.04111858714168 0 0 0 0 165.93534204771277 -147.68341273690476 0 -147.68341273690476 -95.190603621196487 0 0 0 0 -36.267359810644848 93.344373753640866 0 93.344373753640866 1.6875406977487728 0 0 0 0 -36.406869169324636 151.00722465310446 0 151.00722465310446 -28.365799709816656 0 0 0 0 -37.281728911926621 101.47496298910846 0 101.47496298910846 127.93887559793075 0 0 0 0 -182.52828591525031 235.95368645215149 0 235.95368645215149 84.493694296936155 0 0 0 0 -59.923397894966911 92.388393189397448 0 92.388393189397448 55.725908227570471 0 0 0 0 -109.58643927499361 94.385445774587424 0 94.385445774587424 363.95739491203858 0 0 0 0 -122.04365203865746 73.531855591892963 0 73.531855591892963 355.05923655769402 0 0 0 0 -59.041169679625625 1.8916197632381611 0 1.8916197632381611 9.9430934258424166 0 0 0 0 -142.66474349996133 166.61063269013903 0 166.61063269013903 267.32961003549462 0 0 0 0 -127.65067793290518 64.054332704132662 0 64.054332704132662 367.94324945298467 0 0 0 0 9.4792133306492019 14.880822693861607 0 14.880822693861607 5.090387025639 0 0 0 0 -5.9856514628336299 14.76694622770674 0 14.76694622770674 419.72458650214321 0 0 0 0 15.161290258351073 23.267936861849194 0 23.267936861849194 343.10690179776611 0 0 0 0 25.192455190663168 62.752231044026303 0 62.752231044026303 243.97200741354027 0 0 0 0 -80.547926233877661 204.1574286277355 0 204.1574286277355 245.06811552483396 0 0 0 0 319.09397076604364 303.51847141480721 0 303.51847141480721 54.331770577151474 0 0 0 0 17.69432513337037 7.1012123986641722 0 7.1012123986641722 0.97807690378864898 0 0 0 0 765.81415267281409 225.41998802594026 0 225.41998802594026 -1041.0058616119677 0 0 0 0 -99.947112269037461 -105.48945210566853 0 -105.48945210566853 -321.14753769299205 0 0 0 0 268.78743982595915 581.90404458284138 0 581.90404458284138 773.89516271184766 0 0 0 0 364.8419845129356 996.65751344829823 0 996.65751344829823 1564.6327753770984 0 0 0 0 339.88521777967253 -144.99435532763363 0 -144.99435532763363 -6.5060319669355522 0 0 0 0 44.957070708820538 1.9229930905567016 0 1.9229930905567016 -31.473558238714077 0 0 0 0 43.734170495921148 19.438589230511184 0 19.438589230511184 3.8277648223220204 0 0 0 0 -43.472984539006575 300.29156185144893 0 300.29156185144893 -335.33186770289467 0 0 0 0 -329.22932939854218 224.96680758993352 0 224.96680758993352 12.183342195639398 0 0 0 0 4.7404144091124181 127.21492164603478 0 127.21492164603478 -154.55538306628841 0 0 0 0 10.024379440753449 7.0087171096788694 0 7.0087171096788694 7.9178080367718096 0 0 0 0 -278.12358526985918 637.7961234360946 0 637.7961234360946 -572.32337108495994 0 0 0 0 -244.87626728452869 330.02495578632823 0 330.02495578632823 -527.20338685166826 0 0 0 0 31.505751173142926 420.01938889341727 0 420.01938889341727 -503.44122473409334 0 0 0 0 -44.43127747613471 95.108807950599385 0 95.108807950599385 126.55709409260271 0 0 0 0 -5.9202629621614733 13.145776253452389 0 13.145776253452389 4.5526906215614087 0 0 0 0 -73.034592055264511 469.50048874628419 0 469.50048874628419 -954.95504790838368 0 0 0 0 48.67741171954161 39.452018400402864 0 39.452018400402864 19.572933449722996 0 0 0 0 761.67428999122785 584.07513309752358 0 584.07513309752358 414.1982585712376 0 0 0 0 769.77942629599602 627.89906366921377 0 627.89906366921377 413.2654193231283 0 0 0 0 697.28292632901866 666.53940681208041 0 666.53940681208041 356.76904912986356 0 0 0 0 754.55216967761226 608.7846669175633 0 608.7846669175633 414.99020745361122 0 0 0 0 726.29785944691685 589.28228934761137 0 589.28228934761137 413.45492584493059 0 0 0 0 68.887187765340059 78.37448236993805 0 78.37448236993805 -25.502283357608803 0 0 0 0 -217.23568856397469 59.212310028327011 0 59.212310028327011 14.245148898128264 0 0 0 0 889.44173346506432 703.45376854090409 0 703.45376854090409 524.98608786846853 0 0 0 0 -16.644725787075018 19.021300891595757 0 19.021300891595757 -15.581805614780514 0 0 0 0 633.19225060327881 798.05597376404694 0 798.05597376404694 490.54843557276945 0 0 0 0 727.09985416132258 601.67381948480897 0 601.67381948480897 717.40844288144945 0 0 0 0 537.2932603078516 122.86384453943901 0 122.86384453943901 -305.62009805304479 0 0 0 0 961.55600512665569 801.89114249250338 0 801.89114249250338 652.74921971751246 0 0 0 0 980.75420246781141 512.02089161364347 0 512.02089161364347 547.83356749255472 0 0 0 0 239.79145064954355 478.2975157582041 0 478.2975157582041 1498.8453801770784 0 0 0 0 5.8166718561350876 1.3818699271930495 0 1.3818699271930495 0.89580036569574517 0 0 0 0 37.516757037199568 74.531645296156057 0 74.531645296156057 719.83381418951831 0 0 0 0 81.935162042223965 -45.632812985340934 0 -45.632812985340934 455.06005770768024 0 0 0 0 210.48635326963267 256.16124216808385 0 256.16124216808385 445.7036097453734 0 0 0 0 192.80914784655033 394.19481348557201 0 394.19481348557201 765.03272185558535 0 0 0 0 665.65665768124018 429.49631464258528 0 429.49631464258528 211.83028422768257 0 0 0 0 797.93903023321764 562.32125441474091 0 562.32125441474091 231.6697292556189 0 0 0 0 465.83047999570044 147.257262096261 0 147.257262096261 -240.39650260755661 0 0 0 0 801.08758826267149 563.06355089186582 0 563.06355089186582 533.77442453503772 0 0 0 0 744.09151674219174 606.22061276115346 0 606.22061276115346 578.11598515110563 0 0 0 0 935.30648483898403 625.62920473776285 0 625.62920473776285 257.61895300428296 0 0 0 0 933.17302670644131 685.00334184021449 0 685.00334184021449 267.07093223345419 0 0 0 0 876.78731989675725 568.1766417098579 0 568.1766417098579 26.106922255647078 0 0 0 0 830.10172819033141 754.49366422290996 0 754.49366422290996 252.52627345686051 0 0 0 0 846.83984269767825 666.15450198527287 0 666.15450198527287 300.15143355430337 0 0 0 0 696.98889151784533 860.78979213918137 0 860.78979213918137 295.8431085712964 0 0 0 0 706.17675236340438 723.05924022061663 0 723.05924022061663 291.40830968718228 0 0 0 0 535.35793938850838 651.22186866397533 0 651.22186866397533 300.53285471000709 0 0 0 0 758.05309194933943 804.32609297293584 0 804.32609297293584 230.25561080777697 0 0 0 0 1296.9847892130201 1064.6186069603755 0 1064.6186069603755 -28.556274321431147 0 0 0 0 294.03470106811437 565.9011906434971 0 565.9011906434971 1439.4646259663368 0 0 0 0 885.48858787148492 1229.8143548685653 0 1229.8143548685653 860.40595444339488 0 0 0 0 423.22957441562903 616.05316857303842 0 616.05316857303842 624.7175727082431 0 0 0 0 193.948015330403 537.48363087200596 0 537.48363087200596 705.56651420575508 0 0 0 0 600.9808437038082 864.52286933712139 0 864.52286933712139 532.03713265465194 0 0 0 0 251.91464182471827 310.4951923290073 0 310.4951923290073 370.81855221228034 0 0 0 0 1156.4994343740182 754.88023468329993 0 754.88023468329993 -446.15287382080942 0 0 0 0 1604.6144266166921 518.97723188918462 0 518.97723188918462 -11.204164068160026 0 0 0 0 998.86639105791255 1398.2346222710912 0 1398.2346222710912 740.24101726336448 0 0 0 0 -48.399981010908959 28.970492726823068 0 28.970492726823068 -121.81119544141359 0 0 0 0 50.271563616592175 45.758729805676765 0 45.758729805676765 -103.61052926074083 0 0 0 0 -96.040108882385539 586.6855339854078 0 586.6855339854078 707.71037164540758 0 0 0 0 844.67784191614192 -81.063294972933363 0 -81.063294972933363 827.00455440954829 0 0 0 0 740.48431180590705 244.74621623128951 0 244.74621623128951 -101.04228754806172 0 0 0 0 177.92709672338242 -236.80097280691371 0 -236.80097280691371 145.52910588229679 0 0 0 0 364.32034192260562 868.44886427963797 0 868.44886427963797 194.41562594740753 0 0 0 0 771.61758693301817 -836.23835410768152 0 -836.23835410768152 -800.75323066237615 0 0 0 0 1.8712344407388599 2.090731111290026 0 2.090731111290026 -10.59488111711368 0 0 0 0 4.6362297150154781 86.614085257997331 0 86.614085257997331 8.5593318401723053 0 0 0 0 8.6570990203684417 21.964223214381896 0 21.964223214381896 9.2359017515693829 0 0 0 0 26.674889214729774 8.8764775700833525 0 8.8764775700833525 -123.24848475970674 0 0 0 0 0.92766182743929804 36.326025479467667 0 36.326025479467667 -27.908738034841921 0 0 0 0 3.188234136973918 12.926153285950917 0 12.926153285950917 -27.594660350345883 0 0 0 0 721.5542200810014 629.99669703587642 0 629.99669703587642 349.94833064391423 0 0 0 0 60.301284976419993 145.56039572542863 0 145.56039572542863 82.780508289146383 0 0 0 0 -23.274322925368324 5.4797986389635298 0 5.4797986389635298 30.018579519319246 0 0 0 0 19.163311941001666 182.87401907122785 0 182.87401907122785 543.36824715347029 0 0 0 0 -23.311180183647394 28.958026079163737 0 28.958026079163737 -25.510652438272764 0 0 0 0 444.86525205595535 264.19200778841332 0 264.19200778841332 134.20811380587111 0 0 0 0 529.03444281162228 553.37691571840878 0 553.37691571840878 200.04234557585733 0 0 0 0 636.70177505264292 498.32988240440318 0 498.32988240440318 60.334920091820095 0 0 0 0 552.38502413223614 619.56761549472139 0 619.56761549472139 352.10225423758948 0 0 0 0 150.97486196828686 92.471609572220586 0 92.471609572220586 -103.24952283385483 0 0 0 0 28.126978950051125 165.24145490168416 0 165.24145490168416 56.79640793794897 0 0 0 0 749.39888311888353 663.64796463884522 0 663.64796463884522 336.87210310440423 0 0 0 0 679.21942473275703 669.54616733808507 0 669.54616733808507 261.08608603134053 0 0 0 0 607.3306683798728 699.22650711117603 0 699.22650711117603 332.02834577269095 0 0 0 0 715.51778405438381 594.19772270429166 0 594.19772270429166 168.0270289612381 0 0 0 0 -16.826557795857291 50.249698054823241 0 50.249698054823241 -58.540998842065413 0 0 0 0 -1.5086711290059611 119.63821831325822 0 119.63821831325822 110.25569976287761 0 0 0 0 -33.594201985586551 60.993570481318329 0 60.993570481318329 94.754187628876934 0 0 0 0 13.388914234675212 140.76152290203072 0 140.76152290203072 33.598697934747179 0 0 0 0 36.54418832326337 100.61279205879237 0 100.61279205879237 1.9968845323255664 0 0 0 0 83.487307047849754 -22.31169121756102 0 -22.31169121756102 -29.451870460150531 0 0 0 0 15.718611753097989 15.695957039036188 0 15.695957039036188 -10.451430881517567 0 0 0 0 -327.01074834767496 501.45394282607595 0 501.45394282607595 -231.11905655395822 0 0 0 0 2.9439160829302438 96.8415578973609 0 96.8415578973609 -50.344349131969075 0 0 0 0 -68.843342276209114 247.68248504850817 0 247.68248504850817 52.699252305203117 0 0 0 0 42.092126576425926 66.826650367554066 0 66.826650367554066 41.345884981477866 0 0 0 0 67.028562630984879 253.34498352672199 0 253.34498352672199 -195.3705420117185 0 0 0 0 163.36537841038808 56.601871384049446 0 56.601871384049446 -30.006112462069723 0 0 0 0 23.679769822612688 57.658808604120992 0 57.658808604120992 6.6707599683088006 0 0 0 0 94.613801298095495 75.884579121026036 0 75.884579121026036 5.39571863799938 0 0 0 0 67.242451481074568 41.672101707570555 0 41.672101707570555 -40.349336326346162 0 0 0 0 6.4951623541076131 65.590769444156535 0 65.590769444156535 44.898375531438319 0 0 0 0 18.509324742787889 66.769197477685381 0 66.769197477685381 -7.8282922371811026 0 0 0 0 66.473291836722638 111.0950722481939 0 111.0950722481939 3.8799808134463092 0 0 0 0 89.159219159180793 112.3532094199727 0 112.3532094199727 -11.038249493125477 0 0 0 0 105.95721943986064 176.92990464127524 0 176.92990464127524 62.669354534460581 0 0 0 0 46.511936581770328 72.033670218523696 0 72.033670218523696 -26.155359987109676 0 0 0 0 70.249057433451526 103.89533871383173 0 103.89533871383173 -0.75546252417552751 0 0 0 0 55.597293362002048 89.929807707633017 0 89.929807707633017 -63.974756555916827 0 0 0 0 -747.79201820465823 507.54519463542238 0 507.54519463542238 382.09438134076299 0 0 0 0 62.44933032260127 78.142956778277934 0 78.142956778277934 -66.007679398722104 0 0 0 0 131.74693582380132 146.56126506614601 0 146.56126506614601 25.902747027954319 0 0 0 0 473.78112777560455 152.71676388292508 0 152.71676388292508 -278.05348312161368 0 0 0 0 774.73188635284168 815.13488627540755 0 815.13488627540755 262.17049093004607 0 0 0 0 47.596440535568178 80.047000016899858 0 80.047000016899858 -51.776627247676061 0 0 0 0 306.15973846971792 687.46449427301991 0 687.46449427301991 634.60687994968976 0 0 0 0 92.131225051025467 288.65472312903103 0 288.65472312903103 375.92139643711562 0 0 0 0 69.24213755911569 191.26818480288603 0 191.26818480288603 151.66921721766994 0 0 0 0 83.475752394384472 133.04606652294751 0 133.04606652294751 143.85078107436857 0 0 0 0 -2.548653625837261 14.750638109513687 0 14.750638109513687 -6.0253128405557561 0 0 0 0 8.1358764472824987 -12.334079280662991 0 -12.334079280662991 78.63935111968749 0 0 0 0 1.7782117635790513 10.12503667242936 0 10.12503667242936 -18.195170038211614 0 0 0 0 79.493679974049883 -27.67354488383171 0 -27.67354488383171 5.7304774221411208 0 0 0 0 -83.896855090468307 6.0776586988577037 0 6.0776586988577037 60.578436603333103 0 0 0 0 47.604126407146396 -10.922003446921735 0 -10.922003446921735 -44.625747543483158 0 0 0 0 -193.62634928134503 166.66622229483619 0 166.66622229483619 -88.501359601141303 0 0 0 0 -155.62112678511039 273.62344847134045 0 273.62344847134045 -137.73584217304597 0 0 0 0 -127.29219448585354 120.0885106341957 0 120.0885106341957 -57.460736682143761 0 0 0 0 -901.22145816714328 232.84248782847135 0 232.84248782847135 74.282608660440019 0 0 0 0 -358.23975284594053 128.67502387586137 0 128.67502387586137 72.721833401519689 0 0 0 0 -0.78776498453334654 3.5727639535853228 0 3.5727639535853228 -19.63116343420964 0 0 0 0 248.50974272231178 141.90140060415979 0 141.90140060415979 1.6016339595298632 0 0 0 0 166.08926885618712 62.131791897521907 0 62.131791897521907 -199.96211340991431 0 0 0 0 32.115733348982758 114.34688834446933 0 114.34688834446933 19.402149215080726 0 0 0 0 202.97015774026886 13.473354611896866 0 13.473354611896866 -38.450509505782975 0 0 0 0 17.13523846579313 52.119557234874733 0 52.119557234874733 2.6769956080909481 0 0 0 0 119.84288306526469 52.222949810693535 0 52.222949810693535 30.280546681598935 0 0 0 0 143.98866004240335 34.700027560113085 0 34.700027560113085 15.130621022697596 0 0 0 0 142.54037068408616 88.001863226072601 0 88.001863226072601 -22.410596067267761 0 0 0 0 311.84897630910564 325.07116138433594 0 325.07116138433594 1583.5565414993362 0 0 0 0 557.68533793563256 752.71151744546296 0 752.71151744546296 579.70623999631789 0 0 0 0 244.18189697457274 250.21505389942467 0 250.21505389942467 155.259515720325 0 0 0 0 205.58308066853351 239.30043172212299 0 239.30043172212299 -23.667162166935668 0 0 0 0 -150.71115305253988 172.43477894721173 0 172.43477894721173 -35.42436528059261 0 0 0 0 327.18094437678519 543.36557832951894 0 543.36557832951894 171.8139348483237 0 0 0 0 13.83564437199675 236.16569675563187 0 236.16569675563187 346.91119705856727 0 0 0 0 -673.18129183933343 329.40182824196927 0 329.40182824196927 541.54310689471458 0 0 0 0 -93.578726453793934 325.39348403959411 0 325.39348403959411 -580.06544586025257 0 0 0 0 -164.80858647249261 352.29031006315563 0 352.29031006315563 119.1035105668816 0 0 0 0 -169.95957591452316 1052.6132148650231 0 1052.6132148650231 1569.3374602862241 0 0 0 0 149.79551908377317 116.9792178997762 0 116.9792178997762 -74.732353434680761 0 0 0 0 363.65948632342042 1048.4688654426463 0 1048.4688654426463 1167.4139514359572 0 0 0 0 -470.7214033062337 747.48663615091391 0 747.48663615091391 1148.2150495407914 0 0 0 0 622.46791254717391 873.50169841724164 0 873.50169841724164 1054.8643470035677 0 0 0 0 -564.53503662886851 1158.9727972633777 0 1158.9727972633777 1011.4153577889883 0 0 0 0 -2.2074655572867385 2.4767348244884175 0 2.4767348244884175 9.2440420469580289 0 0 0 0 1266.0171512043453 436.06715755703772 0 436.06715755703772 138.92525712732368 0 0 0 0 896.60138575301244 1096.4162305254918 0 1096.4162305254918 653.85833454644307 0 0 0 0 706.77440682858287 928.23098032310372 0 928.23098032310372 521.80223118265803 0 0 0 0 706.84510933184356 558.19419963074142 0 558.19419963074142 384.44066572766496 0 0 0 0 -43.729550839300458 65.440844637178969 0 65.440844637178969 3.4477420066424713 0 0 0 0 157.48044314896384 117.86645640081815 0 117.86645640081815 -101.60507437029842 0 0 0 0 408.34288047469454 385.15258785517653 0 385.15258785517653 131.77653281864696 0 0 0 0 647.25911179664035 209.84036944990294 0 209.84036944990294 1192.1678249949655 0 0 0 0 23.611016510927584 -82.528336525108898 0 -82.528336525108898 503.26444892531072 0 0 0 0 -1.6130785404779999 3.7795413599124998 0 3.7795413599124998 -4.2320038428394184 0 0 0 0 -75.77437980434479 156.95456091801316 0 156.95456091801316 -266.70924529313925 0 0 0 0 -85.07792014972074 327.22864438466786 0 327.22864438466786 -276.88583944999664 0 0 0 0 -169.36023678946367 404.10936024105467 0 404.10936024105467 -14.918367123194912 0 0 0 0 -498.34488547830188 428.56504596771447 0 428.56504596771447 32.864329463482136 0 0 0 0 -200.79533313230786 348.18836793043738 0 348.18836793043738 -117.45841038223443 0 0 0 0 -178.40057313072612 452.4880988140867 0 452.4880988140867 80.583460841735359 0 0 0 0 -177.60181124704104 388.3879203206161 0 388.3879203206161 -64.987127738990239 0 0 0 0 -131.97087131325679 413.29446423455374 0 413.29446423455374 -193.51150114036136 0 0 0 0 -53.537536576784987 105.08739131459879 0 105.08739131459879 244.60066354813171 0 0 0 0 464.83776449377183 393.53520513950207 0 393.53520513950207 -138.34671626506315 0 0 0 0 344.40063008725701 7.8342448306866572 0 7.8342448306866572 -98.671981292145574 0 0 0 0 406.99042503040982 783.55474461770427 0 783.55474461770427 276.12374172559794 0 0 0 0 -191.65890660660807 94.150339804997202 0 94.150339804997202 491.72128435692866 0 0 0 0 91.019706925620085 659.77058937633092 0 659.77058937633092 -906.77895543939667 0 0 0 0 215.73959156408819 352.83712586682668 0 352.83712586682668 -164.44923845797894 0 0 0 0 -66.061896118171376 45.721879319277704 0 45.721879319277704 -39.006068580447504 0 0 0 0 189.91752435150556 677.45373739737261 0 677.45373739737261 -262.90669389268442 0 0 0 0 464.51194940177083 213.96328869038553 0 213.96328869038553 -508.35018827797467 0 0 0 0 -379.72023177609663 267.44745335145126 0 267.44745335145126 152.74094100331422 0 0 0 0 589.73610544970143 379.96984457373765 0 379.96984457373765 -65.606635629701486 0 0 0 0 -62.461094929765011 51.922884160254057 0 51.922884160254057 -29.257252781094252 0 0 0 0 69.353568717226153 481.44731748177946 0 481.44731748177946 809.69143725086906 0 0 0 0 478.96234147048381 884.98547897702883 0 884.98547897702883 755.33835062922344 0 0 0 0 487.87868226660066 90.192818728166458 0 90.192818728166458 -403.06346232640499 0 0 0 0 311.95372312696418 1084.5887141836829 0 1084.5887141836829 1555.7592063828779 0 0 0 0 1218.1620586338395 237.37621176362154 0 237.37621176362154 -22.546850790327881 0 0 0 0 1453.0372552647605 -93.020938261848642 0 -93.020938261848642 419.71670959336916 0 0 0 0 1482.9492939811025 515.96263360887679 0 515.96263360887679 85.685383271280443 0 0 0 0 965.51177418400766 -155.84826441150653 0 -155.84826441150653 1092.6307627418137 0 0 0 0 703.39901536948673 -46.382640853975317 0 -46.382640853975317 -32.733864666050067 0 0 0 0 832.70055265587871 560.35680798398971 0 560.35680798398971 129.09360552253929 0 0 0 0 134.05037031599628 111.00184956848366 0 111.00184956848366 -73.508249342260285 0 0 0 0 266.20512053554557 707.43149617805193 0 707.43149617805193 2388.4518850539062 0 0 0 0 649.8315884918411 -263.89582973809229 0 -263.89582973809229 -1156.5102580706443 0 0 0 0 379.09423635143321 615.97342445797403 0 615.97342445797403 40.733443372882903 0 0 0 0 -160.12279576106812 -202.60572607171343 0 -202.60572607171343 -175.49123131701344 0 0 0 0 1099.593398828365 179.3772773926612 0 179.3772773926612 -70.100391297135502 0 0 0 0 741.94314859920996 35.241105885143043 0 35.241105885143043 -123.27982972742393 0 0 0 0 46.513004297613946 44.223793659757405 0 44.223793659757405 -19.616162155066775 0 0 0 0 362.2526749480312 -208.92225646147745 0 -208.92225646147745 154.03084184392719 0 0 0 0 1105.9347548260994 51.482282948796637 0 51.482282948796637 111.84154815421789 0 0 0 0 3227.6973792215831 876.8650768368891 0 876.8650768368891 424.82938478889992 0 0 0 0 3263.1479841693072 122.06400833422958 0 122.06400833422958 -34.693160271461238 0 0 0 0 -9.2766011504450603 8.8231002909790845 0 8.8231002909790845 -2.1286683944989875 0 0 0 0 19.913436999339979 4.699027939957098 0 4.699027939957098 -16.578176457483266 0 0 0 0 1048.2856875644648 799.3585880080791 0 799.3585880080791 1618.6018178744416 0 0 0 0 -17.623784810930374 -54.644151069696818 0 -54.644151069696818 -58.943826738315693 0 0 0 0 -295.8029546187754 265.21929482715495 0 265.21929482715495 1.4258689760627021 0 0 0 0 -63.799615161013207 -24.789269501681702 0 -24.789269501681702 78.676072021873551 0 0 0 0 315.04213207069552 138.58250236665481 0 138.58250236665481 -167.30115930803004 0 0 0 0 253.60853910993319 68.893389596916677 0 68.893389596916677 95.401715344834884 0 0 0 0 554.07317312924715 251.29694585082689 0 251.29694585082689 -17.431204248394351 0 0 0 0 -0.61350217576226385 -0.79539682229520281 0 -0.79539682229520281 5.7845138694477498 0 0 0 0 950.19965738085739 -202.25357626434197 0 -202.25357626434197 -29.445450563187478 0 0 0 0 -241.19111290037108 209.4466233189014 0 209.4466233189014 -100.80951765420468 0 0 0 0 -529.49332371741184 607.92141436993552 0 607.92141436993552 -282.87763764610281 0 0 0 0 -142.43794814605644 100.79241468335749 0 100.79241468335749 -152.575522626983 0 0 0 0 35.490596358868061 321.07141780584061 0 321.07141780584061 -343.50218615264748 0 0 0 0 102.66791919448588 24.481967282139522 0 24.481967282139522 -132.53485500852548 0 0 0 0 1.8741097628154364 4.0764436396980841 0 4.0764436396980841 13.929630789639845 0 0 0 0 -134.61141315435816 84.794889180444443 0 84.794889180444443 82.393507033462811 0 0 0 0 130.99860285170507 -71.239240623870501 0 -71.239240623870501 -32.459032789542107 0 0 0 0 217.22793945865851 58.282680236690794 0 58.282680236690794 97.129765604673594 0 0 0 0 593.92361794434692 -120.55020109054567 0 -120.55020109054567 -105.42598016187549 0 0 0 0 85.782446783799969 76.29274068783343 0 76.29274068783343 -62.298047972977656 0 0 0 0 -99.782404993267846 -49.637498348583904 0 -49.637498348583904 264.20695541442547 0 0 0 0 369.20307799621514 -52.693301498224173 0 -52.693301498224173 -79.940236610425927 0 0 0 0 171.61961563241493 35.965331064613565 0 35.965331064613565 77.084165194159141 0 0 0 0 0.78665856458206918 8.7555456827840317 0 8.7555456827840317 23.643662390395519 0 0 0 0 -92.021016540777055 345.90246627493434 0 345.90246627493434 7.7252800392234349 0 0 0 0 -47.075191884039668 193.10973126401586 0 193.10973126401586 1.1616093944394379 0 0 0 0 65.21519068809522 62.83638207442533 0 62.83638207442533 13.126689909473669 0 0 0 0 280.27476109413692 64.90326648669361 0 64.90326648669361 -155.91993384802481 0 0 0 0 62.131461471012727 54.271329738030857 0 54.271329738030857 -3.13753694317586 0 0 0 0 400.37538292196405 152.54194191760689 0 152.54194191760689 -290.13278355841612 0 0 0 0 -226.98182278385502 257.3077416023043 0 257.3077416023043 3.739700677095243 0 0 0 0 -4.5032001291838242 166.53055789551217 0 166.53055789551217 133.35317169297559 0 0 0 0 382.11188295582542 355.92701300791305 0 355.92701300791305 -224.20232889257386 0 0 0 0 439.42707337273896 238.66255011448084 0 238.66255011448084 -1192.233292588302 0 0 0 0 129.43171787817846 234.08516700222754 0 234.08516700222754 -149.73295540014806 0 0 0 0 7.4282459963411043 18.599335639935653 0 18.599335639935653 -9.6508157746707184 0 0 0 0 56.919145198888145 24.395026213049277 0 24.395026213049277 -28.560357341029885 0 0 0 0 60.973849043324662 -1.4541457035329586 0 -1.4541457035329586 56.27883975795703 0 0 0 0 0.88767177207046188 151.39008525265672 0 151.39008525265672 -421.49849851280305 0 0 0 0 -128.94217855636998 -44.347070267551317 0 -44.347070267551317 1.7643530572240707 0 0 0 0 15.410601699937772 -4.1058677394933198 0 -4.1058677394933198 -5.0703672545845961 0 0 0 0 -53.130964643922198 60.298485018208339 0 60.298485018208339 55.946826165134553 0 0 0 0 25.664707429700577 50.795178612227019 0 50.795178612227019 -3.4243941059032181 0 0 0 0 164.76159298649554 9.9006643155944403 0 9.9006643155944403 -21.813749158514838 0 0 0 0 56.017971046385355 9.7434424406455946 0 9.7434424406455946 16.405433059160032 0 0 0 0 141.97828847393976 83.903811656105972 0 83.903811656105972 25.290681108803255 0 0 0 0 143.1070657899545 69.543380049639381 0 69.543380049639381 164.66570457455964 0 0 0 0 238.07521715926123 -24.105886102224758 0 -24.105886102224758 43.897019754025678 0 0 0 0 -1392.9502447307095 511.06525864807918 0 511.06525864807918 -27.89242340941064 0 0 0 0 -256.2834094668433 -408.39228494171039 0 -408.39228494171039 -186.44971015409101 0 0 0 0 -1302.8151287190794 707.57210670818949 0 707.57210670818949 -147.42383621229965 0 0 0 0 268.00317470845039 135.99553426520652 0 135.99553426520652 -262.41252670498943 0 0 0 0 -0.81980000775308781 -1.5808584363294216 0 -1.5808584363294216 -8.5389310296203575 0 0 0 0 -0.041430740065528937 0.91988147095113959 0 0.91988147095113959 -9.4747730580688767 0 0 0 0 432.40612154104747 228.94873276504768 0 228.94873276504768 -212.59280126778322 0 0 0 0 148.46805811380909 55.383390188395424 0 55.383390188395424 -6.0659885507775471 0 0 0 0 225.24845823660144 59.419650793039182 0 59.419650793039182 -17.638276537596539 0 0 0 0 -66.991887545838836 562.07288766997954 0 562.07288766997954 -412.2526446054253 0 0 0 0 -181.06456401452306 363.2230187789246 0 363.2230187789246 -38.445258113747514 0 0 0 0 47.806912130661658 28.594006043957052 0 28.594006043957052 -937.8843106949862 0 0 0 0 0.67616383887937559 3.8246421390147347 0 3.8246421390147347 -4.6929070585059378 0 0 0 0 -28.922073289410037 744.285898020682 0 744.285898020682 -518.44624493153242 0 0 0 0 -401.0724777742289 54.984041090705432 0 54.984041090705432 -361.26813473281072 0 0 0 0 -477.25451952687581 134.22814381043281 0 134.22814381043281 -51.422344846389024 0 0 0 0 -786.3218546655844 518.63052691047778 0 518.63052691047778 -555.20001241078717 0 0 0 0 -1287.9351260158292 -479.37540952614654 0 -479.37540952614654 197.493411713971 0 0 0 0 -647.15195076657983 53.939620503613696 0 53.939620503613696 4.2563713038689457 0 0 0 0 -182.40203504292003 -440.50425823182741 0 -440.50425823182741 -199.97022887312778 0 0 0 0 -271.06296303206182 17.295388471547994 0 17.295388471547994 127.81789233385643 0 0 0 0 3.6418095063273199 1.8480577187968095 0 1.8480577187968095 -13.797225089733473 0 0 0 0 74.155198287477106 -141.74793718423098 0 -141.74793718423098 -196.5450430799101 0 0 0 0 -350.07928029132017 -75.512417116529832 0 -75.512417116529832 23.678973153738298 0 0 0 0 -247.97803976770956 225.07890665619925 0 225.07890665619925 -30.26991221269418 0 0 0 0 -73.356841447719489 74.711269815143169 0 74.711269815143169 99.209110326861264 0 0 0 0 364.66309477922914 72.861626223017083 0 72.861626223017083 -188.59472524515149 0 0 0 0 -134.32547925304243 271.73315044628907 0 271.73315044628907 363.52676595171943 0 0 0 0 -34.691038203200151 -7.5359940254766116 0 -7.5359940254766116 -81.22898422567232 0 0 0 0 252.02518805755244 74.537153380588279 0 74.537153380588279 -494.42399832480442 0 0 0 0 789.37874484124768 -11.563703852687468 0 -11.563703852687468 -1101.7600481109548 0 0 0 0 -569.65398195131274 -298.69246904098691 0 -298.69246904098691 523.53733051462041 0 0 0 0 -16.871614682941356 28.282882404326816 0 28.282882404326816 -40.276003572897906 0 0 0 0 46.830559690675727 81.401578110831906 0 81.401578110831906 -17.616197209549682 0 0 0 0 322.66044653435461 628.93047455471333 0 628.93047455471333 398.45125725577964 0 0 0 0 23.26437860277656 42.020863058663963 0 42.020863058663963 -10.92718716309173 0 0 0 0 -2.4035254369001535 13.491413723680424 0 13.491413723680424 -16.495526143507306 0 0 0 0 -24.355053659724945 57.639649149328761 0 57.639649149328761 18.137338587650447 0 0 0 0 -9.2820280819113492 25.869482357217109 0 25.869482357217109 -21.356587216157806 0 0 0 0 -20.829426120249991 18.687508206818165 0 18.687508206818165 14.034913927040179 0 0 0 0 -4.2731956519646701 31.027536112989765 0 31.027536112989765 -2.5287127627816517 0 0 0 0 -4.7622136091667926 25.181580186144856 0 25.181580186144856 30.420954513559991 0 0 0 0 -33.680001302776873 91.412509654161113 0 91.412509654161113 -67.125442909586127 0 0 0 0 -2.5570481020878475 12.959689409018651 0 12.959689409018651 -13.886203163951876 0 0 0 0 18.471597649604519 70.683121258021856 0 70.683121258021856 -123.98956624082348 0 0 0 0 -94.855251321772812 -24.522191058262251 0 -24.522191058262251 -149.8587862009299 0 0 0 0 -101.53772657868103 15.618529065613984 0 15.618529065613984 -74.704670961888041 0 0 0 0 -70.232560088656101 47.700040268086013 0 47.700040268086013 -49.492263670312241 0 0 0 0 104.00343620429339 109.84435425149422 0 109.84435425149422 -32.347916668251855 0 0 0 0 17.154184395320044 39.787785797077959 0 39.787785797077959 0.88668065599631518 0 0 0 0 -14.994783076404772 27.747076639156742 0 27.747076639156742 -42.544916214262003 0 0 0 0 550.65555047893395 487.53549878338345 0 487.53549878338345 -73.694805338702281 0 0 0 0 91.571886884207586 -2.2430597890734276 0 -2.2430597890734276 -20.697945967121768 0 0 0 0 53.87526016098127 -54.750537192208867 0 -54.750537192208867 157.73043728267658 0 0 0 0 150.6548313145322 -65.10556951730905 0 -65.10556951730905 -106.60472899332672 0 0 0 0 146.46149835719189 340.40721417375607 0 340.40721417375607 -220.24190745524538 0 0 0 0 4.0568306227298478 0.43669184852556953 0 0.43669184852556953 -12.614371205964403 0 0 0 0 30.846768785833774 -44.708845505540012 0 -44.708845505540012 82.230596162553411 0 0 0 0 -316.78725425204902 -145.36000252675149 0 -145.36000252675149 89.232137703773333 0 0 0 0 -424.17786470543797 -59.978028895013267 0 -59.978028895013267 366.32162659795722 0 0 0 0 61.606929264355415 7.6748662868571529 0 7.6748662868571529 -23.105981334941816 0 0 0 0 182.61195260095337 109.39229457471993 0 109.39229457471993 -65.431425833550747 0 0 0 0 76.275756387723959 16.719055275272694 0 16.719055275272694 -14.337019081285689 0 0 0 0 -4.5155728378346396 24.753971512612814 0 24.753971512612814 -34.621522443353683 0 0 0 0 94.558316727087004 0.93848511786927702 0 0.93848511786927702 -43.171074859317741 0 0 0 0 -114.37808165555543 174.56980588354054 0 174.56980588354054 -173.81810788245639 0 0 0 0 -108.4126407982767 200.87768478118232 0 200.87768478118232 -197.98555441373537 0 0 0 0 -93.85882389364042 197.92781603540061 0 197.92781603540061 -275.10784708074061 0 0 0 0 -157.39521031356708 247.231163274555 0 247.231163274555 -206.94349174095987 0 0 0 0 -104.20329160664915 267.50415021639128 0 267.50415021639128 -228.56084477383411 0 0 0 0 -88.691071825166546 233.32301460264716 0 233.32301460264716 -245.79141189734219 0 0 0 0 -142.30963130466989 290.66167139187746 0 290.66167139187746 -242.27358710484987 0 0 0 0 -144.34841659932499 264.84977386817627 0 264.84977386817627 -194.36412905399629 0 0 0 0 -152.80095324589729 209.54574307196344 0 209.54574307196344 -149.5305723369529 0 0 0 0 -256.65742022624545 261.59131190783228 0 261.59131190783228 -175.45595899797627 0 0 0 0 -376.46749196041492 295.34503166523064 0 295.34503166523064 -90.057851038654917 0 0 0 0 -229.83797065868566 218.85554814129864 0 218.85554814129864 -115.82152341294568 0 0 0 0 6.7562059239362213 14.269817058769448 0 14.269817058769448 8.5091503093986773 0 0 0 0 -195.81644841971865 143.87491999888152 0 143.87491999888152 -99.899282758800837 0 0 0 0 -195.27044030403704 175.18243349046679 0 175.18243349046679 -82.232661170593929 0 0 0 0 -84.528628612464672 -94.190678340783052 0 -94.190678340783052 255.65212314855307 0 0 0 0 -321.97564386935665 132.05204122008581 0 132.05204122008581 -68.496505039627664 0 0 0 0 -102.2743347375872 191.23027052372345 0 191.23027052372345 -93.857439538340259 0 0 0 0 174.86755540197737 36.093716091985698 0 36.093716091985698 76.113859991499339 0 0 0 0 9.2618851478291617 9.6928232200516504 0 9.6928232200516504 -6.7139158469362883 0 0 0 0 13.106370416912107 26.733742015160324 0 26.733742015160324 0.38800462803180835 0 0 0 0 7.894437279603153 15.575899183721049 0 15.575899183721049 -5.82230092692771 0 0 0 0 1.111056756512987 14.939325430872771 0 14.939325430872771 -15.121399591477768 0 0 0 0 14.077899633116161 22.93960711371578 0 22.93960711371578 -2.5907268141498605 0 0 0 0 254.40080897699954 66.213281349788303 0 66.213281349788303 76.424765594187193 0 0 0 0 428.71231907977563 130.8886445172684 0 130.8886445172684 -180.82868616466294 0 0 0 0 -2.3330283652410948 2.7319999657430571 0 2.7319999657430571 5.8457327514253734 0 0 0 0 80.699879948928356 -230.81644270411198 0 -230.81644270411198 -1643.3582496022573 0 0 0 0 -130.85081976805805 70.934592225071356 0 70.934592225071356 -26.262838407274103 0 0 0 0 1.6319678014675265 0.56706497259763111 0 0.56706497259763111 -6.3631215777175214 0 0 0 0 -585.92852428465631 -50.836207925774943 0 -50.836207925774943 335.37970683172171 0 0 0 0 376.22467943457741 -236.48437048873166 0 -236.48437048873166 -105.51956761242764 0 0 0 0 -67.282428273665573 396.82362255534099 0 396.82362255534099 -153.98493094212608 0 0 0 0 283.5465529928988 146.96207058790606 0 146.96207058790606 -569.13167090776551 0 0 0 0 -522.54224914974839 174.3059531132094 0 174.3059531132094 1707.4682302830042 0 0 0 0 277.30405725859555 33.586331275928387 0 33.586331275928387 300.99037070095073 0 0 0 0 -1.6220737695539764 -4.828077137826476 0 -4.828077137826476 2.1548797054526858 0 0 0 0 389.70293033778398 -297.92828349388583 0 -297.92828349388583 -113.15537517069606 0 0 0 0 -146.76391938344386 93.168453935526486 0 93.168453935526486 27.532857739570318 0 0 0 0 -120.29822328222872 168.96181381501083 0 168.96181381501083 -259.43416218180209 0 0 0 0 0.71308791906406555 -0.25328162209144978 0 -0.25328162209144978 -2.5773977702446018 0 0 0 0 25.957007770324708 -34.440262519638054 0 -34.440262519638054 20.308276999654481 0 0 0 0 138.52107990347577 -10.234567897889065 0 -10.234567897889065 -450.18329457513028 0 0 0 0 -332.9744637532358 54.676728004353208 0 54.676728004353208 -12.869969838124234 0 0 0 0 116.24993386078913 -338.97608164365806 0 -338.97608164365806 -241.64511586588924 0 0 0 0 127.34707790085304 301.79660210695874 0 301.79660210695874 -667.61690136842662 0 0 0 0 -19.06428069440517 534.21188845107099 0 534.21188845107099 -27.058894835499814 0 0 0 0 46.800354270104435 331.23659404540376 0 331.23659404540376 -215.47638271388132 0 0 0 0 124.38407400754659 538.94480845877843 0 538.94480845877843 -308.37422198010609 0 0 0 0 -354.39417749256882 -15.342620452875053 0 -15.342620452875053 -35.269104526843876 0 0 0 0 -0.84066424699271636 1.7151785580765271 0 1.7151785580765271 -1.7666286961496667 0 0 0 0 -106.89406215381769 27.610647092013096 0 27.610647092013096 78.782325904321624 0 0 0 0 -85.629163003270151 132.9807670573573 0 132.9807670573573 23.674477272375952 0 0 0 0 -247.99149385204964 150.92852222780493 0 150.92852222780493 44.85226590858656 0 0 0 0 -371.16961787184209 -171.19219201579472 0 -171.19219201579472 -82.934384903463069 0 0 0 0 0.93287998227835445 0.86479886389474814 0 0.86479886389474814 -1.3607142124823497 0 0 0 0 -114.27339621201827 7.7403502063752967 0 7.7403502063752967 35.16080761385092 0 0 0 0 -159.01028671627137 111.80281774535979 0 111.80281774535979 99.152563230891246 0 0 0 0 -122.25393558850374 87.515651351386623 0 87.515651351386623 109.43718897874351 0 0 0 0 127.34974545512523 12.811006749456283 0 12.811006749456283 117.75801886705449 0 0 0 0 -6.7566321595913905 6.4897970925740083 0 6.4897970925740083 -2.2488517859528656 0 0 0 0 25.292200025542115 123.28185013016628 0 123.28185013016628 -35.807114510040265 0 0 0 0 -82.573644523210532 55.015572367206914 0 55.015572367206914 -47.184577873675153 0 0 0 0 -100.38402815100437 90.374105908449451 0 90.374105908449451 -40.455011281272164 0 0 0 0 138.07640581397573 127.83510421164101 0 127.83510421164101 -80.224224233999848 0 0 0 0 -115.55957287830279 23.189095228713995 0 23.189095228713995 72.658107117546024 0 0 0 0 1.9679923470604948 4.2133542502587318 0 4.2133542502587318 -4.6803799500333696 0 0 0 0 33.188265103097365 86.879441851982847 0 86.879441851982847 -72.191341589350486 0 0 0 0 -4.0182958173489336 5.9825923748896059 0 5.9825923748896059 2.1307065926117161 0 0 0 0 -5.1634862507721664 7.2601255909139581 0 7.2601255909139581 -6.7903355579037452 0 0 0 0 15.563641389549048 164.9741734946474 0 164.9741734946474 124.25622176042816 0 0 0 0 -51.440582237195486 41.363096691864484 0 41.363096691864484 18.405205240269424 0 0 0 0 114.28659649000838 126.27375249948818 0 126.27375249948818 43.703714947685512 0 0 0 0 -8.0949861904891804 190.50878717885644 0 190.50878717885644 99.073411799996393 0 0 0 0 24.720231526414864 243.62019822883303 0 243.62019822883303 175.48516008778097 0 0 0 0 54.97684680175189 202.96388582569489 0 202.96388582569489 146.45182874828606 0 0 0 0 50.209047739288508 284.36562018611585 0 284.36562018611585 139.311648511366 0 0 0 0 59.470172503601134 239.48256918840343 0 239.48256918840343 142.06548082958034 0 0 0 0 -4.9241694371230551 226.54518084075244 0 226.54518084075244 176.17149082459946 0 0 0 0 162.30712931696507 228.62951048466493 0 228.62951048466493 170.19482937215435 0 0 0 0 109.31728923784294 88.62849772446134 0 88.62849772446134 209.30303534047562 0 0 0 0 58.196809727587606 272.09913332805445 0 272.09913332805445 240.20644736950635 0 0 0 0 69.660025311975915 160.11004679264443 0 160.11004679264443 266.61315689992625 0 0 0 0 186.89399352335295 126.45100976808317 0 126.45100976808317 -245.5766223710234 0 0 0 0 68.181517315735618 28.21102300916391 0 28.21102300916391 371.710349103721 0 0 0 0 0.95648736506726983 1.9310359590007096 0 1.9310359590007096 2.0926795399105629 0 0 0 0 98.923427821648147 232.86879007556854 0 232.86879007556854 379.07899068879487 0 0 0 0 137.07115029905799 38.80364596968866 0 38.80364596968866 8.9563543598342221 0 0 0 0 -44.161294931067459 94.222164074621105 0 94.222164074621105 47.915130935216439 0 0 0 0 -38.829173803969752 142.81616775294242 0 142.81616775294242 206.11566433947883 0 0 0 0 -109.63146766174486 -254.89456591227645 0 -254.89456591227645 294.13879737230309 0 0 0 0 -27.263782730129606 369.94724442283041 0 369.94724442283041 -28.489002029207768 0 0 0 0 -120.99761308038615 421.83496894533164 0 421.83496894533164 85.019156353751896 0 0 0 0 -196.480065005906 178.08282207712182 0 178.08282207712182 364.78643947343335 0 0 0 0 424.62838221718266 130.29872863691708 0 130.29872863691708 206.66423258831492 0 0 0 0 -1.3822401801208475 1.7060363271270305 0 1.7060363271270305 -1.1161662605130687 0 0 0 0 301.61192401593962 363.38008532705226 0 363.38008532705226 -17.548989782910212 0 0 0 0 319.66339850612212 90.371775513751345 0 90.371775513751345 391.1844306797866 0 0 0 0 284.11631239142662 337.71365645892365 0 337.71365645892365 -162.25605228552013 0 0 0 0 -521.46037779314793 3.6711035444022855 0 3.6711035444022855 131.86443264892296 0 0 0 0 -326.50654987235202 393.14318922462189 0 393.14318922462189 -348.05621683993377 0 0 0 0 -415.45811984080126 363.14883131621718 0 363.14883131621718 -326.15279835939873 0 0 0 0 -377.86612515345996 457.00544107176756 0 457.00544107176756 -216.61312064595404 0 0 0 0 -118.52250727119917 277.94032158794289 0 277.94032158794289 -112.02644149377011 0 0 0 0 -416.9716245486452 348.80384877356482 0 348.80384877356482 -367.92722708627116 0 0 0 0 -170.53745574429558 408.75059654098004 0 408.75059654098004 -264.44872169927112 0 0 0 0 -391.12094623230541 278.05583082290468 0 278.05583082290468 -482.6560049453401 0 0 0 0 -269.12097973099708 317.82912752594711 0 317.82912752594711 -186.78354979053256 0 0 0 0 -339.80455853694912 176.91756541994982 0 176.91756541994982 -353.94632914304384 0 0 0 0 -198.32759313754832 346.55820673526614 0 346.55820673526614 -332.03633986740897 0 0 0 0 -91.790280225346578 472.91811393978423 0 472.91811393978423 -230.34989096538629 0 0 0 0 -39.252854580958228 343.76975664604106 0 343.76975664604106 -254.88103482717997 0 0 0 0 -31.365003473054458 333.38812586337735 0 333.38812586337735 -263.26461776241194 0 0 0 0 -13.322337531146331 347.73743287663092 0 347.73743287663092 -262.98820632245042 0 0 0 0 -39.667218310953103 488.81158888110076 0 488.81158888110076 -63.037195155884547 0 0 0 0 107.727805895036 213.16763139096656 0 213.16763139096656 -241.456459396024 0 0 0 0 200.51038859475739 354.60647994681494 0 354.60647994681494 -267.9449050983967 0 0 0 0 31.780814380422726 203.29665058138562 0 203.29665058138562 -290.52675744454609 0 0 0 0 -54.537761483226859 329.77836681943154 0 329.77836681943154 -254.26710079060285 0 0 0 0 17.081124971128524 15.285445068817332 0 15.285445068817332 12.670922792863337 0 0 0 0 -310.90614047076087 438.3438994375756 0 438.3438994375756 -292.59248218004359 0 0 0 0 -159.37708510243738 169.8097434041556 0 169.8097434041556 -230.30680545925861 0 0 0 0 -62.029944871173939 211.14875985037361 0 211.14875985037361 -286.65567376691615 0 0 0 0 -65.494645087152094 144.73571045062272 0 144.73571045062272 -224.4610609257652 0 0 0 0 -247.11057311027162 345.56799235249491 0 345.56799235249491 -223.61574621966429 0 0 0 0 90.655676300564664 161.56141319220478 0 161.56141319220478 -312.6104999986128 0 0 0 0 -134.74756588734999 -216.86860425530358 0 -216.86860425530358 -344.24047038196295 0 0 0 0 57.362365698562648 35.801433659530822 0 35.801433659530822 4.8894095784714295 0 0 0 0 11.09972108148213 77.040704326209379 0 77.040704326209379 -402.40574581446708 0 0 0 0 -758.74100603514671 -125.40882766235154 0 -125.40882766235154 -454.21470004711591 0 0 0 0 -349.70577973196487 69.539402462847647 0 69.539402462847647 -192.00177993868419 0 0 0 0 -34.408997681468463 323.28828888347925 0 323.28828888347925 11.241648077761056 0 0 0 0 -116.89923114967678 108.63669114645745 0 108.63669114645745 0.58115059378906153 0 0 0 0 3.6940729386924467 5.1389801216444084 0 5.1389801216444084 5.7566382330137174 0 0 0 0 -95.249109228807356 236.47162702771311 0 236.47162702771311 -282.26113174943021 0 0 0 0 -55.623005590177854 194.72525347939518 0 194.72525347939518 -266.55544627006748 0 0 0 0 -145.64265607925086 198.86122427818373 0 198.86122427818373 -240.26124101990717 0 0 0 0 1.6239609944022959 84.903432338644052 0 84.903432338644052 -246.57977204580061 0 0 0 0 -125.76836245072559 135.56281611707709 0 135.56281611707709 -246.96927177192993 0 0 0 0 160.67286137125848 201.4551215692627 0 201.4551215692627 -286.26404515739705 0 0 0 0 1.7541583130969229 172.33677593711764 0 172.33677593711764 -291.309310667104 0 0 0 0 -11.279796232167428 116.93364073614066 0 116.93364073614066 -254.88103720349318 0 0 0 0 -11.988981660571881 163.46987399854697 0 163.46987399854697 -283.63413843592571 0 0 0 0 21.281938748041284 158.07065445487024 0 158.07065445487024 -286.21285301359603 0 0 0 0 -20.207052061387913 160.62036020975938 0 160.62036020975938 -268.55167736564181 0 0 0 0 -24.623970354767152 164.93655976574519 0 164.93655976574519 -267.34309297113941 0 0 0 0 -22.966734854346214 158.51897237954836 0 158.51897237954836 -245.62057764478959 0 0 0 0 -9.6735193596455247 169.62611865019971 0 169.62611865019971 -259.3540287676733 0 0 0 0 -4.9013694825789571 153.93509222110151 0 153.93509222110151 -273.20800932192651 0 0 0 0 -40.1568209727875 210.22860435191978 0 210.22860435191978 -257.66749503862229 0 0 0 0 -80.393498615980207 169.97674230864504 0 169.97674230864504 -259.69994680079981 0 0 0 0 -22.043529641083296 163.01286900068953 0 163.01286900068953 -259.73399077769136 0 0 0 0 -72.523313912886806 196.34189922171936 0 196.34189922171936 -257.39603898311907 0 0 0 0 -66.27942056064785 227.72603723336942 0 227.72603723336942 -244.39766973213409 0 0 0 0 -26.137543232849566 248.55946878806571 0 248.55946878806571 -264.41893532396352 0 0 0 0 -19.865711226309941 197.61266112713201 0 197.61266112713201 -250.41623375730705 0 0 0 0 21.325055442047187 247.59800851333057 0 247.59800851333057 -264.86360458482523 0 0 0 0 45.119284586660342 163.00524946868245 0 163.00524946868245 -227.69479657054762 0 0 0 0 53.30271281928799 181.79029655770864 0 181.79029655770864 -207.23029061183479 0 0 0 0 38.514432898527502 116.62492218304033 0 116.62492218304033 -157.97104363661492 0 0 0 0 27.675308743509959 158.73562592956296 0 158.73562592956296 -257.00076293188249 0 0 0 0 -0.58781396861741086 204.0243076526167 0 204.0243076526167 -251.37693310019677 0 0 0 0 56.44182755725312 22.631811465787152 0 22.631811465787152 -9.4673701399941024 0 0 0 0 -5.6282048181692517 160.589640004182 0 160.589640004182 -217.52078041850473 0 0 0 0 24.287360773720138 148.22866294032428 0 148.22866294032428 -216.16527486269115 0 0 0 0 -33.646489699990525 156.23082931859244 0 156.23082931859244 -220.43800065333926 0 0 0 0 -28.90689683535129 168.93702157458756 0 168.93702157458756 -186.38149934669491 0 0 0 0 -3.604814004110267 152.85652866913006 0 152.85652866913006 -244.0114281270653 0 0 0 0 -21.724988889945962 366.28263461463212 0 366.28263461463212 -328.30573444452602 0 0 0 0 16.593195349523853 32.81547351938606 0 32.81547351938606 25.047242066317352 0 0 0 0 -22.932218240193833 146.06573917293281 0 146.06573917293281 -89.197542774301837 0 0 0 0 -29.277127933784868 165.78300730747287 0 165.78300730747287 -135.48350887128618 0 0 0 0 -302.78015568909177 418.14746999416093 0 418.14746999416093 -323.84369804439484 0 0 0 0 -168.31897480466432 427.27318702186312 0 427.27318702186312 -333.5963103506183 0 0 0 0 87.378956495256148 55.475158724744098 0 55.475158724744098 3.7011581393431925 0 0 0 0 -218.07887575584755 399.74081686438876 0 399.74081686438876 -248.91794052010664 0 0 0 0 -330.50690780035075 364.91501684143441 0 364.91501684143441 -207.79852536495309 0 0 0 0 -268.40776804296911 349.5856100498786 0 349.5856100498786 -282.90695262992085 0 0 0 0 71.796408210772256 58.396410368208826 0 58.396410368208826 18.040938318511706 0 0 0 0 20.644950544570356 3.0227255523791285 0 3.0227255523791285 -3.0400648235636538 0 0 0 0 158.21103254066747 126.18725306197302 0 126.18725306197302 -0.44235429067339282 0 0 0 0 150.49303826974756 45.162110058427061 0 45.162110058427061 -53.161873429242405 0 0 0 0 138.98648529298646 229.94117766049476 0 229.94117766049476 -194.20413280589855 0 0 0 0 43.822600558798513 52.305331763833237 0 52.305331763833237 -26.611516897173715 0 0 0 0 -18.345558501845517 55.442327005352126 0 55.442327005352126 -11.003437585895881 0 0 0 0 159.2896652188947 92.464158469825634 0 92.464158469825634 -163.86443486228382 0 0 0 0 -160.0677692616664 78.717484109962243 0 78.717484109962243 -1208.9329296620563 0 0 0 0 -269.7207108882194 791.19651625653569 0 791.19651625653569 -753.92725743954361 0 0 0 0 -135.15919258935173 256.09427763869462 0 256.09427763869462 -131.07903294972493 0 0 0 0 -189.01895232507377 287.47908567773266 0 287.47908567773266 -7.1867181466077454 0 0 0 0 -396.08366478432436 346.75896265270421 0 346.75896265270421 -370.53076259535737 0 0 0 0 -112.07812676028698 260.98501241969643 0 260.98501241969643 -374.95505961451272 0 0 0 0 43.126764745058608 397.29324558272492 0 397.29324558272492 -565.91979249393626 0 0 0 0 -111.45652550597151 398.84019726903352 0 398.84019726903352 -48.081658514463925 0 0 0 0 -4.7824995555092755 448.29229173633212 0 448.29229173633212 -370.32433022269106 0 0 0 0 -114.84765677219912 488.12561718453799 0 488.12561718453799 -274.69662160698499 0 0 0 0 -191.17058890454064 459.36978674506827 0 459.36978674506827 -276.22922236742124 0 0 0 0 -143.06757561408449 562.42042044935079 0 562.42042044935079 -452.6296848524762 0 0 0 0 -578.26888103022065 781.63131390162016 0 781.63131390162016 -233.51029256667243 0 0 0 0 -191.79954293218179 583.52420935300324 0 583.52420935300324 -250.86129587898904 0 0 0 0 -289.15763430927473 593.20867246737907 0 593.20867246737907 -236.26516492240989 0 0 0 0 -373.30794312866055 445.72763041305188 0 445.72763041305188 131.37795136430941 0 0 0 0 -199.60717702167676 363.09786145557882 0 363.09786145557882 27.433678558860265 0 0 0 0 -242.43758345375682 322.37018184219414 0 322.37018184219414 130.67972259428643 0 0 0 0 -206.94992973160697 416.88904696132522 0 416.88904696132522 -71.073097369415336 0 0 0 0 -230.48700890880718 456.82245521745062 0 456.82245521745062 -46.654156343851355 0 0 0 0 -223.16853531325614 487.78536592081218 0 487.78536592081218 -198.96010922276764 0 0 0 0 -243.84598104657198 468.16702965338482 0 468.16702965338482 -119.16399430987076 0 0 0 0 -235.55556728105876 373.47328670562274 0 373.47328670562274 -92.342399465012932 0 0 0 0 -159.99772700317226 295.86895038655712 0 295.86895038655712 40.66273256225395 0 0 0 0 -254.44622251209512 402.58250790057355 0 402.58250790057355 52.026099864291609 0 0 0 0 -204.78078601496964 289.95943832389457 0 289.95943832389457 202.90728693348137 0 0 0 0 -74.307791072023974 247.82116541777214 0 247.82116541777214 96.972409615307697 0 0 0 0 -363.72117141727358 347.9804267761574 0 347.9804267761574 -174.76466196311776 0 0 0 0 -336.4655357281008 401.70873709290026 0 401.70873709290026 -74.809310630662367 0 0 0 0 -326.05618023276475 397.13612787191232 0 397.13612787191232 -164.62047246856673 0 0 0 0 -301.63787960480113 405.07305123956758 0 405.07305123956758 -155.2059815498942 0 0 0 0 -210.78325295248942 430.41829519855673 0 430.41829519855673 -192.32395251520211 0 0 0 0 -260.53663421679448 421.83371115404952 0 421.83371115404952 -71.887997059617192 0 0 0 0 -287.47062840998115 374.45254824202857 0 374.45254824202857 -151.1865600190722 0 0 0 0 -305.88369085384966 372.49505723059519 0 372.49505723059519 -97.263207649753895 0 0 0 0 -250.29241505393657 362.52293109099264 0 362.52293109099264 138.46393104605158 0 0 0 0 -310.26586714104633 357.85814068056061 0 357.85814068056061 10.396013207995566 0 0 0 0 -252.23662059536946 320.25251098527588 0 320.25251098527588 -30.191376905029756 0 0 0 0 -381.99607605786878 337.31745797986514 0 337.31745797986514 -12.544780870128307 0 0 0 0 -439.90811929434858 382.21718248581601 0 382.21718248581601 -64.502919921636931 0 0 0 0 -381.60879215111657 352.50698036900587 0 352.50698036900587 -107.40118395282479 0 0 0 0 51.406183575053795 57.758638433856333 0 57.758638433856333 33.062664915116585 0 0 0 0 93.560781943595885 -8.2327349667029921 0 -8.2327349667029921 -3.1744376282440498 0 0 0 0 78.327201228171361 180.55327175443381 0 180.55327175443381 129.1669207305531 0 0 0 0 234.97027270622311 -103.74275620302069 0 -103.74275620302069 42.312166812778742 0 0 0 0 25.983218070148723 -159.34052832511225 0 -159.34052832511225 161.06406475690892 0 0 0 0 -19.718761024151039 3.9249414284121258 0 3.9249414284121258 12.722789464141272 0 0 0 0 361.02304109829402 -84.253030076652067 0 -84.253030076652067 -20.261745933035854 0 0 0 0 85.512086292395907 256.17071990295153 0 256.17071990295153 -52.230294578330358 0 0 0 0 14.037288421684934 181.28984158872481 0 181.28984158872481 -118.83595853995212 0 0 0 0 -390.87140587700196 554.81647786029862 0 554.81647786029862 -462.98403217762825 0 0 0 0 -44.576311293585604 124.91026201575733 0 124.91026201575733 -167.54326500471143 0 0 0 0 -23.605271609772899 31.858492443028808 0 31.858492443028808 -408.7155764533527 0 0 0 0 90.49873119455151 -0.94261510119576997 0 -0.94261510119576997 95.899920826836023 0 0 0 0 -109.78144185525343 -27.307170013082214 0 -27.307170013082214 99.8545544356748 0 0 0 0 -143.3947103186174 -136.58145536945813 0 -136.58145536945813 18.5505635677182 0 0 0 0 -305.91206270510247 531.71141059267029 0 531.71141059267029 -30.628162544155202 0 0 0 0 0.10442044272349449 146.45687292513321 0 146.45687292513321 426.04987618658197 0 0 0 0 341.15706223608322 590.23841140674631 0 590.23841140674631 -527.61752910714131 0 0 0 0 -174.37007327563424 478.98850742996183 0 478.98850742996183 -201.09117801077082 0 0 0 0 208.63944789637571 129.17598210205324 0 129.17598210205324 -87.101244722522097 0 0 0 0 204.66937456490996 84.571915367843758 0 84.571915367843758 -416.5202482071727 0 0 0 0 -1037.7059227446944 532.29541867111402 0 532.29541867111402 -81.375341803352057 0 0 0 0 -2.0037828469727446 -2.5312410024922158 0 -2.5312410024922158 -6.1518459569304582 0 0 0 0 92.137953386554727 27.830784409343323 0 27.830784409343323 -13.325335673293011 0 0 0 0 170.39025826146735 -44.153717031450469 0 -44.153717031450469 -102.93882230320014 0 0 0 0 92.813255027484047 31.433571804940584 0 31.433571804940584 -1.9044354086072417 0 0 0 0 130.64429102189615 79.752647718181834 0 79.752647718181834 -118.40234636224341 0 0 0 0 138.37774677052766 47.350827714883053 0 47.350827714883053 -0.70342028019513236 0 0 0 0 90.901450451301571 19.568715585228347 0 19.568715585228347 13.482011767293443 0 0 0 0 8.1793547139324652 -0.12506998141442693 0 -0.12506998141442693 -21.547260809167 0 0 0 0 90.200347601310568 28.7438913201986 0 28.7438913201986 -13.411650407710113 0 0 0 0 -204.54348934540394 177.59149225380679 0 177.59149225380679 -133.81072039969149 0 0 0 0 18.117197196272372 3.117838117341492 0 3.117838117341492 -7.7139992204442649 0 0 0 0 -249.11533479707259 234.63173531868415 0 234.63173531868415 -200.33291742156143 0 0 0 0 1.3570759052769183 9.5892923154321892 0 9.5892923154321892 -0.73794518638442241 0 0 0 0 -313.39010685691392 349.54483321608132 0 349.54483321608132 -278.53098459846115 0 0 0 0 -325.05499782358493 255.04008276047534 0 255.04008276047534 -169.9804393098384 0 0 0 0 -230.19551568820316 305.63576288736658 0 305.63576288736658 -653.64774483018118 0 0 0 0 -431.39539247386347 156.14229393944515 0 156.14229393944515 -345.27892279834487 0 0 0 0 -516.61819281701219 769.51622284118639 0 769.51622284118639 -675.19021722406615 0 0 0 0 -132.45207920536632 233.63509207394964 0 233.63509207394964 -270.83356842914418 0 0 0 0 1.1671578765903057 2.0394498303940622 0 2.0394498303940622 -0.51796266380613076 0 0 0 0 -112.72392036069141 132.06865950087376 0 132.06865950087376 -75.17061012461636 0 0 0 0 -1268.3442772730705 419.54310834381613 0 419.54310834381613 323.27966138502234 0 0 0 0 -410.02819502391867 25.518806245876476 0 25.518806245876476 85.681165700021666 0 0 0 0 -355.07623740959389 532.55772624129895 0 532.55772624129895 -604.92204830086848 0 0 0 0 -482.94953752014317 357.85450898719864 0 357.85450898719864 -124.07268375123385 0 0 0 0 -251.89402806170983 299.73897184466477 0 299.73897184466477 -193.37201681075385 0 0 0 0 -333.99449037393424 427.46222003419825 0 427.46222003419825 -255.46257247717585 0 0 0 0 -330.69263370955377 372.61824053380406 0 372.61824053380406 -242.18435221450636 0 0 0 0 -233.86402037421794 338.44222068162344 0 338.44222068162344 -254.56979019666323 0 0 0 0 -161.63232657971457 264.16071541039855 0 264.16071541039855 -294.31640681713179 0 0 0 0 -230.7934449632121 271.75867032652604 0 271.75867032652604 -467.58802545210347 0 0 0 0 -226.36756716695527 305.18697955667449 0 305.18697955667449 -299.50684015490697 0 0 0 0 -45.111485374653057 271.54009996740206 0 271.54009996740206 -280.3485506674333 0 0 0 0 -52.792032491986902 238.44292836546083 0 238.44292836546083 -246.9935918385745 0 0 0 0 -122.40864636728838 314.64409777043329 0 314.64409777043329 -275.00783401893568 0 0 0 0 -33.329926893547736 288.28971375875699 0 288.28971375875699 -255.15650642215041 0 0 0 0 -6.7574386476208019 186.18426408601226 0 186.18426408601226 -202.60451245174045 0 0 0 0 -166.85837281535714 242.3465289445594 0 242.3465289445594 -256.10879271186786 0 0 0 0 -168.3687875172327 229.81054893802502 0 229.81054893802502 -338.72867651563865 0 0 0 0 -285.61216037753002 300.45949880228727 0 300.45949880228727 -217.2120392191282 0 0 0 0 -173.65848442482275 323.06588716923216 0 323.06588716923216 -195.03959906895761 0 0 0 0 -12.862919918643456 220.99377689261019 0 220.99377689261019 -33.164085369062377 0 0 0 0 -21.313890637275108 178.90315468022891 0 178.90315468022891 -202.09830613921076 0 0 0 0 -0.91267208149929502 168.72106138768868 0 168.72106138768868 -121.52852517312567 0 0 0 0 -237.99626294516202 439.80889637061046 0 439.80889637061046 -265.6896161526347 0 0 0 0 -479.70232687974385 218.6780720402312 0 218.6780720402312 -133.84427428263007 0 0 0 0 -261.85384872318355 259.03335139484989 0 259.03335139484989 -132.29851644500741 0 0 0 0 -10.878612412355096 6.6643207076267004 0 6.6643207076267004 0.062618708904864206 0 0 0 0 -0.0083379541320027784 7.0390891235310846 0 7.0390891235310846 1.0816583864834683 0 0 0 0 0.85521364269418143 3.8764717975663245 0 3.8764717975663245 1.5232906341535113 0 0 0 0 48.662576821923722 -82.091728356982458 0 -82.091728356982458 146.24350630753634 0 0 0 0 0.0038108033477328718 7.048391545749837 0 7.048391545749837 1.0863800612023624 0 0 0 0 -1.1074786823444356 0.90964356318465889 0 0.90964356318465889 3.9194319850239339 0 0 0 0 -106.328426097376 25.235921552894069 0 25.235921552894069 -21.673996506022377 0 0 0 0 -5.1567131833435269 -13.419724763711201 0 -13.419724763711201 -21.406404537151502 0 0 0 0 -109.1018566826242 55.692039058840237 0 55.692039058840237 15.169878140557557 0 0 0 0 -387.80335136571375 176.36924365413415 0 176.36924365413415 -18.126988229920244 0 0 0 0 -246.26886639768782 -0.55867813724398729 0 -0.55867813724398729 12.835469267043663 0 0 0 0 -396.18546532854089 165.07077371991545 0 165.07077371991545 -31.932349235155925 0 0 0 0 -614.56825099012349 260.31484219320373 0 260.31484219320373 28.536574783379365 0 0 0 0 1076.2908149146097 1585.8487895286346 0 1585.8487895286346 -1969.3188259473263 0 0 0 0 -410.76341441702971 316.31697170674852 0 316.31697170674852 -36.462890787293873 0 0 0 0 4.2080368141964328 22.644367091839825 0 22.644367091839825 73.107510600814521 0 0 0 0 -1343.8419333252459 1963.2820070561081 0 1963.2820070561081 5007.7320804546507 0 0 0 0 -6.7675815401965451 1.4091647093680137 0 1.4091647093680137 1.6010815040139903 0 0 0 0 -414.03693076511263 -3.3002829365068465 0 -3.3002829365068465 63.561989420180907 0 0 0 0 -1004.8483216820168 -25.861591990415036 0 -25.861591990415036 65.57162187506799 0 0 0 0 -649.51288145641593 442.73797751829807 0 442.73797751829807 -0.92624912447718089 0 0 0 0 -413.62280044765794 147.35557277900898 0 147.35557277900898 -2.3364396417946409 0 0 0 0 -870.97726235594746 -121.99725647360356 0 -121.99725647360356 -135.54425947981144 0 0 0 0 -584.76693609587528 502.70377986810217 0 502.70377986810217 17.185723507118382 0 0 0 0 -430.46014027614729 -937.05264175840807 0 -937.05264175840807 -968.96530716971665 0 0 0 0 0.20384353942996825 14.242483384972303 0 14.242483384972303 67.627536371019943 0 0 0 0 -1021.088881147276 -405.50389396525736 0 -405.50389396525736 15.119786837791708 0 0 0 0 -478.76554359884176 -98.354662879971784 0 -98.354662879971784 189.0200904324447 0 0 0 0 -602.38657825838891 323.30697959929194 0 323.30697959929194 103.33321365075608 0 0 0 0 -326.0131596421852 312.83661709002718 0 312.83661709002718 56.285690132464879 0 0 0 0 -308.74844990501879 247.45444677447358 0 247.45444677447358 9.4204687463352457 0 0 0 0 -219.97473492356949 329.8232710013508 0 329.8232710013508 57.685368798653144 0 0 0 0 -237.62216624344001 265.14392010317431 0 265.14392010317431 311.23339284485155 0 0 0 0 -46.937513800493434 -16.012767990467182 0 -16.012767990467182 273.2671127866779 0 0 0 0 -108.97944959599408 259.00905904942192 0 259.00905904942192 -62.431560331464425 0 0 0 0 -134.6307787198748 406.36882887099455 0 406.36882887099455 148.07263877793866 0 0 0 0 0.35782246642338578 359.65569371470201 0 359.65569371470201 -51.031141395598752 0 0 0 0 -57.567666001414182 397.22952261931778 0 397.22952261931778 -30.915637598989406 0 0 0 0 -31.285732703559916 335.48207782778718 0 335.48207782778718 -259.47235566488689 0 0 0 0 -4.5872954661001017 6.2187815061965921 0 6.2187815061965921 5.3071074230005877 0 0 0 0 -323.28840587435116 234.11647954406135 0 234.11647954406135 104.04635380632863 0 0 0 0 252.16730344318785 314.29657414256326 0 314.29657414256326 97.348532114783666 0 0 0 0 -34.840815507457592 418.34543151482467 0 418.34543151482467 139.82187828957353 0 0 0 0 -0.10692472133086994 323.71675056384584 0 323.71675056384584 60.626817691671931 0 0 0 0 -0.080205705278785899 305.28972823846158 0 305.28972823846158 271.68426399133421 0 0 0 0 -55.585266946993215 264.95461471827832 0 264.95461471827832 342.3615191475501 0 0 0 0 236.56295421239338 278.83698588295101 0 278.83698588295101 258.74664701971187 0 0 0 0 61.534972283785464 248.75106467752607 0 248.75106467752607 301.42513444617771 0 0 0 0 26.628945540178393 304.11138515084099 0 304.11138515084099 247.20688448348369 0 0 0 0 -2.1904680121945432 1.5468074234250935 0 1.5468074234250935 8.6668066041575607 0 0 0 0 146.95970347264665 456.57217240943748 0 456.57217240943748 12.861264796939849 0 0 0 0 600.90105968892749 536.42661419103456 0 536.42661419103456 292.08241668536107 0 0 0 0 383.60627139973803 271.83112030871837 0 271.83112030871837 226.83468658000857 0 0 0 0 205.85518926481018 392.10200978200146 0 392.10200978200146 322.39513227851035 0 0 0 0 -0.59044874115232915 -3.6097358771647521 0 -3.6097358771647521 22.633964431080152 0 0 0 0 183.6424461955321 234.36284256901308 0 234.36284256901308 345.33061866320168 0 0 0 0 236.42374348154408 281.01346545920023 0 281.01346545920023 240.07163505506173 0 0 0 0 186.95202651212458 -234.0537957345083 0 -234.0537957345083 -249.81688252518279 0 0 0 0 -301.69542544495198 -146.32422431922441 0 -146.32422431922441 37.495839949380525 0 0 0 0 56.750369357527234 -134.03793608284195 0 -134.03793608284195 -91.718823714137443 0 0 0 0 50.318778689630562 -65.030607773720476 0 -65.030607773720476 114.79103735496551 0 0 0 0 476.07296720742306 154.99916694835906 0 154.99916694835906 -76.376652508387906 0 0 0 0 0.67195348289334333 -2.4158233277711361 0 -2.4158233277711361 2.3714078758763257 0 0 0 0 -0.81609841920335668 4.985554953475571 0 4.985554953475571 44.191809526773987 0 0 0 0 -149.95689585398941 204.31600554872011 0 204.31600554872011 -186.8721112376079 0 0 0 0 171.18053417673218 -174.80787873313074 0 -174.80787873313074 -30.946528517208662 0 0 0 0 -279.90601776846233 -168.55090581584633 0 -168.55090581584633 44.427069962376208 0 0 0 0 66.716455535046407 -28.171752709042266 0 -28.171752709042266 -2.6596685895581231 0 0 0 0 -279.0810721235739 -170.0964270531347 0 -170.0964270531347 -125.04365076812655 0 0 0 0 -294.93303045431094 -318.06766034079078 0 -318.06766034079078 16.069385100687896 0 0 0 0 -334.62203612536541 -112.41043907723838 0 -112.41043907723838 -137.37818120099246 0 0 0 0 -469.57299180720292 414.85109834005198 0 414.85109834005198 -322.75769702443176 0 0 0 0 -424.89402910372883 -139.86153032923039 0 -139.86153032923039 -101.30498430649016 0 0 0 0 -646.08126173874189 111.89688822783478 0 111.89688822783478 -199.85724023609799 0 0 0 0 -511.64805267473275 328.4874391798345 0 328.4874391798345 138.85280285385488 0 0 0 0 -535.41501661276561 -198.08721563182155 0 -198.08721563182155 13.870284781064584 0 0 0 0 -304.10674573287952 -100.9571166497384 0 -100.9571166497384 -98.34711344630341 0 0 0 0 -951.31913194713707 -460.28657990540529 0 -460.28657990540529 -248.9686028312305 0 0 0 0 -496.58673073958926 627.72781387621444 0 627.72781387621444 -532.26859274513436 0 0 0 0 -1380.7217751878052 244.84039275449499 0 244.84039275449499 191.97363811860714 0 0 0 0 -4.0727457400946605 5.304240314137104 0 5.304240314137104 -9.2819232584419993 0 0 0 0 186.41930783445423 -40.919962276150457 0 -40.919962276150457 -653.05235599783691 0 0 0 0 -1758.7584975679565 -112.30526839260341 0 -112.30526839260341 108.18468775505426 0 0 0 0 -220.25617307508946 -126.00804256901347 0 -126.00804256901347 5.5953001764155488 0 0 0 0 -807.06319219850411 645.06629514396229 0 645.06629514396229 -749.03687991999459 0 0 0 0 198.16933153538344 103.62673877535326 0 103.62673877535326 -320.1706252983372 0 0 0 0 82.172456098051043 -18.394659673693212 0 -18.394659673693212 -167.5604520913034 0 0 0 0 271.25192617421271 216.22205745855058 0 216.22205745855058 -233.69848047937114 0 0 0 0 201.86871490805061 15.535618205283384 0 15.535618205283384 -298.01514094360704 0 0 0 0 -2.1596409062324256 7.5011804148163321 0 7.5011804148163321 -4.7649002466004484 0 0 0 0 125.58171934697748 247.72599899887695 0 247.72599899887695 162.95422431184966 0 0 0 0 88.448648442776175 139.9832964041824 0 139.9832964041824 -153.61592650709406 0 0 0 0 110.05218940877967 31.081691316683646 0 31.081691316683646 39.094364216153508 0 0 0 0 -0.80251963446193031 4.0583488990691663 0 4.0583488990691663 -2.6720294514739593 0 0 0 0 -619.43379404423104 465.0774893152248 0 465.0774893152248 580.03819137749906 0 0 0 0 77.661684886974399 119.00533946171436 0 119.00533946171436 -832.81343424649617 0 0 0 0 33.606788633082033 79.053516685342629 0 79.053516685342629 -220.90737196736586 0 0 0 0 92.316802769522837 413.31633373010993 0 413.31633373010993 -157.42357978213249 0 0 0 0 83.280998912145151 264.40171997861148 0 264.40171997861148 58.953733624015968 0 0 0 0 0.54634312236157712 438.6452051963247 0 438.6452051963247 416.11016500064511 0 0 0 0 194.43445228687051 167.33466030188708 0 167.33466030188708 162.8642611830046 0 0 0 0 -35.695894625347137 111.20027273600681 0 111.20027273600681 -157.93375131624043 0 0 0 0 -45.014195161580574 331.24172379142783 0 331.24172379142783 82.537599653540383 0 0 0 0 -67.357764280764968 -145.02815408226115 0 -145.02815408226115 -151.51424517296482 0 0 0 0 -447.68053582527955 -471.65194248130553 0 -471.65194248130553 -137.77856117980446 0 0 0 0 137.8241146759683 -330.33224424524678 0 -330.33224424524678 -360.50027630808017 0 0 0 0 72.669235346174901 60.606392432564405 0 60.606392432564405 91.422605619231035 0 0 0 0 217.99198398723092 268.79125763234333 0 268.79125763234333 -109.20045008276793 0 0 0 0 124.86709913470258 601.87285144563521 0 601.87285144563521 761.51889392720432 0 0 0 0 -0.85770465810492169 987.04745867301335 0 987.04745867301335 1950.4261404405033 0 0 0 0 11.633014939434361 975.68121220493504 0 975.68121220493504 1158.4171846556073 0 0 0 0 -132.23491585880402 126.61263853394576 0 126.61263853394576 1249.8954622470471 0 0 0 0 -147.21226770832436 213.58668415588545 0 213.58668415588545 2288.7137819427553 0 0 0 0 2.6925027603369358 9.3891737337265226 0 9.3891737337265226 25.225396966677213 0 0 0 0 397.24382624019927 -204.53285295051637 0 -204.53285295051637 65.593156927283417 0 0 0 0 -1865.8691603813277 -565.5467291713444 0 -565.5467291713444 -3331.0373341110535 0 0 0 0 469.10904047406802 -507.07200987099895 0 -507.07200987099895 1292.5835057796548 0 0 0 0 -224.4624624322314 193.51953250791439 0 193.51953250791439 1215.3417200893655 0 0 0 0 -159.93935344845067 450.94860678578982 0 450.94860678578982 -229.42220592356534 0 0 0 0 -57.348670849678456 -107.7716182621316 0 -107.7716182621316 129.92704481397868 0 0 0 0 65.044442152415286 -136.32838718741823 0 -136.32838718741823 529.45745472258795 0 0 0 0 -0.84424151533295344 8.383487783844771 0 8.383487783844771 10.723241044351813 0 0 0 0 24.698073031955573 89.933815155474576 0 89.933815155474576 335.69329019345059 0 0 0 0 82.834636053274153 -36.980965045499488 0 -36.980965045499488 612.44076167333651 0 0 0 0 -1.4062520368464675 3.7612350289907539 0 3.7612350289907539 5.6396795706077825 0 0 0 0 -83.664485366025474 -170.521394191529 0 -170.521394191529 1547.7561834774451 0 0 0 0 -1.4660474728734698 141.75965274609689 0 141.75965274609689 212.56159946942512 0 0 0 0 68.401387539226562 -45.791686259180096 0 -45.791686259180096 182.59343541238684 0 0 0 0 -18.761263622211118 -18.753125072843204 0 -18.753125072843204 229.75604778518118 0 0 0 0 -6.8188662487518741 -47.932275969603779 0 -47.932275969603779 67.250350851700205 0 0 0 0 -183.40704234917939 147.83645919281344 0 147.83645919281344 25.614831032773509 0 0 0 0 -562.70774203816109 85.529564334056886 0 85.529564334056886 119.73400152017985 0 0 0 0 -178.36538210676008 41.777768785043122 0 41.777768785043122 -50.389501728988762 0 0 0 0 -0.32803937249268955 -1.8434892332055313 0 -1.8434892332055313 -0.016464189078526204 0 0 0 0 -132.85619824877358 152.15358489141272 0 152.15358489141272 59.627066339428907 0 0 0 0 -321.62133694479417 148.86167820228752 0 148.86167820228752 41.000638819017468 0 0 0 0 -0.19864808873375495 0.043060968963345658 0 0.043060968963345658 -0.47454068556312734 0 0 0 0 -89.243228453138727 77.012873157839181 0 77.012873157839181 -22.253095631384895 0 0 0 0 0.55919130840629805 239.26428568664403 0 239.26428568664403 62.326198574339998 0 0 0 0 58.498750190832652 231.41581018237997 0 231.41581018237997 -33.187096379169589 0 0 0 0 -15.175916222797241 85.335943489374358 0 85.335943489374358 23.143792632236909 0 0 0 0 62.110741825563309 81.572614737275217 0 81.572614737275217 231.70934016883939 0 0 0 0 61.185152281701448 298.05280630535503 0 298.05280630535503 149.23374269315553 0 0 0 0 114.85550162989239 210.23468150803888 0 210.23468150803888 -33.617152450942285 0 0 0 0 128.26930267874559 116.04191242797904 0 116.04191242797904 162.35317524514949 0 0 0 0 75.674182446877239 213.33043992554917 0 213.33043992554917 132.73410887712566 0 0 0 0 80.037267966763466 162.78616814687973 0 162.78616814687973 73.828267349270959 0 0 0 0 36.920239464336191 82.437673545508687 0 82.437673545508687 -188.47675232235281 0 0 0 0 76.448835319228237 12.080383220833937 0 12.080383220833937 -169.19122980489237 0 0 0 0 -1.634520846709961 7.3958182732159301 0 7.3958182732159301 -4.9005258087932146 0 0 0 0 33.701382297193049 -49.068299759338515 0 -49.068299759338515 -402.20771200353374 0 0 0 0 -290.67931776771002 524.66001674686208 0 524.66001674686208 -564.78417601521824 0 0 0 0 -32.087417900183937 170.70420144455898 0 170.70420144455898 -95.360401446699711 0 0 0 0 24.687946368780104 189.61452804696921 0 189.61452804696921 -262.80648513916526 0 0 0 0 -3.8579181152342699 10.499958500784061 0 10.499958500784061 11.631341791522798 0 0 0 0 -332.04424422699958 374.29353980263409 0 374.29353980263409 -691.61595367725567 0 0 0 0 -220.10473098315197 530.47923284400463 0 530.47923284400463 -616.57061547156445 0 0 0 0 -332.13697637739824 492.06005474620179 0 492.06005474620179 -858.71216492159988 0 0 0 0 -175.80261814511323 573.38541058113242 0 573.38541058113242 -932.45386547075896 0 0 0 0 -15.308687796205049 297.64578791215433 0 297.64578791215433 435.50351356730584 0 0 0 0 -126.85579380442505 305.23286806619836 0 305.23286806619836 -1105.1619371933821 0 0 0 0 0.1286827775314805 4.439083595181927 0 4.439083595181927 -3.3026546995207267 0 0 0 0 -227.4046459733363 719.35144631442563 0 719.35144631442563 -269.76948028298307 0 0 0 0 -945.33898323891299 384.787354404756 0 384.787354404756 -147.91676237526303 0 0 0 0 337.4772423274253 269.13532165857873 0 269.13532165857873 85.550491350175207 0 0 0 0 -0.56508056550931585 -0.65244599972203332 0 -0.65244599972203332 0.12263168278436076 0 0 0 0 34.243804365338292 197.32059188288292 0 197.32059188288292 113.88765524483813 0 0 0 0 104.4248759254624 119.61569607634442 0 119.61569607634442 -8.4705736261938682 0 0 0 0 -77.642309142938757 146.40745001096778 0 146.40745001096778 24.10152649374254 0 0 0 0 -0.33517156771833001 0.69011352047783703 0 0.69011352047783703 -0.27063578502854035 0 0 0 0 -274.83612087829169 191.70109789835465 0 191.70109789835465 -9.9688476806998096 0 0 0 0 -297.53586702734174 173.45040742939932 0 173.45040742939932 24.895632404964203 0 0 0 0 -194.37897889869055 217.48377501998493 0 217.48377501998493 -309.65481054819611 0 0 0 0 -470.40358935896074 116.70011393002687 0 116.70011393002687 -31.626682787808591 0 0 0 0 -372.4320483719348 335.66746522502035 0 335.66746522502035 -274.49814427979106 0 0 0 0 -389.72686259867623 483.90541434956276 0 483.90541434956276 -555.65345936001358 0 0 0 0 -295.9266369590041 222.40119090503708 0 222.40119090503708 -328.74097913855849 0 0 0 0 -227.71151756477775 280.52557347370748 0 280.52557347370748 -389.13957094037778 0 0 0 0 -40.427376794570591 -144.79120056935517 0 -144.79120056935517 509.37324662290712 0 0 0 0 1.3877624137552971 17.149266686740866 0 17.149266686740866 17.256118594963851 0 0 0 0 14.354124848949141 -233.70450743451238 0 -233.70450743451238 86.434365307055714 0 0 0 0 -49.835240996263565 158.42413678708411 0 158.42413678708411 180.25716594252657 0 0 0 0 207.58511435404216 -99.386799138666902 0 -99.386799138666902 118.17640053556869 0 0 0 0 8.9263950958848 -286.15288589744387 0 -286.15288589744387 583.74581601061936 0 0 0 0 -7.7065131642157212 -51.104210078392725 0 -51.104210078392725 221.03613066550133 0 0 0 0 -8.0454157488374847 0.69313965923947407 0 0.69313965923947407 15.657765469404275 0 0 0 0 12.365812107367674 67.309986019864482 0 67.309986019864482 -69.190998198280113 0 0 0 0 -144.64978622388298 84.294264554060646 0 84.294264554060646 53.283397997904103 0 0 0 0 -58.993410185460561 33.075337379523454 0 33.075337379523454 48.338211694950829 0 0 0 0 -221.43091089754307 55.197004737774137 0 55.197004737774137 172.84675697060248 0 0 0 0 62.839680606382899 84.577029753022089 0 84.577029753022089 -189.76847068435768 0 0 0 0 -3.997238252124248 4.9333231801910031 0 4.9333231801910031 1.6933943674863019 0 0 0 0 36.452564136256115 -39.337371298580024 0 -39.337371298580024 185.07446705686817 0 0 0 0 24.260609964170726 168.57506188606339 0 168.57506188606339 32.152002476899725 0 0 0 0 -110.9466872477351 124.11874194882739 0 124.11874194882739 305.29079377425569 0 0 0 0 -125.6828371945594 28.606220093064621 0 28.606220093064621 83.847693736778638 0 0 0 0 -11.209406490786932 -15.251883540937342 0 -15.251883540937342 85.450633990385086 0 0 0 0 -42.611193415243179 73.172769644425898 0 73.172769644425898 87.078047528872048 0 0 0 0 10.154744830510936 25.609327449376842 0 25.609327449376842 24.048403985412605 0 0 0 0 -61.174759676810936 -102.78913919965635 0 -102.78913919965635 378.48391426589251 0 0 0 0 61.550149502974818 253.74521511533067 0 253.74521511533067 -497.70413639981905 0 0 0 0 -166.79965033863846 128.16149633399499 0 128.16149633399499 -78.825415650485184 0 0 0 0 -94.032952282374026 62.164143369338944 0 62.164143369338944 -51.853327995284189 0 0 0 0 -109.7168634103582 68.889656631556079 0 68.889656631556079 -52.573226532230365 0 0 0 0 498.48123316158308 272.68177000223159 0 272.68177000223159 15.022717856369582 0 0 0 0 -0.79017017243313603 -142.67756199967243 0 -142.67756199967243 378.71969423594874 0 0 0 0 221.6407268262119 -262.71376895034518 0 -262.71376895034518 848.83790249544518 0 0 0 0 121.61884982603806 249.60836019761769 0 249.60836019761769 383.73370147064588 0 0 0 0 -30.076919161812839 98.173360486042839 0 98.173360486042839 786.72445519306166 0 0 0 0 -16.675670630322514 2.3815913689511206 0 2.3815913689511206 8.4821012935954148 0 0 0 0 -203.53404707837035 202.97854407565319 0 202.97854407565319 69.424031952442874 0 0 0 0 44.029671759224584 65.206833494688652 0 65.206833494688652 -198.55536472213316 0 0 0 0 -266.34256247829762 465.87090959353736 0 465.87090959353736 -378.2664437127878 0 0 0 0 -250.17634240427287 488.19693347459361 0 488.19693347459361 -422.46335735696039 0 0 0 0 -102.56517852497927 312.5097893750924 0 312.5097893750924 -587.37401090716867 0 0 0 0 -0.49529787067677944 10.318912648825354 0 10.318912648825354 0.53749569643877493 0 0 0 0 -407.76634269125316 342.58465431401964 0 342.58465431401964 352.21558698667559 0 0 0 0 -360.75449144400773 230.38783350322342 0 230.38783350322342 605.8971908817216 0 0 0 0 -273.35535096109379 323.51188022464316 0 323.51188022464316 57.019639602684208 0 0 0 0 -391.39841384421197 442.25144736598315 0 442.25144736598315 -57.962100873336567 0 0 0 0 -310.25566691650602 199.94711049477996 0 199.94711049477996 11.685054619885705 0 0 0 0 163.92175823752132 113.81994821683278 0 113.81994821683278 -115.07241165848427 0 0 0 0 -69.931564220976725 175.44762641013267 0 175.44762641013267 27.861977634417599 0 0 0 0 -61.824157649447443 188.92889223566863 0 188.92889223566863 -264.80500155549498 0 0 0 0 -0.14173220832526567 101.51925441759295 0 101.51925441759295 -174.75494031500875 0 0 0 0 -392.18545527846436 297.74939104834812 0 297.74939104834812 -61.719650832352272 0 0 0 0 440.35385587702331 11.295431939664013 0 11.295431939664013 -126.85390740314142 0 0 0 0 0.70058228433481418 49.353946582221397 0 49.353946582221397 12.177077396316463 0 0 0 0 12.747872451720468 152.54208419475162 0 152.54208419475162 27.147184525945704 0 0 0 0 -3.7131005886330968 65.138533271225242 0 65.138533271225242 -65.773251691174664 0 0 0 0 -170.47210246491886 97.895364271244944 0 97.895364271244944 -34.95047708930224 0 0 0 0 -123.97863170011988 232.42767308332895 0 232.42767308332895 -307.77077145551993 0 0 0 0 -209.21213290620653 66.904017127428233 0 66.904017127428233 -27.832153275967357 0 0 0 0 -56.20261749860947 242.72371457589361 0 242.72371457589361 -384.37890039357922 0 0 0 0 -440.10659730773477 450.93178955011354 0 450.93178955011354 -349.42131517870303 0 0 0 0 -243.5620544882695 476.7276348788846 0 476.7276348788846 -403.16822145354308 0 0 0 0 -219.52136638536467 164.01500347839487 0 164.01500347839487 -355.92417740403107 0 0 0 0 243.60742604063125 411.66216814873042 0 411.66216814873042 1021.6725220274016 0 0 0 0 -31.085429464959816 -28.228949238877703 0 -28.228949238877703 216.97957162222156 0 0 0 0 3.5703201246950584 7.2732046989120676 0 7.2732046989120676 0.75233830813684044 0 0 0 0 20.926815606246237 138.71362720113393 0 138.71362720113393 100.8163676916738 0 0 0 0 -5.2026341861055698 119.07737892947807 0 119.07737892947807 152.77794238945717 0 0 0 0 -100.3689281256411 51.396810931086748 0 51.396810931086748 117.41339981720012 0 0 0 0 -86.621213033853564 142.37270071582498 0 142.37270071582498 14.800531253531517 0 0 0 0 -120.69157070187794 149.61319556407216 0 149.61319556407216 203.69426957329961 0 0 0 0 -25.677791925816564 65.387611993681276 0 65.387611993681276 123.54577256397533 0 0 0 0 -120.69941557816855 0.24646873734855035 0 0.24646873734855035 91.430100586781919 0 0 0 0 -39.007900314278231 41.82066067412643 0 41.82066067412643 86.563810621355515 0 0 0 0 22.336572687781882 16.659140056579417 0 16.659140056579417 84.108492665172889 0 0 0 0 -57.85776863607316 10.565077364968602 0 10.565077364968602 191.05366093805787 0 0 0 0 -3.6924013071875379 -28.296842129843299 0 -28.296842129843299 163.16985678500168 0 0 0 0 -70.768892195257649 32.404939684006422 0 32.404939684006422 138.56517883786 0 0 0 0 -38.861433996644337 22.741430587276227 0 22.741430587276227 181.29372308332677 0 0 0 0 -21.759946633275831 -9.7454648085549707 0 -9.7454648085549707 258.1980864326033 0 0 0 0 4.2507953527877476 11.32872444550997 0 11.32872444550997 2.5529806288757877 0 0 0 0 41.029365701338975 -21.949521849182929 0 -21.949521849182929 194.08358320587649 0 0 0 0 -72.167740523611428 47.532466525826749 0 47.532466525826749 325.61153741098133 0 0 0 0 6.9480643734264618 10.37184610969318 0 10.37184610969318 -0.66820525920981488 0 0 0 0 31.823932031271397 70.228758071689299 0 70.228758071689299 207.03591828631397 0 0 0 0 -71.764287006782979 625.70201797574327 0 625.70201797574327 1311.8351945945396 0 0 0 0 -246.56230656332627 307.28638666998677 0 307.28638666998677 1437.0528230741293 0 0 0 0 84.889427587302634 265.1322056917179 0 265.1322056917179 1421.8926347171237 0 0 0 0 287.09623672960879 595.16732642284433 0 595.16732642284433 1301.3637313074141 0 0 0 0 -0.31590706780082201 3.908316438875687 0 3.908316438875687 4.0168335536022433 0 0 0 0 278.84331596995253 152.38186460735369 0 152.38186460735369 76.548870126258407 0 0 0 0 -80.374366253781773 129.22213720464606 0 129.22213720464606 -242.37068878230639 0 0 0 0 88.314085489449099 106.29064909418447 0 106.29064909418447 -66.88248243720524 0 0 0 0 146.43306215366465 440.7085109029922 0 440.7085109029922 1342.920925660037 0 0 0 0 302.60740212754172 323.46155457017267 0 323.46155457017267 1425.7437139687363 0 0 0 0 -18.024802774074487 -344.16550067323988 0 -344.16550067323988 -519.10891681032081 0 0 0 0 -148.75089650150039 -54.051341315236641 0 -54.051341315236641 193.3871042157989 0 0 0 0 -91.296463010046864 -11.654658290408406 0 -11.654658290408406 -252.86217487787144 0 0 0 0 -31.658803414873546 -46.392911580165674 0 -46.392911580165674 -130.60218867205367 0 0 0 0 -286.97910342545947 -373.10284891739138 0 -373.10284891739138 -31.947370160283754 0 0 0 0 -92.462639643796138 106.97301942245394 0 106.97301942245394 1628.764375428038 0 0 0 0 111.16319941523983 106.42918239351162 0 106.42918239351162 -68.582255173988884 0 0 0 0 -40.44276401924435 654.39475999488786 0 654.39475999488786 1908.7696029007202 0 0 0 0 333.8132134215557 375.88842672575265 0 375.88842672575265 -702.19241498857446 0 0 0 0 362.20330732493312 732.00709969035415 0 732.00709969035415 2282.7318624309273 0 0 0 0 750.73815018968889 167.45600388168532 0 167.45600388168532 -621.88199006573996 0 0 0 0 181.6790820780443 -225.01613237749552 0 -225.01613237749552 89.396205676457612 0 0 0 0 -354.85446797893383 138.44036577666702 0 138.44036577666702 -156.64301307604183 0 0 0 0 -87.962457030895166 -151.75830573198255 0 -151.75830573198255 409.13359307423525 0 0 0 0 209.05196838616394 92.878345673634612 0 92.878345673634612 178.40316637452634 0 0 0 0 515.60152930850745 -175.09773259107897 0 -175.09773259107897 408.62046488246415 0 0 0 0 626.80958306184039 265.34800111559161 0 265.34800111559161 601.02134918922093 0 0 0 0 777.83740998778376 142.59042041433713 0 142.59042041433713 585.39971206409973 0 0 0 0 328.1877546957694 296.27503864963364 0 296.27503864963364 701.82389062116272 0 0 0 0 24.758195998496376 340.65774655374116 0 340.65774655374116 500.132394472952 0 0 0 0 188.6577528679627 11.185777139842685 0 11.185777139842685 247.75002225511707 0 0 0 0 454.35058511332318 321.84677174341232 0 321.84677174341232 152.9959675049613 0 0 0 0 627.80975769102224 656.74041380279959 0 656.74041380279959 747.83386419541966 0 0 0 0 -3.3184693432995118 201.39574445914332 0 201.39574445914332 -52.148913693610666 0 0 0 0 195.06094444188057 323.39418731446131 0 323.39418731446131 -232.17882675598958 0 0 0 0 -125.2629232823092 332.37064808128707 0 332.37064808128707 169.75992342043901 0 0 0 0 338.12853562677628 566.99110320243926 0 566.99110320243926 182.23864656275828 0 0 0 0 471.90264902065974 312.19784536716907 0 312.19784536716907 -397.38176023674896 0 0 0 0 -10.721713380131405 489.25068297895632 0 489.25068297895632 -234.81814074387296 0 0 0 0 257.16960133961402 235.86453481449644 0 235.86453481449644 -580.05423642526875 0 0 0 0 6.9113609642207621 5.9196949619444723 0 5.9196949619444723 -1.1729665278977812 0 0 0 0 2.886297366479937 1.6917423843075312 0 1.6917423843075312 -0.13179866705689847 0 0 0 0 -147.06567975542566 147.95994221091314 0 147.95994221091314 -331.68587393096095 0 0 0 0 90.465177910311468 809.4107813671244 0 809.4107813671244 578.4430873106794 0 0 0 0 -19.830521565549134 176.03084866525751 0 176.03084866525751 278.56991823558201 0 0 0 0 317.45718500488147 280.88649470493692 0 280.88649470493692 119.82278360895725 0 0 0 0 -0.7328166122397306 2.858721761547276 0 2.858721761547276 -1.7390392675705897 0 0 0 0 72.463879241076938 86.741663950509974 0 86.741663950509974 -430.08905376253824 0 0 0 0 100.15092337330861 127.90315435072625 0 127.90315435072625 -990.35064448317098 0 0 0 0 -125.23102563501904 401.26308496068276 0 401.26308496068276 -346.75131896156381 0 0 0 0 -41.724884152063169 61.779985968138135 0 61.779985968138135 -153.34207910803525 0 0 0 0 127.8005843158171 124.67192687496208 0 124.67192687496208 -443.98366010123027 0 0 0 0 133.08553489924816 94.291486483445624 0 94.291486483445624 -536.5480291706117 0 0 0 0 166.00470035144826 168.93099259780865 0 168.93099259780865 -472.20978314707827 0 0 0 0 35.509863344879705 -14.516756926283051 0 -14.516756926283051 -511.86756816905836 0 0 0 0 74.970553074665077 110.38097252442822 0 110.38097252442822 -337.5463653218394 0 0 0 0 -1.0185859874150651 6.5188496759623629 0 6.5188496759623629 -4.3989935676902263 0 0 0 0 196.92977063990838 239.84189023539147 0 239.84189023539147 -247.76858446238839 0 0 0 0 205.05360614954088 36.576489915180559 0 36.576489915180559 -215.46509064373095 0 0 0 0 247.29140882379579 225.53466323071007 0 225.53466323071007 -811.3138094192982 0 0 0 0 -97.792490265183005 1563.5318812368168 0 1563.5318812368168 1345.6645779177052 0 0 0 0 -87.459153335104929 473.57135757664946 0 473.57135757664946 110.51825820681552 0 0 0 0 321.60116016805114 225.71044306916156 0 225.71044306916156 237.91128985170508 0 0 0 0 193.6099525801219 102.77351947517309 0 102.77351947517309 -647.19869632640621 0 0 0 0 437.32118608763267 467.0229659523975 0 467.0229659523975 -623.55123351303337 0 0 0 0 743.51452409583726 -125.6329221052838 0 -125.6329221052838 -1590.305976612126 0 0 0 0 -0.59815759529311663 3.2303862387402305 0 3.2303862387402305 -2.7094650094437895 0 0 0 0 129.88140630493581 593.9725362524041 0 593.9725362524041 526.17322749917003 0 0 0 0 95.006044268913683 232.78110275766448 0 232.78110275766448 -235.05603760175654 0 0 0 0 94.574375098257207 83.422427344659411 0 83.422427344659411 -728.93187233079516 0 0 0 0 -7.4575797768266057 -137.87568761662533 0 -137.87568761662533 -715.23279227691819 0 0 0 0 37.252465129437041 9.6265953614019963 0 9.6265953614019963 -592.6508650457472 0 0 0 0 215.54582884897536 194.13452059530027 0 194.13452059530027 -392.00772260615486 0 0 0 0 226.1781838281895 -57.66691404359517 0 -57.66691404359517 -583.82537270539979 0 0 0 0 167.01419863705087 -78.52713710898206 0 -78.52713710898206 -742.4880026577448 0 0 0 0 52.51508969501549 107.4363662225893 0 107.4363662225893 -68.126649221701285 0 0 0 0 64.054429006697319 194.97781366259824 0 194.97781366259824 463.85250965356317 0 0 0 0 -12.545145636970119 16.617421677208768 0 16.617421677208768 467.0718529507576 0 0 0 0 -5.1084199244796764 42.383971004903287 0 42.383971004903287 392.9707032209817 0 0 0 0 -0.096835853305663022 2.0041291551358853 0 2.0041291551358853 0.028321263207678804 0 0 0 0 -1.065699293097282 1.5217072213047089 0 1.5217072213047089 -0.0471055875970805 0 0 0 0 61.230794498660543 63.518228020700008 0 63.518228020700008 398.51510181676531 0 0 0 0 7.9296311680664076 170.87329096356098 0 170.87329096356098 628.50768240709749 0 0 0 0 69.807085652343801 106.86919843835105 0 106.86919843835105 -66.110529297991263 0 0 0 0 -38.319974895028281 300.26187805875088 0 300.26187805875088 936.004506873438 0 0 0 0 162.93790490084939 263.58080622048419 0 263.58080622048419 601.91068540216293 0 0 0 0 127.66401846280314 305.69121767823583 0 305.69121767823583 862.98909317485231 0 0 0 0 -16.127856876599253 58.038172525179107 0 58.038172525179107 1419.2679964097238 0 0 0 0 -67.905434835160122 -103.05467033945843 0 -103.05467033945843 983.13624641766728 0 0 0 0 -79.436665209512284 53.239747074168918 0 53.239747074168918 682.15544477062576 0 0 0 0 -2.5168769966114155 2.6873176874420253 0 2.6873176874420253 4.4944339671308171 0 0 0 0 79.11674714734545 26.602724078262327 0 26.602724078262327 361.00277117232372 0 0 0 0 3.5259828929424089 14.582597093904276 0 14.582597093904276 14.628829251507121 0 0 0 0 4.8151124174619326 30.7385234370131 0 30.7385234370131 31.842109837364205 0 0 0 0 2.6264291193074314 -76.495032576336428 0 -76.495032576336428 238.83981760614006 0 0 0 0 14.840820646393695 8.7053879001750829 0 8.7053879001750829 196.57740840604674 0 0 0 0 -9.1640772382961586 -31.805985597768995 0 -31.805985597768995 116.25167111342762 0 0 0 0 -45.525657584352302 6.631495317408735 0 6.631495317408735 199.19642843035217 0 0 0 0 -26.844957215631439 51.386264791734902 0 51.386264791734902 -0.14063614480073738 0 0 0 0 0.93189419252644257 11.102713526135524 0 11.102713526135524 13.475719181379292 0 0 0 0 62.270336634319392 -169.33530395061098 0 -169.33530395061098 272.96402454296003 0 0 0 0 -72.378561280471331 18.475340173554514 0 18.475340173554514 61.683177690451885 0 0 0 0 -18.53144059236547 -30.657591994252357 0 -30.657591994252357 45.614596968140177 0 0 0 0 -31.036029124166816 29.47984160894157 0 29.47984160894157 69.49240507273737 0 0 0 0 -5.9005961842194665 -2.3747452916450129 0 -2.3747452916450129 5.7183224866021192 0 0 0 0 7.8204479784762952 -15.902906718250051 0 -15.902906718250051 80.158799206808908 0 0 0 0 -86.259148230092251 -60.046504635380188 0 -60.046504635380188 159.81338322661031 0 0 0 0 -77.267616402474232 -11.801743170208283 0 -11.801743170208283 53.17093898101075 0 0 0 0 -132.42006556932756 130.31353366762414 0 130.31353366762414 -60.027302172355121 0 0 0 0 -2.5245270933901338 -71.836207640546604 0 -71.836207640546604 93.554879672143215 0 0 0 0 -201.41483673775656 15.689712681179572 0 15.689712681179572 133.07525529388477 0 0 0 0 187.13780746457633 -89.595724041720132 0 -89.595724041720132 40.337311863637296 0 0 0 0 98.825053754233522 -50.642882405264572 0 -50.642882405264572 62.121303940186408 0 0 0 0 95.250731292332148 -111.01595076460899 0 -111.01595076460899 44.086043293600596 0 0 0 0 -664.1790465241429 339.9539915847472 0 339.9539915847472 13.608396469324362 0 0 0 0 -1609.0184633986501 1575.8228350366262 0 1575.8228350366262 1568.8240787956966 0 0 0 0 5.0207472850350712 20.768267679389538 0 20.768267679389538 50.949798833822946 0 0 0 0 -464.66612700819678 -12.127803090259476 0 -12.127803090259476 48.983692519534088 0 0 0 0 -1223.7141801156831 307.55182638171391 0 307.55182638171391 -1171.2450250643742 0 0 0 0 -1684.2828365295891 386.98770679588608 0 386.98770679588608 -538.27737721951416 0 0 0 0 8.0356623394745554 29.176986825906852 0 29.176986825906852 81.926175668376061 0 0 0 0 -5.9360047250811476 -50.292917721260892 0 -50.292917721260892 183.03092697126249 0 0 0 0 114.37224217920448 8.3773215104611154 0 8.3773215104611154 136.8050715004556 0 0 0 0 12.265243951602855 44.894157114806433 0 44.894157114806433 143.34530561459599 0 0 0 0 -1405.3720993137576 1692.2351593319368 0 1692.2351593319368 2322.0361758054642 0 0 0 0 31.778173886952573 -39.363808566117768 0 -39.363808566117768 183.10074469926622 0 0 0 0 3.7172731328647615 10.610635667529749 0 10.610635667529749 15.991508647114458 0 0 0 0 -531.04593992657465 -38.628636621971964 0 -38.628636621971964 720.60400843633397 0 0 0 0 -733.97954992731684 439.7857865164442 0 439.7857865164442 1357.1384504085981 0 0 0 0 -225.88561373409175 1319.1927366287891 0 1319.1927366287891 571.51989189898813 0 0 0 0 -424.51026738979272 636.82610150392793 0 636.82610150392793 -416.61913687311608 0 0 0 0 -1213.4422258490522 9.8036113331036177 0 9.8036113331036177 -364.69168631911452 0 0 0 0 51.731922400707845 320.23460812140911 0 320.23460812140911 -1039.2523584322807 0 0 0 0 6.5893058009096421 -11.040073743535686 0 -11.040073743535686 217.37215274307437 0 0 0 0 -26.966047610971145 28.289084157411708 0 28.289084157411708 190.50279315931948 0 0 0 0 -8.6479954699461814 -32.976804705970608 0 -32.976804705970608 185.89174874549281 0 0 0 0 -8.7493499012480243 -16.433777157970212 0 -16.433777157970212 182.63934489215353 0 0 0 0 -89.876735776051646 -49.816164063883662 0 -49.816164063883662 317.53783631604892 0 0 0 0 28.420603341175593 98.189245107986608 0 98.189245107986608 315.72492429936028 0 0 0 0 3.6624632644743542 95.932659754567339 0 95.932659754567339 336.1407994250294 0 0 0 0 -20.349762644356815 125.11582569631537 0 125.11582569631537 364.38375583687684 0 0 0 0 34.062601096089452 109.93920291095867 0 109.93920291095867 -50.059974202695486 0 0 0 0 -18.107835607224843 144.74179381189788 0 144.74179381189788 272.80415344637913 0 0 0 0 -1133.2760084772017 -191.01924482213508 0 -191.01924482213508 -117.65708543312212 0 0 0 0 11.185492207855162 69.708041474490386 0 69.708041474490386 179.27217688596741 0 0 0 0 -411.32409113249741 703.58193860540268 0 703.58193860540268 -2536.8226232789893 0 0 0 0 -6.2584458028438235 16.659862635336054 0 16.659862635336054 38.884650332025451 0 0 0 0 93.966312326228945 43.620941031520488 0 43.620941031520488 -1682.4261507795891 0 0 0 0 137.79306537058437 -207.59454435732914 0 -207.59454435732914 -242.62587059952784 0 0 0 0 21.128655134672471 25.249982397144265 0 25.249982397144265 -24.313139829838434 0 0 0 0 91.002547291544033 299.70430700627185 0 299.70430700627185 -1855.8194807985856 0 0 0 0 2.8172630375283916 -146.30089144702379 0 -146.30089144702379 -900.54092989210039 0 0 0 0 -1023.4959746892564 894.74252786352736 0 894.74252786352736 -1186.734793891701 0 0 0 0 164.55467542316183 359.72945156737842 0 359.72945156737842 -1902.6038219174952 0 0 0 0 -121.18291394566768 -45.975544969798648 0 -45.975544969798648 -762.26711094779967 0 0 0 0 -47.466350490809418 -152.5385788201238 0 -152.5385788201238 -690.80263763772382 0 0 0 0 -316.25919370714109 293.03630515067925 0 293.03630515067925 -1042.2918723504736 0 0 0 0 -139.95835166267352 118.6422224623966 0 118.6422224623966 -628.72562706596 0 0 0 0 -510.35850688497885 316.26474106254318 0 316.26474106254318 -629.76596812717617 0 0 0 0 -152.09150460272213 70.867773804038734 0 70.867773804038734 -805.53758104871667 0 0 0 0 -507.09303099286626 304.98802015180263 0 304.98802015180263 -806.60234967301949 0 0 0 0 -1339.501973936116 783.3477436907524 0 783.3477436907524 -742.38590277395997 0 0 0 0 -557.50980249470922 598.85120240913693 0 598.85120240913693 -1033.4520596790389 0 0 0 0 -788.1748263874324 395.61233187885591 0 395.61233187885591 -530.90948892290908 0 0 0 0 -552.22649145693867 453.55242986150006 0 453.55242986150006 -847.13838269247208 0 0 0 0 -1168.4261875991942 477.9299714792287 0 477.9299714792287 -521.56633663360935 0 0 0 0 -1215.8229358785466 255.97584073932376 0 255.97584073932376 -302.57827551619266 0 0 0 0 -622.17628717026673 124.62258597987238 0 124.62258597987238 -380.91707983309607 0 0 0 0 -1340.5134698233815 383.83073130638149 0 383.83073130638149 -272.26066956862633 0 0 0 0 -1362.1120894625783 442.71200470178155 0 442.71200470178155 -295.25285729023381 0 0 0 0 -282.38462817635445 239.95628217641934 0 239.95628217641934 -492.58885878751971 0 0 0 0 -297.20196492342802 301.73918400615003 0 301.73918400615003 -708.18840891913715 0 0 0 0 -1433.328182072335 810.19534338478115 0 810.19534338478115 -102.8134345637842 0 0 0 0 -1553.8722520646115 555.83111842445214 0 555.83111842445214 -358.6076559828507 0 0 0 0 -1481.4403610591253 514.85119698949711 0 514.85119698949711 -377.5272557520384 0 0 0 0 -1251.8247751997842 647.61254900996209 0 647.61254900996209 -774.62228076784231 0 0 0 0 -652.92458738073037 673.97735706638196 0 673.97735706638196 -630.97881826627781 0 0 0 0 -1344.2144123775288 405.80368699257815 0 405.80368699257815 -731.04783497280732 0 0 0 0 -580.05781148918322 864.33068444901437 0 864.33068444901437 -981.70580258536211 0 0 0 0 -1133.0089171558211 301.97313888805002 0 301.97313888805002 -1511.4840107699347 0 0 0 0 -954.26144861543435 1039.18779079253 0 1039.18779079253 -1283.7802081809368 0 0 0 0 -1367.0734099309921 1422.2470619072919 0 1422.2470619072919 -1818.6053954080562 0 0 0 0 -2383.4980783100182 487.75861452337995 0 487.75861452337995 -792.81117603492203 0 0 0 0 -1859.1451360037317 40.035587878152 0 40.035587878152 453.60602979398936 0 0 0 0 -1906.5991983967924 801.01431347138691 0 801.01431347138691 -482.73581703529635 0 0 0 0 -820.57117779171676 254.21931162053443 0 254.21931162053443 -252.64481094453367 0 0 0 0 -633.2495395198639 591.4323356287714 0 591.4323356287714 -751.42894065573637 0 0 0 0 -757.23675655891202 813.18679217795057 0 813.18679217795057 -503.12214140771539 0 0 0 0 -166.70731733879074 579.89682721266581 0 579.89682721266581 -655.94778150181082 0 0 0 0 -376.67289110446291 940.34538638687809 0 940.34538638687809 -899.40030876462697 0 0 0 0 -319.73780611420807 911.35281413009943 0 911.35281413009943 -307.49023616397244 0 0 0 0 -118.07786961284 673.01727291971838 0 673.01727291971838 -802.65974121007457 0 0 0 0 -190.75940803686535 759.07737512417953 0 759.07737512417953 -872.37565072191501 0 0 0 0 -449.8223018739227 753.79743034671992 0 753.79743034671992 -1011.8354549600353 0 0 0 0 -91.351925211918569 730.66623583694127 0 730.66623583694127 -1865.4010668381816 0 0 0 0 1.550311755625728 0.86888466290992028 0 0.86888466290992028 -1.5464708317904439 0 0 0 0 -278.0222710705566 585.56387877104498 0 585.56387877104498 -34.713004237397399 0 0 0 0 -170.98871172192594 627.65077127164477 0 627.65077127164477 -641.89208411929576 0 0 0 0 -64.699025976122357 813.09759349913384 0 813.09759349913384 -376.43513907883607 0 0 0 0 -10.565449261746835 750.07460334350253 0 750.07460334350253 -641.18943074521997 0 0 0 0 -86.78481841251778 924.84127240914313 0 924.84127240914313 -667.56343129410743 0 0 0 0 -588.27628804427331 938.60252017854691 0 938.60252017854691 -431.53837727440259 0 0 0 0 138.33086316911795 562.10057267609227 0 562.10057267609227 -783.57188748673855 0 0 0 0 -33.451301127432089 668.89164809039175 0 668.89164809039175 -1111.6557792579333 0 0 0 0 -212.06218496560177 490.38679431097989 0 490.38679431097989 -780.15830777132533 0 0 0 0 -288.92938845188473 617.5412549880657 0 617.5412549880657 160.93461176656911 0 0 0 0 0.18226864396502582 681.81286614857834 0 681.81286614857834 -1516.5931277057243 0 0 0 0 1.822062022455782 0.58665747899679843 0 0.58665747899679843 -1.8749455525601348 0 0 0 0 2.6543234660421149 2.8048795130375339 0 2.8048795130375339 -1.4387767851715836 0 0 0 0 -214.79263929204535 701.9224338362128 0 701.9224338362128 -435.15610909854149 0 0 0 0 0.1060787429305492 745.87709969997741 0 745.87709969997741 -532.67665140199824 0 0 0 0 -563.63218710928049 566.96381636092519 0 566.96381636092519 -498.20204556379394 0 0 0 0 -0.62529480805096682 359.13039863342601 0 359.13039863342601 -468.9100986821104 0 0 0 0 2.7844304924546037 5.2500602482704437 0 5.2500602482704437 -2.8403260210233725 0 0 0 0 -944.95563457778189 1159.5287122603004 0 1159.5287122603004 -557.91033756062097 0 0 0 0 295.69149494376325 687.41980514557144 0 687.41980514557144 -226.88689685072313 0 0 0 0 816.7402362691646 133.97608995911105 0 133.97608995911105 -124.68654335555038 0 0 0 0 -431.46769229988126 970.44496001696916 0 970.44496001696916 24.413649894951959 0 0 0 0 -442.5668675647903 532.12293635073365 0 532.12293635073365 345.14409942878228 0 0 0 0 -425.8630361393225 500.36806699720273 0 500.36806699720273 245.83812418252637 0 0 0 0 -734.22447234748688 458.82983156233308 0 458.82983156233308 470.32713012374734 0 0 0 0 -435.05705904826755 173.4611000487912 0 173.4611000487912 161.18556797165002 0 0 0 0 -459.56662090207101 213.48169101063831 0 213.48169101063831 602.86112000106186 0 0 0 0 -40.490733315047692 152.36609798789868 0 152.36609798789868 61.626590361780472 0 0 0 0 -75.072651758790016 390.06887650382851 0 390.06887650382851 276.61961361567046 0 0 0 0 -44.934120010198967 159.32346907485953 0 159.32346907485953 55.891292600455927 0 0 0 0 -186.695602967171 80.544127948876849 0 80.544127948876849 53.524245797798358 0 0 0 0 -240.34248054186173 215.44407005291214 0 215.44407005291214 99.638138077700205 0 0 0 0 -391.50261530866555 284.86541365164521 0 284.86541365164521 -166.17353298236412 0 0 0 0 -546.58024212204327 165.19087915561067 0 165.19087915561067 10.563351560333103 0 0 0 0 -376.85091787342208 117.6553863681321 0 117.6553863681321 37.309083040599944 0 0 0 0 -358.09944951084617 238.23105970301185 0 238.23105970301185 -37.113994810253644 0 0 0 0 -147.33400993318355 132.63041532200259 0 132.63041532200259 -13.43428458485505 0 0 0 0 -281.69068522848829 89.985489186309678 0 89.985489186309678 15.713590068728081 0 0 0 0 -62.257322448771447 71.50221402317402 0 71.50221402317402 -46.202582410991454 0 0 0 0 -126.33275343801688 31.61168556482744 0 31.61168556482744 24.748565505145962 0 0 0 0 -84.040883885274525 94.898018585985483 0 94.898018585985483 -90.261371131426131 0 0 0 0 -0.078437777694489341 119.35362268274184 0 119.35362268274184 -132.63966595066086 0 0 0 0 4.8792807412458501 10.568068921491403 0 10.568068921491403 -4.2397781746134058 0 0 0 0 -389.09312447275079 390.82518197497939 0 390.82518197497939 -322.0731706592087 0 0 0 0 81.850715658096306 25.095432239568254 0 25.095432239568254 -9.3984824780454801 0 0 0 0 5.5788103185269904 8.8783474795785082 0 8.8783474795785082 -4.5181721409554285 0 0 0 0 35.188901561748935 24.017054076477507 0 24.017054076477507 -7.7985067769914167 0 0 0 0 77.687345171463676 65.742215517144359 0 65.742215517144359 26.500435933092376 0 0 0 0 -7.361141279965409 12.968475973699327 0 12.968475973699327 19.225683797643825 0 0 0 0 8.1912026115169283 79.715406700328458 0 79.715406700328458 52.593606772428757 0 0 0 0 -0.12068176276807208 50.006260405476496 0 50.006260405476496 -13.545880192723416 0 0 0 0 -23.207724412714015 36.492020422236237 0 36.492020422236237 -9.5998570930642018 0 0 0 0 845.09166380099487 435.71379853268445 0 435.71379853268445 -141.46448777419573 0 0 0 0 2.809356854709808 53.488701205986416 0 53.488701205986416 -54.675370681607546 0 0 0 0 67.977343344702604 -50.248243582546365 0 -50.248243582546365 -25.720627594302641 0 0 0 0 7.4606447138072554 3.5477104784699236 0 3.5477104784699236 -1.9778064698872129 0 0 0 0 604.39391878446622 282.92300533140951 0 282.92300533140951 -117.95724084187532 0 0 0 0 -174.28409498733527 337.7791036294002 0 337.7791036294002 52.095407750348386 0 0 0 0 198.13190718306578 184.72334109642543 0 184.72334109642543 12.614963737520156 0 0 0 0 -362.72088002896999 632.48851461567392 0 632.48851461567392 -102.92024860865786 0 0 0 0 106.39168670705112 378.52478894499654 0 378.52478894499654 -13.093451416938478 0 0 0 0 -36.346052740404104 58.078455176318563 0 58.078455176318563 -53.531061812336645 0 0 0 0 75.48927186844594 -18.203410151683784 0 -18.203410151683784 -257.97935587796383 0 0 0 0 -759.56985000375425 156.99347746989224 0 156.99347746989224 173.27807942459094 0 0 0 0 -416.36554616354988 183.43363517865873 0 183.43363517865873 166.4515331432558 0 0 0 0 -42.719536217999519 45.136181479720292 0 45.136181479720292 -35.166271948637501 0 0 0 0 127.53631620322994 209.22426292355885 0 209.22426292355885 183.77975921650068 0 0 0 0 1.800862891667677 3.5761086786887972 0 3.5761086786887972 8.4924760726284774 0 0 0 0 -575.80358362148399 8.8304384830571507 0 8.8304384830571507 502.90590930160397 0 0 0 0 -227.51662034868787 234.93765478246678 0 234.93765478246678 59.763159883979824 0 0 0 0 19.765534883656073 88.398712329983027 0 88.398712329983027 119.17510141227831 0 0 0 0 0.54929529440414626 57.318902888135199 0 57.318902888135199 68.912154772577196 0 0 0 0 697.95019919707556 544.59131020439963 0 544.59131020439963 352.22975442328425 0 0 0 0 -0.094882732570113149 533.50294118976672 0 533.50294118976672 1054.4176203646639 0 0 0 0 374.6082268980681 657.31262131013318 0 657.31262131013318 233.27680475384113 0 0 0 0 184.9022923133889 246.27063637098036 0 246.27063637098036 861.79025712977636 0 0 0 0 175.82961785840234 409.9573293174426 0 409.9573293174426 -123.87937979789422 0 0 0 0 0.24975746175186941 639.43266913945808 0 639.43266913945808 325.97763654441951 0 0 0 0 39.96304296168455 697.5925378426482 0 697.5925378426482 235.09693414402136 0 0 0 0 -0.20483463542041136 734.83298224365717 0 734.83298224365717 -314.51484812525814 0 0 0 0 -193.62238753252313 653.04865456003608 0 653.04865456003608 -455.92560146149845 0 0 0 0 155.30111929633131 549.82233355954304 0 549.82233355954304 -304.63657932139813 0 0 0 0 320.91004627257644 361.41663858926768 0 361.41663858926768 269.99418457479987 0 0 0 0 30.177427246762818 887.84130410429043 0 887.84130410429043 -213.35114476578019 0 0 0 0 3.4721233438212948 627.0105324807796 0 627.0105324807796 618.2948687907483 0 0 0 0 -2.9365326557744993 635.80884467859869 0 635.80884467859869 890.51326243037329 0 0 0 0 -255.51143188605784 369.48892091007656 0 369.48892091007656 908.22541400617774 0 0 0 0 38.789685071897111 168.29649570311085 0 168.29649570311085 193.01221345247814 0 0 0 0 -30.688260724900346 31.491919237056649 0 31.491919237056649 -20.181159934631012 0 0 0 0 395.86115656663605 589.20766311374246 0 589.20766311374246 600.69022548023349 0 0 0 0 -1530.9869819535306 -309.72126456009028 0 -309.72126456009028 173.02031715587509 0 0 0 0 -1044.1876507182169 51.378406049581827 0 51.378406049581827 -60.95424319274116 0 0 0 0 -3618.4389602360607 -312.27268914785236 0 -312.27268914785236 -111.61914533346589 0 0 0 0 974.63096145075178 1331.3341011800458 0 1331.3341011800458 -456.49474412113341 0 0 0 0 -13.953361549414183 12.484979300799608 0 12.484979300799608 -5.8218815356871403 0 0 0 0 -1831.0869599932339 1272.3746148495775 0 1272.3746148495775 -507.15385851635074 0 0 0 0 -1851.2349836985522 110.51146709890236 0 110.51146709890236 -411.14070912559691 0 0 0 0 -2205.6002227331192 710.22989618587962 0 710.22989618587962 -100.19833112837011 0 0 0 0 -824.30963624009382 1705.07992739578 0 1705.07992739578 -413.54652543944394 0 0 0 0 -658.81777885217161 39.177394589396499 0 39.177394589396499 -2.4525840778587735 0 0 0 0 -867.69912893578294 447.98788162270648 0 447.98788162270648 -586.56132158646142 0 0 0 0 -1258.3699838545872 152.48899340046773 0 152.48899340046773 -764.56107533294198 0 0 0 0 120.23623571547796 -20.459992826548842 0 -20.459992826548842 -142.84543401341944 0 0 0 0 -7.174554612553095 5.2943384938334859 0 5.2943384938334859 -1.8658325119930055 0 0 0 0 -1148.1524074541157 910.10020664294188 0 910.10020664294188 606.35645401024522 0 0 0 0 -1156.4386170153521 765.72127063450171 0 765.72127063450171 -452.77140689167572 0 0 0 0 -1531.3804469741517 517.20225539685453 0 517.20225539685453 219.14436091382959 0 0 0 0 -867.17728634254308 857.58546458918136 0 857.58546458918136 -427.68614732721835 0 0 0 0 -1144.7542331139302 1057.8359802190371 0 1057.8359802190371 169.81552189047216 0 0 0 0 -368.31687583464372 108.00515668421212 0 108.00515668421212 955.32215503908446 0 0 0 0 -684.56488564538085 1163.2134842759788 0 1163.2134842759788 174.45702180959051 0 0 0 0 -183.79064739173555 150.70942594719781 0 150.70942594719781 254.42918197052495 0 0 0 0 -1074.4065909434648 565.74536318199534 0 565.74536318199534 1705.4252496848203 0 0 0 0 -972.56893828995817 292.17815123926266 0 292.17815123926266 323.004185163496 0 0 0 0 -751.63622912289065 201.22806688597666 0 201.22806688597666 332.29243486085034 0 0 0 0 -10.60013795501493 6.0205411083916829 0 6.0205411083916829 4.9914868369035901 0 0 0 0 -728.68975985269935 388.44883749142173 0 388.44883749142173 258.29434637935628 0 0 0 0 -969.59027616131061 416.50953685495188 0 416.50953685495188 261.24454220490952 0 0 0 0 -660.09900944861874 2335.5459587666483 0 2335.5459587666483 -4647.1618715216609 0 0 0 0 -1961.049712609547 2265.0253455386592 0 2265.0253455386592 -1479.2270636364847 0 0 0 0 -1621.0146097168035 336.84601700297208 0 336.84601700297208 -2604.8981972343754 0 0 0 0 -1931.3378178659623 2607.3958590515322 0 2607.3958590515322 -2891.0840858797455 0 0 0 0 -276.75736497835896 -536.83099371623757 0 -536.83099371623757 2402.5718205665617 0 0 0 0 -46.569135852052341 19.520566732355718 0 19.520566732355718 21.547191357058196 0 0 0 0 731.49711003241828 2575.9107757757592 0 2575.9107757757592 -4722.8473824230314 0 0 0 0 -161.24787407272061 408.43778535533238 0 408.43778535533238 1240.9775909620221 0 0 0 0 -219.26959460892249 -1202.3450888023835 0 -1202.3450888023835 3358.2357333692235 0 0 0 0 -387.60214864683803 553.41268037240661 0 553.41268037240661 622.6657966274197 0 0 0 0 -159.52350206124538 756.43400046635361 0 756.43400046635361 -205.38288998915232 0 0 0 0 -163.1651452860533 201.51797656314011 0 201.51797656314011 1038.8891848871717 0 0 0 0 -61.040560945635661 162.39422657901378 0 162.39422657901378 1191.9431643202406 0 0 0 0 106.2341243313931 122.56738183579182 0 122.56738183579182 802.77059022088361 0 0 0 0 -315.01089592842618 281.87740192833553 0 281.87740192833553 717.69553831114899 0 0 0 0 -57.643587389931781 -49.524478472885676 0 -49.524478472885676 762.24301039811144 0 0 0 0 -214.81151569177746 107.62669966461908 0 107.62669966461908 283.01864573897183 0 0 0 0 -381.29801698568917 500.12223368354898 0 500.12223368354898 110.08249026813064 0 0 0 0 -217.5252428998283 211.71585298783248 0 211.71585298783248 -544.60548807194573 0 0 0 0 -321.68057561263049 620.05784670139838 0 620.05784670139838 -298.35590157013212 0 0 0 0 -7.2630015397906504 1.3431195975472008 0 1.3431195975472008 -0.053383453966404204 0 0 0 0 -42.971976398523111 899.38209382816331 0 899.38209382816331 -1372.9242444022675 0 0 0 0 66.927801560959779 294.43615303450133 0 294.43615303450133 665.55440318038018 0 0 0 0 -208.5630070862826 339.78511137535679 0 339.78511137535679 746.45559545723518 0 0 0 0 152.66061519362847 526.09806919639959 0 526.09806919639959 824.355711208711 0 0 0 0 -8.1616852538293756 5.4016881647320467 0 5.4016881647320467 -1.4657996545436305 0 0 0 0 220.59619257738814 1007.0757544745611 0 1007.0757544745611 -866.91289399776724 0 0 0 0 359.77853003752534 746.866274694803 0 746.866274694803 -490.5737124766456 0 0 0 0 -887.51245264068712 1217.8162402368944 0 1217.8162402368944 234.05444971609541 0 0 0 0 -382.52754639298655 842.11862169394226 0 842.11862169394226 1297.8099906674324 0 0 0 0 -643.40089095561416 1499.6112179706779 0 1499.6112179706779 -153.27952600108983 0 0 0 0 541.88496725230652 288.80424297311765 0 288.80424297311765 19.686745636263367 0 0 0 0 261.7747460023229 249.23435927234232 0 249.23435927234232 216.15864257942303 0 0 0 0 274.86631535283232 279.46518558503158 0 279.46518558503158 -438.63102682429599 0 0 0 0 578.10633908653108 921.51267947822271 0 921.51267947822271 166.44183629054169 0 0 0 0 484.7089145407881 249.52736005979386 0 249.52736005979386 210.09213504679792 0 0 0 0 -9.2147111688885843 10.846727123223189 0 10.846727123223189 -9.0018370785259094 0 0 0 0 78.119736259861384 255.20476289315411 0 255.20476289315411 -652.71742804571363 0 0 0 0 -164.440778282471 275.83511952290792 0 275.83511952290792 160.64156337801978 0 0 0 0 429.43129985578707 263.08889163263666 0 263.08889163263666 -1665.6316047541695 0 0 0 0 166.9888391779532 819.41408384482202 0 819.41408384482202 -731.74412221019156 0 0 0 0 2.7161273079317425 2.5537850914380869 0 2.5537850914380869 -0.5285163592573241 0 0 0 0 204.54538048623363 585.07894265279174 0 585.07894265279174 500.75298091528384 0 0 0 0 -4.0886873369381078 5.527718283749337 0 5.527718283749337 -5.0979475475374443 0 0 0 0 451.67731517885113 723.31327545424574 0 723.31327545424574 279.36602940721787 0 0 0 0 275.35191234426748 341.21584113108838 0 341.21584113108838 76.155904570641724 0 0 0 0 451.38022215862293 165.02164666742101 0 165.02164666742101 15.561689608261077 0 0 0 0 32.382103852888349 558.36974117249838 0 558.36974117249838 -369.33796780280682 0 0 0 0 37.721079903043574 160.50178871689423 0 160.50178871689423 -41.926642161633936 0 0 0 0 271.48873238753004 173.49508734785195 0 173.49508734785195 220.60836484761967 0 0 0 0 197.9037865696846 471.98513491480662 0 471.98513491480662 121.18991167687636 0 0 0 0 403.08849253145308 520.99383939553718 0 520.99383939553718 726.62656642649381 0 0 0 0 -14.813886071910076 11.095335175680582 0 11.095335175680582 -4.8179601177292568 0 0 0 0 152.27496947974669 234.37339587651834 0 234.37339587651834 577.66973369380867 0 0 0 0 4.3374961486115353 383.73876159447536 0 383.73876159447536 792.86326749027285 0 0 0 0 94.09956098843395 393.56520372638988 0 393.56520372638988 623.21251830385881 0 0 0 0 40.065970847004792 285.963911502673 0 285.963911502673 821.38302151248354 0 0 0 0 863.30170889233705 89.115843930296251 0 89.115843930296251 455.64797942601581 0 0 0 0 -4.4344472709875618 3.2857071124222834 0 3.2857071124222834 -1.6983013018146522 0 0 0 0 17.451309714873787 378.61210846355243 0 378.61210846355243 732.99094127157878 0 0 0 0 268.82170584519918 76.253989820201241 0 76.253989820201241 -319.48477863604785 0 0 0 0 -11.407667864361088 8.9391185775362061 0 8.9391185775362061 -4.0888501995861475 0 0 0 0 187.53649564037914 186.25701171102992 0 186.25701171102992 32.187637307693876 0 0 0 0 36.140474223117053 514.93209440475039 0 514.93209440475039 -344.74954514564888 0 0 0 0 277.53313564015843 356.86235645673878 0 356.86235645673878 -1104.5292778343282 0 0 0 0 134.07933822205814 586.29439640226701 0 586.29439640226701 -298.72967527453875 0 0 0 0 160.88121275121375 583.19200726739473 0 583.19200726739473 -650.32757472484082 0 0 0 0 -3.2022000804718118 273.25395536874657 0 273.25395536874657 457.58596809914161 0 0 0 0 6.7688220895472568 6.9208513285701372 0 6.9208513285701372 -1.5483198406288281 0 0 0 0 -7.7070097839896334 341.81579697724374 0 341.81579697724374 -270.91205068107229 0 0 0 0 -157.84816399490228 65.063195440568961 0 65.063195440568961 -562.32286962788567 0 0 0 0 68.41722674909397 362.89377593741665 0 362.89377593741665 -393.6823162392393 0 0 0 0 162.09711063044051 285.87565519098825 0 285.87565519098825 826.03211181484949 0 0 0 0 -29.169067098962842 258.00935013166236 0 258.00935013166236 837.98428032211814 0 0 0 0 167.35036581388158 268.72130705735435 0 268.72130705735435 583.20322977381875 0 0 0 0 72.561032059951685 345.19575644395809 0 345.19575644395809 524.94045332565292 0 0 0 0 98.925078749336535 750.71426265141054 0 750.71426265141054 756.70691237423853 0 0 0 0 135.47242363006808 1526.0282018275902 0 1526.0282018275902 -1525.9581082660006 0 0 0 0 65.367620584351243 659.2406221008423 0 659.2406221008423 -2142.274623203084 0 0 0 0 104.79354712748318 826.43882237541402 0 826.43882237541402 -136.94515237551968 0 0 0 0 81.636467823991552 1160.6499938982306 0 1160.6499938982306 -1089.3601347362419 0 0 0 0 0.23192254907650067 4.6952233215097863 0 4.6952233215097863 -0.55427622993567949 0 0 0 0 -27.256511643339763 488.39164301586061 0 488.39164301586061 1240.8095725721505 0 0 0 0 414.80012224533129 636.85536325041903 0 636.85536325041903 -2141.4886320410387 0 0 0 0 -133.15696246293373 223.03083239892294 0 223.03083239892294 -1253.0548052791055 0 0 0 0 -286.75539976729488 330.85703573669525 0 330.85703573669525 318.45685213958495 0 0 0 0 -447.10228951607132 718.01185678200272 0 718.01185678200272 622.66165055566671 0 0 0 0 26.156095534330234 612.32110832965554 0 612.32110832965554 414.20595547512494 0 0 0 0 -386.87489540036768 54.200679261237383 0 54.200679261237383 938.96768973876897 0 0 0 0 4.0409286385800556 4.0634032267120688 0 4.0634032267120688 8.0128243358927307 0 0 0 0 24.422640585864428 -249.32851507105443 0 -249.32851507105443 540.19645930966726 0 0 0 0 -391.50941265425149 432.04254699160919 0 432.04254699160919 243.30930699891178 0 0 0 0 -124.13409883733402 18.582905560055224 0 18.582905560055224 96.007024822232779 0 0 0 0 -1.1062753758160397 96.908607219993428 0 96.908607219993428 8.8340332117295475 0 0 0 0 -80.566553592230775 63.969032740922557 0 63.969032740922557 -4.5117837077268632 0 0 0 0 -2.5522055604135971 14.170347580257157 0 14.170347580257157 21.231602457387538 0 0 0 0 -26.286471317333053 -93.651186744122242 0 -93.651186744122242 102.81982236223303 0 0 0 0 -138.27763493874954 5.0577433735124941 0 5.0577433735124941 47.187281270387757 0 0 0 0 188.9116411171417 269.65101481713282 0 269.65101481713282 30.041236488847062 0 0 0 0 87.251598659531737 80.691008509558742 0 80.691008509558742 125.1332084753376 0 0 0 0 -52.549579807309783 198.74711230188768 0 198.74711230188768 652.92288674276278 0 0 0 0 55.320752098137746 99.854736426306772 0 99.854736426306772 113.64020900306787 0 0 0 0 -26.05872123708923 2.4790013166151255 0 2.4790013166151255 0.32529319480528329 0 0 0 0 -125.04609127361618 369.0318971864981 0 369.0318971864981 -662.21157825028058 0 0 0 0 -151.02884006178647 154.92703362877728 0 154.92703362877728 -225.67013098193274 0 0 0 0 -322.2383243459044 364.5194375016672 0 364.5194375016672 -185.11495515592105 0 0 0 0 -203.42739059875021 129.63623607916816 0 129.63623607916816 -38.462303927772155 0 0 0 0 -241.73131272030878 299.32451146918902 0 299.32451146918902 -74.154040677774901 0 0 0 0 -174.52216372164548 166.76172522669367 0 166.76172522669367 -120.00312624428261 0 0 0 0 -177.73098287015455 170.13972733182891 0 170.13972733182891 -107.11044838652015 0 0 0 0 -176.6293843727326 157.18983855994884 0 157.18983855994884 -122.26405115174748 0 0 0 0 -182.14231624614331 159.08889830013504 0 159.08889830013504 -110.30303931351227 0 0 0 0 -184.05723594104347 148.57079946369413 0 148.57079946369413 -166.33931087265955 0 0 0 0 -277.13561907454277 108.21391223427781 0 108.21391223427781 -93.652559495458263 0 0 0 0 -368.15635012858547 149.39722661064297 0 149.39722661064297 20.655202964757336 0 0 0 0 -121.22901342243131 89.964700698934394 0 89.964700698934394 -85.073295750902616 0 0 0 0 -24.468715441510369 -0.81790328024129622 0 -0.81790328024129622 5.9629901757501216 0 0 0 0 -136.54033845989034 136.86785846436396 0 136.86785846436396 -217.6970130566915 0 0 0 0 -140.72378733914957 183.34377855620914 0 183.34377855620914 -154.89457396913349 0 0 0 0 -49.089568891632723 -1.357593529919086 0 -1.357593529919086 6.1133398889663582 0 0 0 0 -180.17392510244099 136.90319240719691 0 136.90319240719691 25.249043842552055 0 0 0 0 -203.08297317140386 135.21786517905275 0 135.21786517905275 45.761620647794189 0 0 0 0 -177.41528307358385 140.0556041905229 0 140.0556041905229 11.572183741664048 0 0 0 0 -201.62489792735141 172.94989833451109 0 172.94989833451109 -27.900222824566299 0 0 0 0 -175.99126662543131 184.42790829348814 0 184.42790829348814 -15.328441433055559 0 0 0 0 -196.9471823979402 153.20614300340822 0 153.20614300340822 12.474290130424379 0 0 0 0 -201.71303875080048 171.9119682620294 0 171.9119682620294 -42.319211179681588 0 0 0 0 -209.33339214761872 139.36425519611021 0 139.36425519611021 -44.061000587083981 0 0 0 0 -209.09832420654129 194.68418483423011 0 194.68418483423011 -35.804211830029089 0 0 0 0 -212.27711630153499 144.16043402759351 0 144.16043402759351 29.91614534521068 0 0 0 0 -189.27440463672247 142.70651713114967 0 142.70651713114967 46.058893230103422 0 0 0 0 -129.51280708666545 21.615496835007178 0 21.615496835007178 41.414361459845324 0 0 0 0 -756.55671016627457 550.40811183678306 0 550.40811183678306 -626.16363178266329 0 0 0 0 -224.7112390286984 16.312124199696882 0 16.312124199696882 426.5408520336714 0 0 0 0 -169.12006433402712 147.02683439790417 0 147.02683439790417 45.905068452215346 0 0 0 0 -197.54263290941526 129.25569426399306 0 129.25569426399306 129.17223612817179 0 0 0 0 -628.07643334974819 180.58046379634197 0 180.58046379634197 162.30218192032771 0 0 0 0 -135.93773236140726 17.713466548381206 0 17.713466548381206 41.978654323234508 0 0 0 0 -641.81314372154156 963.425334634725 0 963.425334634725 -857.27412614213245 0 0 0 0 -373.1163202131429 753.10558598600983 0 753.10558598600983 -862.04715059131559 0 0 0 0 -787.37395167640352 1104.720309337572 0 1104.720309337572 -1160.1745967581664 0 0 0 0 -909.45550114016805 1215.6034061902683 0 1215.6034061902683 -891.07042421033839 0 0 0 0 -821.38036021798325 1299.8006700176338 0 1299.8006700176338 -1129.8401234004414 0 0 0 0 -683.05414387039491 788.39679269112821 0 788.39679269112821 -550.91931402223418 0 0 0 0 -5.1620576653222088 -159.84869927354521 0 -159.84869927354521 -304.31115206365939 0 0 0 0 -974.15299548488838 847.34249455897225 0 847.34249455897225 -363.60994076733186 0 0 0 0 -197.42370577684778 53.999335340849939 0 53.999335340849939 161.5931695449508 0 0 0 0 -171.29709319320682 68.250103878686787 0 68.250103878686787 24.050523002555565 0 0 0 0 -170.04695420434291 112.38957755555384 0 112.38957755555384 -38.41998294203222 0 0 0 0 -139.42030162002067 27.106518930894907 0 27.106518930894907 36.194839676258255 0 0 0 0 -210.9840328092323 -342.67372874999273 0 -342.67372874999273 241.25728702940978 0 0 0 0 432.22641186110559 100.75224544097728 0 100.75224544097728 -91.646512220308068 0 0 0 0 -1913.0016325682955 1320.8303524862349 0 1320.8303524862349 -432.55517179991512 0 0 0 0 -0.011865127715637414 6.3664601454127236 0 6.3664601454127236 -18.805416606062352 0 0 0 0 -392.30966199259274 -364.19224746325199 0 -364.19224746325199 -29.86854385168408 0 0 0 0 -1210.8678165331658 346.37018629851082 0 346.37018629851082 -1658.6342873811809 0 0 0 0 -1428.5505234626035 648.95967134418606 0 648.95967134418606 -388.96799326662222 0 0 0 0 -1325.0806686381984 2128.0101300099195 0 2128.0101300099195 -2226.004621514614 0 0 0 0 -1315.7562401979012 2052.0399169824232 0 2052.0399169824232 -1953.5855719917163 0 0 0 0 -1177.1366060259606 715.75710792682366 0 715.75710792682366 -2310.5999328792896 0 0 0 0 -1379.0151020416779 502.09550065323492 0 502.09550065323492 512.98761876224307 0 0 0 0 -177.67960594562464 -266.35688886775461 0 -266.35688886775461 75.888055178220384 0 0 0 0 94.35256193659734 400.5175257416995 0 400.5175257416995 -2202.9539916240028 0 0 0 0 -1987.1489064273046 1808.7507055914175 0 1808.7507055914175 -1080.8275963000851 0 0 0 0 -751.01529114598088 808.57507141718088 0 808.57507141718088 -275.26961929394747 0 0 0 0 -1334.3805535473839 848.83670618268297 0 848.83670618268297 11.917539962363662 0 0 0 0 -1013.9999201351293 616.93751597671326 0 616.93751597671326 -72.34504118343466 0 0 0 0 -1965.980527464395 244.44253026875958 0 244.44253026875958 -80.28446177978185 0 0 0 0 -909.7094196195394 95.476298985173344 0 95.476298985173344 -7.709462393540889 0 0 0 0 14.862396858472493 -131.67971227386442 0 -131.67971227386442 -483.78317823738325 0 0 0 0 -156.06752036439138 481.26974488561973 0 481.26974488561973 20.136126220808364 0 0 0 0 340.65746403680532 347.52565886231605 0 347.52565886231605 28.104120268952101 0 0 0 0 -974.76069177298632 324.12004074176366 0 324.12004074176366 228.20083368349879 0 0 0 0 -548.88484095940294 520.43886279338039 0 520.43886279338039 0.37717449322371976 0 0 0 0 -678.18439735801076 557.80782162277319 0 557.80782162277319 256.53514193781302 0 0 0 0 -875.62480881816009 627.04455415776101 0 627.04455415776101 0.13065450459544081 0 0 0 0 -685.90214106265921 443.69332727917936 0 443.69332727917936 157.45038674964599 0 0 0 0 -479.58017332602321 317.25025073865254 0 317.25025073865254 -0.11823429241485428 0 0 0 0 252.44340862403624 223.02019662859675 0 223.02019662859675 110.67943352420116 0 0 0 0 -13.768220909305683 1.6171590411980645 0 1.6171590411980645 1.4054404753112522 0 0 0 0 -481.99847242538817 250.26246084788727 0 250.26246084788727 -125.44141361241054 0 0 0 0 252.45030187611701 234.01586261563352 0 234.01586261563352 78.587468911588076 0 0 0 0 -12.190919171553674 12.202474541837745 0 12.202474541837745 -1.6617017551739082 0 0 0 0 75.825156849125051 172.14188176972675 0 172.14188176972675 -259.86732125648996 0 0 0 0 -35.706799544670503 100.45400818838243 0 100.45400818838243 -37.170141447160859 0 0 0 0 104.5124903859687 87.384094046399696 0 87.384094046399696 -21.844616922433488 0 0 0 0 -7.4766204888793197 41.745216378584416 0 41.745216378584416 -50.19364467182163 0 0 0 0 76.480954720798763 -72.087780159898102 0 -72.087780159898102 107.7657251963974 0 0 0 0 453.9023308647993 -215.66886545623493 0 -215.66886545623493 135.69099228747655 0 0 0 0 -59.545059767691441 11.855941273094544 0 11.855941273094544 27.574651636442582 0 0 0 0 -102.44228883211326 59.253028946710401 0 59.253028946710401 28.339429686646326 0 0 0 0 -325.85919573668434 304.85020946001896 0 304.85020946001896 -216.77099615352927 0 0 0 0 -375.81416371792875 245.15856128177984 0 245.15856128177984 -129.41590622479634 0 0 0 0 -65.969235195207148 -14.025384945534825 0 -14.025384945534825 71.495852430642117 0 0 0 0 -164.28629092720803 109.9616893609782 0 109.9616893609782 7.7022321050026221 0 0 0 0 -156.18193472531857 89.554016616704757 0 89.554016616704757 29.073095486918191 0 0 0 0 -320.65286812005797 152.07710141138523 0 152.07710141138523 130.53441626654239 0 0 0 0 -90.196571900305571 5.5431594517431222 0 5.5431594517431222 64.803327957713918 0 0 0 0 -320.63423466053058 30.939691374385188 0 30.939691374385188 167.23916792013915 0 0 0 0 -186.64325487997849 220.63630312425084 0 220.63630312425084 -53.627405031593298 0 0 0 0 37.938371159628929 17.037594049240965 0 17.037594049240965 -20.935268572459847 0 0 0 0 -6.6664004747487695 7.4651042211018819 0 7.4651042211018819 -5.4842783961978796 0 0 0 0 -91.008905301416235 143.87389204692226 0 143.87389204692226 -68.496256659855135 0 0 0 0 9.8735016130281181 -0.27643200815580826 0 -0.27643200815580826 -11.97991964696422 0 0 0 0 -2387.1397893759422 1556.6807283550297 0 1556.6807283550297 -1151.4609680088543 0 0 0 0 -320.17779225281629 543.40714714568821 0 543.40714714568821 -1128.5711674234626 0 0 0 0 73.940457360620712 826.77728943359762 0 826.77728943359762 -2585.6162022401695 0 0 0 0 -1993.2447371369672 1333.5443504841351 0 1333.5443504841351 -775.63862845383119 0 0 0 0 -170.46419064543443 -126.13093595003011 0 -126.13093595003011 -511.31111373199383 0 0 0 0 -726.51660345053824 1150.600292379022 0 1150.600292379022 -1474.5482795861899 0 0 0 0 -6.6948572068106387 1.265915561261977 0 1.265915561261977 1.1187170795501657 0 0 0 0 -268.00421455792093 325.63169278340501 0 325.63169278340501 -392.88830480308388 0 0 0 0 -38.216079860896571 -98.441117723050411 0 -98.441117723050411 153.10622670198791 0 0 0 0 -198.95359079195373 794.06236317502066 0 794.06236317502066 -315.07385071391764 0 0 0 0 -126.23600543942302 -76.128461480082478 0 -76.128461480082478 217.29424262848624 0 0 0 0 48.882342663455347 -77.382755299466226 0 -77.382755299466226 71.584223127472796 0 0 0 0 -16.11624087849043 0.77700550021714321 0 0.77700550021714321 0.89487401873714134 0 0 0 0 -9.0981535177215846 21.271841146561201 0 21.271841146561201 138.910492836716 0 0 0 0 -448.86938481740799 567.5888267837945 0 567.5888267837945 -614.08438309495978 0 0 0 0 -466.3431290978624 727.97127693831862 0 727.97127693831862 -1039.0551067663764 0 0 0 0 -448.67346684506629 578.14931716207502 0 578.14931716207502 -512.10026917181676 0 0 0 0 -47.540826209834677 12.564807669951335 0 12.564807669951335 31.950781446031925 0 0 0 0 -46.575176782731432 -32.355472085429938 0 -32.355472085429938 71.85978249454638 0 0 0 0 -134.06118855025852 -29.688847277138848 0 -29.688847277138848 108.11188307334669 0 0 0 0 -68.905621049687397 -44.557940094302467 0 -44.557940094302467 87.419375496974681 0 0 0 0 -415.97752695041709 454.15797948496038 0 454.15797948496038 -461.50181161840737 0 0 0 0 -603.01881714227784 516.02393802510051 0 516.02393802510051 -174.06279328037635 0 0 0 0 -598.77350048447533 495.13084394552061 0 495.13084394552061 -184.32309943289147 0 0 0 0 -701.30658036895329 685.97683155801496 0 685.97683155801496 -237.07524335877679 0 0 0 0 -643.43310048020794 463.43146110164162 0 463.43146110164162 -0.06134919797477778 0 0 0 0 -661.08098147303099 524.64633168985529 0 524.64633168985529 -110.60448627939331 0 0 0 0 -545.52694147590955 423.56391947095108 0 423.56391947095108 -152.48018640724695 0 0 0 0 -543.59261584519118 433.96497030856699 0 433.96497030856699 -131.37190927772826 0 0 0 0 -2.2327422124508303 43.956138184028532 0 43.956138184028532 103.11285430903081 0 0 0 0 -535.91846185241593 476.78216901906853 0 476.78216901906853 0.14706160065543372 0 0 0 0 -688.21392272627418 470.88635104213608 0 470.88635104213608 94.515932014488499 0 0 0 0 -561.06035606260411 602.4166826920482 0 602.4166826920482 -222.14251717073785 0 0 0 0 -855.39757817853842 520.98476269248158 0 520.98476269248158 215.30112863695831 0 0 0 0 -822.67498561862521 245.00914740607004 0 245.00914740607004 404.13002494203101 0 0 0 0 47.529916121959104 997.73130043409765 0 997.73130043409765 -700.09018497726174 0 0 0 0 -0.3885863513254435 2.4445220586904739 0 2.4445220586904739 -4.2635501756478789 0 0 0 0 -860.9432949324073 979.24646143673544 0 979.24646143673544 -697.1903023434279 0 0 0 0 -696.68278350702167 645.11928528485441 0 645.11928528485441 -202.76904526667386 0 0 0 0 -892.98493647970008 1086.5686442087372 0 1086.5686442087372 -964.61610233968531 0 0 0 0 -686.61910961123795 797.66076368864015 0 797.66076368864015 -575.02380453525984 0 0 0 0 -758.35909036546946 654.77500758020324 0 654.77500758020324 -871.36226135805919 0 0 0 0 -460.15986126269854 722.42614442342892 0 722.42614442342892 -1039.5779741959732 0 0 0 0 6.4500155562709551 -83.056450569580193 0 -83.056450569580193 132.30290103499647 0 0 0 0 -37.269291787730737 15.543165985536262 0 15.543165985536262 30.85899136493498 0 0 0 0 -664.00675797997974 682.16586831865425 0 682.16586831865425 -1011.6637256777612 0 0 0 0 -637.63940551647102 595.33520480620791 0 595.33520480620791 -959.14211451630399 0 0 0 0 -543.06087191344704 1098.6654236157192 0 1098.6654236157192 -1303.4597331155019 0 0 0 0 -484.938412122312 1115.2494220469016 0 1115.2494220469016 -950.73273025784874 0 0 0 0 -907.27635684882989 764.4453376846941 0 764.4453376846941 -940.29610825280542 0 0 0 0 -663.81270593537192 837.67490110626386 0 837.67490110626386 -1255.1467176272999 0 0 0 0 -568.58227642936981 1007.4131573841223 0 1007.4131573841223 -1191.2037671962753 0 0 0 0 -30.284576507269406 19.218422106238648 0 19.218422106238648 25.844196765270226 0 0 0 0 -154.02466637743055 -77.919288412944297 0 -77.919288412944297 366.22162663920608 0 0 0 0 -590.8788205544115 1078.3814529757365 0 1078.3814529757365 -1311.8186306313728 0 0 0 0 -33.924743416257115 -11.7674700704938 0 -11.7674700704938 159.933233790347 0 0 0 0 -17.79271798652843 -5.480461714851117 0 -5.480461714851117 9.0030499928977008 0 0 0 0 -180.87825616032933 11.827696507360088 0 11.827696507360088 209.80558854652918 0 0 0 0 -3.0268665026815142 -177.49810036493 0 -177.49810036493 156.21946150228541 0 0 0 0 -53.22249722093693 112.51723120754468 0 112.51723120754468 219.93980201912927 0 0 0 0 -54.13177291341708 44.644095719530014 0 44.644095719530014 40.286515589279588 0 0 0 0 -209.85012384044239 192.16624429922376 0 192.16624429922376 83.851109424227616 0 0 0 0 -10.9573779363418 224.57342586242885 0 224.57342586242885 -142.07690168094268 0 0 0 0 -62.544080192019464 217.03119072206755 0 217.03119072206755 -414.46206088722101 0 0 0 0 -223.5745114350284 64.846283012266213 0 64.846283012266213 -137.79814477353648 0 0 0 0 -204.24620697390492 300.77828481192137 0 300.77828481192137 -25.168770078162197 0 0 0 0 -222.52835684167803 150.65477957451367 0 150.65477957451367 0.56406683375826105 0 0 0 0 -75.765378251991933 131.06263862109336 0 131.06263862109336 -108.31589777582849 0 0 0 0 -48.671448151522782 -1.8912713166209869 0 -1.8912713166209869 -0.85285553222638555 0 0 0 0 185.30650098531623 -24.959112189215375 0 -24.959112189215375 -71.094366434190306 0 0 0 0 142.35403655903065 119.52187114850312 0 119.52187114850312 -40.224197891191579 0 0 0 0 -54.984134642625577 242.38882362211734 0 242.38882362211734 -52.651267272041878 0 0 0 0 -86.971308606298408 194.69649202488654 0 194.69649202488654 -298.12107445117726 0 0 0 0 -140.71510950043739 28.394741223055462 0 28.394741223055462 -158.80857040570118 0 0 0 0 -192.76061082596425 88.562337075985852 0 88.562337075985852 39.57569779753976 0 0 0 0 38.525684479027291 11.895923494789031 0 11.895923494789031 -12.973870177477153 0 0 0 0 -590.54986317869043 900.76938138608239 0 900.76938138608239 -1334.635335962801 0 0 0 0 -716.13643499268255 1295.2422463267285 0 1295.2422463267285 -1273.4266435677273 0 0 0 0 -384.81181402635229 438.95932873127458 0 438.95932873127458 -225.63839807498152 0 0 0 0 -1087.2381447775042 1235.718756183669 0 1235.718756183669 -1262.2461972317396 0 0 0 0 31.951498181256341 12.546531009798485 0 12.546531009798485 -9.5295927978086183 0 0 0 0 -964.70693781298905 1073.0849399832514 0 1073.0849399832514 -1448.5877001527188 0 0 0 0 -514.7257748717966 884.87944773908384 0 884.87944773908384 -1371.8899796497117 0 0 0 0 -216.33714450157277 215.90110833978542 0 215.90110833978542 106.34581149197766 0 0 0 0 -148.89577448307682 -81.351326060237625 0 -81.351326060237625 402.97350640357399 0 0 0 0 -250.82325431988284 -37.043209477542405 0 -37.043209477542405 782.68643278865784 0 0 0 0 -111.3320896932992 23.553277578810452 0 23.553277578810452 39.015001842397567 0 0 0 0 146.56180805996701 -273.73725691926666 0 -273.73725691926666 618.32564897275915 0 0 0 0 -199.34717700045439 -373.57419381197542 0 -373.57419381197542 1474.209905955202 0 0 0 0 -83.844246385973918 23.77794281647283 0 23.77794281647283 32.797087239486785 0 0 0 0 -1526.5499746753339 2322.9245564808007 0 2322.9245564808007 -2632.6753591453307 0 0 0 0 -269.86643899451906 279.73234234776578 0 279.73234234776578 -91.624533085137955 0 0 0 0 -260.72655752266292 546.20107625843229 0 546.20107625843229 -370.27109053387903 0 0 0 0 -964.91217618740689 1308.3322811569979 0 1308.3322811569979 -2172.4312162919814 0 0 0 0 21.923965607810743 8.8275602426362525 0 8.8275602426362525 -9.2946731123152517 0 0 0 0 -106.71473767975112 344.0770645024968 0 344.0770645024968 175.25722413346011 0 0 0 0 -130.43993117383798 832.51868751461006 0 832.51868751461006 -328.1733264321083 0 0 0 0 -17.951946947490796 422.56606244430441 0 422.56606244430441 -513.09754332098237 0 0 0 0 -94.76048969560361 468.12997343025199 0 468.12997343025199 231.54086839184674 0 0 0 0 797.83482056658249 153.98123525699339 0 153.98123525699339 -559.25079318645294 0 0 0 0 6.6298965936539389 4.1293046963936035 0 4.1293046963936035 -5.7197781692352123 0 0 0 0 -1418.8026280100021 2134.4682801350282 0 2134.4682801350282 -4809.9045845363325 0 0 0 0 751.11965740521919 1125.8703975850556 0 1125.8703975850556 -2175.6621776249667 0 0 0 0 -1204.2703578594956 746.48785755664721 0 746.48785755664721 -326.46043901590747 0 0 0 0 -464.93105518938683 1213.9405758316425 0 1213.9405758316425 -2071.9430688800203 0 0 0 0 230.11328057279752 302.27742418026173 0 302.27742418026173 -386.89762998218794 0 0 0 0 -1413.7820177783287 -113.22255975215376 0 -113.22255975215376 -397.24840913952721 0 0 0 0 -498.13431731530363 -1038.4378130285677 0 -1038.4378130285677 1810.1112252328312 0 0 0 0 -8.5023556236558306 -0.40002812197755588 0 -0.40002812197755588 1.7669068602354798 0 0 0 0 -1132.6871204446434 271.82807396649514 0 271.82807396649514 1117.9684657863545 0 0 0 0 -32.970462433964713 -675.96156251038337 0 -675.96156251038337 1340.7868288813606 0 0 0 0 -887.09456180448251 1294.4630284750046 0 1294.4630284750046 -1499.29093365054 0 0 0 0 -26.133064187072335 3.5525729721263986 0 3.5525729721263986 12.054039654209589 0 0 0 0 -583.01609771597214 362.72202301231573 0 362.72202301231573 -455.17874749502516 0 0 0 0 0.10953598404012155 611.01508342342277 0 611.01508342342277 -1059.599245671503 0 0 0 0 -589.68851903008908 538.86677020205389 0 538.86677020205389 -953.6088189865477 0 0 0 0 -863.09988035149581 934.85091664578067 0 934.85091664578067 -1213.3594818328565 0 0 0 0 -718.7838284188183 662.50413000167464 0 662.50413000167464 -995.91526359449199 0 0 0 0 -777.01621465682911 1133.5563640546461 0 1133.5563640546461 -1477.5346658972267 0 0 0 0 -530.17163962690393 827.17989750221022 0 827.17989750221022 -1436.7075487690836 0 0 0 0 41.070793326987769 -217.58747690005839 0 -217.58747690005839 451.87049766275049 0 0 0 0 -193.41400528154918 142.01432669412316 0 142.01432669412316 476.82161621308478 0 0 0 0 -36.227628966334237 8.1683533940993982 0 8.1683533940993982 23.317478065116148 0 0 0 0 -597.81554440871696 1112.0372472760791 0 1112.0372472760791 -1761.0007744189934 0 0 0 0 -740.83416291791946 1114.3047790566925 0 1114.3047790566925 -1700.6518149289768 0 0 0 0 2.7440232603832442 -5.6176244770368839 0 -5.6176244770368839 4.3772631340169283 0 0 0 0 -932.16093980957521 1378.9039890075801 0 1378.9039890075801 -2721.439987334772 0 0 0 0 -663.83092499181657 835.61642845554161 0 835.61642845554161 -1088.0346273935284 0 0 0 0 -607.23291825366323 845.2527736810589 0 845.2527736810589 -1516.1867067987914 0 0 0 0 -832.44650105608162 842.86066755751381 0 842.86066755751381 -1576.6517134559108 0 0 0 0 -764.63006726762978 728.99754489428597 0 728.99754489428597 -1598.0324539450085 0 0 0 0 -727.31438879459165 948.38938301111921 0 948.38938301111921 -1423.9597410905408 0 0 0 0 -744.09211165440502 843.44974667701172 0 843.44974667701172 -1823.4891539882519 0 0 0 0 -939.26425093664147 965.89160004076712 0 965.89160004076712 -1716.8919912093552 0 0 0 0 -722.51883782510413 777.6289265336236 0 777.6289265336236 -1732.8412850931891 0 0 0 0 -905.55137525559985 938.83674671736662 0 938.83674671736662 -1409.1870822773199 0 0 0 0 -680.4997732686752 924.40243854190339 0 924.40243854190339 -1408.6455045238745 0 0 0 0 -664.12233318039216 1120.724402943335 0 1120.724402943335 -1270.913562895963 0 0 0 0 -600.02946987282485 1072.2538275191764 0 1072.2538275191764 -1081.1331915770133 0 0 0 0 -465.57288691119174 831.08024377113907 0 831.08024377113907 -1121.8814687769409 0 0 0 0 -766.37992260282044 964.69629730276938 0 964.69629730276938 -1163.2228420743777 0 0 0 0 -505.43481693033391 712.78680070101109 0 712.78680070101109 -1068.485267891665 0 0 0 0 -606.58249968344171 853.60910829365457 0 853.60910829365457 -876.52455521130469 0 0 0 0 -263.86440884156036 907.97470422877814 0 907.97470422877814 -1017.4625902993139 0 0 0 0 -434.81654948282812 616.46372376367799 0 616.46372376367799 -646.06902620835172 0 0 0 0 -444.05793776350038 674.2451872521342 0 674.2451872521342 -1016.6339538176981 0 0 0 0 -653.24019012373174 767.34385315426334 0 767.34385315426334 -595.16916258190759 0 0 0 0 -445.05378873653899 34.246084043888914 0 34.246084043888914 114.94911810421036 0 0 0 0 -212.83578484175086 460.92479681071563 0 460.92479681071563 -556.49118145305329 0 0 0 0 -469.44448321184609 694.02731195653905 0 694.02731195653905 -568.0912465856527 0 0 0 0 208.00066455078195 69.599777774128597 0 69.599777774128597 -76.365463817870477 0 0 0 0 -356.75572121103687 275.01552902293224 0 275.01552902293224 183.18822594392987 0 0 0 0 -350.85721409630787 234.57129927952337 0 234.57129927952337 420.73745333021361 0 0 0 0 -673.89533840162039 201.64563146790897 0 201.64563146790897 468.91677196425735 0 0 0 0 -138.05620245700266 869.59547807684612 0 869.59547807684612 0.80053396706352942 0 0 0 0 365.22632804906607 418.3920657834442 0 418.3920657834442 0.24821348155091982 0 0 0 0 -0.31496109884136558 2.4280201245151858 0 2.4280201245151858 -4.3404312523175577 0 0 0 0 881.2088071413491 -823.04428383476807 0 -823.04428383476807 519.92162283945072 0 0 0 0 7.686412872114829 2.1745594896252953 0 2.1745594896252953 2.7066464268730783 0 0 0 0 1761.2003856946903 922.53917105939763 0 922.53917105939763 0.73303394296090119 0 0 0 0 -3.9216215140404529 -46.74721971659892 0 -46.74721971659892 290.56576646238682 0 0 0 0 979.01595143956365 355.78182642253523 0 355.78182642253523 14.901738013591967 0 0 0 0 1.0418415920324406 -0.12057494874981955 0 -0.12057494874981955 -1.224393349565787 0 0 0 0 664.69730621331837 46.141734228265705 0 46.141734228265705 -119.29211073627812 0 0 0 0 326.07031281566015 -320.85968484883779 0 -320.85968484883779 373.88993303402094 0 0 0 0 26.043695033018594 40.391012655411032 0 40.391012655411032 107.65087492359453 0 0 0 0 187.45914033710142 178.10180905462767 0 178.10180905462767 73.797780939676159 0 0 0 0 255.18706042221311 71.618677818572905 0 71.618677818572905 39.793677150672011 0 0 0 0 0.1103599375727029 1.7374096774057364 0 1.7374096774057364 -3.4638311933291561 0 0 0 0 450.80542067587885 -9.1885619375898386 0 -9.1885619375898386 -458.40319023511256 0 0 0 0 -754.85476580348768 633.60087978380761 0 633.60087978380761 -375.94521550126956 0 0 0 0 -0.18211011835968804 0.77111085071729235 0 0.77111085071729235 -2.5209202104618953 0 0 0 0 226.19103258338146 -76.058471844455198 0 -76.058471844455198 -201.19105219993799 0 0 0 0 -261.8176289587318 124.00994911579073 0 124.00994911579073 -144.26822755028843 0 0 0 0 398.31336397945415 -345.31574485478632 0 -345.31574485478632 -114.50535002929337 0 0 0 0 1059.5204990997881 -243.98894286750874 0 -243.98894286750874 -307.35934874095256 0 0 0 0 486.51633943302295 -102.12558059458752 0 -102.12558059458752 95.945774468389573 0 0 0 0 392.68380244320724 -184.68424777338805 0 -184.68424777338805 33.455756752664456 0 0 0 0 145.20859666333126 -215.37890600167884 0 -215.37890600167884 111.44400812365348 0 0 0 0 293.81482429755852 -221.28495770859445 0 -221.28495770859445 106.00839982269099 0 0 0 0 309.99674741236959 -187.69273289232297 0 -187.69273289232297 138.74769178612041 0 0 0 0 0.13583504629787058 17.614094891192508 0 17.614094891192508 -0.030562463770740025 0 0 0 0 -2.3264472937348089 3.0163970381272804 0 3.0163970381272804 -8.8525693009391944 0 0 0 0 17.323327763103407 33.18301872073971 0 33.18301872073971 -17.98161595032434 0 0 0 0 18.163611412164641 13.95206218110215 0 13.95206218110215 -2.0748599026109105 0 0 0 0 0.14187658068840392 17.672324171027867 0 17.672324171027867 -0.019932911856024419 0 0 0 0 -1475.5753248644178 2578.080488810534 0 2578.080488810534 -1.3120845912823489 0 0 0 0 -1.2957470244291471 2260.9748856479528 0 2260.9748856479528 -3046.0862839152396 0 0 0 0 -2406.2106094408173 1537.2666756266076 0 1537.2666756266076 -977.44421354962105 0 0 0 0 -66.158559919756954 48.071978418935032 0 48.071978418935032 -1.66819997388302 0 0 0 0 -26.824332845435606 7.1622161353378999 0 7.1622161353378999 -1.4131733738460355 0 0 0 0 -5.0046825751320512 0.73298873536376163 0 0.73298873536376163 -3.0565805988543104 0 0 0 0 -30.433825616666581 61.746703320954111 0 61.746703320954111 95.864582118447288 0 0 0 0 -31.760356141734519 41.528169442506623 0 41.528169442506623 -39.875352078975993 0 0 0 0 4.5115750144001545 39.194603976509001 0 39.194603976509001 -30.350494413634749 0 0 0 0 5.3016224515182753 40.495373492698462 0 40.495373492698462 -48.027370641530126 0 0 0 0 11.287737611666671 90.969693349004956 0 90.969693349004956 -23.576945565977439 0 0 0 0 7.2899890378394048 97.748503874703601 0 97.748503874703601 -35.041927218029741 0 0 0 0 0.069464026964851655 105.1854459174574 0 105.1854459174574 -12.332930403616047 0 0 0 0 32.085723794807564 87.692938201504148 0 87.692938201504148 -31.589615787292132 0 0 0 0 34.550070895798854 -43.917911375385302 0 -43.917911375385302 -325.32808347378887 0 0 0 0 -0.15357277834118577 125.86496347189313 0 125.86496347189313 -76.585846192858298 0 0 0 0 6.8892921691495275 42.823562801912118 0 42.823562801912118 -60.351995392245954 0 0 0 0 152.28371509736462 62.210077284511499 0 62.210077284511499 -163.85649912065128 0 0 0 0 313.9577084740522 -363.80716859380846 0 -363.80716859380846 92.978328113829775 0 0 0 0 -44.478195735398913 94.873209788405802 0 94.873209788405802 -62.270248054492185 0 0 0 0 33.231920391335734 152.69040148070053 0 152.69040148070053 -803.80326387495734 0 0 0 0 1235.1710035404249 -53.009221673564753 0 -53.009221673564753 -575.46334422820655 0 0 0 0 1477.1412464610112 254.73806289482309 0 254.73806289482309 -549.93236934498418 0 0 0 0 -96.733028570401075 442.00334873362226 0 442.00334873362226 133.71172325435327 0 0 0 0 -772.26159736618865 -155.79341444880993 0 -155.79341444880993 45.313984908876591 0 0 0 0 -893.5287470128751 1540.6995072890495 0 1540.6995072890495 -1812.448364621785 0 0 0 0 -549.81006885886018 214.8210486582102 0 214.8210486582102 -282.01046453362142 0 0 0 0 -221.16431053219276 611.2135658921361 0 611.2135658921361 -152.54485507207573 0 0 0 0 518.559919726933 176.64360744259466 0 176.64360744259466 -673.55757788851042 0 0 0 0 438.29933613801768 -39.134452794811295 0 -39.134452794811295 33.165519534959458 0 0 0 0 447.14505406668468 484.63260702594926 0 484.63260702594926 124.73232656923938 0 0 0 0 122.68261952328612 278.74376317543647 0 278.74376317543647 -166.19067445029941 0 0 0 0 9.8117058993745729 2.067438404802445 0 2.067438404802445 -8.2699156756813181 0 0 0 0 -14.538940412094234 89.70867631661531 0 89.70867631661531 -94.567907182994531 0 0 0 0 41.417666933120927 -64.608376052186941 0 -64.608376052186941 -192.1364965560424 0 0 0 0 0.072107228061146333 45.082109913905057 0 45.082109913905057 101.7317553289613 0 0 0 0 -5.161834464642908 0.73030097095997348 0 0.73030097095997348 4.0337413823680492 0 0 0 0 124.97428920803941 -9.257876279483753 0 -9.257876279483753 -134.78894003392634 0 0 0 0 46.399166174522179 43.942184608522439 0 43.942184608522439 -6.7770715368678793 0 0 0 0 -1.2890156044550523 49.363633833739385 0 49.363633833739385 -61.612345218591145 0 0 0 0 94.098809067065304 -13.569883002637653 0 -13.569883002637653 -329.34664252040966 0 0 0 0 194.99252237915789 64.859191390773049 0 64.859191390773049 -493.68171199479548 0 0 0 0 197.2517102035581 146.19702808267107 0 146.19702808267107 -356.91275704759755 0 0 0 0 118.06400558969108 170.66591868425894 0 170.66591868425894 -283.67370623422903 0 0 0 0 144.34305652174953 140.4901682625059 0 140.4901682625059 -276.91234160847125 0 0 0 0 95.756958036479773 86.382686655626458 0 86.382686655626458 -124.68263660206867 0 0 0 0 88.748657533515143 51.973345181315381 0 51.973345181315381 -266.9372652524562 0 0 0 0 53.753848620383906 60.88941970995802 0 60.88941970995802 -123.52577665704302 0 0 0 0 -21.979564627243235 -67.903458640226745 0 -67.903458640226745 -338.93470156315016 0 0 0 0 -529.26941221698439 290.85734447956565 0 290.85734447956565 -186.80669589622994 0 0 0 0 -15.591818545355068 -165.77112060729269 0 -165.77112060729269 -369.97995317174355 0 0 0 0 127.26181695755167 -274.16463627870689 0 -274.16463627870689 -490.77688458925695 0 0 0 0 46.089888566804802 -288.25111762803135 0 -288.25111762803135 -133.29643069661688 0 0 0 0 -0.55898085312836843 -1.1421268439369534 0 -1.1421268439369534 -11.505117190417707 0 0 0 0 178.11887854126962 -331.75205860593996 0 -331.75205860593996 -896.77465677220607 0 0 0 0 118.10617013276715 -138.15188567645964 0 -138.15188567645964 -407.3561176557414 0 0 0 0 216.41925726450063 -211.62930782648618 0 -211.62930782648618 -530.86188201638288 0 0 0 0 366.7824938757476 -81.551854291348718 0 -81.551854291348718 -886.93467726709787 0 0 0 0 452.22039503691485 450.86512806051178 0 450.86512806051178 -904.090626810299 0 0 0 0 417.40654844012897 99.430824118098826 0 99.430824118098826 -733.67161590594333 0 0 0 0 296.96081888955086 34.918797376893053 0 34.918797376893053 -768.15599717514124 0 0 0 0 583.849742775099 8.1106763110728934 0 8.1106763110728934 -852.25004534615437 0 0 0 0 516.05473941895798 -264.5083837228558 0 -264.5083837228558 -1474.4871655883035 0 0 0 0 1217.8699403101491 993.06086912483443 0 993.06086912483443 -2131.4910026391735 0 0 0 0 596.6442462275445 908.7884722808376 0 908.7884722808376 -341.74696392152691 0 0 0 0 260.23984081506205 605.10556170481141 0 605.10556170481141 -24.102025764470454 0 0 0 0 -11.283202202605935 -9.5413125985651277 0 -9.5413125985651277 12.592745532587287 0 0 0 0 -26.535464487071295 -10.320866054884391 0 -10.320866054884391 12.619444578725961 0 0 0 0 -6.3849988768652111 -18.988352273081546 0 -18.988352273081546 7.0479280732979532 0 0 0 0 14.448310006298925 1.1968996438299655 0 1.1968996438299655 -6.3232031963416375 0 0 0 0 -4.2119561083563894 -11.137649156677071 0 -11.137649156677071 3.0840076707536355 0 0 0 0 18.535821390085403 -16.15910285654536 0 -16.15910285654536 0.046212421584641561 0 0 0 0 10.511808115967142 -14.360582334527862 0 -14.360582334527862 3.1948737569036894 0 0 0 0 32.094028712013824 2.1309221799019724 0 2.1309221799019724 -6.2868991658906452 0 0 0 0 30.147700343724864 1.4813072850229219 0 1.4813072850229219 -6.4446091444406193 0 0 0 0 7.1019991773145215 1.7555993564256056 0 1.7555993564256056 -0.61400585072935598 0 0 0 0 107.60760473830305 350.9567235475115 0 350.9567235475115 -73.912613956141286 0 0 0 0 69.876368418103084 216.29051800465095 0 216.29051800465095 -157.92470590248558 0 0 0 0 21.633598593063653 116.74326318793464 0 116.74326318793464 -187.66483518271707 0 0 0 0 40.85720032318568 7.6104698633425869 0 7.6104698633425869 -6.7557955248921644 0 0 0 0 38.112127493139269 1.1234511526999995 0 1.1234511526999995 -8.8224066032853443 0 0 0 0 53.150552553227499 12.485993596310436 0 12.485993596310436 -5.4940636804385576 0 0 0 0 164.07282024360029 371.30696675786749 0 371.30696675786749 -127.55428682467027 0 0 0 0 360.96697957554716 385.21446397126419 0 385.21446397126419 -380.12275280743597 0 0 0 0 216.25303374116993 461.66356474928034 0 461.66356474928034 -384.7642471138679 0 0 0 0 134.66477565494642 288.12046298955102 0 288.12046298955102 -302.36766850348795 0 0 0 0 133.03505997839784 282.03558973327017 0 282.03558973327017 -232.6936421689461 0 0 0 0 229.75281557090784 298.18747082827031 0 298.18747082827031 -302.15670145209333 0 0 0 0 172.29434476798633 235.26675339991925 0 235.26675339991925 -366.7072730922373 0 0 0 0 244.51017458079059 247.55603989898373 0 247.55603989898373 -534.73419224616373 0 0 0 0 327.39183544150728 136.09786949685076 0 136.09786949685076 -455.69396668067202 0 0 0 0 111.72550645438605 214.1652702158608 0 214.1652702158608 -263.28495105134789 0 0 0 0 145.52234506272907 252.68047314335126 0 252.68047314335126 -282.3432560932124 0 0 0 0 116.58380671781197 250.33174936391879 0 250.33174936391879 -282.53358077028679 0 0 0 0 104.33156281456468 246.51920605049236 0 246.51920605049236 -251.47061558743007 0 0 0 0 87.123640141740907 216.44929417956155 0 216.44929417956155 -288.97908311715582 0 0 0 0 62.915446061531838 235.78248486480152 0 235.78248486480152 -265.28235163757927 0 0 0 0 62.730680169428524 206.91293403157033 0 206.91293403157033 -246.92045398050686 0 0 0 0 26.687223373975939 158.28754685945751 0 158.28754685945751 -383.30271697416902 0 0 0 0 21.175259158393601 175.60901143206866 0 175.60901143206866 -269.05945214486565 0 0 0 0 16.784468988931621 75.502707770094275 0 75.502707770094275 -309.95107729647134 0 0 0 0 45.10856411435816 153.84403197083157 0 153.84403197083157 -209.82885042608541 0 0 0 0 88.817553121611127 242.71490263048327 0 242.71490263048327 -192.31236512790201 0 0 0 0 72.831164469142095 208.12569351139246 0 208.12569351139246 -260.67015701667697 0 0 0 0 589.78859541826569 396.28912209535702 0 396.28912209535702 -252.45429436782433 0 0 0 0 -147.06066005534376 -189.11275606486015 0 -189.11275606486015 -505.05584437865764 0 0 0 0 -4.9186640576008358 15.076471155538457 0 15.076471155538457 -464.45241331972647 0 0 0 0 9.6812270598165924 -18.40859349508537 0 -18.40859349508537 -642.54064855177421 0 0 0 0 -16.920666898076888 127.46088897343725 0 127.46088897343725 -332.72718744614394 0 0 0 0 -14.896461802418344 72.261709302605595 0 72.261709302605595 -489.56565676943865 0 0 0 0 -23.292305159877287 83.430013823846821 0 83.430013823846821 -499.12192470702576 0 0 0 0 -15.457287621116848 187.20372868626146 0 187.20372868626146 -393.9344792640768 0 0 0 0 -28.305534880637424 159.96552046848228 0 159.96552046848228 -290.42910459008999 0 0 0 0 145.02510050914134 183.77596084459219 0 183.77596084459219 -659.1398676855024 0 0 0 0 -43.062727848686336 86.182551853067707 0 86.182551853067707 -388.91446395617095 0 0 0 0 37.022337870081174 -95.501917329322168 0 -95.501917329322168 -975.15384660469135 0 0 0 0 -239.26902357156723 -468.53574228904108 0 -468.53574228904108 -916.57950817438541 0 0 0 0 3.3147966794469781 1.3810866850883201 0 1.3810866850883201 -2.87008844679616 0 0 0 0 146.02515262926318 213.3089767131296 0 213.3089767131296 -373.28203289039084 0 0 0 0 673.40009196516621 212.16810303778038 0 212.16810303778038 -504.31631107948488 0 0 0 0 179.61349531744781 125.45957942937093 0 125.45957942937093 -389.86059079517509 0 0 0 0 8.2408151437412016 156.50940408249153 0 156.50940408249153 -221.52965446290182 0 0 0 0 140.62897513507778 133.59879951778566 0 133.59879951778566 -235.21667858554792 0 0 0 0 70.282543089695992 182.34483999596341 0 182.34483999596341 -300.97608342434978 0 0 0 0 82.239566548938456 204.10173520185344 0 204.10173520185344 -305.73775518976618 0 0 0 0 -610.09808629569443 41.563819235198025 0 41.563819235198025 10.580408435293066 0 0 0 0 823.75992318673889 337.53622809341323 0 337.53622809341323 -405.88189123763004 0 0 0 0 -0.23814069640233981 1.1734930727501762 0 1.1734930727501762 -1.7604589471100951 0 0 0 0 -74.942685464138776 190.94294601079309 0 190.94294601079309 -68.137309222162003 0 0 0 0 -146.66464966348667 33.502453557586705 0 33.502453557586705 -28.493072447963641 0 0 0 0 46.234731414500857 211.50724397330487 0 211.50724397330487 -135.10509818440914 0 0 0 0 209.84726436773053 284.35724753774412 0 284.35724753774412 -119.19918587888242 0 0 0 0 88.490778286429304 139.12442069268945 0 139.12442069268945 -192.78808552582632 0 0 0 0 124.63728176051336 90.495516212744405 0 90.495516212744405 -221.77930020618442 0 0 0 0 143.12277716378776 138.56314164082141 0 138.56314164082141 -108.74373127002036 0 0 0 0 62.909072218440997 72.061733235721476 0 72.061733235721476 5.3582331355573842 0 0 0 0 57.999729765865595 127.12595212821361 0 127.12595212821361 -38.940964082605205 0 0 0 0 57.683444986678296 131.64542788929248 0 131.64542788929248 -101.84409116528695 0 0 0 0 45.063988919257099 44.012214813206811 0 44.012214813206811 6.1633272890501303 0 0 0 0 -4.4464852630544556 27.087469545895146 0 27.087469545895146 148.30928545306233 0 0 0 0 63.584202172329242 54.186119568737922 0 54.186119568737922 -26.543623639649013 0 0 0 0 -40.032215948162047 83.395506677596131 0 83.395506677596131 38.193108718027361 0 0 0 0 71.432575053822802 115.52249884551566 0 115.52249884551566 47.21656063185219 0 0 0 0 7.9216082761122379 14.233072327595437 0 14.233072327595437 166.17450171074597 0 0 0 0 25.040700784375076 36.514100524796959 0 36.514100524796959 -11.488183898089119 0 0 0 0 17.069179316056854 26.87617766808161 0 26.87617766808161 -13.878514989530402 0 0 0 0 52.38853061767486 65.442040688166799 0 65.442040688166799 136.69098063965066 0 0 0 0 -33.033597265184653 6.0068502164613164 0 6.0068502164613164 12.619659182557371 0 0 0 0 0.90448042487908253 13.330039235920696 0 13.330039235920696 3.0096810584952323 0 0 0 0 17.76695309269153 25.675565789865871 0 25.675565789865871 3.8349219813751434 0 0 0 0 -2.861722699703023 52.142468950791226 0 52.142468950791226 111.7729516482068 0 0 0 0 54.930976760748308 36.644564649031963 0 36.644564649031963 -72.543773851145488 0 0 0 0 38.648755592507769 70.891827614817885 0 70.891827614817885 -5.3980775259406073 0 0 0 0 20.981195755844965 32.579964864846261 0 32.579964864846261 1.4133528914826456 0 0 0 0 -4.375879082241088 26.898786775273283 0 26.898786775273283 8.2142915180161822 0 0 0 0 34.832799365874052 43.990125931533839 0 43.990125931533839 32.687701278598979 0 0 0 0 34.869221510117171 28.438664700505655 0 28.438664700505655 0.30418241099933852 0 0 0 0 12.95128186207603 32.6623238623215 0 32.6623238623215 -4.2036124851074419 0 0 0 0 21.064109069582628 54.870825682803115 0 54.870825682803115 26.590862741591991 0 0 0 0 53.286848603542239 25.518313132328331 0 25.518313132328331 -11.676063506791252 0 0 0 0 61.843045126632205 40.30288372547875 0 40.30288372547875 -107.67580507122329 0 0 0 0 6.5142275825513636 7.1399584161154053 0 7.1399584161154053 1.3383860987799778 0 0 0 0 65.557810554796106 72.165164772570279 0 72.165164772570279 -128.07378568704007 0 0 0 0 4.5442035873920164 1.3880647321003678 0 1.3880647321003678 -32.907715664668785 0 0 0 0 -96.45098698655147 82.440066977638708 0 82.440066977638708 -25.726604960334953 0 0 0 0 -138.73309828147922 52.656542897417239 0 52.656542897417239 89.591601263731718 0 0 0 0 199.95754718052194 109.77037619522889 0 109.77037619522889 -43.751232728536706 0 0 0 0 -21.321898061867614 235.26998583721434 0 235.26998583721434 119.36045295507938 0 0 0 0 52.63981554669499 18.322066407537932 0 18.322066407537932 -31.27258693202748 0 0 0 0 3.661727917025928 31.353858857619343 0 31.353858857619343 -1.6199916636105627 0 0 0 0 8.8127451652762829 30.304143942354131 0 30.304143942354131 -3.9953804169690557 0 0 0 0 3.622027690097978 19.25021401968479 0 19.25021401968479 2.50455942332934 0 0 0 0 15.772684548407796 26.729981881535693 0 26.729981881535693 -2.2373558427832982 0 0 0 0 254.59534097308369 358.03695154353045 0 358.03695154353045 -432.24056862709404 0 0 0 0 315.7936871756483 171.90225842103246 0 171.90225842103246 76.924216977663491 0 0 0 0 1.4993398938608067 1.9976790983486978 0 1.9976790983486978 -6.553024856462784 0 0 0 0 -44.349170808864073 39.728907518212509 0 39.728907518212509 -101.98793459159151 0 0 0 0 -92.161627867830248 275.10464199620765 0 275.10464199620765 251.24485537148939 0 0 0 0 -321.28061912044359 119.67926640219957 0 119.67926640219957 296.7366269423328 0 0 0 0 -241.18723817835962 26.122985330868687 0 26.122985330868687 138.4641714001973 0 0 0 0 -8.3290462899606048 1.3243071080295863 0 1.3243071080295863 1.2152347701882036 0 0 0 0 -143.02539228407841 -3.7464154250192223 0 -3.7464154250192223 125.73980034546548 0 0 0 0 -131.76908235365954 68.508278003813757 0 68.508278003813757 137.85099808184896 0 0 0 0 -177.55505121525312 138.29151982247276 0 138.29151982247276 35.47464147307619 0 0 0 0 -50.542826852928556 170.44834433657525 0 170.44834433657525 25.890074364057 0 0 0 0 -83.847846009455679 55.228272740889224 0 55.228272740889224 1.2336461664817762 0 0 0 0 -43.999608134537993 60.672214687510859 0 60.672214687510859 1.8843241401409614 0 0 0 0 -34.414678906447079 105.28052059275797 0 105.28052059275797 -161.39319913570944 0 0 0 0 -49.969513002123676 185.76161056409546 0 185.76161056409546 -95.452776535123121 0 0 0 0 -90.011184211536602 148.27347202300734 0 148.27347202300734 -103.49001773653436 0 0 0 0 -75.630809050124299 218.20997050309961 0 218.20997050309961 -114.97247651829821 0 0 0 0 -148.05123075685697 151.36604395957693 0 151.36604395957693 -74.494484843744431 0 0 0 0 -107.26831509021758 58.533090134878876 0 58.533090134878876 -70.654342955406264 0 0 0 0 90.983992595656673 176.93980246315914 0 176.93980246315914 -35.701277411571937 0 0 0 0 -64.152087091486464 208.71498554569553 0 208.71498554569553 23.372961965360446 0 0 0 0 -11.608023514447268 105.28579243665445 0 105.28579243665445 -68.357222458755132 0 0 0 0 69.238715689050878 278.52476244233549 0 278.52476244233549 34.737296350154793 0 0 0 0 6.4005213602854383 -29.133828479614749 0 -29.133828479614749 -451.9668736657768 0 0 0 0 -26.071951752241148 -16.001226376218256 0 -16.001226376218256 37.217424820384622 0 0 0 0 -4.9129523416633063 3.0744116536226187 0 3.0744116536226187 -4.1966153591605746 0 0 0 0 -18.12020234708433 12.201420677998314 0 12.201420677998314 -17.458754338985955 0 0 0 0 2.6422879390120215 111.85552700742846 0 111.85552700742846 -8.053651753012673 0 0 0 0 37.859648002835456 14.76331162272254 0 14.76331162272254 28.885633682933985 0 0 0 0 -13.637528966502487 51.802587052383387 0 51.802587052383387 108.61729908850975 0 0 0 0 -17.704676053795993 24.031653323792852 0 24.031653323792852 74.614295385486912 0 0 0 0 66.596950117425877 95.988561973386823 0 95.988561973386823 -36.817731029470451 0 0 0 0 -301.39575705312473 -49.498661986592197 0 -49.498661986592197 -277.26429306086357 0 0 0 0 97.860032100434182 9.9973369551662472 0 9.9973369551662472 -7.1217793262621854 0 0 0 0 4.5661609861563193 -39.927023339238076 0 -39.927023339238076 83.821968521049712 0 0 0 0 -75.711832787786989 21.356205534408218 0 21.356205534408218 47.673534484754782 0 0 0 0 -44.186217415342071 57.888277125090099 0 57.888277125090099 -39.647569650987862 0 0 0 0 2.5102225424125209 3.379734184301924 0 3.379734184301924 -12.023491141357226 0 0 0 0 -59.487544329582306 29.855237911775475 0 29.855237911775475 -123.58686672718613 0 0 0 0 -6.5743487730433117 48.071418350649765 0 48.071418350649765 -117.72133174645569 0 0 0 0 -59.522829410401755 73.579976908891695 0 73.579976908891695 -97.250995171329123 0 0 0 0 -37.190081819428087 100.13839668076616 0 100.13839668076616 -81.167263609182555 0 0 0 0 -49.388325347821592 28.746631943522516 0 28.746631943522516 -175.47537169820862 0 0 0 0 26.981590496270655 57.281891175778583 0 57.281891175778583 -53.399860436766176 0 0 0 0 -3.9884836111946242 63.19068027778394 0 63.19068027778394 -34.680849024472991 0 0 0 0 -3.4576472171927435 90.935200719079603 0 90.935200719079603 -13.24668560543796 0 0 0 0 8.7913314580064252 57.179842078119691 0 57.179842078119691 -61.544689195841784 0 0 0 0 -7.2567402822232907 112.07145072312414 0 112.07145072312414 -40.283738572587026 0 0 0 0 0.34839929790541646 74.504271765967133 0 74.504271765967133 -98.969658338304725 0 0 0 0 -3.1874440913816215 113.12466012880031 0 113.12466012880031 -119.28586019454087 0 0 0 0 24.0575332950954 1.8942986340510402 0 1.8942986340510402 -13.262250785347319 0 0 0 0 27.706722720598918 70.383014644685318 0 70.383014644685318 -166.31384905055165 0 0 0 0 16.06670134993692 3.0904915562350652 0 3.0904915562350652 -15.128238575274736 0 0 0 0 12.28201754694105 2.8242328213826511 0 2.8242328213826511 -18.175809947395805 0 0 0 0 37.588314176340646 -11.612998554832302 0 -11.612998554832302 -155.66601212220849 0 0 0 0 -68.447131047421863 169.13824801821465 0 169.13824801821465 -324.80044438806362 0 0 0 0 6.9138662282279864 0.53303767622722731 0 0.53303767622722731 -0.32858042677753474 0 0 0 0 -51.106260290616774 120.2170244238805 0 120.2170244238805 -196.89859355590306 0 0 0 0 111.76612658786689 12.808099916495848 0 12.808099916495848 -32.232418677565875 0 0 0 0 45.798414266294458 17.897616675589234 0 17.897616675589234 -25.321216616604943 0 0 0 0 11.286530184004564 -3.6554869299981192 0 -3.6554869299981192 -16.422220382757985 0 0 0 0 46.582941468671379 15.231666266870889 0 15.231666266870889 -22.862636088946601 0 0 0 0 2.4288325734342022 3.9060087282189642 0 3.9060087282189642 -5.7912784044347916 0 0 0 0 18.814421733946801 -44.740420443413313 0 -44.740420443413313 -18.422858592413832 0 0 0 0 -26.239915061779811 48.312602530510048 0 48.312602530510048 -27.722032797739303 0 0 0 0 -196.22745217695956 322.58532600764011 0 322.58532600764011 -423.70810954232002 0 0 0 0 37.006066662179364 154.66354160045012 0 154.66354160045012 -264.94916442185786 0 0 0 0 -14.382858728595238 232.3622815255876 0 232.3622815255876 -379.40350216799561 0 0 0 0 -279.67774914925758 93.690352092526155 0 93.690352092526155 -72.037020541528364 0 0 0 0 -250.57318142520035 257.82590573355083 0 257.82590573355083 -177.78335754066939 0 0 0 0 29.552775053427467 127.2515955658746 0 127.2515955658746 -160.49352124637699 0 0 0 0 44.225552177302234 15.157416881389508 0 15.157416881389508 -19.31485788905411 0 0 0 0 10.223392927067835 95.26597576529457 0 95.26597576529457 -208.7417565949072 0 0 0 0 25.374751295424041 5.8046704431153415 0 5.8046704431153415 -1.2695244071852443 0 0 0 0 44.13185329465432 17.431201802064606 0 17.431201802064606 -20.522872159956023 0 0 0 0 9.9989583388096435 36.017800022389565 0 36.017800022389565 -10.071411354612792 0 0 0 0 10.544743203746391 1.1933373848717537 0 1.1933373848717537 -0.27271262510700467 0 0 0 0 0.076318547127812053 4.6028260617167689 0 4.6028260617167689 8.4313046476163436 0 0 0 0 -17.066424333137547 -2.8075051306659589 0 -2.8075051306659589 9.3130463727284223 0 0 0 0 -464.37185343899137 -469.41567623837 0 -469.41567623837 -699.03886773441627 0 0 0 0 -36.125430025253195 -10.080428296524133 0 -10.080428296524133 17.398763962090015 0 0 0 0 -30.668362238635382 -7.2777784362842795 0 -7.2777784362842795 11.342578447336564 0 0 0 0 -52.14938174065901 -3.9487824966345215 0 -3.9487824966345215 14.764497841533739 0 0 0 0 -50.106359341274583 -1.7826404703228036 0 -1.7826404703228036 15.995277504029218 0 0 0 0 -80.047419967225323 13.794831020917627 0 13.794831020917627 18.177764517138712 0 0 0 0 -34.538620893385257 11.872707494203041 0 11.872707494203041 10.519396538846195 0 0 0 0 55.567801898650487 39.871121486379707 0 39.871121486379707 -50.910953449376393 0 0 0 0 -38.81678874401041 82.116339639684156 0 82.116339639684156 -29.750905960419914 0 0 0 0 29.75070097412754 32.930657377175521 0 32.930657377175521 -11.274616878941742 0 0 0 0 57.625791980905603 45.355444219802848 0 45.355444219802848 -57.483690750828828 0 0 0 0 64.312732837443036 84.022680652793497 0 84.022680652793497 -37.939280311897164 0 0 0 0 129.84608049286544 19.453977931414556 0 19.453977931414556 -84.456722089802497 0 0 0 0 220.43917606851301 45.045863017934607 0 45.045863017934607 -84.898008759715594 0 0 0 0 155.27815002265743 16.402420056401752 0 16.402420056401752 -97.410624543044833 0 0 0 0 142.62671578340081 150.97371292750495 0 150.97371292750495 -84.181917198846349 0 0 0 0 8.7707320140825686 215.67002439417047 0 215.67002439417047 -417.93358062284824 0 0 0 0 -222.30506294273573 -17.782279472499795 0 -17.782279472499795 18.148478184913984 0 0 0 0 -110.40576881846573 163.99234547784727 0 163.99234547784727 -59.60177424212452 0 0 0 0 -7.3917963110404798 75.577171369681309 0 75.577171369681309 -96.208001439292275 0 0 0 0 1.1257377397236807 4.4603957813969721 0 4.4603957813969721 -22.795985527792141 0 0 0 0 -43.895848417796515 58.91312188894517 0 58.91312188894517 -64.516865771685843 0 0 0 0 -24.976884429442521 53.027633839933515 0 53.027633839933515 -125.93419090562384 0 0 0 0 61.812125386510843 33.008679983926413 0 33.008679983926413 -24.555511433078209 0 0 0 0 82.918267870030604 19.674544609373697 0 19.674544609373697 -39.680684354374534 0 0 0 0 67.461714065248998 12.933600919546734 0 12.933600919546734 -22.847969149355777 0 0 0 0 49.388549576846344 -7.8344372926621872 0 -7.8344372926621872 -19.084158493409632 0 0 0 0 93.140212673443784 -38.455489781044889 0 -38.455489781044889 -65.949584752568626 0 0 0 0 -222.05152917398027 142.67855909391074 0 142.67855909391074 -46.47576169482636 0 0 0 0 -87.007881846363034 362.66425474060088 0 362.66425474060088 -336.99516422463785 0 0 0 0 -538.92546589973631 268.20955242271248 0 268.20955242271248 -37.984283099227468 0 0 0 0 -1.087052859129565 2.303799888170623 0 2.303799888170623 -7.6770982649968005 0 0 0 0 -38.003344994934196 -80.546720821977942 0 -80.546720821977942 -78.102449721453013 0 0 0 0 64.14178913702699 -97.815236116810411 0 -97.815236116810411 -205.66659595875535 0 0 0 0 104.55460327200126 112.9765027629619 0 112.9765027629619 -390.52388481915432 0 0 0 0 120.18157023400909 -8.7686624510388356 0 -8.7686624510388356 -85.531663834495703 0 0 0 0 142.09136539315659 28.531926738738548 0 28.531926738738548 36.867114478256553 0 0 0 0 132.73917614866969 -5.5390298311249353 0 -5.5390298311249353 -75.618445743340999 0 0 0 0 118.64019439732752 250.96437713182445 0 250.96437713182445 48.673480040946743 0 0 0 0 120.77221653572617 358.6392820368311 0 358.6392820368311 22.970498183509335 0 0 0 0 73.883720735680072 316.13617487746524 0 316.13617487746524 -133.89040264425785 0 0 0 0 95.792834749644499 198.70988393682637 0 198.70988393682637 187.81550848472398 0 0 0 0 -140.79579117544563 485.78268729588308 0 485.78268729588308 -156.62214314276935 0 0 0 0 83.579397499061997 306.34968702962215 0 306.34968702962215 -395.12392933719366 0 0 0 0 -356.83039650014064 348.47509684805664 0 348.47509684805664 187.53161761286901 0 0 0 0 -181.72489478260161 -221.35803744037548 0 -221.35803744037548 -69.168173778292839 0 0 0 0 -332.54429919213453 -148.34856383998704 0 -148.34856383998704 114.68298845812387 0 0 0 0 132.26649469097538 211.82739911979297 0 211.82739911979297 17.799800457520178 0 0 0 0 -2.6220537511188056 2.0678020140416322 0 2.0678020140416322 -1.4211284550815435 0 0 0 0 129.25171666944152 234.31084977246064 0 234.31084977246064 59.127386258020124 0 0 0 0 168.79762230197957 161.58209207937034 0 161.58209207937034 83.367124114356557 0 0 0 0 291.9634731642418 113.67785913124681 0 113.67785913124681 -92.48595364389621 0 0 0 0 -1.6276348671620546 2.0860099493587043 0 2.0860099493587043 -2.3720107451627541 0 0 0 0 324.5965710599794 -25.851936317973014 0 -25.851936317973014 -65.347713397801272 0 0 0 0 283.63373023261374 -609.62616607407108 0 -609.62616607407108 459.23626396368491 0 0 0 0 163.18087662211838 -61.961451428862347 0 -61.961451428862347 -44.235797382629244 0 0 0 0 255.5811179457578 -51.100235199628514 0 -51.100235199628514 -58.245649976946879 0 0 0 0 269.46971539677361 -89.313457747906796 0 -89.313457747906796 46.851488541957224 0 0 0 0 198.52624024751185 -59.223520873376401 0 -59.223520873376401 139.66370830072265 0 0 0 0 -3.1100339887163591 4.0441754118462541 0 4.0441754118462541 -3.1412131697434802 0 0 0 0 23.93800312676467 341.72923515609 0 341.72923515609 -13.879547958407784 0 0 0 0 91.548613683804433 287.11268584546633 0 287.11268584546633 -35.409045262262225 0 0 0 0 -26.844762016993627 347.58731277871993 0 347.58731277871993 43.885453117836732 0 0 0 0 -13.575827702410606 146.81584574537555 0 146.81584574537555 181.87712273228681 0 0 0 0 -387.36214689377084 675.22226728434907 0 675.22226728434907 -562.7220234000124 0 0 0 0 79.182178821014531 294.12791045289487 0 294.12791045289487 27.098837707366329 0 0 0 0 -59.533273325171649 282.54232327297359 0 282.54232327297359 122.12964961194666 0 0 0 0 58.345645318458992 288.01049323410552 0 288.01049323410552 88.221221167157637 0 0 0 0 -2.5870990226485446 316.56395220896229 0 316.56395220896229 77.523079717357177 0 0 0 0 63.929804587838589 267.75487011505902 0 267.75487011505902 64.326945904729655 0 0 0 0 113.6512656303712 253.55818743442796 0 253.55818743442796 68.108760693721706 0 0 0 0 80.407600807964627 295.45426494285857 0 295.45426494285857 15.355720359628322 0 0 0 0 133.20982246708991 235.40989459441334 0 235.40989459441334 27.647699322376866 0 0 0 0 139.43033856256443 236.80628881402663 0 236.80628881402663 44.94365865632426 0 0 0 0 91.36396557316948 232.61388326163433 0 232.61388326163433 99.68030645022111 0 0 0 0 135.17925698244653 143.96755993425177 0 143.96755993425177 53.393242029007524 0 0 0 0 49.523804845733139 186.67451957353478 0 186.67451957353478 78.222251823419356 0 0 0 0 156.66067278070295 125.2784882183696 0 125.2784882183696 69.6505084806995 0 0 0 0 151.83578278394998 195.62867161005852 0 195.62867161005852 78.829530121573043 0 0 0 0 143.60840344090832 178.86328561769778 0 178.86328561769778 120.70948027962004 0 0 0 0 124.5529524870276 97.059060089949526 0 97.059060089949526 73.509802675893297 0 0 0 0 -34.698726419167542 -3.8759940147501766 0 -3.8759940147501766 25.327470446063671 0 0 0 0 -0.56521204962189486 1.1879773959178692 0 1.1879773959178692 -0.40320630178976558 0 0 0 0 0.1865488374597426 0.25178814116492276 0 0.25178814116492276 -0.14892794226972228 0 0 0 0 384.72593474483438 259.46621571440483 0 259.46621571440483 157.019144943828 0 0 0 0 259.46881407398723 105.9529129388975 0 105.9529129388975 54.935182075889315 0 0 0 0 229.06467495552442 191.85506328514384 0 191.85506328514384 130.84438142803265 0 0 0 0 174.66889554814043 181.22730538796168 0 181.22730538796168 120.56816984784791 0 0 0 0 171.09412796429933 179.5672455529857 0 179.5672455529857 224.07776100124465 0 0 0 0 147.03255848840854 137.17678928715213 0 137.17678928715213 241.94905075563292 0 0 0 0 -6.3637941162388607 4.882449864924638 0 4.882449864924638 -2.8271026184227139 0 0 0 0 186.12244360122895 186.21245204121078 0 186.21245204121078 222.76867626611966 0 0 0 0 -13.690218679449572 168.49419957718783 0 168.49419957718783 31.408637080618064 0 0 0 0 162.80211318913643 206.36172683931363 0 206.36172683931363 248.1479225910557 0 0 0 0 212.55635585944037 250.86247332695893 0 250.86247332695893 238.40086637143395 0 0 0 0 219.37515003036242 244.96871398203075 0 244.96871398203075 236.76860353173106 0 0 0 0 228.36487054916688 238.43424423920078 0 238.43424423920078 247.63887076807441 0 0 0 0 221.79840224170766 247.47243328765035 0 247.47243328765035 235.20135052117257 0 0 0 0 218.7389332242019 218.89496912749019 0 218.89496912749019 253.82211508566979 0 0 0 0 63.353764512612543 20.274895409405872 0 20.274895409405872 -5.5792694399429479 0 0 0 0 75.304048494461313 3.6738271421490936 0 3.6738271421490936 -18.331170389108593 0 0 0 0 222.66856710259162 231.65852308209287 0 231.65852308209287 240.71085180876253 0 0 0 0 -7.67447616827112 5.9873195328578674 0 5.9873195328578674 -3.2785610690393696 0 0 0 0 33.651562678081973 0.045075797330355272 0 0.045075797330355272 -9.0562339991010958 0 0 0 0 9.5384367797087179 -21.1033892466221 0 -21.1033892466221 -2.6664124767412432 0 0 0 0 9.4330764243880481 -22.774072011719454 0 -22.774072011719454 7.7508196440467145 0 0 0 0 -29.925069807582986 -28.849033839462209 0 -28.849033839462209 19.901539105077973 0 0 0 0 -50.832037477086487 -20.614097932193545 0 -20.614097932193545 17.554124131100252 0 0 0 0 68.937771515861414 -24.706614404240099 0 -24.706614404240099 -19.404051793942926 0 0 0 0 16.804432940682091 -64.782337572578399 0 -64.782337572578399 1.8989921746579057 0 0 0 0 -117.71053814326388 61.920314140508708 0 61.920314140508708 -38.045091601459717 0 0 0 0 724.47675193383839 79.856485034481011 0 79.856485034481011 -165.73612182814395 0 0 0 0 474.54986103029296 70.666903065517545 0 70.666903065517545 283.50240359661984 0 0 0 0 272.30844881312078 161.60011961539567 0 161.60011961539567 376.72808418293425 0 0 0 0 321.19638224940718 316.2120461697923 0 316.2120461697923 -97.802531369030476 0 0 0 0 204.51830470946516 247.60761979534436 0 247.60761979534436 241.72270741924876 0 0 0 0 204.51830470947607 247.60761979533709 0 247.60761979533709 241.72270741942339 0 0 0 0 302.14522893753383 301.24792582521331 0 301.24792582521331 249.05682105098094 0 0 0 0 204.51830470943241 247.60761979536619 0 247.60761979536619 241.72270741936518 0 0 0 0 214.78437814288191 228.51780641694495 0 228.51780641694495 289.39357862624456 0 0 0 0 249.26301080085977 212.34209652006393 0 212.34209652006393 266.16010819023359 0 0 0 0 246.25901346473256 252.87997807338252 0 252.87997807338252 258.42283784605388 0 0 0 0 248.4374111756224 239.25559694191907 0 239.25559694191907 335.98853104592854 0 0 0 0 319.35497902491261 276.8307401456259 0 276.8307401456259 211.6333810496435 0 0 0 0 -2.3525646534209663 4.4827550587629332 0 4.4827550587629332 -1.4165338591844545 0 0 0 0 229.29623881923544 252.19387557957089 0 252.19387557957089 241.947751291038 0 0 0 0 304.30378166629725 230.45854181291361 0 230.45854181291361 84.733886166708544 0 0 0 0 -263.54580092002016 -13.840491882183414 0 -13.840491882183414 34.532447853598569 0 0 0 0 -82.6786691987636 19.221825101696595 0 19.221825101696595 -16.568328330802615 0 0 0 0 -130.74294337737774 38.797824666216911 0 38.797824666216911 38.681071355938911 0 0 0 0 -77.190341244564479 41.439875073025178 0 41.439875073025178 -4.5123105184138694 0 0 0 0 -95.58822017102284 76.286900985193824 0 76.286900985193824 57.508798666691291 0 0 0 0 -3.0123434275973047 4.8995178092876444 0 4.8995178092876444 0.11429410399998119 0 0 0 0 -85.80438993351072 -1.9816631890062126 0 -1.9816631890062126 66.237489645296591 0 0 0 0 2.556846937373848 9.9489444114733487 0 9.9489444114733487 -31.859546143037733 0 0 0 0 -34.020236664258846 21.602115006448003 0 21.602115006448003 -5.5063026818897924 0 0 0 0 -121.74829244846387 11.835411133384696 0 11.835411133384696 23.093996422743658 0 0 0 0 -57.342798086781841 46.846753743891895 0 46.846753743891895 14.6236448666059 0 0 0 0 -10.173159478577873 107.11756794250687 0 107.11756794250687 29.296181900579541 0 0 0 0 102.60711553666624 129.90669294484542 0 129.90669294484542 -6.5596478994557401 0 0 0 0 -41.362468811116777 39.385020380216133 0 39.385020380216133 -15.062328406321313 0 0 0 0 21.075555192568984 28.967431624589274 0 28.967431624589274 -35.59692045188757 0 0 0 0 42.965137488594337 180.19756683171363 0 180.19756683171363 -2.5404081966889862 0 0 0 0 62.713560780825901 5.389000214443513 0 5.389000214443513 -74.545945076104545 0 0 0 0 172.92988307381165 470.09067532480913 0 470.09067532480913 278.61158432162665 0 0 0 0 4.5941089569552105 33.2399732830741 0 33.2399732830741 -47.941302793698497 0 0 0 0 -17.662478063421602 24.434330293412252 0 24.434330293412252 -24.389636724534256 0 0 0 0 38.132211573472887 67.135115273511474 0 67.135115273511474 5.4960556586156599 0 0 0 0 -262.9482073715626 169.22269207292629 0 169.22269207292629 266.39163981207821 0 0 0 0 102.83842439295404 102.28653916374969 0 102.28653916374969 190.8437228256189 0 0 0 0 -297.59744966152357 71.529081222477544 0 71.529081222477544 201.16382794629681 0 0 0 0 4.8338317496928767 12.828031723819493 0 12.828031723819493 19.218520800331959 0 0 0 0 7.1366877273831051 22.984004382369676 0 22.984004382369676 7.2686685932130786 0 0 0 0 -193.30164504308777 42.693181427508534 0 42.693181427508534 120.42443597036981 0 0 0 0 -83.726756869393284 180.14261796521896 0 180.14261796521896 -19.224305809086218 0 0 0 0 -29.651371957967058 64.614177419800399 0 64.614177419800399 47.58122872991953 0 0 0 0 -7.7670722449555143 37.365726196957866 0 37.365726196957866 49.467576892263139 0 0 0 0 -10.974344970207312 32.219745357724605 0 32.219745357724605 3.0018692068115342 0 0 0 0 0.083275030867014266 11.665266929427148 0 11.665266929427148 1.9919173939904526 0 0 0 0 -107.97352931523346 156.57644678526412 0 156.57644678526412 -36.130893250418012 0 0 0 0 -19.472604062699247 68.07425136240272 0 68.07425136240272 25.244934071452008 0 0 0 0 -17.596301130251959 56.322158015484092 0 56.322158015484092 53.264222858269932 0 0 0 0 3.1987462783254159 57.136175424289831 0 57.136175424289831 -52.349761402627337 0 0 0 0 -63.395307403290644 181.71567055441847 0 181.71567055441847 -162.73440295421096 0 0 0 0 -23.667302130480493 53.939735460656507 0 53.939735460656507 -64.641047398060266 0 0 0 0 13.978723637066537 7.4546281767598437 0 7.4546281767598437 -22.748100757899635 0 0 0 0 -102.32059874794504 240.83129469794221 0 240.83129469794221 373.7524480442371 0 0 0 0 1.8204719660752744 55.671737699272853 0 55.671737699272853 -26.236073469364783 0 0 0 0 -26.086704568522691 82.236719967819226 0 82.236719967819226 30.432424127524428 0 0 0 0 -47.304838169453433 143.34779275176697 0 143.34779275176697 -53.961610342365248 0 0 0 0 -7.9919806561374571 54.271323220906197 0 54.271323220906197 7.846772403063369 0 0 0 0 -8.0133127952321956 54.213837760963088 0 54.213837760963088 25.245708488306263 0 0 0 0 -73.383174513030099 87.366114906506482 0 87.366114906506482 28.74853136834281 0 0 0 0 -16.062384927174044 11.660476388878891 0 11.660476388878891 -5.7340203987468215 0 0 0 0 -21.194336613786788 30.196629162557684 0 30.196629162557684 13.128147290590562 0 0 0 0 -22.962599968066684 55.138739404064268 0 55.138739404064268 5.5527400115153966 0 0 0 0 -18.156715070706838 3.2713992541721666 0 3.2713992541721666 5.0840564918723317 0 0 0 0 1.4682243151708008 5.317793551132354 0 5.317793551132354 -3.4099208723469303 0 0 0 0 130.9904565855395 301.39938508390333 0 301.39938508390333 25.576731764362194 0 0 0 0 -19.422403037347976 33.067230549129818 0 33.067230549129818 64.951303044363158 0 0 0 0 15.695496255760361 59.000720771800246 0 59.000720771800246 26.942097076409198 0 0 0 0 -28.926390330194408 99.770264052775019 0 99.770264052775019 16.590075269828958 0 0 0 0 -20.024526353645342 27.874219182784145 0 27.874219182784145 20.167757429764606 0 0 0 0 -55.01852724069613 69.747690774674993 0 69.747690774674993 47.617422929863096 0 0 0 0 -11.733957570664643 151.58514883013413 0 151.58514883013413 31.938697389868651 0 0 0 0 114.74703996540029 174.83283884461071 0 174.83283884461071 -36.415067870722851 0 0 0 0 -41.815339635000271 61.380003442123126 0 61.380003442123126 -43.327072868289605 0 0 0 0 97.364909383501072 106.03029819393123 0 106.03029819393123 -112.40076014068472 0 0 0 0 -160.98952049597801 104.15023322872185 0 104.15023322872185 49.069596515495505 0 0 0 0 67.515477259771615 158.99344347974693 0 158.99344347974693 11.319424936780706 0 0 0 0 -48.333722177846035 45.34366646454292 0 45.34366646454292 -35.653630763607396 0 0 0 0 -4.8130475921028619 7.4412262277223107 0 7.4412262277223107 -1.3932166056375022 0 0 0 0 288.59706710837054 84.499704579955505 0 84.499704579955505 203.02728762718471 0 0 0 0 89.013215004277299 301.20796602755581 0 301.20796602755581 -610.02338586118981 0 0 0 0 470.96086429900606 413.31020928700855 0 413.31020928700855 220.30218896660517 0 0 0 0 145.88166331037064 673.83477544866037 0 673.83477544866037 1364.4713935455065 0 0 0 0 -22.480555792906671 93.497953584246716 0 93.497953584246716 360.85595850943719 0 0 0 0 -36.85564219855587 0.3111091347477668 0 0.3111091347477668 111.1696487489462 0 0 0 0 -16.120690121082589 156.8250077967532 0 156.8250077967532 -176.1670745053527 0 0 0 0 -153.38538369696471 80.746835113834095 0 80.746835113834095 94.939262331470673 0 0 0 0 -16.89060939388736 22.589965979049609 0 22.589965979049609 7.5233401365356025 0 0 0 0 75.780770794523733 70.408150641912101 0 70.408150641912101 21.684616836739309 0 0 0 0 9.3523165630494169 11.823963101369756 0 11.823963101369756 2.9781949889243151 0 0 0 0 193.4647139946901 70.138716199468035 0 70.138716199468035 -89.162416094040964 0 0 0 0 182.69110139684926 79.380279263987177 0 79.380279263987177 -36.913520599759067 0 0 0 0 106.60675127530703 133.69874246965992 0 133.69874246965992 -10.848371743151802 0 0 0 0 127.47094190288044 40.138952860816062 0 40.138952860816062 20.720297517778818 0 0 0 0 45.926732928238948 59.626744160372446 0 59.626744160372446 12.114370851139665 0 0 0 0 -2.2912651990918675 57.716704060505435 0 57.716704060505435 19.340102754140389 0 0 0 0 11.976601139788045 52.317746890585312 0 52.317746890585312 20.89762228358876 0 0 0 0 -10.822558931278763 58.239132421687827 0 58.239132421687827 1.1950606991110675 0 0 0 0 20.934601141433824 41.61859648663291 0 41.61859648663291 9.161775120564414 0 0 0 0 -31.295608085034473 71.595062831929681 0 71.595062831929681 26.307525866606738 0 0 0 0 -46.655896395097443 142.91388973268067 0 142.91388973268067 -1.7908902455674252 0 0 0 0 -15.096973959510926 54.594006094018653 0 54.594006094018653 5.9970007490483965 0 0 0 0 27.028978339818423 70.891336815959221 0 70.891336815959221 -6.8242089474224485 0 0 0 0 -20.185806374647655 85.222425418091007 0 85.222425418091007 4.0840354167157784 0 0 0 0 -18.689616005955031 34.626534130176879 0 34.626534130176879 -29.153657179675065 0 0 0 0 7.2371303770750899 33.406149086897642 0 33.406149086897642 -12.180836533483927 0 0 0 0 -7.0458900157973403 22.222497704548005 0 22.222497704548005 -5.9264748299028724 0 0 0 0 -23.445315339715272 7.7335615352703542 0 7.7335615352703542 1.3345821385807426 0 0 0 0 -9.9707484260434285 64.187469583877828 0 64.187469583877828 26.540646107081557 0 0 0 0 -76.050655723227237 60.470236026611559 0 60.470236026611559 -10.810463839439819 0 0 0 0 -106.01808258029632 144.04149962836527 0 144.04149962836527 34.097907945193583 0 0 0 0 -166.08805282402318 103.92783429889823 0 103.92783429889823 13.907897555814998 0 0 0 0 -115.92473423859337 162.6969717723041 0 162.6969717723041 -4.0176410735948593 0 0 0 0 -60.476459137600614 138.8369835986814 0 138.8369835986814 22.328714306517213 0 0 0 0 -128.74538479787589 217.79082542450851 0 217.79082542450851 -56.673159279089305 0 0 0 0 -108.41139804961858 270.60091422213554 0 270.60091422213554 76.086624148345436 0 0 0 0 -164.96761408251609 181.94891352181497 0 181.94891352181497 105.74080412556214 0 0 0 0 -249.11311111971736 90.221874696529994 0 90.221874696529994 40.937901877499826 0 0 0 0 2.3248382998380066 1.4359227919630371 0 1.4359227919630371 2.4175263890434735 0 0 0 0 75.952436905456125 183.58074645659326 0 183.58074645659326 6.8442233162204502 0 0 0 0 -34.661688833264634 244.72503747109295 0 244.72503747109295 337.82618826487305 0 0 0 0 -274.7956971961321 92.48057557710672 0 92.48057557710672 38.657697568305593 0 0 0 0 -43.913262453075731 15.982810200988752 0 15.982810200988752 -1.3995929783122847 0 0 0 0 -16.094926274735059 13.732679898148518 0 13.732679898148518 3.0231586315926791 0 0 0 0 -184.66293906130886 193.00578302372742 0 193.00578302372742 -79.327481815376814 0 0 0 0 -93.044955438002944 53.108510235211725 0 53.108510235211725 -16.371390633532428 0 0 0 0 -52.468328939867206 36.926620072361402 0 36.926620072361402 -16.497197760960745 0 0 0 0 -37.622551213861072 41.142870832146514 0 41.142870832146514 -27.424125754826974 0 0 0 0 69.80235250419355 97.934819598536706 0 97.934819598536706 -106.44016645692727 0 0 0 0 8.0437238616277966 53.921346788063289 0 53.921346788063289 29.109183636111169 0 0 0 0 -173.04390949111075 116.46876042939812 0 116.46876042939812 -39.305175550965942 0 0 0 0 -75.956174576000535 61.60015738137426 0 61.60015738137426 -8.8597614462527474 0 0 0 0 -99.870132655298221 359.19671176775591 0 359.19671176775591 -86.339863980989321 0 0 0 0 -241.51388148769911 51.796329641263583 0 51.796329641263583 30.377114476719726 0 0 0 0 -149.49714462118573 119.14272678626003 0 119.14272678626003 64.300364614267892 0 0 0 0 -149.78845371503485 115.13095057406326 0 115.13095057406326 48.225318960787263 0 0 0 0 -42.697640418773517 87.451347922804416 0 87.451347922804416 11.034326187727856 0 0 0 0 -65.14722638582316 119.53764871412204 0 119.53764871412204 -2.0613628634746419 0 0 0 0 6.7160063873505536 7.4840065248368148 0 7.4840065248368148 -0.40450655236824673 0 0 0 0 -84.043061342810688 48.767649557865298 0 48.767649557865298 -187.39845675762626 0 0 0 0 -530.83325443306239 189.47816255011276 0 189.47816255011276 45.771921755527728 0 0 0 0 -269.63460502971429 329.43379236720648 0 329.43379236720648 -214.53689606444459 0 0 0 0 -139.15737085473666 101.47477088216692 0 101.47477088216692 84.910632121085655 0 0 0 0 -71.475691608327509 67.028829712269982 0 67.028829712269982 -21.810036259313904 0 0 0 0 -160.03637645318304 291.68461144016874 0 291.68461144016874 -21.108789970327052 0 0 0 0 -89.074549313329044 68.385907859950748 0 68.385907859950748 -38.699184623110341 0 0 0 0 -51.015201609422462 23.607386249713898 0 23.607386249713898 14.660230665239652 0 0 0 0 20.707189648489816 41.248761478178125 0 41.248761478178125 17.17887328100386 0 0 0 0 -24.750146008036467 47.602752910735433 0 47.602752910735433 -0.29980296001406259 0 0 0 0 -71.678260236789356 63.735169379076979 0 63.735169379076979 38.9825747136274 0 0 0 0 -21.123146143116173 32.82884946606282 0 32.82884946606282 -2.4268438413346303 0 0 0 0 -11.094670722658194 35.715998823649713 0 35.715998823649713 -19.169088630440598 0 0 0 0 -27.574600620857382 109.77029172161201 0 109.77029172161201 13.648704412211373 0 0 0 0 0.3183706313939183 70.549055355968449 0 70.549055355968449 -28.203819644098985 0 0 0 0 -4.7007570588282874 14.304829282862158 0 14.304829282862158 -5.6550380916472207 0 0 0 0 -8.4993053652287927 79.348868800909258 0 79.348868800909258 111.30651842219231 0 0 0 0 -13.298518241376769 95.283904098444509 0 95.283904098444509 -21.445549648778979 0 0 0 0 -16.131498300688691 121.00188976195932 0 121.00188976195932 38.072950810310431 0 0 0 0 -10.418667568311321 86.914956081599939 0 86.914956081599939 -27.20194980877568 0 0 0 0 -8.5642944758583326 76.565082580513263 0 76.565082580513263 15.008982667316559 0 0 0 0 127.71628407412209 64.559599523985526 0 64.559599523985526 14.137560886854772 0 0 0 0 -6.8828311303223018 149.01809610150667 0 149.01809610150667 -20.751798879544367 0 0 0 0 -166.34250276192324 185.35084571718471 0 185.35084571718471 -230.12000191249535 0 0 0 0 -5.1719286539173481 0.12621246812611275 0 0.12621246812611275 1.3785803954295091 0 0 0 0 -288.9826762356679 250.5602154606313 0 250.5602154606313 -47.588154870027211 0 0 0 0 -3.2337193277655842 -0.41213177488380381 0 -0.41213177488380381 1.2727361340949699 0 0 0 0 -26.090230641886592 11.585492033897026 0 11.585492033897026 1.1792037178965984 0 0 0 0 -46.359972855832893 47.109809533445514 0 47.109809533445514 -22.015044531442982 0 0 0 0 -32.043757356350625 15.552217595854643 0 15.552217595854643 3.8653290522510346 0 0 0 0 -22.897828216976706 11.243570633798775 0 11.243570633798775 -3.7142998729456167 0 0 0 0 96.528159348154077 97.161222689908755 0 97.161222689908755 -126.86801539010776 0 0 0 0 -36.791696877302456 38.740947355185199 0 38.740947355185199 23.584389122392167 0 0 0 0 31.008088682585367 34.865166631381726 0 34.865166631381726 -249.79030497486747 0 0 0 0 -80.355484693642211 76.321021352305252 0 76.321021352305252 -49.507955693246913 0 0 0 0 -175.24578075968566 272.70287263876889 0 272.70287263876889 -208.67142393955146 0 0 0 0 112.21399698697451 43.656339378978373 0 43.656339378978373 -41.784604055748787 0 0 0 0 111.47329452307895 120.71508844977507 0 120.71508844977507 -76.838841128428612 0 0 0 0 -53.4711231974361 91.244535176578211 0 91.244535176578211 -6.2494992636347888 0 0 0 0 -37.460168017394608 57.428184012853308 0 57.428184012853308 50.723462024499895 0 0 0 0 -7.4195478510227986 152.1643693131482 0 152.1643693131482 68.871934921193315 0 0 0 0 525.24240670834843 153.17478705008398 0 153.17478705008398 -149.28124858461524 0 0 0 0 -16.971576821262715 157.74710405232327 0 157.74710405232327 140.90537579613442 0 0 0 0 -23.090916331420885 93.315566891717026 0 93.315566891717026 140.32833064577426 0 0 0 0 114.21310345322127 103.42568902517087 0 103.42568902517087 -165.54325454357604 0 0 0 0 -57.083217391107254 67.987109580556975 0 67.987109580556975 -20.188918414510368 0 0 0 0 21.817209655883715 42.134642297782818 0 42.134642297782818 9.4360224074263215 0 0 0 0 -41.380833280067236 83.305035785986547 0 83.305035785986547 -32.489787399761553 0 0 0 0 -52.779089621577441 119.1708593906551 0 119.1708593906551 -30.841140607327134 0 0 0 0 -57.094079021811922 110.97958570436094 0 110.97958570436094 -44.233199540656642 0 0 0 0 -100.46508035963052 142.72664453354082 0 142.72664453354082 -43.249422157018785 0 0 0 0 -0.38688280558406518 7.2028587484648199 0 7.2028587484648199 4.19325206238371 0 0 0 0 -49.134427057037101 131.3446093286766 0 131.3446093286766 -121.21304274852946 0 0 0 0 -50.452299397129536 82.676009290702495 0 82.676009290702495 86.649277437114506 0 0 0 0 49.316803993856439 37.197961569488669 0 37.197961569488669 20.702889727474172 0 0 0 0 -5.0808390559086547 80.320047376862931 0 80.320047376862931 69.069525639664789 0 0 0 0 98.010604933633658 -43.633441763762676 0 -43.633441763762676 4.5135764296810521 0 0 0 0 27.613737302723749 22.733757017630268 0 22.733757017630268 -9.2607609978456935 0 0 0 0 36.649719886611074 29.88014799364089 0 29.88014799364089 -0.69666810277224034 0 0 0 0 -9.4184256184804553 40.558467111337904 0 40.558467111337904 -45.650758528718143 0 0 0 0 -59.085532012351905 64.813456107607635 0 64.813456107607635 -38.513455470936606 0 0 0 0 -63.3349946552662 76.820295901030477 0 76.820295901030477 -57.003375522690476 0 0 0 0 -35.13295829884737 89.342182142445381 0 89.342182142445381 -58.113421056841617 0 0 0 0 -88.997331822494743 95.758799514442217 0 95.758799514442217 -56.828363645614445 0 0 0 0 -72.582076867067371 114.55773627609597 0 114.55773627609597 -52.710816713151871 0 0 0 0 -11.638705103630855 86.925972247807294 0 86.925972247807294 -72.40734133488877 0 0 0 0 -60.356109802894935 113.48171018365247 0 113.48171018365247 -71.101974390294345 0 0 0 0 -60.539969129314159 118.44418175143528 0 118.44418175143528 -59.088814168906538 0 0 0 0 -62.139103785888437 87.431151786277042 0 87.431151786277042 -24.503349492573761 0 0 0 0 33.049140015525637 26.371671684635714 0 26.371671684635714 9.5735892218738741 0 0 0 0 -71.483640748934704 117.02397745296184 0 117.02397745296184 -57.268343881652982 0 0 0 0 -71.996509235905251 118.42251787928035 0 118.42251787928035 -58.737894760764902 0 0 0 0 -54.65751533274306 73.868037900530908 0 73.868037900530908 -29.876727376722556 0 0 0 0 -62.942999822924321 81.403956166461285 0 81.403956166461285 -36.665721639932599 0 0 0 0 -56.708067473504343 81.539623360506084 0 81.539623360506084 -43.310786031739553 0 0 0 0 -61.187215617494076 74.848834935164632 0 74.848834935164632 -41.722193507725024 0 0 0 0 26.343712403002968 19.564715400029144 0 19.564715400029144 -0.99146389499045995 0 0 0 0 27.410238651264081 98.873945822349924 0 98.873945822349924 -76.406318488530815 0 0 0 0 -152.01047084976744 202.82051280309679 0 202.82051280309679 10.144898943735825 0 0 0 0 -101.0382840953564 71.375334819816089 0 71.375334819816089 -57.759726316842716 0 0 0 0 -359.88725180368419 99.315537387181394 0 99.315537387181394 22.367381431220565 0 0 0 0 -97.634041174293088 113.68058283140999 0 113.68058283140999 -51.729194125902723 0 0 0 0 -116.47580334407394 110.02359056719433 0 110.02359056719433 -22.571740099803719 0 0 0 0 -174.88754129459267 131.11154650852404 0 131.11154650852404 -15.979220766123035 0 0 0 0 -122.55085393803893 142.15278678784671 0 142.15278678784671 -13.878040306532057 0 0 0 0 -89.446835289141745 244.20922648350097 0 244.20922648350097 -58.705836471024668 0 0 0 0 -200.27708767703734 163.05899243509339 0 163.05899243509339 -21.714829444132192 0 0 0 0 -30.714256383944303 127.88586873846725 0 127.88586873846725 -39.490040655684425 0 0 0 0 -95.297130488004768 156.52186319486282 0 156.52186319486282 -47.631165255734231 0 0 0 0 -42.567504031234421 108.28134513633267 0 108.28134513633267 -41.379822266673727 0 0 0 0 -56.802700858730532 100.85367926171602 0 100.85367926171602 -41.141181500788662 0 0 0 0 -119.0162478730781 103.23143150831311 0 103.23143150831311 -40.662379223495009 0 0 0 0 -71.671427774848226 62.07683312233258 0 62.07683312233258 -28.476584014459007 0 0 0 0 -86.916976620446803 317.19475262432206 0 317.19475262432206 -136.43715932016494 0 0 0 0 15.812373421169468 43.564216017839499 0 43.564216017839499 31.953667612528079 0 0 0 0 -0.27792616743579401 -1.7159918167606492 0 -1.7159918167606492 -2.4163450235837445 0 0 0 0 -485.79532401444158 -140.19302427747607 0 -140.19302427747607 122.64384786021583 0 0 0 0 174.60857258578471 85.395215781885781 0 85.395215781885781 -83.153266071210965 0 0 0 0 -57.704891507368302 63.780784461037001 0 63.780784461037001 -33.553147324360907 0 0 0 0 -193.90188227672479 139.95144294888451 0 139.95144294888451 35.050996881574974 0 0 0 0 -29.16057744693876 3.2858010662843071 0 3.2858010662843071 -3.5133365004596158 0 0 0 0 -65.024548937500839 64.28281460048305 0 64.28281460048305 -24.438028931275596 0 0 0 0 43.974440698775652 96.075306958993679 0 96.075306958993679 -10.416221955849323 0 0 0 0 -28.00074135842442 101.1080335313527 0 101.1080335313527 -18.408715355020831 0 0 0 0 -27.333406736186589 69.995867453897517 0 69.995867453897517 -1.9313498120900476 0 0 0 0 -45.246214474704175 58.926740646718827 0 58.926740646718827 -4.8076275627681753 0 0 0 0 -6.2391470825095894 88.005080415130578 0 88.005080415130578 -35.259233750301064 0 0 0 0 -23.754078057172592 78.452041787517373 0 78.452041787517373 -37.614229902324951 0 0 0 0 -39.332418203401176 91.213684711456153 0 91.213684711456153 -44.377897119018598 0 0 0 0 -63.059090475733683 95.060127972836199 0 95.060127972836199 -44.361504084239357 0 0 0 0 -73.571615576751356 90.57000317965867 0 90.57000317965867 -5.2028577598321135 0 0 0 0 -61.8545985447563 90.917422209167853 0 90.917422209167853 -11.412022316128059 0 0 0 0 -197.81044559190923 119.98589791306222 0 119.98589791306222 -4.7925655433064094 0 0 0 0 -11.47201069541461 171.94008167775246 0 171.94008167775246 -122.44753991442849 0 0 0 0 -71.507219556777272 25.212467320088763 0 25.212467320088763 -51.894125544615235 0 0 0 0 35.032893847972446 104.92002147931271 0 104.92002147931271 -8.0639786681203987 0 0 0 0 -69.227117872869712 53.728363797737984 0 53.728363797737984 30.91881879655557 0 0 0 0 -48.733546623871405 59.522477997691766 0 59.522477997691766 38.896355306525194 0 0 0 0 -36.966463625264197 27.623555120061134 0 27.623555120061134 -12.385310014540664 0 0 0 0 -92.12269987126767 68.978719421003291 0 68.978719421003291 -9.5369361915235231 0 0 0 0 -194.02249708338059 81.649001622798096 0 81.649001622798096 -32.628923301359464 0 0 0 0 -41.653937832837983 348.16647530478804 0 348.16647530478804 -1130.2124630230974 0 0 0 0 -53.166356654486663 -65.733442989047035 0 -65.733442989047035 -368.15115416818298 0 0 0 0 -91.864546813867491 203.3765852573415 0 203.3765852573415 -113.73852444789372 0 0 0 0 -168.14041094145796 54.751535679892186 0 54.751535679892186 -32.494288565736497 0 0 0 0 -42.818604671021603 183.30390155492933 0 183.30390155492933 -336.34141199929581 0 0 0 0 -94.228825199643325 168.67232786221575 0 168.67232786221575 -339.46013769626006 0 0 0 0 -77.000047884219384 197.24774622645054 0 197.24774622645054 -285.03516927915916 0 0 0 0 -46.192587560039783 42.279776158784301 0 42.279776158784301 46.665263537656102 0 0 0 0 -74.410242170387392 70.331230121195404 0 70.331230121195404 -121.46907322955667 0 0 0 0 -54.633350356302259 41.812213024967917 0 41.812213024967917 45.581824122371799 0 0 0 0 -72.742349936371284 92.076366689302631 0 92.076366689302631 -41.964715325666475 0 0 0 0 -76.48446052158819 137.94761783249734 0 137.94761783249734 -140.50258834083797 0 0 0 0 -184.79310678884576 253.53354733816559 0 253.53354733816559 -0.15491964467946673 0 0 0 0 -261.09324490063227 398.98932789565151 0 398.98932789565151 -272.34537055819237 0 0 0 0 -116.54633320681751 245.54669862933952 0 245.54669862933952 -190.76951545025076 0 0 0 0 -493.73367008605419 561.04573855293711 0 561.04573855293711 -205.08012156600307 0 0 0 0 -131.72648158554512 396.5972700023749 0 396.5972700023749 -591.02477056048519 0 0 0 0 -343.67460998342722 384.62412905897145 0 384.62412905897145 -0.32995501149707707 0 0 0 0 -503.24364135069482 663.92568276253587 0 663.92568276253587 -274.63759668498824 0 0 0 0 -758.98830945935788 969.65620739724591 0 969.65620739724591 -612.70291901374003 0 0 0 0 -56.671606930741291 64.29688280336859 0 64.29688280336859 -43.93702265995671 0 0 0 0 -69.622479196783388 87.557665377767989 0 87.557665377767989 -93.43466300793807 0 0 0 0 -8.5263923525896814 11.642489743409897 0 11.642489743409897 -15.808272968327486 0 0 0 0 -41.894718968699124 32.8026735283307 0 32.8026735283307 21.856365131634178 0 0 0 0 -39.62456149206588 38.163937064841619 0 38.163937064841619 -8.5059710736976939 0 0 0 0 -39.17981606003741 53.871314288131543 0 53.871314288131543 -32.56377186636746 0 0 0 0 -3.2452619524703152 10.760627281877476 0 10.760627281877476 -12.492386983492509 0 0 0 0 1153.0507065556958 564.73670713861065 0 564.73670713861065 -938.84862274987972 0 0 0 0 -623.50935344649406 76.448318292259501 0 76.448318292259501 34.628204224195542 0 0 0 0 194.86298129770876 -248.15843037298691 0 -248.15843037298691 24.219907464110292 0 0 0 0 -0.17816152868603297 0.62812915739882413 0 0.62812915739882413 -10.066129297795271 0 0 0 0 18.119842729670097 17.46986739595468 0 17.46986739595468 -14.227488647040985 0 0 0 0 -57.778609286769097 57.379138276920457 0 57.379138276920457 -27.859078931476688 0 0 0 0 -70.246556961166789 76.825409860837681 0 76.825409860837681 -42.026179146447248 0 0 0 0 -67.142155195699161 76.236050129546129 0 76.236050129546129 -51.445499576744623 0 0 0 0 -74.12889470103255 82.482116604100156 0 82.482116604100156 -43.34717587383966 0 0 0 0 -67.827230677859916 89.909777489065164 0 89.909777489065164 -41.107368279735965 0 0 0 0 -79.732179922546493 80.388479636720149 0 80.388479636720149 -51.619947389997833 0 0 0 0 -61.899004753513736 41.953708110023996 0 41.953708110023996 37.248196044186813 0 0 0 0 -111.50006567216042 134.43257123672811 0 134.43257123672811 -41.68889642659633 0 0 0 0 -93.787930774662527 162.16658346595796 0 162.16658346595796 -97.269307808717713 0 0 0 0 -92.564796908442077 152.23820627106033 0 152.23820627106033 -153.02630595084338 0 0 0 0 -165.62095686015164 231.41649325588514 0 231.41649325588514 -121.55334545148071 0 0 0 0 -176.05477792731108 112.50404776062351 0 112.50404776062351 -109.20750548513024 0 0 0 0 -143.78590265149978 173.21396632494361 0 173.21396632494361 -0.10313961608335376 0 0 0 0 -143.09162843025115 90.932587519942899 0 90.932587519942899 0.039789129547797501 0 0 0 0 -213.34315503338985 141.36094430401499 0 141.36094430401499 -34.909094285758329 0 0 0 0 -160.73475138624235 -22.090171352157995 0 -22.090171352157995 64.273581584842759 0 0 0 0 -38.919287686796451 43.76914812236646 0 43.76914812236646 -44.697098457349057 0 0 0 0 -31.475544113847533 20.181692011782616 0 20.181692011782616 10.553359245971052 0 0 0 0 -1.0810271703089711 1.180747274041579 0 1.180747274041579 4.9890672925806427 0 0 0 0 -82.589371977184783 90.741159119701479 0 90.741159119701479 -114.68512044683303 0 0 0 0 9.6517395894043148 -2.6035903717856854 0 -2.6035903717856854 29.079600232071243 0 0 0 0 -30.515724718025012 48.664935621367476 0 48.664935621367476 -45.542056111386046 0 0 0 0 -39.231189706566511 52.770869849111477 0 52.770869849111477 -18.245590733917197 0 0 0 0 -26.400891741935993 33.859260162458668 0 33.859260162458668 -37.671638561383588 0 0 0 0 -15.767547647106525 21.632444902513299 0 21.632444902513299 -11.062909199379732 0 0 0 0 7.1087253691002843 -10.072003818044323 0 -10.072003818044323 -3.2205013132479507 0 0 0 0 -20.105659420802169 24.483734527855233 0 24.483734527855233 -10.898625709005799 0 0 0 0 -34.519365896681762 36.191736351768384 0 36.191736351768384 -9.2268807657627008 0 0 0 0 -6.5387485840044235 8.0908494924711931 0 8.0908494924711931 -5.5703733199149212 0 0 0 0 -13.10186571893621 8.1856583264056724 0 8.1856583264056724 -0.076380933461678069 0 0 0 0 -10.203117074299371 11.692467695567757 0 11.692467695567757 -10.060190830670763 0 0 0 0 -117.05645085417927 87.911514422485197 0 87.911514422485197 -58.152359784740838 0 0 0 0 0.76626973552635747 -1.9740279719107434 0 -1.9740279719107434 -2.0219818961941201 0 0 0 0 -4.198424657602871 1.5492117142313191 0 1.5492117142313191 2.6009438892447179 0 0 0 0 -2.7521503656773376 4.4399734079271411 0 4.4399734079271411 0.64606221726236868 0 0 0 0 -5.1094603750134411 7.528844091182691 0 7.528844091182691 -0.0067193573408408066 0 0 0 0 -9.8628502136853058 11.627329860115424 0 11.627329860115424 -10.836067666939925 0 0 0 0 -7.2072248209806276 11.676879777334761 0 11.676879777334761 -11.035355680331122 0 0 0 0 -5.8880162557838958 7.8575731128094048 0 7.8575731128094048 -0.025713510025525466 0 0 0 0 -5.4743190325123123 8.0707408678686079 0 8.0707408678686079 -8.1167942340653099 0 0 0 0 -22.636963910896156 25.842772517600679 0 25.842772517600679 -10.238421947462484 0 0 0 0 -21.127520508238376 28.403855005650257 0 28.403855005650257 -15.2915648585913 0 0 0 0 -11.980706246158206 1.3242449888603005 0 1.3242449888603005 2.8708703800657531 0 0 0 0 -15.504460021576961 28.592593008906988 0 28.592593008906988 -26.826147419342306 0 0 0 0 -3.7842188848007936 9.0237538967339788 0 9.0237538967339788 -20.873990134583437 0 0 0 0 -7.1986213681084337 7.4735252955288161 0 7.4735252955288161 2.0332836956949905 0 0 0 0 -14.387318023594155 8.5122091022967865 0 8.5122091022967865 -6.254697157137457 0 0 0 0 -4.7170214112786653 5.7830449958087513 0 5.7830449958087513 -5.8940259997364706 0 0 0 0 76.166336411862176 128.85172172910461 0 128.85172172910461 53.649296112096636 0 0 0 0 83.246440172127222 133.21534006879665 0 133.21534006879665 0.61606993307941593 0 0 0 0 -2.0632061174997816 2.412491819113086 0 2.412491819113086 2.6819923587334245 0 0 0 0 34.113016841871286 38.836647726995579 0 38.836647726995579 -54.843902932436322 0 0 0 0 -35.333642438270545 -19.828974052077683 0 -19.828974052077683 -16.289107945827709 0 0 0 0 -80.802142399501463 120.52238247350942 0 120.52238247350942 -143.23373409756459 0 0 0 0 -103.69074703905972 60.375442303557065 0 60.375442303557065 58.879004361107945 0 0 0 0 -114.10790858529617 28.742022713253391 0 28.742022713253391 41.06554938642148 0 0 0 0 15.533737026520612 119.84042191726621 0 119.84042191726621 -10.082344758411637 0 0 0 0 -53.67050865768806 -92.357637691661239 0 -92.357637691661239 -267.88019665668253 0 0 0 0 -23.485674971307162 251.68010537007649 0 251.68010537007649 -80.239735147173633 0 0 0 0 3.6447417028848115 16.932313572791827 0 16.932313572791827 5.4702408452920963 0 0 0 0 -1.1546973565243945 3.7860239364934216 0 3.7860239364934216 -1.738667564508134 0 0 0 0 86.656535271380562 84.537846040620934 0 84.537846040620934 -444.29274978033936 0 0 0 0 22.400217212052667 -59.342919066970353 0 -59.342919066970353 -117.72366582298127 0 0 0 0 72.934141909885511 121.50394949596375 0 121.50394949596375 -88.201300329747028 0 0 0 0 -23.770463131050313 55.47277769356171 0 55.47277769356171 -28.677178820839117 0 0 0 0 65.099236985646712 19.070305474757333 0 19.070305474757333 -171.11479762428644 0 0 0 0 -128.17543110495171 226.98570674042276 0 226.98570674042276 78.157661968238244 0 0 0 0 24.249226553766462 1.7239782561058945 0 1.7239782561058945 -57.114752027718509 0 0 0 0 -23.963038819310896 58.577845059713582 0 58.577845059713582 -87.695479602029081 0 0 0 0 -158.10958342975573 26.023735499809845 0 26.023735499809845 -54.484651899001619 0 0 0 0 -39.834528945504644 102.43917214855901 0 102.43917214855901 -172.25948189072369 0 0 0 0 -113.15341814090107 82.147446788640082 0 82.147446788640082 -41.636314041388687 0 0 0 0 6.3231541309341637 12.26785215722299 0 12.26785215722299 -15.330569697089857 0 0 0 0 -4.0047306624092016 36.135997010984283 0 36.135997010984283 -35.409129502586438 0 0 0 0 -14.280341161760589 40.33634129181155 0 40.33634129181155 -36.115625852187804 0 0 0 0 -4.2319582952960957 25.423605528198181 0 25.423605528198181 -24.456502433745285 0 0 0 0 0.15300571153420606 38.5681760178486 0 38.5681760178486 -115.16593489761726 0 0 0 0 -10.450046996663232 24.644067598657394 0 24.644067598657394 -40.887045488224487 0 0 0 0 -2388.0680006374605 654.27022686359123 0 654.27022686359123 -178.87129994452698 0 0 0 0 -15.580946619319093 15.806189659501612 0 15.806189659501612 16.296485808313832 0 0 0 0 493.43948924128199 -296.58456280350219 0 -296.58456280350219 50.698931371211074 0 0 0 0 1029.192827140716 126.76434476847498 0 126.76434476847498 195.26079373207176 0 0 0 0 220.46380199819396 -298.75906898244284 0 -298.75906898244284 116.93646579215419 0 0 0 0 342.12166312467889 -312.0115712628176 0 -312.0115712628176 67.074716209339385 0 0 0 0 -27.075526426066119 52.020226793974757 0 52.020226793974757 -28.328607741256818 0 0 0 0 -31.537181885955761 66.341184458144198 0 66.341184458144198 -51.720568338481826 0 0 0 0 -40.338339170062682 80.610085099906428 0 80.610085099906428 198.58403382390679 0 0 0 0 -297.67208350088913 265.05332637804531 0 265.05332637804531 192.08100722052041 0 0 0 0 72.837999631419734 116.93020594222276 0 116.93020594222276 -266.2376935253269 0 0 0 0 216.27557336982136 145.32228741746803 0 145.32228741746803 -530.34389538439427 0 0 0 0 231.72350317532982 -53.638200303881604 0 -53.638200303881604 -60.904094271943904 0 0 0 0 269.95478539312171 -279.78508669644361 0 -279.78508669644361 -269.17403481629299 0 0 0 0 254.57409430934058 -213.88821605998237 0 -213.88821605998237 80.865029846259858 0 0 0 0 379.20551373004855 -344.87974176697753 0 -344.87974176697753 -96.447244495415362 0 0 0 0 289.04001039663854 -226.72855435144447 0 -226.72855435144447 87.817891206039349 0 0 0 0 269.43207874704967 -121.84935011196649 0 -121.84935011196649 -238.37905372027308 0 0 0 0 236.36420003590683 -129.28271548132761 0 -129.28271548132761 -74.761626530496869 0 0 0 0 187.39599960902706 -72.514491141177132 0 -72.514491141177132 70.803330294351326 0 0 0 0 24.869430627979455 89.610387661588902 0 89.610387661588902 -194.70346297233482 0 0 0 0 -1.8802877462159113 4.5238477684513114 0 4.5238477684513114 -27.929690387509993 0 0 0 0 206.69133383908775 286.52763789037999 0 286.52763789037999 -22.942146053832403 0 0 0 0 349.47744760420028 190.77141985909839 0 190.77141985909839 -371.93093174995738 0 0 0 0 119.76901638942945 5.3856463309202809 0 5.3856463309202809 -22.462536014223588 0 0 0 0 252.26400348894822 -126.42800755013013 0 -126.42800755013013 64.201275601168163 0 0 0 0 8.4657158354166313 28.771870881188079 0 28.771870881188079 125.53358583843874 0 0 0 0 7.7678276708851826 7.2791969457207415 0 7.2791969457207415 -10.933120033430527 0 0 0 0 -57.508003036884475 162.21312003522326 0 162.21312003522326 9.0640204171704681 0 0 0 0 11.561904849492912 -2.1088020286288653 0 -2.1088020286288653 -10.183559976130368 0 0 0 0 33.770509908048552 -58.383296329531731 0 -58.383296329531731 -188.52801843312227 0 0 0 0 -142.30154543300523 148.16832647811316 0 148.16832647811316 -82.659715547655651 0 0 0 0 37.936718663293505 -31.994814631791087 0 -31.994814631791087 -21.598598415614106 0 0 0 0 -34.882161849591284 37.187950923311291 0 37.187950923311291 -77.571743527500075 0 0 0 0 -39.682781526416875 48.907429076643893 0 48.907429076643893 -57.651205922695226 0 0 0 0 -40.31151202971887 51.050972553173779 0 51.050972553173779 -90.77791762140987 0 0 0 0 -30.236793483345537 15.65248688677093 0 15.65248688677093 -59.042539539696008 0 0 0 0 -49.497583255552854 50.033511072135298 0 50.033511072135298 -46.718060245621018 0 0 0 0 -21.198832983469401 -8.8051636069212691 0 -8.8051636069212691 -91.792082085055881 0 0 0 0 -36.597691647040847 13.808057421148987 0 13.808057421148987 -47.306135749531677 0 0 0 0 -36.267437808847717 29.214927851342509 0 29.214927851342509 -89.528376334783388 0 0 0 0 -61.80387590781902 -20.394541293455404 0 -20.394541293455404 -64.264298786496511 0 0 0 0 -37.850013682673307 60.347630161624693 0 60.347630161624693 -88.623001304193167 0 0 0 0 -13.61797332741844 50.703826696197211 0 50.703826696197211 -98.180960925754334 0 0 0 0 24.239810067166395 10.909352096894736 0 10.909352096894736 -53.193301058786403 0 0 0 0 1.4015486403556423 36.128685614358943 0 36.128685614358943 -39.020616936014903 0 0 0 0 14.082986209750743 16.759825420580455 0 16.759825420580455 -86.874241091281874 0 0 0 0 23.972733796212196 50.185764513211325 0 50.185764513211325 -21.838630416212254 0 0 0 0 0.60722541093673499 42.542873904618318 0 42.542873904618318 -26.523121425008867 0 0 0 0 -17.61678778890564 63.545052808301989 0 63.545052808301989 -62.487073714437429 0 0 0 0 -6.6716446740346171 29.518804271528779 0 29.518804271528779 -28.539448190383865 0 0 0 0 8.3425780961497367 32.778401000701706 0 32.778401000701706 -2.0628693732214742 0 0 0 0 3.7907571928770523 27.012916579191256 0 27.012916579191256 -2.6960742419852046 0 0 0 0 6.4951443066438515 34.546097975788143 0 34.546097975788143 -15.779324633862416 0 0 0 0 25.432019028176001 92.172004610198201 0 92.172004610198201 109.21156073786551 0 0 0 0 1.5603970608422486 4.0426864511647693 0 4.0426864511647693 -5.5813265567578121 0 0 0 0 60.631340178493701 4.9979607147542993 0 4.9979607147542993 -26.005875944926629 0 0 0 0 115.65567735614968 93.12477397674229 0 93.12477397674229 -4.2110814476654923 0 0 0 0 83.630299527962052 -43.612956755931918 0 -43.612956755931918 2.618397394719068 0 0 0 0 19.657528737840039 173.7043102859534 0 173.7043102859534 -2.0866650599853074 0 0 0 0 30.223762047619822 37.207007005672224 0 37.207007005672224 9.2063278908578354 0 0 0 0 146.91192246342598 96.14775875028954 0 96.14775875028954 -74.908809595770435 0 0 0 0 -67.906778076026967 75.397631541331066 0 75.397631541331066 -50.527068046169006 0 0 0 0 10.074343506567644 9.7713604598340709 0 9.7713604598340709 -42.402914578226614 0 0 0 0 45.841539740971712 23.038723598652723 0 23.038723598652723 -44.827271427333471 0 0 0 0 29.626126975273294 25.617335201961836 0 25.617335201961836 -3.7106836328986788 0 0 0 0 4.6291144093930932 16.585526021165908 0 16.585526021165908 -20.653971542882346 0 0 0 0 -1.1575195156574409 148.61679699800879 0 148.61679699800879 -10.623806254669034 0 0 0 0 131.12232001986422 201.1837963230646 0 201.1837963230646 79.830173403490335 0 0 0 0 139.35026744589914 109.27050855832931 0 109.27050855832931 -9.2292892476689303 0 0 0 0 197.5819570069923 195.79397582156525 0 195.79397582156525 80.570875489211176 0 0 0 0 148.35417597767281 213.1866190248461 0 213.1866190248461 78.764445584383793 0 0 0 0 113.60075089319434 74.094347179780016 0 74.094347179780016 -2.5720057742728386 0 0 0 0 108.26599067422367 162.85531231414279 0 162.85531231414279 267.88767978441319 0 0 0 0 45.587066855298872 68.040589262913272 0 68.040589262913272 85.285761200648267 0 0 0 0 50.58932432543952 37.510191705368925 0 37.510191705368925 44.075688797689509 0 0 0 0 -16.677849061325091 11.727409701711466 0 11.727409701711466 11.062971031966214 0 0 0 0 139.01767931995937 126.09902172083821 0 126.09902172083821 -107.25364767330757 0 0 0 0 -12.569286060904915 36.599886840467661 0 36.599886840467661 150.44085114783957 0 0 0 0 -12.12638900958266 52.249016352490173 0 52.249016352490173 -11.389783646247107 0 0 0 0 467.19142788433692 -219.65887181863218 0 -219.65887181863218 -728.68548730536713 0 0 0 0 -803.26270164292509 172.36963546345942 0 172.36963546345942 -56.338007718878544 0 0 0 0 -3.0192270647254666 27.776932069851398 0 27.776932069851398 -9.7214708175961295 0 0 0 0 1.3209021455313632 34.319022783020046 0 34.319022783020046 6.5426168752483136 0 0 0 0 -3.9917602197801116 33.22077696980449 0 33.22077696980449 -15.976432932564535 0 0 0 0 -2.7240972030939137 27.770931270846944 0 27.770931270846944 -6.0757625061227145 0 0 0 0 -2.3330313357455452 18.41664896083239 0 18.41664896083239 -86.492904458926205 0 0 0 0 -0.60304439981916591 9.7871964226599317 0 9.7871964226599317 -2.9844590157519519 0 0 0 0 -107.03921034942255 -31.335875633005344 0 -31.335875633005344 -86.847094479919178 0 0 0 0 -1.6255464517853397 -32.283148386879475 0 -32.283148386879475 -95.757165907227318 0 0 0 0 -62.463861329638348 -5.3528517864197056 0 -5.3528517864197056 -32.582529401319334 0 0 0 0 18.646343624434849 -0.17428903634572634 0 -0.17428903634572634 -79.718380482925568 0 0 0 0 77.680146750140921 88.322567596114823 0 88.322567596114823 -7.7472574514504231 0 0 0 0 90.371874668691362 82.731346058128111 0 82.731346058128111 -15.020607624319382 0 0 0 0 105.50982597821803 120.93578748781874 0 120.93578748781874 -24.59579779804335 0 0 0 0 123.79721382792923 97.564305882093322 0 97.564305882093322 -5.3405254478566349 0 0 0 0 199.65729614646398 196.90715740306041 0 196.90715740306041 41.695631439331919 0 0 0 0 22.404143198720703 78.515573736876831 0 78.515573736876831 -128.80450497542552 0 0 0 0 31.945290047034177 47.721870453569863 0 47.721870453569863 -30.036910347029334 0 0 0 0 36.722702741844842 67.618733642244479 0 67.618733642244479 -23.564841327475733 0 0 0 0 -81.146187920168813 18.150309778648079 0 18.150309778648079 -36.685138054774143 0 0 0 0 -34.348371038375717 9.0256125833875558 0 9.0256125833875558 -42.540620200481499 0 0 0 0 157.5250711834633 116.08465624300879 0 116.08465624300879 -38.3306409582583 0 0 0 0 43.627140889611837 51.38787716238221 0 51.38787716238221 -16.746157048590248 0 0 0 0 60.230147295761981 93.45310984533171 0 93.45310984533171 -3.9592144209600519 0 0 0 0 244.07537374240746 76.823850048298482 0 76.823850048298482 -66.561118155310396 0 0 0 0 66.45133845260716 61.002915915174526 0 61.002915915174526 -34.765186841079412 0 0 0 0 -40.832542956446247 -8.7387967213228421 0 -8.7387967213228421 -57.141037892433815 0 0 0 0 328.60350337240016 206.82441816803475 0 206.82441816803475 -34.379197204354568 0 0 0 0 134.70882408760917 166.54095089827024 0 166.54095089827024 51.254843844464631 0 0 0 0 224.39290769302488 170.00603147031507 0 170.00603147031507 -9.0516124725982081 0 0 0 0 290.14017211160854 318.65591646129178 0 318.65591646129178 119.2268597092916 0 0 0 0 327.84987657135815 424.00883991758019 0 424.00883991758019 235.39225490228273 0 0 0 0 351.18323239237361 307.49649883470556 0 307.49649883470556 56.186942650776473 0 0 0 0 164.98755719568453 224.25830130402755 0 224.25830130402755 124.45982094984356 0 0 0 0 212.7855426306574 190.59713040726956 0 190.59713040726956 46.114289549877867 0 0 0 0 333.27888451575916 364.33978164961445 0 364.33978164961445 122.89705446957669 0 0 0 0 318.96565468463859 509.53799440650982 0 509.53799440650982 354.41805196003406 0 0 0 0 159.78356907247849 306.93128536567565 0 306.93128536567565 327.4002607727889 0 0 0 0 204.28360876833568 309.59573631685907 0 309.59573631685907 247.595918291423 0 0 0 0 338.20601624733172 490.34840384993004 0 490.34840384993004 294.23097637592218 0 0 0 0 571.84638781984086 566.13314688423998 0 566.13314688423998 207.84202306671068 0 0 0 0 508.06619799226837 492.6118092048273 0 492.6118092048273 124.7011420144554 0 0 0 0 507.65593815428355 597.52923257091675 0 597.52923257091675 273.058734872684 0 0 0 0 710.16121646941428 701.59016419010004 0 701.59016419010004 211.89364246907644 0 0 0 0 584.33892728585352 563.55155981042481 0 563.55155981042481 138.02362527474179 0 0 0 0 487.97677974911426 541.33397115064145 0 541.33397115064145 204.26342300153919 0 0 0 0 506.37517979592201 406.1892622039959 0 406.1892622039959 19.521069632959552 0 0 0 0 475.82807251432769 417.56043234946264 0 417.56043234946264 52.874504074425204 0 0 0 0 829.62025322568934 671.31906040140166 0 671.31906040140166 91.034566227684991 0 0 0 0 593.38347883079132 581.58425320973038 0 581.58425320973038 108.19857381396287 0 0 0 0 721.7173377549243 531.24835158570204 0 531.24835158570204 10.896546602401941 0 0 0 0 718.14463566248151 655.87474435373588 0 655.87474435373588 159.14414609394589 0 0 0 0 644.69116606726027 658.90537173162375 0 658.90537173162375 180.91805782474694 0 0 0 0 137.32538916775047 132.10584201671008 0 132.10584201671008 -156.64887869299855 0 0 0 0 -75.846015993884293 -49.02086934693034 0 -49.02086934693034 -132.61397563296487 0 0 0 0 104.45214297228085 75.028320357450866 0 75.028320357450866 -59.820864851463739 0 0 0 0 357.06504415379641 85.118380210435134 0 85.118380210435134 -118.67985870322445 0 0 0 0 103.57864883647261 87.275589467406917 0 87.275589467406917 -49.68215648792102 0 0 0 0 142.50687505312521 108.59579392472733 0 108.59579392472733 -50.120301483286312 0 0 0 0 366.52013532515929 268.72703170111845 0 268.72703170111845 -11.292451068555238 0 0 0 0 477.95299349777815 244.98215498556965 0 244.98215498556965 -62.078383349289652 0 0 0 0 614.35026258866037 331.62706471724232 0 331.62706471724232 -86.766140351130161 0 0 0 0 1016.7866951570613 508.05841266065545 0 508.05841266065545 -39.167478743736865 0 0 0 0 531.91126735482612 336.55351381226501 0 336.55351381226501 -28.567805704227794 0 0 0 0 680.68637029469028 -39.417191552798613 0 -39.417191552798613 -61.750425466976594 0 0 0 0 513.34422470736354 91.181330423045438 0 91.181330423045438 -75.841006913200545 0 0 0 0 35.9752321698179 21.87161209883925 0 21.87161209883925 25.588615610671695 0 0 0 0 1452.1899063262354 47.093404586848919 0 47.093404586848919 -64.199901033764036 0 0 0 0 -19.216871057167054 446.21866079166284 0 446.21866079166284 246.07035237835953 0 0 0 0 2.153720601125837 2.4741128344044654 0 2.4741128344044654 7.5482225506362965 0 0 0 0 1246.7012733665158 704.0913697157248 0 704.0913697157248 117.60701633643475 0 0 0 0 795.3840288887377 529.79909709662752 0 529.79909709662752 66.845832665145281 0 0 0 0 979.29338297050208 423.5390740761577 0 423.5390740761577 543.69775691664836 0 0 0 0 1369.6091743434245 360.3393046329511 0 360.3393046329511 -0.36330897966399789 0 0 0 0 348.35313177195349 352.67969953636202 0 352.67969953636202 143.49170919023891 0 0 0 0 449.69762839801479 761.30413632514683 0 761.30413632514683 370.29163577389045 0 0 0 0 645.24066717083758 662.42308856401905 0 662.42308856401905 180.15775614458835 0 0 0 0 454.76347658395321 702.73015607625712 0 702.73015607625712 178.11453364034242 0 0 0 0 674.82219536223329 726.2212750121198 0 726.2212750121198 194.59836512118636 0 0 0 0 749.81856022890861 561.75106199573202 0 561.75106199573202 223.04405702390613 0 0 0 0 948.22033289491151 601.38131943307963 0 601.38131943307963 2.9754954717645887 0 0 0 0 827.20018344330879 653.59721518586593 0 653.59721518586593 0.49167367671907414 0 0 0 0 679.38671417454168 680.00747275648973 0 680.00747275648973 24.711287837577402 0 0 0 0 572.00233262474808 581.94176015199628 0 581.94176015199628 59.736444101581583 0 0 0 0 -210.84576199310004 492.00435343643039 0 492.00435343643039 173.50163365273329 0 0 0 0 416.51275938526578 709.96373214667256 0 709.96373214667256 -0.21405000599009166 0 0 0 0 539.33646989406361 427.53796442745806 0 427.53796442745806 72.98997746311943 0 0 0 0 868.64844616250866 452.29969979367888 0 452.29969979367888 -12.787900995950622 0 0 0 0 1.5509213447047809 -0.134439602607344 0 -0.134439602607344 -2.3398249143087924 0 0 0 0 1167.8518349134881 447.47978632082777 0 447.47978632082777 -0.27274151441815775 0 0 0 0 543.60916232231193 120.84570504595104 0 120.84570504595104 42.713336007334874 0 0 0 0 309.540346234975 474.76370105756359 0 474.76370105756359 0.17853348089387741 0 0 0 0 -66.007758525943245 173.56932799957212 0 173.56932799957212 -42.326915873403777 0 0 0 0 -125.50739743087615 387.50402434295393 0 387.50402434295393 64.041585248240153 0 0 0 0 307.7054366767527 265.60007433933151 0 265.60007433933151 62.769052718795137 0 0 0 0 297.51473593728531 428.63201406162057 0 428.63201406162057 -170.85321925328753 0 0 0 0 50.99244315201031 242.30985848418641 0 242.30985848418641 -311.49882299417368 0 0 0 0 1.7530460965673278 0.72300808959559504 0 0.72300808959559504 -4.5763952720758425 0 0 0 0 65.747394480360526 11.705729254383186 0 11.705729254383186 -264.86758154894596 0 0 0 0 323.74410297121176 645.23235159563046 0 645.23235159563046 -134.6506530424158 0 0 0 0 1575.0021639437437 778.02456788814015 0 778.02456788814015 -19.073227083223173 0 0 0 0 1.6557203664427114 0.56738713484627112 0 0.56738713484627112 -2.7851076809952815 0 0 0 0 943.98316786929308 497.195196612156 0 497.195196612156 201.34855424771376 0 0 0 0 648.11914146679442 572.73724768798274 0 572.73724768798274 229.00324313885358 0 0 0 0 871.77517763139576 568.80461497329816 0 568.80461497329816 128.88103390430479 0 0 0 0 1.5216325718554353 1.977305457097728 0 1.977305457097728 -4.4726865857379607 0 0 0 0 550.04432031671308 198.91985723927172 0 198.91985723927172 14.948440078107524 0 0 0 0 549.93852811726538 202.48034428998903 0 202.48034428998903 179.03332877845969 0 0 0 0 1028.1323456358969 388.47419392916345 0 388.47419392916345 -0.12302070268924581 0 0 0 0 990.3806036642236 143.04478816078336 0 143.04478816078336 -81.884086766134715 0 0 0 0 0.040534966194743394 4.3669571904486588 0 4.3669571904486588 -0.43002790774175992 0 0 0 0 1153.9819685944094 283.72586954329017 0 283.72586954329017 -65.633727471329621 0 0 0 0 -460.94401508346527 156.36241388746566 0 156.36241388746566 35.125659409633954 0 0 0 0 1058.2894077510264 269.78787308336541 0 269.78787308336541 62.135705364838941 0 0 0 0 0.70410924979900713 0.21029175143322476 0 0.21029175143322476 -0.40221515249805861 0 0 0 0 1588.2331142204403 176.63788909601135 0 176.63788909601135 -92.399983017101476 0 0 0 0 -911.54298356410516 130.72794438671735 0 130.72794438671735 57.123477290209848 0 0 0 0 -338.30424685834805 449.99752655823249 0 449.99752655823249 -0.18149876740912743 0 0 0 0 -271.92717486365291 254.53208509930118 0 254.53208509930118 3.334454054125672 0 0 0 0 -221.58056423716425 222.05601521631615 0 222.05601521631615 -51.970884002599632 0 0 0 0 -14.489404758980527 245.09990290888527 0 245.09990290888527 -52.897461645858129 0 0 0 0 -173.16303903201333 253.4437155880878 0 253.4437155880878 -35.734620218383498 0 0 0 0 -88.934419163827442 97.021560556593613 0 97.021560556593613 -19.86154508125037 0 0 0 0 -29.764257981085393 13.451415060539148 0 13.451415060539148 5.5511162010297994 0 0 0 0 2.3457055177347836 6.5928860020979414 0 6.5928860020979414 -2.3574180635361586 0 0 0 0 -54.464201766235419 79.678539201515377 0 79.678539201515377 -64.289858726064267 0 0 0 0 29.900751825440693 121.19489627845815 0 121.19489627845815 240.54087732784683 0 0 0 0 -2.8924450104592339 1.8216240477218264 0 1.8216240477218264 5.5803490804002536 0 0 0 0 -249.2809373070013 79.57573563702681 0 79.57573563702681 -15.828889148338931 0 0 0 0 1353.1291965657983 375.07404863201373 0 375.07404863201373 -148.29499898690847 0 0 0 0 906.83926378677279 241.34592559568409 0 241.34592559568409 -46.044834328211437 0 0 0 0 1310.34146848206 5.0471618512819987 0 5.0471618512819987 41.63935935315385 0 0 0 0 885.13724569565534 131.04702680450691 0 131.04702680450691 25.667991143767722 0 0 0 0 886.87584560918913 164.50639789873094 0 164.50639789873094 424.70150878326967 0 0 0 0 1579.2759587332748 -32.008391652452701 0 -32.008391652452701 -93.323158763261745 0 0 0 0 1094.8102231415833 452.11727918391989 0 452.11727918391989 170.59515795481275 0 0 0 0 698.36632327755069 444.66779452692572 0 444.66779452692572 -92.859233415572817 0 0 0 0 922.23555914516328 156.88750006804912 0 156.88750006804912 -7.1131350863724947 0 0 0 0 534.96390178344882 381.7292224321136 0 381.7292224321136 -126.03565628083015 0 0 0 0 147.63618363783098 259.25918878156517 0 259.25918878156517 -105.94481173878012 0 0 0 0 547.5324720471508 287.73311822875985 0 287.73311822875985 190.57969452749239 0 0 0 0 152.18313394508732 432.03294332451333 0 432.03294332451333 -23.316999362228671 0 0 0 0 502.08985782308446 150.2275349202946 0 150.2275349202946 -70.806826847561751 0 0 0 0 496.93226606085591 140.68590725855756 0 140.68590725855756 202.47718451544642 0 0 0 0 232.9974673986635 545.40809599875502 0 545.40809599875502 -276.85122742272506 0 0 0 0 301.93905812654884 608.44860066620822 0 608.44860066620822 -289.148307606054 0 0 0 0 410.94457542480541 284.08523912090277 0 284.08523912090277 -49.241815745073836 0 0 0 0 817.82172012367664 -0.42478485407627886 0 -0.42478485407627886 36.084909997152863 0 0 0 0 222.03276222410932 563.58851639187924 0 563.58851639187924 -172.05677053752152 0 0 0 0 378.43748535208852 165.93567270320091 0 165.93567270320091 29.566294399788603 0 0 0 0 387.17818805622665 245.92875176402595 0 245.92875176402595 -88.110958721386851 0 0 0 0 14.637512575507571 13.170926339247671 0 13.170926339247671 -0.45612064153829124 0 0 0 0 -0.57899634255684074 10.305272676190214 0 10.305272676190214 -3.1996218188491525 0 0 0 0 9.1606368775422027 12.554717772359254 0 12.554717772359254 -16.367098131297723 0 0 0 0 3.3415309284855539 10.899168744944291 0 10.899168744944291 0.41008792538195848 0 0 0 0 763.12586322765492 139.90168911989167 0 139.90168911989167 -143.06796785148617 0 0 0 0 3.3712762079270213 7.9574178701127352 0 7.9574178701127352 1.0430878726234596 0 0 0 0 2.3335364512144494 11.999991103185593 0 11.999991103185593 7.7501947270384335 0 0 0 0 3.1659303172492343 7.3971007529843291 0 7.3971007529843291 -5.1783189011042055 0 0 0 0 6.3189982699009306 39.574573804944521 0 39.574573804944521 16.442934829057776 0 0 0 0 225.4661439506126 365.34050321883115 0 365.34050321883115 242.28578765119892 0 0 0 0 508.6915557975608 -106.59388880487677 0 -106.59388880487677 15.088029685401125 0 0 0 0 5.581519406229063 16.485273403855459 0 16.485273403855459 25.454727259253218 0 0 0 0 2600.9481951136322 823.38596349683939 0 823.38596349683939 117.18057995085837 0 0 0 0 848.35896364794098 -1.602179096735199 0 -1.602179096735199 -42.148449588828953 0 0 0 0 2.489182297615681 4.1865941559124309 0 4.1865941559124309 11.855056816750221 0 0 0 0 -227.37348279709113 2.0030128949074424 0 2.0030128949074424 656.0245751607581 0 0 0 0 231.32917026686846 842.38181891747809 0 842.38181891747809 1392.1216880790016 0 0 0 0 -0.58938794886533774 1.0141661343148343 0 1.0141661343148343 -4.7643606009537507 0 0 0 0 -1688.6211186997207 341.05452207363123 0 341.05452207363123 98.734407937525248 0 0 0 0 -4.6326820610011055 0.48634095121815335 0 0.48634095121815335 244.93903823420624 0 0 0 0 171.88904858433671 231.580658019986 0 231.580658019986 93.471029651467688 0 0 0 0 211.82458874040458 -2.2614886421797564 0 -2.2614886421797564 -124.05676231916004 0 0 0 0 5.5362698334011142 0.072695123283210705 0 0.072695123283210705 -5.1994826663901108 0 0 0 0 -3.3205623840640328 99.777708494621038 0 99.777708494621038 -71.99785746440466 0 0 0 0 -236.7561278738026 256.14733432336379 0 256.14733432336379 -274.08618964822381 0 0 0 0 1.1987292453899938 4.844193717798511 0 4.844193717798511 -15.589184542260114 0 0 0 0 -1.8485121070807509 510.63552732812241 0 510.63552732812241 -182.31130113435211 0 0 0 0 -230.11487623626454 388.19606037560152 0 388.19606037560152 107.2611572346359 0 0 0 0 -462.7808349310435 290.53321198152844 0 290.53321198152844 61.890079672797583 0 0 0 0 -327.88945127335683 605.98175993739278 0 605.98175993739278 -227.06908548684441 0 0 0 0 -530.40220028838849 573.58751064159333 0 573.58751064159333 -184.22578048906871 0 0 0 0 -120.73999932428706 691.43271815933258 0 691.43271815933258 -239.32485375834221 0 0 0 0 -120.52792800866155 696.13576887553791 0 696.13576887553791 -190.38396565290168 0 0 0 0 -229.7427673952534 755.77490037493044 0 755.77490037493044 -232.70944615759072 0 0 0 0 -137.73657389087384 708.08444167963899 0 708.08444167963899 -134.26126338423637 0 0 0 0 -76.470152035067258 733.02032576204692 0 733.02032576204692 -206.44657018364524 0 0 0 0 -131.5733677854796 648.85152920885594 0 648.85152920885594 724.28039512502255 0 0 0 0 591.45292302655616 1152.6077765941154 0 1152.6077765941154 817.53233314586578 0 0 0 0 198.51771522347872 675.18959237216768 0 675.18959237216768 356.73629793067812 0 0 0 0 938.60607036815327 851.25767405463557 0 851.25767405463557 -27.122970775672002 0 0 0 0 785.15143771640555 926.33259277337493 0 926.33259277337493 422.23175234397058 0 0 0 0 1231.9224045604042 1092.5599683399778 0 1092.5599683399778 171.3880993451894 0 0 0 0 969.62189196016561 425.81395623790922 0 425.81395623790922 371.86368281046452 0 0 0 0 806.58263100733529 867.5522451907309 0 867.5522451907309 -76.469917417110992 0 0 0 0 505.40749331652114 477.24640582433494 0 477.24640582433494 245.80238218697923 0 0 0 0 718.58190319694006 323.65229733106298 0 323.65229733106298 92.033937205735128 0 0 0 0 1260.550144148001 238.81104063382918 0 238.81104063382918 118.94754684407962 0 0 0 0 935.56751033615546 1001.0383674196564 0 1001.0383674196564 1049.4243491683228 0 0 0 0 1994.0361194544239 1527.2265610098984 0 1527.2265610098984 827.45148876376697 0 0 0 0 1595.5258287907964 1172.0839519890287 0 1172.0839519890287 632.92949542771748 0 0 0 0 1256.6179511552928 894.45045886652224 0 894.45045886652224 673.12229183818272 0 0 0 0 1465.2445841415374 855.25941828450595 0 855.25941828450595 334.48681311127075 0 0 0 0 1651.8432736642771 1413.62156677639 0 1413.62156677639 1094.6335020264523 0 0 0 0 1344.8431960452253 825.49247461209598 0 825.49247461209598 1369.8561998075966 0 0 0 0 1532.4570740721665 772.62883311068435 0 772.62883311068435 421.50512169205467 0 0 0 0 1744.1136317114915 1050.5921205532686 0 1050.5921205532686 425.04450400537462 0 0 0 0 1588.7848912617756 871.49113470854354 0 871.49113470854354 581.90057848410652 0 0 0 0 -3.5994281664096466 6.6198058320073869 0 6.6198058320073869 22.858526376518739 0 0 0 0 -788.20989631933321 -274.39444318340975 0 -274.39444318340975 366.03019001000212 0 0 0 0 -657.59166942706906 412.14387402133434 0 412.14387402133434 1670.2710744179785 0 0 0 0 392.33531677681094 964.59767402068246 0 964.59767402068246 -24.184494581466424 0 0 0 0 80.56634878371915 470.95780209917575 0 470.95780209917575 -489.32766932716186 0 0 0 0 -0.26213722294445674 1.9966234681160984 0 1.9966234681160984 10.264018691039382 0 0 0 0 -1100.0132004212142 -453.25771639521918 0 -453.25771639521918 -112.06386700645089 0 0 0 0 3053.9704633000438 1313.6112826074823 0 1313.6112826074823 391.01359936763765 0 0 0 0 -730.20437202662333 194.34422469070705 0 194.34422469070705 416.83526647067629 0 0 0 0 83.544299556539954 163.40664984643081 0 163.40664984643081 84.193140254297759 0 0 0 0 183.64869415684552 295.42547744206968 0 295.42547744206968 35.136664342688164 0 0 0 0 187.33864447982705 312.11139311033185 0 312.11139311033185 110.30782156069472 0 0 0 0 -41.867119691697752 49.541805492837653 0 49.541805492837653 2.5065238972704886 0 0 0 0 -82.828816445840857 327.14783543493832 0 327.14783543493832 651.36712507370248 0 0 0 0 -123.54682699753903 52.750934664203669 0 52.750934664203669 182.31649166384886 0 0 0 0 -300.12379198000417 705.23759866631008 0 705.23759866631008 770.39041419046953 0 0 0 0 -111.69935082696611 64.648829460231354 0 64.648829460231354 188.15753902023107 0 0 0 0 -132.51088788225252 745.63011114390611 0 745.63011114390611 271.03829754033359 0 0 0 0 -106.5976961862325 39.640972168184817 0 39.640972168184817 152.23945845567505 0 0 0 0 -39.421253800417617 89.37930094866897 0 89.37930094866897 164.21564216591651 0 0 0 0 -110.43074774970955 -11.579594900671509 0 -11.579594900671509 94.470599395164754 0 0 0 0 -143.71232793400304 27.787411003999296 0 27.787411003999296 157.70406824846577 0 0 0 0 -75.34229786663127 12.616197671217378 0 12.616197671217378 83.738771688804263 0 0 0 0 295.09380386910561 659.00628571337438 0 659.00628571337438 -1503.5269570972014 0 0 0 0 351.88704375625093 -226.95183059343253 0 -226.95183059343253 -1311.5773528987193 0 0 0 0 -137.21412554395283 23.398771679261699 0 23.398771679261699 143.78963260445744 0 0 0 0 62.00771465611524 21.836595464097627 0 21.836595464097627 -205.19794821177493 0 0 0 0 26.180775430689366 2.2911642181023382 0 2.2911642181023382 -88.367238656109464 0 0 0 0 49.716649185693313 -45.099033380014589 0 -45.099033380014589 -590.4227087329491 0 0 0 0 12.978842574720602 209.68596272190916 0 209.68596272190916 -286.75284915842349 0 0 0 0 41.822759713531923 103.93969160366396 0 103.93969160366396 -155.10509186028503 0 0 0 0 52.629980188735999 -6.9764613832558098 0 -6.9764613832558098 -293.03395910083782 0 0 0 0 24.260497190363367 97.801524795020669 0 97.801524795020669 -51.596891798923025 0 0 0 0 26.345742718011024 123.34007321088575 0 123.34007321088575 -226.20622723802808 0 0 0 0 -21.103871982839337 172.4037501741841 0 172.4037501741841 -104.99572185322177 0 0 0 0 18.398616772548394 110.14519498589652 0 110.14519498589652 -142.17881179356482 0 0 0 0 -36.289891430207675 54.226704289470746 0 54.226704289470746 -44.447801609765008 0 0 0 0 12.896771447044557 145.00080695652287 0 145.00080695652287 -37.924990048079053 0 0 0 0 47.345674317250086 82.843163976940559 0 82.843163976940559 -23.502449427323882 0 0 0 0 -40.484390382260244 29.22134056861978 0 29.22134056861978 63.012861086055636 0 0 0 0 -97.935892249823155 84.426695310139621 0 84.426695310139621 33.078777040180285 0 0 0 0 56.220754056837904 104.85862232570071 0 104.85862232570071 -61.01499790805974 0 0 0 0 -149.14764510275108 44.439627555206243 0 44.439627555206243 148.09542746780789 0 0 0 0 -64.247891935627194 97.233693583330023 0 97.233693583330023 -51.298611183403409 0 0 0 0 1.1758470282853501 -1.2927327936309894 0 -1.2927327936309894 -1.1118764045680365 0 0 0 0 -52.187901686018449 125.41989310925419 0 125.41989310925419 9.1879541186499409 0 0 0 0 7.853556937601752 5.8579382626048755 0 5.8579382626048755 30.553762393778015 0 0 0 0 19.59958469740025 18.030885590313233 0 18.030885590313233 -32.051088518644974 0 0 0 0 -12.839742824681707 41.21396590614313 0 41.21396590614313 -1.3510280046320986 0 0 0 0 -31.463511028469838 38.981315039993206 0 38.981315039993206 -18.457186121020641 0 0 0 0 -34.793708034087103 -14.981542323395843 0 -14.981542323395843 30.764045541283849 0 0 0 0 -0.9972391312140072 4.9476193285856596 0 4.9476193285856596 -6.9625347421967234 0 0 0 0 -52.376178130769404 61.362884273041345 0 61.362884273041345 -20.0330711286515 0 0 0 0 -114.38387510747498 85.60717903072873 0 85.60717903072873 45.666186820861185 0 0 0 0 -67.58541729126955 112.48579086351674 0 112.48579086351674 3.0358453832450323 0 0 0 0 -109.40241825098565 54.320892272371566 0 54.320892272371566 -37.775611282195314 0 0 0 0 -147.69385756606971 38.943476386819384 0 38.943476386819384 11.757232894146 0 0 0 0 -124.32207044985262 37.868463118211366 0 37.868463118211366 -9.7335722252046253 0 0 0 0 -100.26719551579117 45.633439537981758 0 45.633439537981758 -10.466500990558416 0 0 0 0 -66.887651600267418 40.466239258021233 0 40.466239258021233 -78.260901931062108 0 0 0 0 -108.97485104457337 48.299371177810826 0 48.299371177810826 -158.98290337514482 0 0 0 0 -119.12771450958849 19.180736398044246 0 19.180736398044246 -85.919488026062027 0 0 0 0 -113.71989862816054 67.322439625477273 0 67.322439625477273 -104.09268780853017 0 0 0 0 -148.12327159316192 10.854197541266331 0 10.854197541266331 -63.719693774430198 0 0 0 0 -110.30072806601765 84.158105385926319 0 84.158105385926319 -341.15826361722429 0 0 0 0 -151.15939018415111 40.719570244844363 0 40.719570244844363 -159.35045217906008 0 0 0 0 -258.09180178670067 164.30544155903044 0 164.30544155903044 -284.70512848105864 0 0 0 0 -114.73729778781126 61.178039625563542 0 61.178039625563542 -163.95454406558565 0 0 0 0 -111.66875559340042 90.464615989825688 0 90.464615989825688 -288.51955773000373 0 0 0 0 -81.901716443768237 45.872655506871524 0 45.872655506871524 -175.9970035047736 0 0 0 0 22.933072696291873 7.6332909933639712 0 7.6332909933639712 -93.0064706823905 0 0 0 0 -58.539111203730954 65.143618151618284 0 65.143618151618284 -156.50940625659132 0 0 0 0 -64.313059468287065 30.619614641938824 0 30.619614641938824 -40.200848362299439 0 0 0 0 -60.987284475562774 -3.4166001931153005 0 -3.4166001931153005 -79.291417519707466 0 0 0 0 -88.45284179502778 34.518553748974227 0 34.518553748974227 -69.710912312119035 0 0 0 0 277.72821968530707 326.20705256899782 0 326.20705256899782 -1060.7864674130105 0 0 0 0 541.35144867006602 374.204429882353 0 374.204429882353 -20.240024965343764 0 0 0 0 -21.687944229768426 51.102701850198855 0 51.102701850198855 -77.655173989213665 0 0 0 0 692.22016629698919 371.28964234323939 0 371.28964234323939 -102.79594382023788 0 0 0 0 626.47944068763536 592.94493614319072 0 592.94493614319072 42.581791674223496 0 0 0 0 568.76898051904573 568.79451133024122 0 568.79451133024122 56.461855282715987 0 0 0 0 380.37864333973266 503.40768669149838 0 503.40768669149838 103.41425863988115 0 0 0 0 47.056790837048538 458.36097369331401 0 458.36097369331401 -865.56552195130735 0 0 0 0 -133.84297071699439 5.3796715151838725 0 5.3796715151838725 -146.59542151738424 0 0 0 0 -23.83116133862859 43.941599094570847 0 43.941599094570847 -557.40960858656035 0 0 0 0 -182.62430309175761 242.76729226854513 0 242.76729226854513 -413.98250854248181 0 0 0 0 -15.314276473025529 -186.02784163219621 0 -186.02784163219621 30.855719357903581 0 0 0 0 -102.48942639863162 142.56928650235932 0 142.56928650235932 296.61881077718135 0 0 0 0 356.07560545780325 -195.39513517430169 0 -195.39513517430169 -817.99468618070023 0 0 0 0 -24.058346702316172 57.971491596539089 0 57.971491596539089 -68.881800832445265 0 0 0 0 997.13810721583286 42.978727379108022 0 42.978727379108022 -67.501794102194253 0 0 0 0 67.907587995284302 230.64262641251116 0 230.64262641251116 60.426687527637114 0 0 0 0 -111.35978835879177 119.63422915703268 0 119.63422915703268 115.65243155186181 0 0 0 0 -150.20948350199978 16.033625515141466 0 16.033625515141466 5.3317400132509647 0 0 0 0 21.304512534627065 130.54246692309971 0 130.54246692309971 -14.037274811649695 0 0 0 0 43.275697446722006 148.71772459860222 0 148.71772459860222 -11.068242529290728 0 0 0 0 -72.463208502728776 124.26462891575648 0 124.26462891575648 21.11400284076808 0 0 0 0 4.4073506636559614 180.9938879001711 0 180.9938879001711 57.996541559055913 0 0 0 0 977.3549660180106 543.38317903565257 0 543.38317903565257 129.73665929769049 0 0 0 0 1043.9732812867405 529.31394872548844 0 529.31394872548844 -16.23253288838896 0 0 0 0 971.32919482818397 454.52904113399563 0 454.52904113399563 -85.899944191507529 0 0 0 0 759.36057670645096 594.57447460008552 0 594.57447460008552 0.82107565722253639 0 0 0 0 788.74607768480928 627.66191484771116 0 627.66191484771116 32.786961655918276 0 0 0 0 1030.2940654639624 625.50836729488947 0 625.50836729488947 32.725548668880947 0 0 0 0 917.24139336959342 641.94393808842869 0 641.94393808842869 143.0537619117822 0 0 0 0 1158.9416320032178 688.18142311657721 0 688.18142311657721 75.909832036471926 0 0 0 0 1262.2736397561976 382.43899122397488 0 382.43899122397488 201.58937071537366 0 0 0 0 1556.3459131609452 478.4214872088196 0 478.4214872088196 75.623831750970567 0 0 0 0 1439.8398003457587 508.61568228817487 0 508.61568228817487 67.981418925410253 0 0 0 0 1393.1271759374395 600.3040862166672 0 600.3040862166672 143.77344330830965 0 0 0 0 1348.8509098254945 575.24396477740083 0 575.24396477740083 140.1179957317363 0 0 0 0 1195.7923142007485 922.62223930947221 0 922.62223930947221 37.864321187749738 0 0 0 0 -16.669757881681228 18.560422885184323 0 18.560422885184323 26.318187715513147 0 0 0 0 996.17117489308112 511.05502045790126 0 511.05502045790126 296.25236629130086 0 0 0 0 -221.92393465810892 106.37662634367734 0 106.37662634367734 70.448377244814765 0 0 0 0 -183.27735967934495 70.393243543338031 0 70.393243543338031 103.38507333731104 0 0 0 0 -38.40731761204259 54.290450502493343 0 54.290450502493343 -33.739326753981857 0 0 0 0 -36.822966674900727 102.20548479909849 0 102.20548479909849 -27.837927871762076 0 0 0 0 1506.6616109378447 728.01575549315021 0 728.01575549315021 156.92901394789806 0 0 0 0 16.222811267332503 19.738724833278837 0 19.738724833278837 -16.378783242586621 0 0 0 0 1493.1427570759879 352.21349397195445 0 352.21349397195445 228.23084991757059 0 0 0 0 1229.4495042547132 361.84280680544907 0 361.84280680544907 275.62588597714785 0 0 0 0 -203.838985751775 183.05431421087269 0 183.05431421087269 -40.834010641585337 0 0 0 0 1528.4749887100879 478.05433452151192 0 478.05433452151192 235.59651287856104 0 0 0 0 1676.9377728178106 774.97854550112243 0 774.97854550112243 68.579849552683299 0 0 0 0 1510.0044007611396 676.69440814549716 0 676.69440814549716 452.36057007141062 0 0 0 0 1581.0792795950438 326.50869493304344 0 326.50869493304344 821.47792053229932 0 0 0 0 853.38107481312545 866.05277546954312 0 866.05277546954312 114.04615467981785 0 0 0 0 1009.7774994852771 1115.7433656839712 0 1115.7433656839712 508.92182888839307 0 0 0 0 2317.9706092199449 1348.8555762703108 0 1348.8555762703108 499.53227493535087 0 0 0 0 634.89990428146848 715.91967419915454 0 715.91967419915454 573.40367900399724 0 0 0 0 705.05625239416986 1334.0359302565048 0 1334.0359302565048 -142.45767822643393 0 0 0 0 -26.822367373999441 1401.5394941705017 0 1401.5394941705017 311.14881113357842 0 0 0 0 430.60540875324841 1010.8620039221132 0 1010.8620039221132 221.2173602424009 0 0 0 0 962.33099511100227 839.24288798520865 0 839.24288798520865 134.74404028429853 0 0 0 0 663.17429729111973 1236.4141452335825 0 1236.4141452335825 302.10927885628189 0 0 0 0 -66.271026538256137 577.90390454426051 0 577.90390454426051 -137.26011285066488 0 0 0 0 -93.527828901404519 759.59984863300815 0 759.59984863300815 -90.941438081295928 0 0 0 0 -245.4415322281784 592.40650267408637 0 592.40650267408637 -267.5258644886926 0 0 0 0 -490.95016141424639 1000.0681965509575 0 1000.0681965509575 -152.28954367018014 0 0 0 0 -85.504004533257103 854.1925018287584 0 854.1925018287584 -122.39058535799995 0 0 0 0 -1141.796970315685 858.48971638851799 0 858.48971638851799 -47.958680792333325 0 0 0 0 49.61981803017261 1044.057391609691 0 1044.057391609691 337.42011395687587 0 0 0 0 -349.13563920285469 823.95518567697945 0 823.95518567697945 269.63490756435203 0 0 0 0 -6.2193089991123998 822.21969586865453 0 822.21969586865453 164.75339813955361 0 0 0 0 -289.11658853574772 613.93470735421579 0 613.93470735421579 21.794392107774911 0 0 0 0 -16.457058032756322 758.52243956027087 0 758.52243956027087 199.29693256394239 0 0 0 0 -71.586887208293774 592.10823554567105 0 592.10823554567105 53.418241638195468 0 0 0 0 113.30913425115796 976.05322170228465 0 976.05322170228465 735.85953268231242 0 0 0 0 -15.820362861781177 844.66725705350837 0 844.66725705350837 405.81230992986821 0 0 0 0 68.005292040954373 832.23815061084315 0 832.23815061084315 407.19826310560893 0 0 0 0 -187.32881106157583 901.63367408626436 0 901.63367408626436 440.09234694486076 0 0 0 0 47.034016711546428 934.7704795116224 0 934.7704795116224 443.95662314805668 0 0 0 0 -33.110560329558211 958.26918496841972 0 958.26918496841972 618.46010475071671 0 0 0 0 59.127069756759738 885.23941235379607 0 885.23941235379607 547.77675282963901 0 0 0 0 -88.297874933767162 740.83620999322738 0 740.83620999322738 694.90997449471615 0 0 0 0 -3.1123364384939123 829.79908997366147 0 829.79908997366147 516.89240154190338 0 0 0 0 -7.5689610939155045 801.45487237802445 0 801.45487237802445 736.13854637695476 0 0 0 0 -72.15754848850338 832.41612345746762 0 832.41612345746762 1174.7268614581408 0 0 0 0 152.22891471871117 902.9594976487133 0 902.9594976487133 711.59831019387639 0 0 0 0 685.68870264396992 773.85378065762416 0 773.85378065762416 145.422035966767 0 0 0 0 588.11186197276766 810.49212438930408 0 810.49212438930408 143.32865413083346 0 0 0 0 930.8229509065668 900.22332766985937 0 900.22332766985937 102.47056277375668 0 0 0 0 621.30508354934409 935.74010546717363 0 935.74010546717363 229.76936092993128 0 0 0 0 310.90992022147111 1110.0684735663526 0 1110.0684735663526 297.13597435088013 0 0 0 0 153.92419124308981 953.97683021250123 0 953.97683021250123 381.3627842971182 0 0 0 0 114.01394006232294 957.71146239640075 0 957.71146239640075 384.52510918852204 0 0 0 0 304.63701588214099 862.52137549070176 0 862.52137549070176 399.73970793964691 0 0 0 0 116.6607957998458 750.19573372160085 0 750.19573372160085 340.80980396090308 0 0 0 0 106.35059508937047 740.45779854282591 0 740.45779854282591 589.53081207192736 0 0 0 0 270.68032629889331 666.13005811375115 0 666.13005811375115 369.23799172183499 0 0 0 0 260.49320035753772 622.19707843005017 0 622.19707843005017 181.59579073624627 0 0 0 0 444.12886383497607 743.81318773645035 0 743.81318773645035 242.50696177047212 0 0 0 0 301.00090352225379 829.15833333181217 0 829.15833333181217 213.58865695726126 0 0 0 0 420.96965961950627 672.96890963235637 0 672.96890963235637 110.86906080089102 0 0 0 0 318.04789070745983 435.98756789942843 0 435.98756789942843 30.502053761738352 0 0 0 0 245.69450185236201 405.81479886143643 0 405.81479886143643 133.62850309474743 0 0 0 0 236.42862754839007 352.61953944141715 0 352.61953944141715 72.66348014169489 0 0 0 0 185.53232599830517 409.91107397121959 0 409.91107397121959 135.1174083158694 0 0 0 0 220.11905724612006 490.75634774084028 0 490.75634774084028 323.46072990572429 0 0 0 0 317.50780897485924 562.05142961621277 0 562.05142961621277 245.04431529712747 0 0 0 0 166.40513341256883 534.68739601886773 0 534.68739601886773 287.53153338856646 0 0 0 0 138.43476554504923 536.34420144218893 0 536.34420144218893 494.28878333684406 0 0 0 0 204.3467899801808 362.12804637993486 0 362.12804637993486 439.2193030321796 0 0 0 0 203.22469492862638 378.26360069161274 0 378.26360069161274 221.08850236213766 0 0 0 0 129.54676001715779 263.92271941395302 0 263.92271941395302 340.02842799398059 0 0 0 0 6.7325629461766425 -1.9314578031778638 0 -1.9314578031778638 -20.878293640738008 0 0 0 0 29.545161371454014 32.774159501830582 0 32.774159501830582 -73.182966475898866 0 0 0 0 61.188005446200805 -2.7040869323645893 0 -2.7040869323645893 -82.661765719560208 0 0 0 0 24.331610265972543 39.95482597485875 0 39.95482597485875 -32.373355197085488 0 0 0 0 -28.310465808019217 225.86811634307378 0 225.86811634307378 84.846867104439298 0 0 0 0 1.7823303830656982 10.719664592112849 0 10.719664592112849 -20.679709037138309 0 0 0 0 34.178224245515594 337.11297830429976 0 337.11297830429976 134.35104020434665 0 0 0 0 -91.376321455791185 418.50701265066891 0 418.50701265066891 926.43578583198541 0 0 0 0 -184.40491013591964 554.07608725334285 0 554.07608725334285 1266.8598579464597 0 0 0 0 -183.99483411725669 464.35494716323592 0 464.35494716323592 1006.7695466071309 0 0 0 0 -82.784405218473694 380.68075118467095 0 380.68075118467095 703.6333162606752 0 0 0 0 -17.770312086009653 624.88977442610485 0 624.88977442610485 847.05298318041605 0 0 0 0 -6.894627308291092 603.25328757971874 0 603.25328757971874 508.85182367543894 0 0 0 0 57.253797949048021 301.47805655462435 0 301.47805655462435 517.29247919451154 0 0 0 0 -8.9028161441674456 167.30322190222796 0 167.30322190222796 478.35735927895803 0 0 0 0 30.361101985705318 176.87287843364902 0 176.87287843364902 244.35053390963003 0 0 0 0 -106.75154086895054 135.17136541554646 0 135.17136541554646 639.84869867449743 0 0 0 0 -42.330073572295078 117.26795111612591 0 117.26795111612591 644.61165667390742 0 0 0 0 -166.36003554823583 88.534677742281929 0 88.534677742281929 1258.5568603442516 0 0 0 0 29.766922923117818 70.117560538601538 0 70.117560538601538 228.03289609373314 0 0 0 0 80.634127087723755 -15.835081578072277 0 -15.835081578072277 232.76274635671871 0 0 0 0 94.146670740265108 111.94752962264465 0 111.94752962264465 25.146409077278804 0 0 0 0 44.737382313560715 28.546117961342389 0 28.546117961342389 -42.564883928304369 0 0 0 0 112.51449423921986 56.202962503088202 0 56.202962503088202 -33.665410741290543 0 0 0 0 35.011928632840863 66.438834673113888 0 66.438834673113888 257.50136372639008 0 0 0 0 37.695064888364868 65.829926166952646 0 65.829926166952646 -19.476945001981221 0 0 0 0 7.692537404866016 46.215491271825158 0 46.215491271825158 -13.680418674219254 0 0 0 0 71.384520755160338 71.543178060754144 0 71.543178060754144 3.40732187715912 0 0 0 0 38.137066335385953 37.271641597756002 0 37.271641597756002 -31.591729691608322 0 0 0 0 74.451737290597521 13.384754481885466 0 13.384754481885466 -39.33597545583325 0 0 0 0 91.058265671450499 31.790319826211999 0 31.790319826211999 -26.807718064083019 0 0 0 0 52.787186641948907 32.874415938208102 0 32.874415938208102 -48.728136724058686 0 0 0 0 77.578157347150409 50.917198406452371 0 50.917198406452371 -24.366181974270148 0 0 0 0 195.43912734762489 -20.332033225189662 0 -20.332033225189662 -99.421900536945031 0 0 0 0 86.993968925864465 301.12960636794742 0 301.12960636794742 236.63303375149553 0 0 0 0 54.247017554719363 29.449040481923475 0 29.449040481923475 -36.966560854363735 0 0 0 0 44.348399724374758 32.538772972970037 0 32.538772972970037 -22.518224548937724 0 0 0 0 47.023394488685881 40.700605280741001 0 40.700605280741001 -17.398030133153952 0 0 0 0 47.863959926595271 10.038061693150667 0 10.038061693150667 -27.091442692424607 0 0 0 0 129.27188024234783 44.582460841736975 0 44.582460841736975 -41.770275471397326 0 0 0 0 11.065252184316776 18.364969533861526 0 18.364969533861526 -47.932065808299683 0 0 0 0 103.69315120960891 13.698843155252689 0 13.698843155252689 -32.683335684181657 0 0 0 0 161.15955617792133 135.14801816541876 0 135.14801816541876 -27.490749828430125 0 0 0 0 75.885242626813124 35.265812929363165 0 35.265812929363165 -8.2117762391280849 0 0 0 0 33.281791351840411 72.568795387676801 0 72.568795387676801 -111.86499706614995 0 0 0 0 26.265131263745388 71.983203229145147 0 71.983203229145147 -79.042058268896653 0 0 0 0 23.386295392127067 66.295700230984949 0 66.295700230984949 -75.870851165178465 0 0 0 0 32.941892109616674 54.492480607150355 0 54.492480607150355 -89.391620841633994 0 0 0 0 32.410960449791617 68.702491732230555 0 68.702491732230555 -79.97287365529337 0 0 0 0 31.940071670650717 39.094939132156711 0 39.094939132156711 -38.608023159634627 0 0 0 0 -6.4857550766319036 49.253494918404613 0 49.253494918404613 -38.627361051563639 0 0 0 0 78.78563342323605 45.599659371476704 0 45.599659371476704 -35.400458763513086 0 0 0 0 25.752746176720393 30.367608002758061 0 30.367608002758061 -59.923691754578613 0 0 0 0 30.681576943884764 59.310039165085385 0 59.310039165085385 -16.767465581313772 0 0 0 0 3.9180679083602286 103.82093199595693 0 103.82093199595693 -115.93985840338246 0 0 0 0 -0.81750387087467402 18.281121448610946 0 18.281121448610946 2.4769719546221722 0 0 0 0 -119.95422865180126 197.08693711287196 0 197.08693711287196 41.421769707929343 0 0 0 0 -4.9247189611553495 72.720611035663751 0 72.720611035663751 -67.342682790193066 0 0 0 0 -46.876285760151504 92.466998065356165 0 92.466998065356165 -74.88343925683148 0 0 0 0 -3.7341606271968431 94.673632656369591 0 94.673632656369591 -73.104490302852355 0 0 0 0 9.4614145644545715 92.916788479153183 0 92.916788479153183 -95.128113424943876 0 0 0 0 71.988799272317323 45.822083666814713 0 45.822083666814713 11.532245048387637 0 0 0 0 24.580309165103245 74.071424246780225 0 74.071424246780225 -30.68112025695882 0 0 0 0 97.634964996479539 120.36809062657721 0 120.36809062657721 -13.938067171126022 0 0 0 0 -33.237185283157032 128.02402380062267 0 128.02402380062267 -204.79090625207755 0 0 0 0 3.2292563467008892 0.78739698449800244 0 0.78739698449800244 1.1197454853029853 0 0 0 0 -46.222017818835184 287.78724395569589 0 287.78724395569589 -244.59998660387646 0 0 0 0 -200.73001914400811 -84.456279597528919 0 -84.456279597528919 436.07072843589413 0 0 0 0 -35.208968982204055 153.01296769388136 0 153.01296769388136 128.45119490694196 0 0 0 0 -160.93136803326774 229.3807899079402 0 229.3807899079402 244.30197588766168 0 0 0 0 -32.121027570903152 273.60643170276308 0 273.60643170276308 259.25078341945482 0 0 0 0 -17.688959930491158 -192.48518478981896 0 -192.48518478981896 -42.672859937360045 0 0 0 0 1.7781686834063626 2.7122883666358177 0 2.7122883666358177 4.5112609607422485 0 0 0 0 -87.212055335654441 -166.39839557867526 0 -166.39839557867526 326.85298318792775 0 0 0 0 -78.163232253753449 -35.955224391946103 0 -35.955224391946103 220.44587648790912 0 0 0 0 156.90748594950037 222.02314495225437 0 222.02314495225437 153.21146623796812 0 0 0 0 66.953665424401379 214.67518362231203 0 214.67518362231203 -133.05085598651931 0 0 0 0 124.91188329446538 -236.67687722320079 0 -236.67687722320079 272.4929326264828 0 0 0 0 51.775233858836145 84.524129826570061 0 84.524129826570061 -157.14997529356333 0 0 0 0 5.8529785544556381 9.0840753266374179 0 9.0840753266374179 12.897229956481397 0 0 0 0 -71.123405353052249 148.35328054895945 0 148.35328054895945 -164.84575505263638 0 0 0 0 -34.516579750049303 56.508478059189656 0 56.508478059189656 -193.71582950832089 0 0 0 0 -67.992797648740407 109.43005961685412 0 109.43005961685412 -60.233502271948964 0 0 0 0 -162.4496643890202 152.41989736651522 0 152.41989736651522 -107.69558808510192 0 0 0 0 -1.0352597685930789 20.455573886411003 0 20.455573886411003 -31.129227349205394 0 0 0 0 14.781784415369689 16.374824389051895 0 16.374824389051895 19.441541298720523 0 0 0 0 -139.86640877261209 228.34260184935465 0 228.34260184935465 -129.46112199778145 0 0 0 0 -162.74892417467527 233.51021663722349 0 233.51021663722349 -118.66939892164373 0 0 0 0 -148.36636690638625 195.76646757687558 0 195.76646757687558 -124.47017042548941 0 0 0 0 -111.17992521528413 111.26395341078751 0 111.26395341078751 -99.454373840912012 0 0 0 0 -118.37606243337348 172.15543148519828 0 172.15543148519828 -182.77116868810845 0 0 0 0 -107.88934195041838 123.06358949973946 0 123.06358949973946 -134.50508700022328 0 0 0 0 -74.569849542394593 55.030861894055953 0 55.030861894055953 -159.40073740010848 0 0 0 0 -271.19902366043516 150.76422851374809 0 150.76422851374809 -70.663234329491388 0 0 0 0 -509.82616844897711 367.94381814013468 0 367.94381814013468 -59.495978373626713 0 0 0 0 -162.81399576781405 203.38211671923636 0 203.38211671923636 -340.00316708959872 0 0 0 0 -162.62042241712879 238.42679019146453 0 238.42679019146453 -230.62465803543455 0 0 0 0 -185.35062330182336 219.11134231041433 0 219.11134231041433 -216.8261103417608 0 0 0 0 -124.5922795014958 140.42624434058962 0 140.42624434058962 -267.84281040010683 0 0 0 0 -122.64652903093156 155.83679477580881 0 155.83679477580881 -206.85617875366006 0 0 0 0 -74.571057664099001 72.930430307717785 0 72.930430307717785 -229.56688054816914 0 0 0 0 -153.51530018271296 79.492310957008158 0 79.492310957008158 -281.24074061852298 0 0 0 0 -175.79378510884908 196.85035943670664 0 196.85035943670664 -311.10580690321513 0 0 0 0 -303.83714135994705 148.20254139722965 0 148.20254139722965 -283.01149352679204 0 0 0 0 -356.16825267216063 340.14069936597662 0 340.14069936597662 -413.91011952830013 0 0 0 0 149.48106468735295 180.25115751744306 0 180.25115751744306 133.19872783630854 0 0 0 0 1.565705200638126 1.4643043768959956 0 1.4643043768959956 -10.098533501036513 0 0 0 0 -140.05988968081056 239.35240685922327 0 239.35240685922327 -443.59018361504423 0 0 0 0 -316.36825791385672 554.77688528381987 0 554.77688528381987 -565.24483107951528 0 0 0 0 -457.19956635782 327.01607663568575 0 327.01607663568575 -378.69384777065716 0 0 0 0 -432.06751300481119 350.53286794837913 0 350.53286794837913 -359.41567511213361 0 0 0 0 -421.70633733167233 278.62272850848967 0 278.62272850848967 -467.15584908708115 0 0 0 0 -0.99240596540987625 0.70021870510321094 0 0.70021870510321094 4.7387898822303498 0 0 0 0 191.72279631011588 -51.730278840856045 0 -51.730278840856045 -83.489430217196059 0 0 0 0 96.352133873730054 183.76403648728592 0 183.76403648728592 48.862346374575282 0 0 0 0 -23.67030044317227 61.143189139423697 0 61.143189139423697 -71.925197646276956 0 0 0 0 527.06782888637463 351.04716845586518 0 351.04716845586518 -54.093133470480097 0 0 0 0 241.16870783369814 199.74293227943417 0 199.74293227943417 -96.278383488523104 0 0 0 0 11.406339591997494 62.650930218282156 0 62.650930218282156 -39.65480982552981 0 0 0 0 121.25057599686806 211.1621441641837 0 211.1621441641837 -14.508501842181431 0 0 0 0 -49.378955897780543 9.6144148297025822 0 9.6144148297025822 -227.31697970521054 0 0 0 0 13.409185437320488 50.393108664570178 0 50.393108664570178 -66.102677605089752 0 0 0 0 44.99835798180149 49.632744884775292 0 49.632744884775292 -54.923325286032082 0 0 0 0 60.051611919098832 69.367470167911961 0 69.367470167911961 -80.015456952702152 0 0 0 0 19.404201136060642 44.333918450763605 0 44.333918450763605 -54.858999204066606 0 0 0 0 61.28345762220124 40.346291819092585 0 40.346291819092585 -44.110956863849424 0 0 0 0 42.82117665644455 52.892566740934853 0 52.892566740934853 -66.661156153306365 0 0 0 0 12.942198196085201 85.695516883566597 0 85.695516883566597 -57.985892444005003 0 0 0 0 0.21963902609172692 91.212241909008299 0 91.212241909008299 -30.755093859886983 0 0 0 0 30.727941875396233 18.408604565528293 0 18.408604565528293 -31.69348581464709 0 0 0 0 -3.47022323321562 88.14337599670398 0 88.14337599670398 -55.610957363343914 0 0 0 0 -575.61394965213549 642.66670284712745 0 642.66670284712745 1284.5340511911418 0 0 0 0 -626.59897504684341 908.98964598919702 0 908.98964598919702 1971.3056864350219 0 0 0 0 -656.19978274595633 727.5458087275365 0 727.5458087275365 1392.1024975502223 0 0 0 0 -596.95575318847114 -66.432994571099698 0 -66.432994571099698 1647.3251458214509 0 0 0 0 -221.03660983950977 588.71554187105357 0 588.71554187105357 1292.5239083736888 0 0 0 0 -428.24183078516216 241.60553022443491 0 241.60553022443491 910.99634800543572 0 0 0 0 378.25445785195188 753.10326372691634 0 753.10326372691634 878.23227780745947 0 0 0 0 87.437138306951965 428.841948450583 0 428.841948450583 559.48594390305516 0 0 0 0 391.61894592347471 698.41641548433472 0 698.41641548433472 982.17349901696434 0 0 0 0 2.2540031566751679 1.4603975037996122 0 1.4603975037996122 -2.0578060490377652 0 0 0 0 265.84894588733732 595.11138171459606 0 595.11138171459606 989.72983308639959 0 0 0 0 -23.953881057850595 950.48745808186686 0 950.48745808186686 1312.8442085403949 0 0 0 0 313.56564554265788 788.82487662572385 0 788.82487662572385 1115.2093640112871 0 0 0 0 347.44091442336503 695.22865626500788 0 695.22865626500788 1071.7313981399639 0 0 0 0 107.01895429795695 1128.3098511131611 0 1128.3098511131611 772.24525457049458 0 0 0 0 1.9503629687191619 5.6044162528594796 0 5.6044162528594796 5.8997530154551896 0 0 0 0 109.51360539582674 856.70018617968162 0 856.70018617968162 -689.99435242409527 0 0 0 0 -622.77446477904596 469.73421599433277 0 469.73421599433277 1577.8119232350873 0 0 0 0 -516.73447705577564 868.96584495108254 0 868.96584495108254 1342.6141395834857 0 0 0 0 -576.20872482296454 221.62988762526675 0 221.62988762526675 399.13057741164812 0 0 0 0 -115.26920467197124 622.04390754543419 0 622.04390754543419 -438.22814206777548 0 0 0 0 -495.14145403609291 693.04346514039207 0 693.04346514039207 380.96311495250848 0 0 0 0 -26.414626523230254 401.69789324351586 0 401.69789324351586 -365.95661946324981 0 0 0 0 -213.89296280021517 196.14661439025804 0 196.14661439025804 60.737879362925014 0 0 0 0 40.457074158306568 167.39881892615085 0 167.39881892615085 -326.73438056078157 0 0 0 0 342.96051950296533 309.6030252247001 0 309.6030252247001 150.7703723181985 0 0 0 0 287.69798005397024 363.31754334521702 0 363.31754334521702 108.91841453587404 0 0 0 0 107.60801153329157 1092.2516036834641 0 1092.2516036834641 1053.911566511757 0 0 0 0 -329.85781831928034 528.21985428405969 0 528.21985428405969 395.10765085591993 0 0 0 0 -193.00375415060989 286.94769094415824 0 286.94769094415824 195.43425237272459 0 0 0 0 -237.66336983608926 76.031871014209173 0 76.031871014209173 49.554808085260447 0 0 0 0 23.144208874049617 48.462887947739482 0 48.462887947739482 67.214095516616254 0 0 0 0 9.2163097335960629 164.6392013476725 0 164.6392013476725 -30.020619516610168 0 0 0 0 3.797854927597669 7.6228596810548197 0 7.6228596810548197 9.4868750289150512 0 0 0 0 -21.818427135985985 7.8177033936663065 0 7.8177033936663065 65.938256798624934 0 0 0 0 191.44349816931935 -52.528760253320797 0 -52.528760253320797 -33.380071187828435 0 0 0 0 7.430202829358322 16.627420551302052 0 16.627420551302052 -22.712980441851869 0 0 0 0 669.6615974636079 -21.192557446542196 0 -21.192557446542196 7.9449574069440132 0 0 0 0 164.26707229702879 -65.010338338051952 0 -65.010338338051952 14.976339693472255 0 0 0 0 176.68895450742275 -83.514916981373972 0 -83.514916981373972 42.31401328445645 0 0 0 0 217.97609880760319 -82.754677008564613 0 -82.754677008564613 0.067302063544047996 0 0 0 0 236.08869074145696 171.40331791106291 0 171.40331791106291 -87.919220050840522 0 0 0 0 13.970457952327919 35.960191471021361 0 35.960191471021361 69.544281056644024 0 0 0 0 -163.52260724797088 273.91143175600155 0 273.91143175600155 26.073884798417566 0 0 0 0 213.47645339608425 -31.33596266360837 0 -31.33596266360837 -62.890854695157032 0 0 0 0 91.284296040583286 21.979448242418584 0 21.979448242418584 -14.016002045827918 0 0 0 0 108.78187045826053 -453.49048264363955 0 -453.49048264363955 789.54844459956803 0 0 0 0 -118.15775353545905 -71.120912634563865 0 -71.120912634563865 766.33083687091857 0 0 0 0 4.6298494656693947 -153.20490487597999 0 -153.20490487597999 757.93192171232658 0 0 0 0 -207.09436273010215 -108.46501519302547 0 -108.46501519302547 1987.3428991865949 0 0 0 0 196.03843478101044 242.37361734903243 0 242.37361734903243 148.89203746709973 0 0 0 0 9.1357074911383727 10.197960405433697 0 10.197960405433697 3.528427988253668 0 0 0 0 -1188.3744695483347 -2786.1578193296336 0 -2786.1578193296336 4091.5693366948981 0 0 0 0 17.50690258015527 29.632108549591663 0 29.632108549591663 36.176445358755814 0 0 0 0 -154.8946044266122 105.64614422328304 0 105.64614422328304 309.95359847383224 0 0 0 0 2155.3784296791382 2143.0374553633519 0 2143.0374553633519 1775.9168687335623 0 0 0 0 7.5221765412156643 10.944275260857566 0 10.944275260857566 19.048483359801821 0 0 0 0 837.98734686899479 1268.6839148353902 0 1268.6839148353902 2332.9251612384105 0 0 0 0 700.00491851314291 1820.6498335712386 0 1820.6498335712386 2301.2426915098331 0 0 0 0 -103.73026056711024 794.13075525150634 0 794.13075525150634 1922.0016898074537 0 0 0 0 378.53283480037862 2083.6479257509636 0 2083.6479257509636 5370.0100823193206 0 0 0 0 413.73304823251965 1246.3147169815857 0 1246.3147169815857 1229.4123586926289 0 0 0 0 -46.715424166904995 724.15517193867709 0 724.15517193867709 1959.5496357614757 0 0 0 0 -219.64528821669228 554.12788201618241 0 554.12788201618241 1804.7318068458844 0 0 0 0 -439.00949902704451 859.78639234819639 0 859.78639234819639 1206.8401554111042 0 0 0 0 263.11110170740722 1719.4421851700463 0 1719.4421851700463 2109.9780427611258 0 0 0 0 2460.4575428384996 1261.8240143568692 0 1261.8240143568692 432.67987554962747 0 0 0 0 461.22747608467762 484.07020563296101 0 484.07020563296101 362.06546867125144 0 0 0 0 978.20493745298882 -298.79062615032308 0 -298.79062615032308 -164.64203295091284 0 0 0 0 263.3118094441088 1663.7587390098051 0 1663.7587390098051 1603.7747543427831 0 0 0 0 1330.8863453845843 3220.7435546689085 0 3220.7435546689085 5567.1603473477298 0 0 0 0 -1759.8645087462864 -134.52103670259385 0 -134.52103670259385 6155.6394899055886 0 0 0 0 8.9834600743470574 15.499189910315643 0 15.499189910315643 27.12501475197098 0 0 0 0 4277.1599108794835 948.57565892023558 0 948.57565892023558 238.89134229539195 0 0 0 0 2939.1313247376311 3757.5467775871512 0 3757.5467775871512 3239.8731593323464 0 0 0 0 -1057.4283136678132 166.49330765050399 0 166.49330765050399 1529.7123259651271 0 0 0 0 -1276.1945720259537 -1139.5113098006623 0 -1139.5113098006623 1683.3716113222836 0 0 0 0 -1174.4558485491725 569.66091064527427 0 569.66091064527427 3886.4421932873229 0 0 0 0 -440.49378362188509 -369.16472408424306 0 -369.16472408424306 -724.61373106169049 0 0 0 0 2108.6300445519737 897.79045921243232 0 897.79045921243232 296.11593370579067 0 0 0 0 547.73759242625238 -349.33891944628704 0 -349.33891944628704 -419.63365055865142 0 0 0 0 -544.75891070956277 223.74048369756565 0 223.74048369756565 107.59107157899416 0 0 0 0 -599.67389069444471 775.14897975834174 0 775.14897975834174 -582.0636488641303 0 0 0 0 22.892075727030843 36.072835792750311 0 36.072835792750311 50.292001673214656 0 0 0 0 617.65931088350408 1158.7276655779933 0 1158.7276655779933 608.81625086130953 0 0 0 0 150.0480441294676 922.56514008225531 0 922.56514008225531 941.17273807509628 0 0 0 0 1035.7150840546528 827.83608733635629 0 827.83608733635629 276.8457123231783 0 0 0 0 1372.2265023343407 1001.3531944286842 0 1001.3531944286842 167.06990697147558 0 0 0 0 808.38642309234274 542.35363312112167 0 542.35363312112167 -75.913437363298726 0 0 0 0 104.71198265518979 281.86954048366169 0 281.86954048366169 -36.135703009183999 0 0 0 0 138.04049820673026 702.7424384092883 0 702.7424384092883 193.72519825749896 0 0 0 0 334.93509729823199 811.7410022764343 0 811.7410022764343 184.97929102113994 0 0 0 0 374.55674610951428 509.24046651753088 0 509.24046651753088 -51.698070913247648 0 0 0 0 -2.874148587048694 456.0232707971154 0 456.0232707971154 -35.564286330401956 0 0 0 0 197.03445897309757 748.02747581718722 0 748.02747581718722 127.05605785573425 0 0 0 0 -99.596777085991562 235.8894305476897 0 235.8894305476897 -31.109407616517274 0 0 0 0 6.7508502060773026 433.65195269824471 0 433.65195269824471 -70.790054925411823 0 0 0 0 -254.0210456924724 482.59752976980963 0 482.59752976980963 -79.686845627762523 0 0 0 0 26.575745329409983 445.98541489084892 0 445.98541489084892 -63.121219933120301 0 0 0 0 -21.945911648181209 443.35888949833316 0 443.35888949833316 -43.914001837954856 0 0 0 0 42.465314048058644 658.50384432057763 0 658.50384432057763 -79.495504487669677 0 0 0 0 -306.93641668589044 129.27944884390126 0 129.27944884390126 58.767274619705859 0 0 0 0 -296.85549408017323 104.44347650300188 0 104.44347650300188 29.562349661508051 0 0 0 0 -73.94785643891737 123.55426815334067 0 123.55426815334067 -51.288069236521551 0 0 0 0 65.319726160996652 307.61395844428625 0 307.61395844428625 -9.5266171081166249 0 0 0 0 -162.53670175850857 243.43817482794111 0 243.43817482794111 20.319602808958734 0 0 0 0 -239.94019282186491 129.95554640140472 0 129.95554640140472 39.484339244692819 0 0 0 0 -374.53009681030017 270.0378337296861 0 270.0378337296861 26.933494568826063 0 0 0 0 -305.30160866508231 142.37208133442618 0 142.37208133442618 47.781034326239023 0 0 0 0 -308.25751878376468 133.97300090870704 0 133.97300090870704 62.353770669244113 0 0 0 0 -708.72252579067572 922.17544995500066 0 922.17544995500066 -256.24125074894255 0 0 0 0 312.95677741408872 718.10000767009114 0 718.10000767009114 -1762.7615693138941 0 0 0 0 -8.3591652910110668 6.6677983829918901 0 6.6677983829918901 -3.1947652371280526 0 0 0 0 -449.10751038064336 271.33881442257189 0 271.33881442257189 756.11090964272444 0 0 0 0 26.887428564453401 37.591933448154236 0 37.591933448154236 55.203167540329218 0 0 0 0 -92.959746172167797 24.360537775868579 0 24.360537775868579 -983.94939161613001 0 0 0 0 -542.0629205759833 888.06270616432448 0 888.06270616432448 -321.44834014493972 0 0 0 0 -474.02953358962077 438.18266548137217 0 438.18266548137217 144.05314893668401 0 0 0 0 -580.99820565621485 465.3399234642784 0 465.3399234642784 469.97629213398614 0 0 0 0 -753.26519969112269 632.73035136078761 0 632.73035136078761 421.47087193430343 0 0 0 0 -221.98969724964991 296.37079530134724 0 296.37079530134724 385.08150577412744 0 0 0 0 152.3099091852564 178.56870019407506 0 178.56870019407506 364.43393954607018 0 0 0 0 -263.29199920796236 240.14232650560007 0 240.14232650560007 383.02494099910382 0 0 0 0 45.449490854047326 232.63669757096068 0 232.63669757096068 346.15088099949935 0 0 0 0 -473.45906229596221 86.640562709806545 0 86.640562709806545 392.28324574991711 0 0 0 0 32.69564015501237 -44.667341540261987 0 -44.667341540261987 -128.31104157489955 0 0 0 0 111.54246653724113 89.310010839457391 0 89.310010839457391 -128.15029732703735 0 0 0 0 44.18119799534179 254.25808210999821 0 254.25808210999821 468.54673730576542 0 0 0 0 -23.007754005983202 11.539171161561285 0 11.539171161561285 -3.8313898477561992 0 0 0 0 154.76327008818771 299.67919907850955 0 299.67919907850955 349.57733954714058 0 0 0 0 146.72094011548324 296.50536292922334 0 296.50536292922334 348.57391136734077 0 0 0 0 116.9729601966992 179.30769255619634 0 179.30769255619634 16.829692246014019 0 0 0 0 -622.89635505156275 -765.19024570364581 0 -765.19024570364581 -105.6976143726497 0 0 0 0 -902.75820240233588 1070.5579260953455 0 1070.5579260953455 313.64538651961266 0 0 0 0 430.14307893163277 501.66270922678814 0 501.66270922678814 -1392.0976636313935 0 0 0 0 265.41553684627434 -135.81335489641788 0 -135.81335489641788 -1201.7753986226744 0 0 0 0 -9.6484807702682929 8.6544046868675366 0 8.6544046868675366 -12.609305645648249 0 0 0 0 223.0091001612891 -160.66254678500991 0 -160.66254678500991 -2066.8936757974152 0 0 0 0 -1587.6666337216302 637.11236948072474 0 637.11236948072474 -184.7561114551354 0 0 0 0 -196.20143148322131 298.13734867372659 0 298.13734867372659 134.46386257463018 0 0 0 0 -248.79496213914535 136.30840655000793 0 136.30840655000793 -19.360823847084248 0 0 0 0 81.213282106513361 385.49784944125349 0 385.49784944125349 50.24120415825746 0 0 0 0 -69.81475797361054 186.79161023514462 0 186.79161023514462 80.6711796082418 0 0 0 0 -335.99079505891496 67.191899930650834 0 67.191899930650834 36.755628097744193 0 0 0 0 -138.08411204674849 308.41290809846032 0 308.41290809846032 28.168526952809771 0 0 0 0 -69.414988049396925 34.351647522395069 0 34.351647522395069 74.423894634939643 0 0 0 0 -16.710897019930457 40.202087969174926 0 40.202087969174926 -12.868932638080253 0 0 0 0 -159.98455357379498 141.05113595240618 0 141.05113595240618 21.50940801622346 0 0 0 0 -90.056265330941642 19.744824494995555 0 19.744824494995555 11.113951610546792 0 0 0 0 20.055293632721529 51.301166045467255 0 51.301166045467255 59.261771468879203 0 0 0 0 -180.10904176243639 112.23582254726352 0 112.23582254726352 46.183714352742754 0 0 0 0 -22.203536439134211 39.516896389638191 0 39.516896389638191 -18.362258257447706 0 0 0 0 13.243695463850742 42.247557750395785 0 42.247557750395785 49.815649809482807 0 0 0 0 -33.983935690982435 60.416021410288522 0 60.416021410288522 17.411509442790702 0 0 0 0 -12.914627524522075 128.49302524163068 0 128.49302524163068 29.328934453522379 0 0 0 0 7.9293966771874693 47.341296806553146 0 47.341296806553146 15.097620822183671 0 0 0 0 -128.67376525445798 200.57974551358348 0 200.57974551358348 991.80949822063849 0 0 0 0 9.5191910585910762 10.987165255606335 0 10.987165255606335 20.442892331386361 0 0 0 0 661.58056549696084 2041.2418675501794 0 2041.2418675501794 473.79085356586438 0 0 0 0 1517.0071145709007 272.6958569795388 0 272.6958569795388 -99.745812485778515 0 0 0 0 -68.278089202442061 215.60263287142516 0 215.60263287142516 -66.584810042608296 0 0 0 0 -136.76833505613467 693.48084449968155 0 693.48084449968155 -212.81963950690078 0 0 0 0 -179.2072966464475 733.1525348884752 0 733.1525348884752 -199.66671980985484 0 0 0 0 -86.261157314753291 570.56552487147019 0 570.56552487147019 -128.44465509045403 0 0 0 0 -127.16846494924903 672.93109597160947 0 672.93109597160947 -217.53181200977997 0 0 0 0 -291.78652717442674 634.12792057762999 0 634.12792057762999 -142.09235428560351 0 0 0 0 -193.34407678979915 395.22485858546133 0 395.22485858546133 -2.3368247627513483 0 0 0 0 -573.69889935152605 468.96275046528899 0 468.96275046528899 -12.639637542801211 0 0 0 0 -599.31974618459935 668.28258686968184 0 668.28258686968184 -87.16356166251353 0 0 0 0 -278.93233465409867 603.90355075684784 0 603.90355075684784 -74.507666429373785 0 0 0 0 -637.74243828915314 721.87694984046175 0 721.87694984046175 -141.89769152150257 0 0 0 0 -1051.5188624050752 405.10522742220928 0 405.10522742220928 130.66033314054675 0 0 0 0 -416.99904307423458 304.04990699152404 0 304.04990699152404 112.82825804819004 0 0 0 0 -294.79621735669389 172.21358387410146 0 172.21358387410146 86.241657054211828 0 0 0 0 -528.58861440102191 216.01878150299308 0 216.01878150299308 80.545207660557935 0 0 0 0 -352.10884331695343 18.596211241321726 0 18.596211241321726 29.071068134071538 0 0 0 0 -178.8218695680647 89.552591091771319 0 89.552591091771319 -38.21146480072639 0 0 0 0 -1869.1483166046528 -60.662105807590706 0 -60.662105807590706 52.477872041854425 0 0 0 0 -632.26464876031969 -119.10428888325987 0 -119.10428888325987 50.340107897180133 0 0 0 0 110.26571458492799 161.6801744873992 0 161.6801744873992 -730.51240768570278 0 0 0 0 -11.946691724600072 9.024762378055982 0 9.024762378055982 -13.953505861871975 0 0 0 0 -1488.9945268776178 1164.5695445016072 0 1164.5695445016072 -497.84948945960787 0 0 0 0 -481.37982702708177 544.50712859808846 0 544.50712859808846 -1281.6833597471632 0 0 0 0 -610.21018567040187 842.17968077427486 0 842.17968077427486 -214.84671286618686 0 0 0 0 -643.50117518650222 635.35133002259681 0 635.35133002259681 -185.93832879850743 0 0 0 0 -495.06919382914202 546.12046244969679 0 546.12046244969679 -250.8149390434919 0 0 0 0 -75.515030224625662 559.81875863477035 0 559.81875863477035 -120.48835263254296 0 0 0 0 -54.687763103353063 683.4716425009974 0 683.4716425009974 -581.13635241828888 0 0 0 0 -231.91438183671198 794.65641333493113 0 794.65641333493113 -220.70933873404283 0 0 0 0 -1061.4640110155087 301.36868630050594 0 301.36868630050594 106.59531836821407 0 0 0 0 -250.0390738661772 401.52861467141338 0 401.52861467141338 92.660448852828267 0 0 0 0 -75.31468077208774 372.2776668434235 0 372.2776668434235 46.337363187849405 0 0 0 0 -68.327059256601387 365.8095614181957 0 365.8095614181957 -475.41809182887664 0 0 0 0 -661.81970825157259 575.53251139663553 0 575.53251139663553 -33.169920650703716 0 0 0 0 -2072.603992909404 152.68985668609821 0 152.68985668609821 -159.34176227993885 0 0 0 0 -662.81217255907177 1134.1775948317809 0 1134.1775948317809 -594.3098196715473 0 0 0 0 -866.62297033594587 555.33416157273678 0 555.33416157273678 183.72436596862099 0 0 0 0 -500.85048744621417 691.45817229061504 0 691.45817229061504 0.37977306945685996 0 0 0 0 -483.58588582581797 617.04034417367802 0 617.04034417367802 199.25534752184467 0 0 0 0 -801.47044986689434 608.65375901766674 0 608.65375901766674 222.21503520922852 0 0 0 0 -497.98974056417501 368.41885047470714 0 368.41885047470714 157.84945261162648 0 0 0 0 -454.69146762376477 527.97564278094069 0 527.97564278094069 0.042462091792021699 0 0 0 0 -144.21636332992057 311.0752677427372 0 311.0752677427372 87.411108529064222 0 0 0 0 -48.896516326691199 478.13866623404465 0 478.13866623404465 0.3264915481113751 0 0 0 0 -274.72637343002498 308.75511426742742 0 308.75511426742742 127.48021535838052 0 0 0 0 446.18361136992462 710.09252942231979 0 710.09252942231979 298.49534601949563 0 0 0 0 565.51336093891587 605.49902996009769 0 605.49902996009769 239.4660062233088 0 0 0 0 1885.5520592502944 217.48616743660386 0 217.48616743660386 317.15634562944615 0 0 0 0 41.76051111988636 -365.38124332237203 0 -365.38124332237203 1385.1114687581721 0 0 0 0 698.66595451422108 1271.0114027799682 0 1271.0114027799682 831.58760074480961 0 0 0 0 -146.03958933638933 730.87196665669762 0 730.87196665669762 399.12156707609029 0 0 0 0 -160.89327389755272 633.38713164362343 0 633.38713164362343 -95.028189900127472 0 0 0 0 -698.39634826506517 1057.2953638862809 0 1057.2953638862809 126.92665919258434 0 0 0 0 131.91009098754876 657.52671673463556 0 657.52671673463556 245.49613903535646 0 0 0 0 96.323948154727987 1045.7305026739486 0 1045.7305026739486 274.07517672159838 0 0 0 0 -144.18411556136925 783.24224090174175 0 783.24224090174175 116.40423619634385 0 0 0 0 -178.82822332300566 972.57993601442286 0 972.57993601442286 138.89547504987422 0 0 0 0 160.38627445567181 789.75997163845386 0 789.75997163845386 0.086969749885611236 0 0 0 0 330.14207377093771 939.5746203224553 0 939.5746203224553 73.979253462719498 0 0 0 0 608.53935968263977 808.68770943601339 0 808.68770943601339 60.376973389291379 0 0 0 0 493.28597317126332 839.38904766969426 0 839.38904766969426 -0.68496731148479739 0 0 0 0 398.59677064885182 865.63676683392259 0 865.63676683392259 192.34848748792137 0 0 0 0 408.64396004923765 825.10353669957112 0 825.10353669957112 339.00426299573155 0 0 0 0 198.21565923347953 1124.0296563539887 0 1124.0296563539887 2.6711682217210182 0 0 0 0 236.46471361984732 831.25729298195802 0 831.25729298195802 343.28081657219082 0 0 0 0 159.47664998560504 791.4413637698417 0 791.4413637698417 483.52758506775717 0 0 0 0 365.19689114507491 689.8440501125624 0 689.8440501125624 498.62326136413321 0 0 0 0 495.01110019578482 706.60464843959926 0 706.60464843959926 221.3547179667712 0 0 0 0 137.8107946432865 753.47242315713083 0 753.47242315713083 501.55505203069288 0 0 0 0 399.35242432317136 418.20245964702372 0 418.20245964702372 911.75129331518838 0 0 0 0 310.48718258972804 762.63574726669322 0 762.63574726669322 488.8685211261909 0 0 0 0 214.27255850943766 832.14187698528985 0 832.14187698528985 536.8810419433139 0 0 0 0 365.74164242528786 864.65111602599791 0 864.65111602599791 543.37770014745183 0 0 0 0 241.99479409985361 941.70227071702539 0 941.70227071702539 497.47228424018249 0 0 0 0 -936.39656367509451 773.63014604743512 0 773.63014604743512 950.26480389211065 0 0 0 0 85.298721021983511 1285.0246914954751 0 1285.0246914954751 605.14672842630534 0 0 0 0 85.125669117674988 734.80432158162876 0 734.80432158162876 666.96976377474493 0 0 0 0 64.143691230405238 787.93337663046987 0 787.93337663046987 658.78769263202048 0 0 0 0 217.7030895233911 766.83167503982258 0 766.83167503982258 547.8710316207289 0 0 0 0 57.668325125283445 836.45239122884959 0 836.45239122884959 652.3570655851945 0 0 0 0 261.94881494020228 746.11729109677981 0 746.11729109677981 555.93571007472929 0 0 0 0 263.03718576412939 735.69829388457583 0 735.69829388457583 607.1423954140555 0 0 0 0 385.29059247158966 731.42328919642841 0 731.42328919642841 515.06047942020814 0 0 0 0 295.60222923469701 736.48943841964137 0 736.48943841964137 433.45056361949537 0 0 0 0 278.9330224730511 755.06729986918799 0 755.06729986918799 512.87256145609717 0 0 0 0 313.62082069643657 696.21116796792194 0 696.21116796792194 458.72376816066389 0 0 0 0 295.024259623744 756.27837497073051 0 756.27837497073051 314.26181363430806 0 0 0 0 269.36032645657542 775.24509946836042 0 775.24509946836042 438.37584926389536 0 0 0 0 191.03599144026884 845.51682502603217 0 845.51682502603217 411.87423253417364 0 0 0 0 183.29668909784232 923.18985061565763 0 923.18985061565763 206.38379701785743 0 0 0 0 319.93948722532514 701.52874992103898 0 701.52874992103898 368.36892951393384 0 0 0 0 393.61350758316985 731.58091914907709 0 731.58091914907709 290.88571076799417 0 0 0 0 295.38346782002191 628.95440985326422 0 628.95440985326422 336.20962921700266 0 0 0 0 402.87825882149627 203.5100270499388 0 203.5100270499388 854.54972421420098 0 0 0 0 226.60777218097428 695.10380004089529 0 695.10380004089529 500.05417638614017 0 0 0 0 305.92493823538825 531.0614722862374 0 531.0614722862374 659.86835751254694 0 0 0 0 43.339986748498632 923.51113864551007 0 923.51113864551007 745.73643007099236 0 0 0 0 30.349768279615091 754.58790138691256 0 754.58790138691256 1230.2967908221326 0 0 0 0 448.24907216927386 257.17011483380338 0 257.17011483380338 0.82132537778700787 0 0 0 0 0.66271641464584263 5.4620907731726902 0 5.4620907731726902 -2.8313262599306768 0 0 0 0 420.85993702357155 248.89400103155276 0 248.89400103155276 719.3460197608365 0 0 0 0 -257.73939254813013 1007.7198312896289 0 1007.7198312896289 923.65698266267646 0 0 0 0 201.47533346647833 859.11950292809342 0 859.11950292809342 -0.047338328884507064 0 0 0 0 73.159265290421899 1191.8107813360184 0 1191.8107813360184 535.52284623723244 0 0 0 0 -277.90384539737715 1062.0173750245012 0 1062.0173750245012 -552.02386181124893 0 0 0 0 -454.68430073432683 1288.8205736299133 0 1288.8205736299133 523.25813725995977 0 0 0 0 -211.70114189692686 1754.9889158797596 0 1754.9889158797596 309.00477644859347 0 0 0 0 -896.28977486863005 1496.4835414746412 0 1496.4835414746412 139.32715643054689 0 0 0 0 -2038.4707633818034 90.746662760793697 0 90.746662760793697 -1335.5380189070711 0 0 0 0 -995.57239666080568 1025.0377431752277 0 1025.0377431752277 -527.65310362097807 0 0 0 0 -381.79790859582135 1508.1419633496262 0 1508.1419633496262 -761.02014734137629 0 0 0 0 -436.96878081973409 1401.6741750518559 0 1401.6741750518559 -761.75262778285833 0 0 0 0 214.6058189306641 868.08575344577548 0 868.08575344577548 -485.61208197870292 0 0 0 0 0.51495951901603121 5.2106090901910989 0 5.2106090901910989 -3.1883828929450431 0 0 0 0 188.26423276474816 705.30407922866289 0 705.30407922866289 -492.06954341207165 0 0 0 0 -164.47211384290131 1242.2265247809264 0 1242.2265247809264 -45.530401372860069 0 0 0 0 192.25584084558068 876.99508721349412 0 876.99508721349412 22.131773938046535 0 0 0 0 317.18357677126187 898.9711372639722 0 898.9711372639722 -32.465362633403856 0 0 0 0 449.97795140783455 424.48952562595605 0 424.48952562595605 -191.97423111170065 0 0 0 0 927.17170297953999 1569.9501924174547 0 1569.9501924174547 126.62763481479487 0 0 0 0 897.33722512675013 1643.8040152561989 0 1643.8040152561989 530.97400756683783 0 0 0 0 516.42825488050585 1343.9134974505068 0 1343.9134974505068 3.9303281940010493 0 0 0 0 164.34361037399503 1522.5190964677677 0 1522.5190964677677 388.66279136159665 0 0 0 0 74.746333513787249 1500.8851100278553 0 1500.8851100278553 386.72146639611856 0 0 0 0 154.2896098561032 1747.7282797275111 0 1747.7282797275111 99.841249131830409 0 0 0 0 449.59531821444398 1588.9925215650292 0 1588.9925215650292 110.27588291463326 0 0 0 0 426.74077208919289 1306.0904325640031 0 1306.0904325640031 374.77326244636788 0 0 0 0 872.97524237501784 1370.5275608304364 0 1370.5275608304364 288.75072600637213 0 0 0 0 1093.3783954657338 1061.065627875596 0 1061.065627875596 544.66216030491341 0 0 0 0 979.5812893028924 785.2095163766935 0 785.2095163766935 598.01809146287633 0 0 0 0 822.12162936185632 1015.3366179260192 0 1015.3366179260192 1332.3945168226201 0 0 0 0 -536.27833718720649 515.14818364367238 0 515.14818364367238 1056.753465214937 0 0 0 0 -799.61532869990333 845.40495235762501 0 845.40495235762501 953.8089046528039 0 0 0 0 -4.5439965382254854 6.7614042379799741 0 6.7614042379799741 -4.0443571084816767 0 0 0 0 602.93846819030296 1344.6529974818041 0 1344.6529974818041 77.903322148951702 0 0 0 0 268.57790871570614 509.33318605802197 0 509.33318605802197 917.1802719845 0 0 0 0 459.082046654039 833.61796970710202 0 833.61796970710202 976.88407452912361 0 0 0 0 434.97230475276228 855.07481558651125 0 855.07481558651125 1076.2195668794011 0 0 0 0 -14.035027341032219 13.988286722041835 0 13.988286722041835 -7.0865696513419039 0 0 0 0 970.48844242317136 1246.7277902173155 0 1246.7277902173155 1340.7129445491926 0 0 0 0 -320.26070606992289 1053.0408056544838 0 1053.0408056544838 623.10249726896291 0 0 0 0 123.72409050009446 902.29922072832414 0 902.29922072832414 452.12933882706602 0 0 0 0 -63.239739678509068 994.57103658893902 0 994.57103658893902 465.42524291349764 0 0 0 0 -4.6690776134346379 1053.7399941225885 0 1053.7399941225885 284.05779610984609 0 0 0 0 -16.221066073234397 1114.3714056878343 0 1114.3714056878343 54.561574725667015 0 0 0 0 -207.78364895137202 1159.2084358853826 0 1159.2084358853826 -77.402796537848189 0 0 0 0 -697.24463923137228 1059.5603759055812 0 1059.5603759055812 715.25481653655879 0 0 0 0 -527.68075162605965 1377.2803035229299 0 1377.2803035229299 119.31332013028441 0 0 0 0 -944.77867024713487 1425.3065495552073 0 1425.3065495552073 198.10066397575429 0 0 0 0 -245.61534904610016 875.03001299714379 0 875.03001299714379 680.34261297038393 0 0 0 0 -365.70866692568234 1089.5583763453906 0 1089.5583763453906 643.42530980238371 0 0 0 0 -131.49529904413794 764.3396349435352 0 764.3396349435352 836.44159869681425 0 0 0 0 -229.5767163697019 892.69561502508441 0 892.69561502508441 869.90967143696616 0 0 0 0 -108.36344535847456 727.50250127951949 0 727.50250127951949 821.98287556436844 0 0 0 0 21.920674297281948 643.17815906234318 0 643.17815906234318 831.55861896327133 0 0 0 0 -130.49132945737801 569.86725066253712 0 569.86725066253712 1042.1158954669154 0 0 0 0 -222.86160441758693 569.59685220232132 0 569.59685220232132 1116.4676878112805 0 0 0 0 -263.51779893101775 720.91120612724626 0 720.91120612724626 967.65772132504208 0 0 0 0 -112.82922587019857 466.70361542308819 0 466.70361542308819 951.27248678684555 0 0 0 0 -151.10481501430513 496.421655873698 0 496.421655873698 933.68579574354226 0 0 0 0 -121.75554633588217 563.54099494980073 0 563.54099494980073 858.39044142865168 0 0 0 0 -114.28190731765062 454.16363852159611 0 454.16363852159611 844.37651164013369 0 0 0 0 355.11234621562471 930.52638129243496 0 930.52638129243496 1002.5072248904617 0 0 0 0 54.005291678229696 680.75767412823188 0 680.75767412823188 1092.9258336873645 0 0 0 0 85.275071018128074 620.06529325994779 0 620.06529325994779 1023.7861454802114 0 0 0 0 -167.05974182462251 553.7993165585076 0 553.7993165585076 1177.8965853339905 0 0 0 0 323.40128128970537 930.29189844795474 0 930.29189844795474 1251.8962672417547 0 0 0 0 -198.76122693849175 599.00760708975577 0 599.00760708975577 1365.6734515159569 0 0 0 0 77.280009632333531 962.02466546426149 0 962.02466546426149 1842.525658821658 0 0 0 0 -239.81193233792874 -388.47999229517882 0 -388.47999229517882 1399.0824850900954 0 0 0 0 -167.80588311684551 407.98272666791308 0 407.98272666791308 1061.661631431838 0 0 0 0 -113.6428060313192 410.91679056826251 0 410.91679056826251 1036.139925128613 0 0 0 0 -219.19473432524683 75.24102718937138 0 75.24102718937138 920.25506288073666 0 0 0 0 42.796141668277414 152.71924961070908 0 152.71924961070908 318.46226250256586 0 0 0 0 87.158211524350918 461.25768075182714 0 461.25768075182714 635.67724951499258 0 0 0 0 -44.959355729332856 256.59000033034772 0 256.59000033034772 534.51900881573965 0 0 0 0 -167.13816972979112 285.21115572455892 0 285.21115572455892 766.32462673984992 0 0 0 0 -48.922113181099121 337.85025911000412 0 337.85025911000412 698.59375503346382 0 0 0 0 -38.548936233361019 111.00567033458719 0 111.00567033458719 378.16558688158693 0 0 0 0 213.81546002929099 339.89363869825684 0 339.89363869825684 291.51281796220428 0 0 0 0 114.86453957769481 528.06131612224272 0 528.06131612224272 679.62344883810147 0 0 0 0 457.01534512583748 481.91622034893953 0 481.91622034893953 352.84157797479747 0 0 0 0 195.81615318386321 317.19973327843036 0 317.19973327843036 334.37845415797619 0 0 0 0 900.75887091672485 655.08564477065374 0 655.08564477065374 -123.84106822557806 0 0 0 0 -23.077522788202998 34.054968150527202 0 34.054968150527202 -42.47407941351463 0 0 0 0 256.43989954419521 311.5785284869271 0 311.5785284869271 241.08014308344184 0 0 0 0 -262.47236281241618 806.17398595331849 0 806.17398595331849 -225.94754316158651 0 0 0 0 324.19953853245534 710.79654914863931 0 710.79654914863931 248.0514888365484 0 0 0 0 -18.088103211252431 25.088658226279648 0 25.088658226279648 -26.277613551100501 0 0 0 0 563.40021030366188 691.8488297753247 0 691.8488297753247 572.35017988657637 0 0 0 0 676.10336062300121 540.59155732404906 0 540.59155732404906 627.32085159821145 0 0 0 0 -23.794214374629519 492.48477666617146 0 492.48477666617146 394.21844536959543 0 0 0 0 -7.0890463459276987 10.052291523919251 0 10.052291523919251 -8.4259395569681033 0 0 0 0 -1152.8584443844047 478.24824519385584 0 478.24824519385584 454.7136872999472 0 0 0 0 394.9112895589642 1251.4244523850066 0 1251.4244523850066 593.81798510383305 0 0 0 0 1316.7288245401069 1175.3016299728188 0 1175.3016299728188 447.67528259358369 0 0 0 0 806.4277175917523 931.97516201263352 0 931.97516201263352 492.11863061477015 0 0 0 0 478.04811042678557 604.30436685389213 0 604.30436685389213 682.821279302123 0 0 0 0 367.5211050513899 719.42311648534815 0 719.42311648534815 655.5391583850851 0 0 0 0 291.77884128320147 750.6016975176899 0 750.6016975176899 602.19622132751829 0 0 0 0 25.826773161061283 631.20124930636666 0 631.20124930636666 745.47544738895886 0 0 0 0 243.61659091820366 636.45592546023545 0 636.45592546023545 727.45133593681385 0 0 0 0 284.28848134821601 565.76293715328211 0 565.76293715328211 684.59496419779316 0 0 0 0 2086.0505823417916 2876.9633591886995 0 2876.9633591886995 -1.5451326029797201 0 0 0 0 1.1122590275808761 2578.1187114674485 0 2578.1187114674485 921.56121462056399 0 0 0 0 821.93016767057998 2062.286182932603 0 2062.286182932603 1153.6973767525196 0 0 0 0 798.89953983914165 3005.5256284738753 0 3005.5256284738753 487.90669338201405 0 0 0 0 4779.6196155438811 1801.7890235011691 0 1801.7890235011691 -223.64647871395937 0 0 0 0 1278.7698299390395 1635.3165371437535 0 1635.3165371437535 37.024563440718339 0 0 0 0 240.9956880552345 1850.0728789455279 0 1850.0728789455279 400.81068220800807 0 0 0 0 3.5668540676119287 8.5209015246649926 0 8.5209015246649926 4.2052163322497904 0 0 0 0 1850.2348486176343 2472.1656298595735 0 2472.1656298595735 251.57867391926993 0 0 0 0 1139.3459215736948 2038.4779976288773 0 2038.4779976288773 115.78111729972261 0 0 0 0 1072.7735500770796 2147.0641562645651 0 2147.0641562645651 163.79577230349241 0 0 0 0 2465.4353012138017 1859.4495841127064 0 1859.4495841127064 424.81103699455707 0 0 0 0 4645.7397667223122 3483.5133541479445 0 3483.5133541479445 1786.9332635726914 0 0 0 0 599.26087835060753 355.31583435205903 0 355.31583435205903 160.88178149503074 0 0 0 0 2249.8729976287905 1735.0226364683003 0 1735.0226364683003 1087.2020685373282 0 0 0 0 -9.2474453027680994 15.891368412751575 0 15.891368412751575 18.886837815159879 0 0 0 0 4190.9448359912785 1268.5484094248823 0 1268.5484094248823 -962.46138278949365 0 0 0 0 2785.4851332484541 319.16267329075345 0 319.16267329075345 -756.77682112160255 0 0 0 0 3242.8021265446005 38.58039022351295 0 38.58039022351295 -853.21908701006032 0 0 0 0 5.5475547333494957 7.4946392526167358 0 7.4946392526167358 4.1986489453914828 0 0 0 0 2803.8911920689497 1598.6208522383567 0 1598.6208522383567 -5.3906727982976008 0 0 0 0 910.07756674758275 155.99127812677398 0 155.99127812677398 2914.7524238738843 0 0 0 0 444.96116562638781 193.33873920571932 0 193.33873920571932 4.0664838217635406 0 0 0 0 29.501752226280814 -2.8068375732565585 0 -2.8068375732565585 -0.056868289047272924 0 0 0 0 2153.643626148456 1743.2736348518665 0 1743.2736348518665 1265.5096487277042 0 0 0 0 -10.102704244897566 26.329850869410791 0 26.329850869410791 -0.091199657438323811 0 0 0 0 446.53553154465044 -373.21373197791399 0 -373.21373197791399 399.89617486953648 0 0 0 0 715.06505265405576 640.08256107978377 0 640.08256107978377 636.94465499212674 0 0 0 0 1388.6734348489263 598.94535855697177 0 598.94535855697177 432.11958654010959 0 0 0 0 1084.0804887357081 1181.7060269639478 0 1181.7060269639478 829.16312616081268 0 0 0 0 893.58710599262849 670.56691697784845 0 670.56691697784845 446.23781216179486 0 0 0 0 28.181853782640246 14.174081532368291 0 14.174081532368291 0.95657269028015435 0 0 0 0 6.5498598620165467 12.342628209656425 0 12.342628209656425 -4.5428858941457548 0 0 0 0 17.143948113389214 2.2341597119888092 0 2.2341597119888092 -0.30320324398667253 0 0 0 0 7.0921481545665301 8.8127330194693059 0 8.8127330194693059 0.018915243835955088 0 0 0 0 824.57277730634087 1542.8980965298033 0 1542.8980965298033 1848.4936407220666 0 0 0 0 645.01074935475845 1017.088181649211 0 1017.088181649211 740.55024514372053 0 0 0 0 2.8190106951639109 4.8273410489104265 0 4.8273410489104265 -0.65395580716688073 0 0 0 0 1126.7540862378373 1099.2125673887349 0 1099.2125673887349 667.62069770137168 0 0 0 0 1077.2428999052063 1135.4665785684192 0 1135.4665785684192 783.76594837199082 0 0 0 0 1072.5810845466622 1049.2739981245631 0 1049.2739981245631 980.85852116835304 0 0 0 0 1106.090620562245 1101.979742058611 0 1101.979742058611 779.1238704463558 0 0 0 0 1309.5122005204175 1235.7229169068451 0 1235.7229169068451 1079.8965989393982 0 0 0 0 1259.3629460051161 1269.528096306778 0 1269.528096306778 2548.6612319491687 0 0 0 0 -10.341053207279629 5.8557044557222468 0 5.8557044557222468 13.323477170774822 0 0 0 0 -1568.4440308130143 694.63929753078264 0 694.63929753078264 1498.4811729150388 0 0 0 0 957.81727166727069 1165.2232335238368 0 1165.2232335238368 1323.1241442141036 0 0 0 0 722.53363892472407 799.34240512861652 0 799.34240512861652 614.88383750106732 0 0 0 0 669.98068517198408 897.32873842848494 0 897.32873842848494 973.4298563466873 0 0 0 0 -15.69889581635212 12.571753196199637 0 12.571753196199637 -6.225260286069954 0 0 0 0 -208.63223965132784 -1792.7748630642236 0 -1792.7748630642236 -369.59894981680554 0 0 0 0 1029.2482593466266 1153.1265419387055 0 1153.1265419387055 660.66337284982546 0 0 0 0 267.31518497582147 776.60664439317407 0 776.60664439317407 1051.7645654134249 0 0 0 0 2453.0250524482981 1117.8014213885399 0 1117.8014213885399 919.82312401349918 0 0 0 0 589.29960916741402 1245.6099256681482 0 1245.6099256681482 1425.3467604622565 0 0 0 0 192.83311232821143 967.0442500623758 0 967.0442500623758 1438.4677131836224 0 0 0 0 804.69075775566307 1961.4723313760842 0 1961.4723313760842 3027.7112759829033 0 0 0 0 -215.60979011949166 36.573113807787422 0 36.573113807787422 3345.7910203493666 0 0 0 0 11.694048978974251 16.981480637378546 0 16.981480637378546 20.964562167013213 0 0 0 0 1064.3927794275151 1745.1128131254809 0 1745.1128131254809 -1742.2060521002131 0 0 0 0 1392.0907063223931 29.46645380044356 0 29.46645380044356 1125.7527294451138 0 0 0 0 15.44583696888003 677.41307961556595 0 677.41307961556595 2124.9308403443574 0 0 0 0 182.64372959911452 985.09051899115366 0 985.09051899115366 1267.3725332675676 0 0 0 0 25.19617080167518 1552.1927635425163 0 1552.1927635425163 1992.51298344729 0 0 0 0 -450.91655160477967 1369.3283551105778 0 1369.3283551105778 1125.1818114096823 0 0 0 0 951.78064278960665 2254.5551071800073 0 2254.5551071800073 365.06440986173402 0 0 0 0 235.55158407316776 846.00173253663888 0 846.00173253663888 294.26551397920412 0 0 0 0 992.93639890137274 815.41903902473132 0 815.41903902473132 294.82850609000161 0 0 0 0 -58.5876480442613 29.695219826424903 0 29.695219826424903 32.742260123217307 0 0 0 0 -1257.9799895860488 -285.40975988119317 0 -285.40975988119317 186.89385646658775 0 0 0 0 2804.9610974815732 3193.5088780670849 0 3193.5088780670849 3108.5671347610769 0 0 0 0 2933.3099022330234 2243.4742358719268 0 2243.4742358719268 1850.4178138498974 0 0 0 0 -36.917159226821468 18.652798284756813 0 18.652798284756813 29.324210027354638 0 0 0 0 500.92021025663416 926.75399117430788 0 926.75399117430788 280.79187997951522 0 0 0 0 -1583.4708808051946 254.94592508256028 0 254.94592508256028 68.801318641693797 0 0 0 0 866.35361760304295 -83.102500855577091 0 -83.102500855577091 403.95359220406681 0 0 0 0 -936.45036406790314 -340.71116790137603 0 -340.71116790137603 110.22663658123929 0 0 0 0 -8.9984532161370794 4.4387982915055773 0 4.4387982915055773 -0.85888761955760629 0 0 0 0 4822.3907793298131 3860.5996775836757 0 3860.5996775836757 2584.9849647444498 0 0 0 0 813.83191119878029 1654.4016605705474 0 1654.4016605705474 1699.5630282756465 0 0 0 0 -0.56462493281198078 7.1265429728334198 0 7.1265429728334198 12.061941616457773 0 0 0 0 -168.38939960458083 400.71659056871431 0 400.71659056871431 658.5090191145764 0 0 0 0 1284.1491534373927 1946.4177626102319 0 1946.4177626102319 1220.1339992126232 0 0 0 0 1134.6821893844535 1330.0203608717184 0 1330.0203608717184 660.78929147125746 0 0 0 0 843.38783600814713 1594.0474509589058 0 1594.0474509589058 1792.8983359731137 0 0 0 0 918.43104589171708 2240.7589204024553 0 2240.7589204024553 2197.8643080126712 0 0 0 0 1870.0326454255119 2369.1570467551137 0 2369.1570467551137 1884.8392448811064 0 0 0 0 1342.7227089040862 1780.9510254184934 0 1780.9510254184934 1832.1189881134778 0 0 0 0 1854.2779047103904 1993.4258847307829 0 1993.4258847307829 1640.3871622628649 0 0 0 0 1473.6210865397152 2162.0207782167563 0 2162.0207782167563 2075.9534992091867 0 0 0 0 1345.1694596531815 1702.9893461006031 0 1702.9893461006031 1490.7999575586728 0 0 0 0 1197.1797947071973 1942.4618093071076 0 1942.4618093071076 1693.6628201329222 0 0 0 0 469.84322010178585 1590.0060669569611 0 1590.0060669569611 2159.8780899094036 0 0 0 0 661.72839027213922 1726.3071310433115 0 1726.3071310433115 1882.6485047279493 0 0 0 0 1411.5721497532359 1539.4204634780835 0 1539.4204634780835 1893.6644578736814 0 0 0 0 754.49758859087888 1373.3483318700564 0 1373.3483318700564 2028.8168316892115 0 0 0 0 0.69177541351693261 1746.7073482683613 0 1746.7073482683613 1906.485098393161 0 0 0 0 766.80543614291673 1849.6884866311957 0 1849.6884866311957 1144.8108378644122 0 0 0 0 0.63561614103667796 1009.6399168428512 0 1009.6399168428512 1555.6612458634918 0 0 0 0 602.76344546764449 736.92167897064064 0 736.92167897064064 701.4934781299944 0 0 0 0 -2.2773582939977928 7.905602567863383 0 7.905602567863383 -5.6097911194440258 0 0 0 0 -16.117135212400171 -628.54185943602261 0 -628.54185943602261 -1781.2958280095481 0 0 0 0 0.1553878583072219 36.316076238923415 0 36.316076238923415 -3.4385039291919384 0 0 0 0 106.52568199105735 55.156112327596929 0 55.156112327596929 -259.8162650160084 0 0 0 0 180.5558452977566 84.062465226827044 0 84.062465226827044 -561.06954425570439 0 0 0 0 27.429449622068205 52.869431039536721 0 52.869431039536721 54.457063788344385 0 0 0 0 19.097872200612869 23.149379245806955 0 23.149379245806955 -14.015239511311904 0 0 0 0 199.50249376722786 -141.03129506574624 0 -141.03129506574624 -868.07239665279485 0 0 0 0 -16.364073051139627 10.588401742540782 0 10.588401742540782 18.689483901504502 0 0 0 0 1.9091838335552893 1.2266019748799408 0 1.2266019748799408 2.1085633197661195 0 0 0 0 563.02894930502953 1142.302705316124 0 1142.302705316124 2582.4259243698107 0 0 0 0 2198.8903003901505 1297.2272527835084 0 1297.2272527835084 429.67093445594946 0 0 0 0 583.11415436040261 476.54472757424446 0 476.54472757424446 513.76450645896693 0 0 0 0 651.15476475343894 482.64979584960565 0 482.64979584960565 362.21169122905121 0 0 0 0 6.8417951273731887 51.171239572518971 0 51.171239572518971 31.02052213074785 0 0 0 0 33.639589141905645 52.418647255118529 0 52.418647255118529 33.436177047764403 0 0 0 0 375.63883424327651 138.93962756053952 0 138.93962756053952 154.43097031653451 0 0 0 0 -9.8899973606280014 23.626744542968964 0 23.626744542968964 9.9779909485899339 0 0 0 0 351.13271571281075 1000.9698650506034 0 1000.9698650506034 2293.2707740366022 0 0 0 0 -60.773368539370239 40.308631040135936 0 40.308631040135936 34.003906179680996 0 0 0 0 -20.222208330970375 5.4984574227432859 0 5.4984574227432859 11.320536097687324 0 0 0 0 731.08322692621323 464.04136922226132 0 464.04136922226132 -173.80784853738442 0 0 0 0 722.70248354802607 259.7441463086725 0 259.7441463086725 13.609790180227719 0 0 0 0 1179.7101193432245 358.66401060491989 0 358.66401060491989 -187.60668891899695 0 0 0 0 707.14386978175025 146.72114399539714 0 146.72114399539714 56.257785209283611 0 0 0 0 874.19694717789389 -25.490294685398112 0 -25.490294685398112 -41.877042529085884 0 0 0 0 529.96503397449851 -547.8532918783676 0 -547.8532918783676 121.47063219794654 0 0 0 0 1008.3813130366034 18.147586569262785 0 18.147586569262785 -33.658982001335971 0 0 0 0 1264.0861652303793 -229.25026731273465 0 -229.25026731273465 -57.747693692857865 0 0 0 0 1392.57527780901 85.241027130472503 0 85.241027130472503 -336.45102738653077 0 0 0 0 1611.4050725313136 -355.18252289359225 0 -355.18252289359225 -68.565650312477374 0 0 0 0 45.335778172278395 60.278270204864519 0 60.278270204864519 62.195516358027504 0 0 0 0 1313.4220492243476 -356.61384674266446 0 -356.61384674266446 120.03694513470691 0 0 0 0 653.9997097539017 -348.42891528892505 0 -348.42891528892505 214.23441584195825 0 0 0 0 -148.63104150218351 585.46361751911354 0 585.46361751911354 -637.58114767353982 0 0 0 0 12.689260703472598 23.155539230617279 0 23.155539230617279 6.4280430089628169 0 0 0 0 85.736866450679372 147.16044398558734 0 147.16044398558734 -479.39682480390184 0 0 0 0 24.20423528822721 41.581538546117372 0 41.581538546117372 25.848335521463014 0 0 0 0 24.634933941826091 37.614911353943199 0 37.614911353943199 2.86690787547181 0 0 0 0 87.462378427604563 95.247288244368974 0 95.247288244368974 -573.07899676369561 0 0 0 0 467.495267540653 69.790413384565909 0 69.790413384565909 -576.7342371158411 0 0 0 0 210.72559823082702 322.4240232075972 0 322.4240232075972 -200.9869115659676 0 0 0 0 441.04561632576224 354.99465929475627 0 354.99465929475627 -804.2954047802923 0 0 0 0 423.21827598130039 2.0872920261390391 0 2.0872920261390391 -453.0873444929457 0 0 0 0 8127.975823738796 2924.9365921408626 0 2924.9365921408626 -138.49071679540793 0 0 0 0 1008.381918639614 -1943.0318043269217 0 -1943.0318043269217 -165.15958371680608 0 0 0 0 7310.199680901118 -2481.57561393988 0 -2481.57561393988 -1590.5093576573126 0 0 0 0 2122.2056063054115 3283.0135545253142 0 3283.0135545253142 4601.3968159496217 0 0 0 0 574.43785426681279 862.53123551390308 0 862.53123551390308 1390.3442280538984 0 0 0 0 1478.9103201920952 2195.5668805258465 0 2195.5668805258465 1815.5042090643547 0 0 0 0 3178.2339871620206 1206.1042142890074 0 1206.1042142890074 -378.41065544410958 0 0 0 0 1940.7972515468136 1105.0049019569706 0 1105.0049019569706 -364.17588304989749 0 0 0 0 2569.3510206092469 265.57056517297315 0 265.57056517297315 -568.14959713189455 0 0 0 0 3025.6280637134914 982.09779493104725 0 982.09779493104725 -684.02568304571832 0 0 0 0 4161.132878145494 -142.09831836763988 0 -142.09831836763988 -613.56688352457422 0 0 0 0 1822.0580434389121 -166.64263738591399 0 -166.64263738591399 -613.77295367273723 0 0 0 0 1728.628494153003 -138.10495931449259 0 -138.10495931449259 -189.26909283609712 0 0 0 0 1634.0040169294516 210.18456558526668 0 210.18456558526668 -302.73930825699063 0 0 0 0 1505.771355392797 505.03506372792617 0 505.03506372792617 -613.90475360635901 0 0 0 0 933.97902338507265 979.89120316800836 0 979.89120316800836 -599.85051014069177 0 0 0 0 1111.5717572087597 1236.9287301951772 0 1236.9287301951772 -922.92882788980205 0 0 0 0 987.49982359162823 1039.4391952963379 0 1039.4391952963379 -587.27248605751083 0 0 0 0 1208.4176747535457 1194.6915271652215 0 1194.6915271652215 -595.62885668632225 0 0 0 0 1591.0226628114615 618.92196950622747 0 618.92196950622747 -461.80111416405998 0 0 0 0 1794.5468242967254 925.12621018176651 0 925.12621018176651 -557.57577989363926 0 0 0 0 154.19970642964472 848.5085928761473 0 848.5085928761473 -371.76816140862502 0 0 0 0 788.68178284693204 1367.7447797756013 0 1367.7447797756013 -800.86249153857352 0 0 0 0 -1386.5547072620975 1978.3628505921588 0 1978.3628505921588 -1068.2651044219601 0 0 0 0 -580.94163754385954 646.14325934505905 0 646.14325934505905 -702.02009482580979 0 0 0 0 -824.76578159254495 895.36660674067934 0 895.36660674067934 -735.79202772952704 0 0 0 0 -462.18630688724079 1429.753284920942 0 1429.753284920942 24.471133973624092 0 0 0 0 -457.15656561778451 827.02594083277654 0 827.02594083277654 182.26314730615195 0 0 0 0 -987.36409854068916 1193.193552211982 0 1193.193552211982 473.33010083809495 0 0 0 0 1027.8014658698885 1611.6849713317351 0 1611.6849713317351 147.94163263749215 0 0 0 0 685.23311626854411 1024.8727708719889 0 1024.8727708719889 317.43801692287707 0 0 0 0 -290.32347344352456 483.83525462906255 0 483.83525462906255 1177.0252126519517 0 0 0 0 116.48116863682662 1472.1365328228676 0 1472.1365328228676 753.78038788956474 0 0 0 0 -948.84626865948667 609.09041573435752 0 609.09041573435752 514.99523506031255 0 0 0 0 -471.46452500668966 856.6898258541114 0 856.6898258541114 434.15595228483289 0 0 0 0 -845.90900338901611 449.81683366689458 0 449.81683366689458 781.04030789343233 0 0 0 0 -53.514729774862644 -14.440416625424405 0 -14.440416625424405 165.06934085608373 0 0 0 0 -39.821755852579372 25.868892293252429 0 25.868892293252429 281.12220407367568 0 0 0 0 248.28600033918337 1068.1113764804504 0 1068.1113764804504 1700.7226480945246 0 0 0 0 94.177265472724685 -455.19025763872924 0 -455.19025763872924 1361.0580075578036 0 0 0 0 365.19546906015603 -200.49575200078834 0 -200.49575200078834 -16.095790674196905 0 0 0 0 -86.790953546209494 -25.067807998406352 0 -25.067807998406352 -57.167751169130497 0 0 0 0 -599.24471464738599 440.00095775993395 0 440.00095775993395 -213.32503370825725 0 0 0 0 -95.135531189365793 -65.708715561950157 0 -65.708715561950157 -255.04709573148284 0 0 0 0 -641.18849267213955 -41.389563388649549 0 -41.389563388649549 0.88042468316416489 0 0 0 0 12.865039153418365 -8.1773718237045614 0 -8.1773718237045614 -165.89248440245865 0 0 0 0 126.73377059939958 32.372682061388332 0 32.372682061388332 299.65125090965012 0 0 0 0 -176.75103774453601 -216.9720782376171 0 -216.9720782376171 123.55935100773058 0 0 0 0 -366.0203731460133 170.07224853299067 0 170.07224853299067 129.20226780918892 0 0 0 0 13.733172874259992 72.132831189135828 0 72.132831189135828 85.740091294050444 0 0 0 0 262.65044015931198 -263.64762595438515 0 -263.64762595438515 113.8168892601243 0 0 0 0 0.23276751184812383 -141.84632599797624 0 -141.84632599797624 247.14379078765342 0 0 0 0 319.72055058204569 97.098707905424817 0 97.098707905424817 -77.869711743602238 0 0 0 0 -26.70708814272075 -85.378037485974346 0 -85.378037485974346 44.648579485765367 0 0 0 0 -887.42167446619715 108.18811288080178 0 108.18811288080178 186.15824814615371 0 0 0 0 356.94705033465289 10.695962071919894 0 10.695962071919894 -207.05070712207817 0 0 0 0 32.711094913018684 48.143910243900024 0 48.143910243900024 83.593961804220669 0 0 0 0 -90.33413851619116 -34.748958641437639 0 -34.748958641437639 134.20334971719421 0 0 0 0 -192.63773757073795 -116.44355176963654 0 -116.44355176963654 111.14927368444114 0 0 0 0 -87.480251784379107 44.410708234371377 0 44.410708234371377 15.035546551654985 0 0 0 0 911.4466949006237 1252.8173581462588 0 1252.8173581462588 1568.1921702988984 0 0 0 0 72.660898071451811 -34.990992013626965 0 -34.990992013626965 42.181360781411058 0 0 0 0 -7.3223279060387085 12.019308039156897 0 12.019308039156897 -3.6517172051873956 0 0 0 0 3368.280448906502 2718.3637322122086 0 2718.3637322122086 -347.0739342384768 0 0 0 0 2803.9377372760428 2123.1958092210543 0 2123.1958092210543 1.6845956854958786 0 0 0 0 2650.7479229964383 -1302.9129042502727 0 -1302.9129042502727 -1732.6351503408514 0 0 0 0 5923.8571681360045 4989.9709086791554 0 4989.9709086791554 1664.9426068870089 0 0 0 0 8419.5363864261599 464.22557696927106 0 464.22557696927106 -2535.2365318908796 0 0 0 0 479.30250129048363 -25.927761075890885 0 -25.927761075890885 -261.20588760841929 0 0 0 0 235.19383587486664 -52.181050123850582 0 -52.181050123850582 2749.8981490048754 0 0 0 0 576.78238615750161 -483.22866226718179 0 -483.22866226718179 110.58612943143089 0 0 0 0 7988.7642125075508 3786.2134705112767 0 3786.2134705112767 3970.8716898308776 0 0 0 0 7325.0056783204345 1219.8700912954519 0 1219.8700912954519 3138.9046704253342 0 0 0 0 24.199546564572557 24.985760828693252 0 24.985760828693252 27.976168223923708 0 0 0 0 20.969200924178324 25.281173248087363 0 25.281173248087363 33.91190074826028 0 0 0 0 2330.2962051862123 4376.7069793909468 0 4376.7069793909468 3855.6371707309663 0 0 0 0 -916.75922236598126 1018.7411851587603 0 1018.7411851587603 2995.509268535825 0 0 0 0 278.19430383903091 -130.92458969925246 0 -130.92458969925246 53.067754479154246 0 0 0 0 441.1909591163494 528.83989285071129 0 528.83989285071129 -591.0600542389293 0 0 0 0 316.47850454847503 975.08829691430583 0 975.08829691430583 1407.7288627504968 0 0 0 0 887.33510559950082 1776.2448967456548 0 1776.2448967456548 920.65329502816894 0 0 0 0 748.28795580196856 973.7279256989209 0 973.7279256989209 624.17592564072402 0 0 0 0 764.94169569351652 1564.0262980876396 0 1564.0262980876396 701.1148728500375 0 0 0 0 899.11205524354591 3124.4620554031098 0 3124.4620554031098 2786.8514907705903 0 0 0 0 2302.6352762153474 1853.7551127552688 0 1853.7551127552688 -126.91356026862559 0 0 0 0 2348.2209167705405 1655.9331095610505 0 1655.9331095610505 680.34580229056883 0 0 0 0 13.265412817958293 15.249705398114031 0 15.249705398114031 -11.353749008491967 0 0 0 0 564.74980443729146 1497.2820022423439 0 1497.2820022423439 1606.0994151594623 0 0 0 0 1342.3617143418669 966.89985788503509 0 966.89985788503509 1178.8742874741729 0 0 0 0 338.69587485092052 1329.8722450304886 0 1329.8722450304886 1107.9701274136132 0 0 0 0 456.90432569832774 1216.1431241533137 0 1216.1431241533137 873.20761824204965 0 0 0 0 285.87157127275714 1373.929554906681 0 1373.929554906681 1072.3923386359929 0 0 0 0 -0.15581812447635457 1361.3404859063194 0 1361.3404859063194 1118.2534662057387 0 0 0 0 255.79764629088459 1050.2123549537246 0 1050.2123549537246 530.2317996074853 0 0 0 0 7.7807408257358475 785.27964249731667 0 785.27964249731667 586.18017130902899 0 0 0 0 26.864210423795157 1284.1393711748242 0 1284.1393711748242 493.59341685701293 0 0 0 0 -0.83873831901291851 1466.4795339258962 0 1466.4795339258962 -881.48484392846149 0 0 0 0 306.03348880563135 139.69456449823701 0 139.69456449823701 4.1163759451883379 0 0 0 0 464.30565534656489 431.38825091542094 0 431.38825091542094 382.00721478494233 0 0 0 0 602.13684151532652 660.44865421116629 0 660.44865421116629 275.5218243842246 0 0 0 0 606.21749024042947 409.86200937717877 0 409.86200937717877 -282.2376970211044 0 0 0 0 612.38518717835541 -138.90385796861665 0 -138.90385796861665 -520.54998246104515 0 0 0 0 395.32860872815218 692.91282948658409 0 692.91282948658409 625.51602626420208 0 0 0 0 8.4547794546199384 -4.0616555263384271 0 -4.0616555263384271 2.0697128434454157 0 0 0 0 1.0668550860937103 196.25521745143487 0 196.25521745143487 -119.44386060019315 0 0 0 0 455.7626978994158 -244.39108758552902 0 -244.39108758552902 -591.13724683983673 0 0 0 0 -16.012372739747661 158.95961753401207 0 158.95961753401207 -183.27674399971875 0 0 0 0 -25.001457094141699 27.285482301955739 0 27.285482301955739 -1.8694771396779402 0 0 0 0 71.178056518176163 98.254210612045426 0 98.254210612045426 20.795415291242534 0 0 0 0 85.086180830927333 112.96793364708719 0 112.96793364708719 -12.801189542267821 0 0 0 0 51.813226585625671 126.93764791367721 0 126.93764791367721 52.505699674642528 0 0 0 0 -23.355739595244074 15.083272908118005 0 15.083272908118005 -2.9065231421461846 0 0 0 0 23.418976384418784 177.26805359335413 0 177.26805359335413 186.56438821242773 0 0 0 0 -446.38055351618823 -248.0774268609166 0 -248.0774268609166 880.0444974464699 0 0 0 0 59.700582559249597 82.004984725906979 0 82.004984725906979 100.15509745839518 0 0 0 0 28.878440330410569 -2.6825771841031383 0 -2.6825771841031383 -2.2251251066850841 0 0 0 0 325.75671087135561 91.361405604700849 0 91.361405604700849 119.29626391117927 0 0 0 0 164.72791875398252 20.26273575227242 0 20.26273575227242 290.06543081140262 0 0 0 0 99.397866100989631 -147.28946462114982 0 -147.28946462114982 119.70124342472991 0 0 0 0 360.79893474232085 -23.316218423271494 0 -23.316218423271494 -205.05037365743192 0 0 0 0 472.16916628288163 62.433878885523882 0 62.433878885523882 -149.35047505283728 0 0 0 0 295.16309100015496 -36.242200091423001 0 -36.242200091423001 -25.872315020984388 0 0 0 0 289.20909063060753 -90.159361583883765 0 -90.159361583883765 -182.47909623934538 0 0 0 0 271.79632655456953 -10.710621707970859 0 -10.710621707970859 -130.75453437500983 0 0 0 0 108.31672547745984 -259.79448112814862 0 -259.79448112814862 -197.9692755053693 0 0 0 0 270.35018018563278 -68.605147781607229 0 -68.605147781607229 -393.42086583421769 0 0 0 0 404.55321438650572 35.116017323616688 0 35.116017323616688 -597.51138204583549 0 0 0 0 241.89876066051511 24.985685706582444 0 24.985685706582444 -280.36330412880488 0 0 0 0 519.63749543656741 247.21931022276112 0 247.21931022276112 -217.20242845184566 0 0 0 0 478.07237315138264 217.68933211131662 0 217.68933211131662 54.948751218456891 0 0 0 0 681.13296356231876 174.3832497900512 0 174.3832497900512 -81.410368524273508 0 0 0 0 446.72175689647884 155.76044021033522 0 155.76044021033522 -2.5622083968337392 0 0 0 0 707.20179148762691 247.23454057030904 0 247.23454057030904 -213.78171875205589 0 0 0 0 -26.974414072648571 37.969976860174341 0 37.969976860174341 -57.773656991079633 0 0 0 0 70.594006044768321 99.798026711359853 0 99.798026711359853 122.43288195820787 0 0 0 0 116.22950497256534 211.50427952894097 0 211.50427952894097 49.576508638900123 0 0 0 0 -61.425351504403807 272.42585204808711 0 272.42585204808711 340.04832010420432 0 0 0 0 59.763046035084699 204.49797178831795 0 204.49797178831795 -200.57561390963383 0 0 0 0 24.029491916458937 117.66400655136385 0 117.66400655136385 -33.931955252061016 0 0 0 0 -247.75169157848723 352.07525306128809 0 352.07525306128809 -55.310935288460314 0 0 0 0 81.577909805557283 118.0399836823708 0 118.0399836823708 -78.258024866918277 0 0 0 0 -356.28490173873433 263.64794526450714 0 263.64794526450714 335.97571875271933 0 0 0 0 24.61517062078326 42.101786378335497 0 42.101786378335497 53.420094698231367 0 0 0 0 -1640.8273552716241 1535.4067883958892 0 1535.4067883958892 -460.49632809925242 0 0 0 0 27.857995095056935 50.597753519323007 0 50.597753519323007 72.394616078529452 0 0 0 0 -1679.4319869444298 1127.6356904149652 0 1127.6356904149652 -42.594731773890089 0 0 0 0 -1334.5860069011687 774.75257597328891 0 774.75257597328891 -0.33323310417017638 0 0 0 0 -1519.4037551286674 905.37629007832584 0 905.37629007832584 316.49378414778039 0 0 0 0 -1131.817597329602 796.47640953074733 0 796.47640953074733 -449.2375376476507 0 0 0 0 -1885.8908294657449 592.95197996677598 0 592.95197996677598 262.60250165040179 0 0 0 0 -1485.1484171834527 1032.8128660762923 0 1032.8128660762923 325.00618693751312 0 0 0 0 -21.540794233976726 58.013699498681206 0 58.013699498681206 -58.292988274632023 0 0 0 0 470.431173474567 -305.24265466983934 0 -305.24265466983934 -144.24374889352475 0 0 0 0 -52.186339916741417 253.89396286134433 0 253.89396286134433 -90.922345571845653 0 0 0 0 -1060.7234042692035 382.43062934045702 0 382.43062934045702 -26.940720560829504 0 0 0 0 20.682075874720766 63.522507931914937 0 63.522507931914937 69.652821970859975 0 0 0 0 -29.663055530669226 341.7215548218519 0 341.7215548218519 -213.0417484546424 0 0 0 0 -1241.9872092799196 369.40324587333453 0 369.40324587333453 -27.410343743952126 0 0 0 0 44.90571716154227 219.64349253559885 0 219.64349253559885 266.86714506767748 0 0 0 0 -6.6759030130556027 38.231281782503061 0 38.231281782503061 -18.201494840892934 0 0 0 0 319.14808679877751 998.41105645955395 0 998.41105645955395 104.20399661584634 0 0 0 0 12.244119270719239 95.771857595967049 0 95.771857595967049 214.56773425635765 0 0 0 0 23.50929055763163 48.91670481261206 0 48.91670481261206 26.477130704890556 0 0 0 0 -79.206021011857956 36.978950957018242 0 36.978950957018242 207.85870810576307 0 0 0 0 -22.383324064910994 4.5448924454613007 0 4.5448924454613007 216.8837875607569 0 0 0 0 -146.36232990935969 6.4892692236753646 0 6.4892692236753646 264.2138435979723 0 0 0 0 -5.1207542660643242 6.4680659613495095 0 6.4680659613495095 -14.915146085776342 0 0 0 0 -227.8287486552872 205.99930259232497 0 205.99930259232497 284.97726638783934 0 0 0 0 -889.65968062188767 1540.1868760690049 0 1540.1868760690049 -863.62413058901438 0 0 0 0 403.23775358873536 380.66345195690519 0 380.66345195690519 -430.61574905048474 0 0 0 0 -286.63225404515106 618.13600485626739 0 618.13600485626739 -159.75078223872697 0 0 0 0 -95.927394176018424 -17.63725945596525 0 -17.63725945596525 268.00850991251355 0 0 0 0 -298.32535095911589 741.86478481157246 0 741.86478481157246 306.00972842602641 0 0 0 0 -1117.5671333419741 365.11324253069324 0 365.11324253069324 128.28933835406497 0 0 0 0 -858.32978379773976 588.40803302957283 0 588.40803302957283 -82.582350506636431 0 0 0 0 -1396.8120735221491 311.91965582316334 0 311.91965582316334 238.5559593181315 0 0 0 0 -3800.8622356389533 220.76900860862952 0 220.76900860862952 238.02832722194654 0 0 0 0 -1069.8243681274907 -86.683595507223799 0 -86.683595507223799 -817.51555588213523 0 0 0 0 -1557.4156605064054 1084.4141045040669 0 1084.4141045040669 -940.76180364358879 0 0 0 0 -935.06678095019015 -14.645956659056537 0 -14.645956659056537 196.05846586593543 0 0 0 0 -805.9285646016142 318.0435926261307 0 318.0435926261307 -383.99874441407155 0 0 0 0 -1006.2325346649668 345.08396620939311 0 345.08396620939311 9.7494131030252902 0 0 0 0 -2075.1655256996164 -70.260352508004871 0 -70.260352508004871 -127.45081885051331 0 0 0 0 -1557.7807432772097 360.09189717502886 0 360.09189717502886 400.15787002843717 0 0 0 0 -1553.1571703865193 473.2157118122268 0 473.2157118122268 40.392744150492945 0 0 0 0 -400.03543890135188 222.83068065535917 0 222.83068065535917 37.45832681961474 0 0 0 0 -376.65910394657112 923.53217436908744 0 923.53217436908744 -351.49589199728507 0 0 0 0 -236.83363766147522 686.29879243028699 0 686.29879243028699 -158.57117875006224 0 0 0 0 -364.35052918855945 1043.4557391842609 0 1043.4557391842609 -483.90795024491672 0 0 0 0 -2504.8934378097674 923.98135202513731 0 923.98135202513731 179.18225851809257 0 0 0 0 -1191.7295758651453 704.93614661027823 0 704.93614661027823 172.93644187594327 0 0 0 0 -926.35850511571334 1111.5001106226337 0 1111.5001106226337 -260.5264892312116 0 0 0 0 -1116.7947883084453 700.41110825108262 0 700.41110825108262 -181.74261120628216 0 0 0 0 -1119.1039639617629 252.49569099437576 0 252.49569099437576 -146.79271481087198 0 0 0 0 -851.050760137412 606.86594325606711 0 606.86594325606711 -182.02735409383257 0 0 0 0 -649.87618549993203 535.23052978664055 0 535.23052978664055 -504.00152303939103 0 0 0 0 26.819783003651537 1003.5222532975167 0 1003.5222532975167 -677.36464166571386 0 0 0 0 -191.99624724773457 980.76085876715661 0 980.76085876715661 -531.9788881286222 0 0 0 0 -487.40548414718069 1057.3880176834427 0 1057.3880176834427 -462.22643507269095 0 0 0 0 -486.68208308944304 1083.7744491439662 0 1083.7744491439662 -143.99564340627694 0 0 0 0 -1004.0595663782442 1463.6412175287924 0 1463.6412175287924 -386.00186913879588 0 0 0 0 -253.0602953597554 2043.5500831471581 0 2043.5500831471581 -902.60915400431986 0 0 0 0 250.35061406408204 1524.5480792297749 0 1524.5480792297749 -854.3878566113126 0 0 0 0 -1314.8694931678183 2489.868711007628 0 2489.868711007628 -828.20105629449245 0 0 0 0 -420.66655524965608 1646.7765939370875 0 1646.7765939370875 -371.42041934252484 0 0 0 0 393.54466423894337 -286.6676714865971 0 -286.6676714865971 264.94405856705271 0 0 0 0 -6.0502067904681809 17.466399634496128 0 17.466399634496128 -13.884141313192572 0 0 0 0 -3646.2907830972108 2139.6419725610904 0 2139.6419725610904 411.98551978977048 0 0 0 0 -2201.2276551130635 -1525.7827574684634 0 -1525.7827574684634 -30.316559677059558 0 0 0 0 13.135449095968397 1.3570001006100938 0 1.3570001006100938 -0.49910147825374906 0 0 0 0 -551.26902667006652 376.22379104869469 0 376.22379104869469 31.142648617227678 0 0 0 0 -1119.2477830562038 723.83767780375456 0 723.83767780375456 1107.7355041072587 0 0 0 0 1120.2615146583121 1016.3509431598359 0 1016.3509431598359 701.19690851121049 0 0 0 0 966.6441779572051 679.8931001087185 0 679.8931001087185 769.61924857889971 0 0 0 0 850.99302489755064 807.51044373404875 0 807.51044373404875 775.50653202910325 0 0 0 0 -13.588749241225003 11.424306086602172 0 11.424306086602172 16.95903735075791 0 0 0 0 -499.36068170089857 -554.23359907732083 0 -554.23359907732083 78.336455170996487 0 0 0 0 753.64653610292589 891.6732615890287 0 891.6732615890287 782.70980284277175 0 0 0 0 14.799969290311324 6.4127174929760429 0 6.4127174929760429 -10.832479289662245 0 0 0 0 -311.65687743420858 530.50631232440719 0 530.50631232440719 -276.55813668805058 0 0 0 0 -255.6745631993399 -205.3261015102471 0 -205.3261015102471 -509.84835580273648 0 0 0 0 663.85210570895288 -42.48619906231761 0 -42.48619906231761 -551.92603078417596 0 0 0 0 373.6993895121559 705.91675746229157 0 705.91675746229157 -265.86833043812658 0 0 0 0 -146.9214237045162 812.09649729869125 0 812.09649729869125 16.931366330507444 0 0 0 0 -31.325329852028517 571.89182074179917 0 571.89182074179917 40.064346394021413 0 0 0 0 -60.996017995144939 981.06476327669225 0 981.06476327669225 1255.8318471790435 0 0 0 0 91.955703151470516 41.19889321662049 0 41.19889321662049 12.754949925962137 0 0 0 0 2805.9701563767085 -1289.6163373992131 0 -1289.6163373992131 -66.857238914613845 0 0 0 0 -178.09944623277988 1787.1529711408512 0 1787.1529711408512 894.2054846037172 0 0 0 0 -1690.013107417275 319.59975469188066 0 319.59975469188066 719.36671429986018 0 0 0 0 1184.8264551436405 1600.9009579219855 0 1600.9009579219855 -128.78865741990739 0 0 0 0 51.387553311345982 208.71915563936636 0 208.71915563936636 -122.25221474874525 0 0 0 0 1980.3851505296952 -365.63382489819378 0 -365.63382489819378 -483.07018349716964 0 0 0 0 11.310203179033124 -333.43540645213216 0 -333.43540645213216 1244.8591613453145 0 0 0 0 13.693517623877369 11.99624890930756 0 11.99624890930756 15.113420712774428 0 0 0 0 19.45627462513221 50.561387816233037 0 50.561387816233037 25.825050009963888 0 0 0 0 85.650434878509259 39.444438171194633 0 39.444438171194633 -14.69830247767095 0 0 0 0 90.673175246658502 84.590322634780023 0 84.590322634780023 14.413978660973953 0 0 0 0 -21.378581825703506 16.700580498495526 0 16.700580498495526 15.645193690465078 0 0 0 0 554.78304684562318 800.60518833182869 0 800.60518833182869 1044.1758530722841 0 0 0 0 37.252844432339771 6.1691182587019284 0 6.1691182587019284 -0.79479354055729345 0 0 0 0 5.091469456390314 2.8404090592558759 0 2.8404090592558759 -6.0379631716980953 0 0 0 0 10.185648935570498 64.642367974796798 0 64.642367974796798 75.093809692611103 0 0 0 0 592.71181499261729 904.1717755544887 0 904.1717755544887 1042.3821165867121 0 0 0 0 629.2594215405843 756.81654043429444 0 756.81654043429444 940.26399884002603 0 0 0 0 381.6113622385019 700.41064561891835 0 700.41064561891835 987.3213878686729 0 0 0 0 284.86033392421086 916.33695219655056 0 916.33695219655056 958.25447886591792 0 0 0 0 559.06082142717787 816.07720324389084 0 816.07720324389084 982.65325911664695 0 0 0 0 773.20992558026774 837.48187144099938 0 837.48187144099938 828.24032171712315 0 0 0 0 665.48960390107823 898.32138678849878 0 898.32138678849878 798.10188895517786 0 0 0 0 715.30330689513357 963.83580363519286 0 963.83580363519286 652.6333770090896 0 0 0 0 716.14715047641221 979.72147324663092 0 979.72147324663092 571.50212835269122 0 0 0 0 795.71897614293994 902.56456902808713 0 902.56456902808713 612.058412872997 0 0 0 0 602.95545794692225 998.45181696856162 0 998.45181696856162 661.61175033956533 0 0 0 0 0.97027187481074861 5.4113033879532679 0 5.4113033879532679 2.0465518969704135 0 0 0 0 236.00067782113547 887.33245324331074 0 887.33245324331074 1225.6221627957202 0 0 0 0 574.4190135581448 1271.6119114557775 0 1271.6119114557775 -39.015448787860805 0 0 0 0 -259.46244871366798 431.72009970936415 0 431.72009970936415 -859.52592254711999 0 0 0 0 550.29143088644128 949.01927702012358 0 949.01927702012358 -1690.2477514987404 0 0 0 0 328.19665113857627 477.53258977556106 0 477.53258977556106 -949.16234387612712 0 0 0 0 329.11758330751707 504.96687757636744 0 504.96687757636744 -248.63422218657797 0 0 0 0 57.19230514238734 127.46747694942678 0 127.46747694942678 143.59914460450273 0 0 0 0 305.01545808252558 -61.756610671844101 0 -61.756610671844101 -158.89692228802596 0 0 0 0 117.45830890838261 136.62801344640684 0 136.62801344640684 -105.25017877695791 0 0 0 0 144.91153689628118 302.09114355004567 0 302.09114355004567 334.62411339864775 0 0 0 0 153.1726039288551 580.48747551891574 0 580.48747551891574 -37.599956664838828 0 0 0 0 113.0889651358375 1059.279058732136 0 1059.279058732136 289.80511494719394 0 0 0 0 153.2266033715905 596.71468300670176 0 596.71468300670176 626.11782303424843 0 0 0 0 76.352683314704336 1274.7011837856699 0 1274.7011837856699 454.0950677625442 0 0 0 0 -1391.4154806822553 2237.3572916450648 0 2237.3572916450648 -84.579304803555715 0 0 0 0 691.15710946456238 1028.8814534817211 0 1028.8814534817211 -543.45206488898839 0 0 0 0 627.83699011834688 1529.7912028629653 0 1529.7912028629653 -538.4245670747332 0 0 0 0 921.67835744742479 815.94118947062088 0 815.94118947062088 76.978512181391125 0 0 0 0 861.09010110372765 899.14220719939476 0 899.14220719939476 458.68996375225834 0 0 0 0 1176.8323955038359 1114.390391285473 0 1114.390391285473 -408.4945432121458 0 0 0 0 -2590.5146551848229 813.43876384635223 0 813.43876384635223 -526.51583682141427 0 0 0 0 2054.8591663899351 1446.6488149504439 0 1446.6488149504439 -663.59360926804948 0 0 0 0 -4.8163685830188285 7.8166485115816045 0 7.8166485115816045 -7.300888605471755 0 0 0 0 921.03294483858917 1232.5752722046018 0 1232.5752722046018 -255.47809198798495 0 0 0 0 769.75859048198618 2326.8994134815148 0 2326.8994134815148 -1146.9969309848093 0 0 0 0 1554.1223429030215 583.06962966939318 0 583.06962966939318 323.26939072167443 0 0 0 0 988.40985092250048 1609.7924086852654 0 1609.7924086852654 -844.13173809318687 0 0 0 0 -8.6340955385267648 13.027054511027984 0 13.027054511027984 -15.071102138266497 0 0 0 0 -2720.7118260098059 1775.3112512908992 0 1775.3112512908992 -662.06075372872874 0 0 0 0 1694.6194054408261 633.39225824612367 0 633.39225824612367 -877.35262575997331 0 0 0 0 39.111950791018899 874.46359599937568 0 874.46359599937568 -810.54752025261405 0 0 0 0 278.09270137621206 375.43525524121651 0 375.43525524121651 -476.50041765243077 0 0 0 0 -1060.591686861866 -34.055176021414809 0 -34.055176021414809 -78.420647210077732 0 0 0 0 -1175.375790765971 490.14395897858685 0 490.14395897858685 -250.00742184976116 0 0 0 0 749.09461240266683 -696.11602955358103 0 -696.11602955358103 -134.04092014025082 0 0 0 0 -1203.3493325422914 289.21321799140787 0 289.21321799140787 1307.5612748009298 0 0 0 0 142.95134888667963 1303.7379551418417 0 1303.7379551418417 351.86559210062114 0 0 0 0 -1238.1105788487548 543.57169248915852 0 543.57169248915852 -543.57002066803398 0 0 0 0 772.06269506373064 88.218177835464303 0 88.218177835464303 380.47404089984047 0 0 0 0 -1397.4743094468649 62.724122340110256 0 62.724122340110256 934.25405098198098 0 0 0 0 -534.37672158456553 519.57327488271221 0 519.57327488271221 224.88898723236343 0 0 0 0 -30.94431178853776 67.515212318611617 0 67.515212318611617 46.421128470992699 0 0 0 0 -90.603451398186735 -151.86051622885134 0 -151.86051622885134 307.65296213122929 0 0 0 0 107.13867379013391 264.46517199536902 0 264.46517199536902 323.24312452579034 0 0 0 0 -3739.9848185569281 -548.35616653419856 0 -548.35616653419856 176.14728882536292 0 0 0 0 2.1024242619378697 26.307938759294444 0 26.307938759294444 2.7707329013258004 0 0 0 0 -2567.6277812800399 719.09950657557056 0 719.09950657557056 653.27266514927032 0 0 0 0 -12.526719757068069 -0.30837782873706487 0 -0.30837782873706487 164.50543205555732 0 0 0 0 -3431.7116547078149 -561.61147622845783 0 -561.61147622845783 1177.5945941862301 0 0 0 0 -329.46757946650177 160.01633368941293 0 160.01633368941293 125.2930937340825 0 0 0 0 -194.09936716991069 69.925675851642154 0 69.925675851642154 183.13373356168813 0 0 0 0 -50.231360822181159 164.92687061056131 0 164.92687061056131 35.190196489820664 0 0 0 0 -160.92728501486999 47.858841454790308 0 47.858841454790308 556.10651880616933 0 0 0 0 5.8527977842767172 4.7004618260823463 0 4.7004618260823463 15.899646109650405 0 0 0 0 72.618736829532281 -172.05328258921691 0 -172.05328258921691 -503.41237235369408 0 0 0 0 -208.05359507996764 243.27624966046824 0 243.27624966046824 -3.3970063018496148 0 0 0 0 -1454.6849227506755 -1579.366977763093 0 -1579.366977763093 60.334942753630457 0 0 0 0 -12.517912497912022 10.819344042813157 0 10.819344042813157 -7.0086179533299742 0 0 0 0 -5.6787533014664149 2.1216026388082554 0 2.1216026388082554 157.95403022951433 0 0 0 0 -1388.2552751994517 154.18431485043584 0 154.18431485043584 2030.110420982237 0 0 0 0 -3171.5126582644662 -448.67820962559563 0 -448.67820962559563 -614.42932152771391 0 0 0 0 542.83803844455906 -55.229845224643213 0 -55.229845224643213 185.73905014546472 0 0 0 0 -3223.2617603669059 16.277516136226041 0 16.277516136226041 154.37941627060559 0 0 0 0 -404.18915219025803 645.92121586814028 0 645.92121586814028 933.64691799557477 0 0 0 0 -421.59588575270027 1236.5396838622983 0 1236.5396838622983 249.02809417879325 0 0 0 0 1083.4084721045692 433.41172546167581 0 433.41172546167581 161.95071017910959 0 0 0 0 1351.2612567367032 586.73748049762798 0 586.73748049762798 149.57335635805794 0 0 0 0 108.52592854203249 -271.47695608115464 0 -271.47695608115464 -189.13178846902156 0 0 0 0 -18.081108211743086 23.795206223100763 0 23.795206223100763 -23.438783966105063 0 0 0 0 307.61260903927905 567.13951995431125 0 567.13951995431125 363.0439193390921 0 0 0 0 1444.954448057164 20.421359845204279 0 20.421359845204279 590.78859995782841 0 0 0 0 1328.0247542279394 671.00909406488063 0 671.00909406488063 60.961168117741181 0 0 0 0 344.54268938749374 866.92243330161182 0 866.92243330161182 1818.9146100325888 0 0 0 0 638.34743343606351 394.2477158797883 0 394.2477158797883 -675.69950183478068 0 0 0 0 12.243445093800688 6.3156670228683396 0 6.3156670228683396 2.626125122464984 0 0 0 0 1281.4724980544142 1563.3739500600586 0 1563.3739500600586 639.10021408859757 0 0 0 0 1242.2374533553084 1447.287950062997 0 1447.287950062997 483.96300632060593 0 0 0 0 720.18730472346942 502.79100340423611 0 502.79100340423611 -84.402245352277532 0 0 0 0 997.35663707362255 1091.871876361678 0 1091.871876361678 1167.2845620380904 0 0 0 0 1479.7483741419819 1205.0394785247372 0 1205.0394785247372 257.43152742891107 0 0 0 0 -237.41850925394829 376.21247056844732 0 376.21247056844732 488.10590983124348 0 0 0 0 -989.53396770829568 419.87962597884325 0 419.87962597884325 278.20480288320687 0 0 0 0 -340.62084889800462 342.61272346654005 0 342.61272346654005 -243.66798837327224 0 0 0 0 -389.88817362581904 606.45896871933655 0 606.45896871933655 -208.0181948839745 0 0 0 0 -38.786645034415415 849.1068747015197 0 849.1068747015197 -245.38565728178946 0 0 0 0 -344.84649579558754 661.80776164396229 0 661.80776164396229 -501.64941398103838 0 0 0 0 -700.03718389233836 -61.672304092673585 0 -61.672304092673585 -1412.7811381605134 0 0 0 0 -215.31581589073176 824.06608120559213 0 824.06608120559213 -747.79851158414385 0 0 0 0 -1359.6474867143261 -734.25849665215355 0 -734.25849665215355 -976.89183081604278 0 0 0 0 -939.19993493492075 111.37115730411824 0 111.37115730411824 -305.58392306359019 0 0 0 0 -1349.9191454883839 -230.65960114268819 0 -230.65960114268819 -466.89134686071839 0 0 0 0 -204.88004716263094 1413.6617924345046 0 1413.6617924345046 682.54125242930604 0 0 0 0 -4176.777222749326 175.03651254118449 0 175.03651254118449 319.16004330513533 0 0 0 0 690.48330139298923 683.27113661348994 0 683.27113661348994 -783.58176459610695 0 0 0 0 366.39538295159582 1448.3255550534814 0 1448.3255550534814 -784.3854329794367 0 0 0 0 437.19213529772242 1121.1852484789561 0 1121.1852484789561 383.07372285408201 0 0 0 0 -5.1118568518272625 5.125804093489279 0 5.125804093489279 117.84522605678345 0 0 0 0 2191.3113550582057 2270.8790410876245 0 2270.8790410876245 1043.045993339776 0 0 0 0 -624.26573044654651 1032.3847516338537 0 1032.3847516338537 2054.4076258357818 0 0 0 0 -230.56171417716541 1284.1210788482931 0 1284.1210788482931 2196.897547667395 0 0 0 0 -2332.2325928292557 208.46235138499105 0 208.46235138499105 570.16333722455602 0 0 0 0 -2552.8640031829927 -378.73090057308582 0 -378.73090057308582 321.09520738668652 0 0 0 0 -1444.2867497312582 681.34526124326749 0 681.34526124326749 168.70333253180434 0 0 0 0 -1150.2383916353319 25.473160831119458 0 25.473160831119458 305.80703455593903 0 0 0 0 -570.90963092869788 750.35322657549477 0 750.35322657549477 425.73661310912576 0 0 0 0 -1584.410369090001 -1002.3687591714661 0 -1002.3687591714661 892.05190674508776 0 0 0 0 -899.26716265865252 -401.80567565956699 0 -401.80567565956699 -443.47566447172721 0 0 0 0 -0.14116728258964173 0.39813715495861857 0 0.39813715495861857 19.410252977060196 0 0 0 0 1780.9485200235576 337.26585046424952 0 337.26585046424952 -576.20805382404069 0 0 0 0 2991.2743533281828 952.05275703637744 0 952.05275703637744 -556.7047657290168 0 0 0 0 -10.867720416900674 8.8646593796557625 0 8.8646593796557625 56.796620320440582 0 0 0 0 -157.74844052374829 59.877666681788469 0 59.877666681788469 116.67448245199921 0 0 0 0 -730.61592948318139 1189.2159862936314 0 1189.2159862936314 4477.4841067649686 0 0 0 0 -1266.1233646272012 -692.81285675513936 0 -692.81285675513936 1134.2552974882128 0 0 0 0 -0.17507823265658118 1.7989548849339769 0 1.7989548849339769 44.358018020917768 0 0 0 0 -1532.9236300491466 -534.7116672923803 0 -534.7116672923803 1283.18731640654 0 0 0 0 135.71954484004164 164.9314348751941 0 164.9314348751941 -2.4521960642159684 0 0 0 0 -89.629097708348127 123.90123670759931 0 123.90123670759931 0.59706209398427745 0 0 0 0 -92.01805486207013 84.873831099299423 0 84.873831099299423 -5.3545870353482314 0 0 0 0 -597.78676236483079 -17.439159534127612 0 -17.439159534127612 200.281851054242 0 0 0 0 -106.21320528480283 113.87699756191432 0 113.87699756191432 20.631898244864715 0 0 0 0 -56.484795394346293 95.942334758750803 0 95.942334758750803 22.112472784829151 0 0 0 0 -93.313174124133184 80.559667185586022 0 80.559667185586022 38.395319175746408 0 0 0 0 -46.708333563030465 71.750214948773646 0 71.750214948773646 28.341553527257929 0 0 0 0 -118.17337053598749 63.77851946130977 0 63.77851946130977 33.411608174948924 0 0 0 0 -59.044083751970902 78.400298391541583 0 78.400298391541583 23.920383984455839 0 0 0 0 -115.7155128922459 118.42809689457499 0 118.42809689457499 -4.343705594590574 0 0 0 0 -93.021415486560727 79.571931247926841 0 79.571931247926841 29.679815467985463 0 0 0 0 1.536131997287157 81.271426170707855 0 81.271426170707855 9.2265225318551529 0 0 0 0 -29.54603593576757 37.16881040921794 0 37.16881040921794 -14.610564414202543 0 0 0 0 -19.173159994836169 49.006954373717235 0 49.006954373717235 -5.4560627621103777 0 0 0 0 -28.1237938929957 45.377368791045768 0 45.377368791045768 -18.966034562669506 0 0 0 0 -30.300188175846415 68.258538065914763 0 68.258538065914763 -27.859199601982255 0 0 0 0 -61.428150025596551 90.557835248422634 0 90.557835248422634 17.959853251915774 0 0 0 0 11.767922213897691 52.180984870261454 0 52.180984870261454 -9.3597178679774515 0 0 0 0 -47.144869478608598 80.848241211468121 0 80.848241211468121 -22.94295653149311 0 0 0 0 48.557794389089366 26.590579873383405 0 26.590579873383405 -0.084168465336773579 0 0 0 0 67.15430836325686 90.8838929093763 0 90.8838929093763 -64.818567967333365 0 0 0 0 18.442108983115759 111.13427982994108 0 111.13427982994108 -73.159843276305764 0 0 0 0 55.777965394285275 90.323606764133729 0 90.323606764133729 66.397630935571215 0 0 0 0 42.992075257760007 56.777809699873615 0 56.777809699873615 -14.027666696063534 0 0 0 0 179.85117294627707 62.887602357957803 0 62.887602357957803 -18.388988889026223 0 0 0 0 59.952151272234914 137.16783117187515 0 137.16783117187515 6.624590812905808 0 0 0 0 92.04587337681005 276.91387680580374 0 276.91387680580374 500.33208636518975 0 0 0 0 33.841580582152204 14.637781281283367 0 14.637781281283367 6.6219773333860701 0 0 0 0 21.459293695494125 9.1438923457735655 0 9.1438923457735655 12.189889083689195 0 0 0 0 -201.84489072478755 67.721130502352025 0 67.721130502352025 82.983868212686502 0 0 0 0 -45.659496625727115 79.586117720372386 0 79.586117720372386 -51.18318372212525 0 0 0 0 -129.29704088003928 242.67051386850653 0 242.67051386850653 -222.2364093569995 0 0 0 0 -1.0000220450310735 908.13628048620558 0 908.13628048620558 387.94213198505895 0 0 0 0 -119.32204125172211 860.95963755348021 0 860.95963755348021 384.65993123776934 0 0 0 0 178.75116391296979 531.52699078472415 0 531.52699078472415 336.30831341076555 0 0 0 0 352.71917959804705 964.98287499794242 0 964.98287499794242 359.71853266283233 0 0 0 0 0.45334785972954705 1032.4497667281539 0 1032.4497667281539 638.00310014445131 0 0 0 0 0.10697185008457931 1221.7399967381432 0 1221.7399967381432 993.22220229732193 0 0 0 0 296.82660235972435 1211.8907131966662 0 1211.8907131966662 713.29758190553548 0 0 0 0 300.16549754951666 1236.9415688828858 0 1236.9415688828858 901.13254406218766 0 0 0 0 242.36491790675791 840.01521793410393 0 840.01521793410393 296.41577040038101 0 0 0 0 870.7025269507576 1153.7208063868566 0 1153.7208063868566 350.95838391855341 0 0 0 0 1944.4715352553176 1614.5438155129523 0 1614.5438155129523 353.41116042122303 0 0 0 0 682.7583975241505 847.65533923893418 0 847.65533923893418 71.000571594348003 0 0 0 0 1560.6753359347058 -109.27739626945913 0 -109.27739626945913 -272.47010565707205 0 0 0 0 709.02149059028307 -59.256245563152333 0 -59.256245563152333 -109.92789421905763 0 0 0 0 362.34635725984117 391.704238977778 0 391.704238977778 -64.12707447084631 0 0 0 0 1057.1829343637946 683.54655589182948 0 683.54655589182948 1.7512257502094144 0 0 0 0 278.28574866428971 398.07323253456343 0 398.07323253456343 66.746006609690085 0 0 0 0 110.46678240998153 4.761935869428271 0 4.761935869428271 7.3253421164481551 0 0 0 0 557.93540686140477 677.87201624486988 0 677.87201624486988 132.89345928015973 0 0 0 0 162.41913136407675 446.38367846249821 0 446.38367846249821 136.88206341923672 0 0 0 0 33.117660969424833 128.35055435631375 0 128.35055435631375 -177.87275784745725 0 0 0 0 189.56040990323527 237.87056261066937 0 237.87056261066937 -69.631268514634939 0 0 0 0 -31.042677894736897 29.70681009520888 0 29.70681009520888 -29.581622267027925 0 0 0 0 29.823291813823744 122.70046932433252 0 122.70046932433252 -133.10465072159786 0 0 0 0 -290.39082697554841 -304.94828652213255 0 -304.94828652213255 318.50675804180901 0 0 0 0 -6.3114791680281357 10.663618657488854 0 10.663618657488854 -7.3230335013576422 0 0 0 0 8.9927237466323646 30.26891145320171 0 30.26891145320171 53.323296004312709 0 0 0 0 -106.4985531270213 -3.5101576306915376 0 -3.5101576306915376 22.457404910906916 0 0 0 0 257.15226998605067 279.40162836311538 0 279.40162836311538 -233.55811889072629 0 0 0 0 -124.27854798127373 139.7658552507346 0 139.7658552507346 41.52734428633994 0 0 0 0 -39.223527735271261 56.634068948948055 0 56.634068948948055 -48.866504787362402 0 0 0 0 57.870928757096408 120.42165555875545 0 120.42165555875545 -203.29931476704223 0 0 0 0 -249.27523981586273 245.86506561177794 0 245.86506561177794 -3.0983262420668325 0 0 0 0 4.1409298913882679 66.253596060053567 0 66.253596060053567 -34.18388893698048 0 0 0 0 -353.97804273500515 122.84300086224175 0 122.84300086224175 127.40278725456301 0 0 0 0 124.46710623410399 324.48982052806696 0 324.48982052806696 85.30899774536374 0 0 0 0 203.94087935861899 272.8440630883124 0 272.8440630883124 -75.830377555208543 0 0 0 0 -19.50665515804576 -63.95722109476992 0 -63.95722109476992 -49.298686973823351 0 0 0 0 12.019575215898314 58.031792092152529 0 58.031792092152529 -67.758017311077126 0 0 0 0 -33.34447530862235 279.67990497987557 0 279.67990497987557 -45.10963126194838 0 0 0 0 60.619755121762864 142.92849872916122 0 142.92849872916122 87.611989652374177 0 0 0 0 -166.99228535774455 82.751063315532519 0 82.751063315532519 -34.621538553372375 0 0 0 0 493.1550088157237 -128.61467673237348 0 -128.61467673237348 -410.97948887516395 0 0 0 0 -8.5432037786231376 197.27409795160565 0 197.27409795160565 -8.3765826130766072 0 0 0 0 145.58150141814258 242.07998336834135 0 242.07998336834135 -123.49099253330496 0 0 0 0 137.12170873927244 262.41734418256965 0 262.41734418256965 -42.327223606043844 0 0 0 0 109.74060228349117 210.58787410573495 0 210.58787410573495 -134.29980175917444 0 0 0 0 176.39193702711782 229.26486048755942 0 229.26486048755942 -153.05975846300134 0 0 0 0 60.354987237195019 93.385155318886973 0 93.385155318886973 -112.24105798300297 0 0 0 0 131.11125261779671 38.046661818474604 0 38.046661818474604 -295.83451157272793 0 0 0 0 144.32087113353191 191.0167205073667 0 191.0167205073667 -197.24012517062511 0 0 0 0 151.47818337185345 -8.7454511014525451 0 -8.7454511014525451 -35.171764935803367 0 0 0 0 3.8994894592906064 10.985092231772882 0 10.985092231772882 -2.16182855203229 0 0 0 0 29.37558546190121 -45.341173091568635 0 -45.341173091568635 -206.50590110194025 0 0 0 0 -384.50993646362622 -69.324810575893935 0 -69.324810575893935 8.0945800214149131 0 0 0 0 -44.506754277448636 -0.93830656196223572 0 -0.93830656196223572 -51.660364706367545 0 0 0 0 -49.879228363832226 46.291385755015654 0 46.291385755015654 -14.950608185499732 0 0 0 0 5.1714601733188204 6.166663995113737 0 6.166663995113737 -2.8752711944467251 0 0 0 0 8.8009023519116454 135.63828779445612 0 135.63828779445612 61.431524341031036 0 0 0 0 37.379488998092711 71.106395563561819 0 71.106395563561819 -131.38905816851184 0 0 0 0 54.792587377220883 38.942224849439981 0 38.942224849439981 -49.581484752641018 0 0 0 0 -207.44764071183454 -54.102639441156498 0 -54.102639441156498 1.271910175024459 0 0 0 0 -171.30269917928672 93.583156174845499 0 93.583156174845499 28.085840105457464 0 0 0 0 -578.95431181594904 163.81207167702814 0 163.81207167702814 54.283468985595391 0 0 0 0 209.04637512446425 148.78830815787569 0 148.78830815787569 -317.01411401842779 0 0 0 0 -109.93642456654709 37.678553573760901 0 37.678553573760901 47.907327146107214 0 0 0 0 -1161.5369271946111 -1.4644907177826099 0 -1.4644907177826099 613.71650552845676 0 0 0 0 -127.81724911410129 660.87291172586811 0 660.87291172586811 -415.1877422664038 0 0 0 0 -191.35395585536025 -140.74601725025059 0 -140.74601725025059 650.19018417420739 0 0 0 0 -66.367271616581547 69.544137080536487 0 69.544137080536487 60.6625615673927 0 0 0 0 -187.81756154993491 180.92778604428167 0 180.92778604428167 -30.682108240238449 0 0 0 0 169.78996229983386 124.15065461674203 0 124.15065461674203 -195.03086355765117 0 0 0 0 -39.369718492227548 151.3350107110673 0 151.3350107110673 -4.8794785579520976 0 0 0 0 -3.581297367191425 37.255260495216405 0 37.255260495216405 28.772635371657103 0 0 0 0 -124.51716234753258 91.247837992825225 0 91.247837992825225 38.518583630670037 0 0 0 0 -101.09335871187795 121.78970158843731 0 121.78970158843731 -19.298747242675745 0 0 0 0 -145.91675040546397 88.080768984629685 0 88.080768984629685 131.50670604771585 0 0 0 0 -219.91531821714307 83.069103303863812 0 83.069103303863812 39.465794808405917 0 0 0 0 -130.02033452117757 56.164602748052857 0 56.164602748052857 47.335093488836719 0 0 0 0 -147.98971033827547 68.092617355974653 0 68.092617355974653 81.114041192326113 0 0 0 0 -140.99060513150471 152.74029098673782 0 152.74029098673782 60.070602706335194 0 0 0 0 -60.142522529574308 239.1621242989504 0 239.1621242989504 250.2560362871227 0 0 0 0 92.645262350291887 171.30861927079604 0 171.30861927079604 82.619329050870874 0 0 0 0 6.3483260809697413 16.848443541875525 0 16.848443541875525 43.501535590637403 0 0 0 0 -83.785304431658005 89.682065482385951 0 89.682065482385951 45.118943552901328 0 0 0 0 60.130777894868515 312.26773125366526 0 312.26773125366526 148.13438982111984 0 0 0 0 -83.767604444830795 575.1498782673807 0 575.1498782673807 160.35340466267371 0 0 0 0 425.91008201148361 725.91646311518343 0 725.91646311518343 -93.013244721765659 0 0 0 0 117.27215588794206 665.56086306888756 0 665.56086306888756 -100.68772602817626 0 0 0 0 119.95388028484012 599.23941376920266 0 599.23941376920266 126.80306619096518 0 0 0 0 22.517180877366627 688.9290586969073 0 688.9290586969073 134.99186739227298 0 0 0 0 50.207415580334782 247.87177656454151 0 247.87177656454151 32.43685632544657 0 0 0 0 511.28292766826507 140.46641158646889 0 140.46641158646889 -19.321794634932303 0 0 0 0 1680.5716445518483 73.404430958958983 0 73.404430958958983 -152.29013668362859 0 0 0 0 0.76528501935335669 4.2271329015395622 0 4.2271329015395622 18.821318180531833 0 0 0 0 -850.2902877161614 307.33104291563359 0 307.33104291563359 1438.9479312727854 0 0 0 0 -143.70980840774428 1055.0738743789661 0 1055.0738743789661 1207.3089446391314 0 0 0 0 1302.9675514040791 938.55413393822164 0 938.55413393822164 59.38143484727334 0 0 0 0 -187.16140384241589 -823.94078516765512 0 -823.94078516765512 844.26181596592505 0 0 0 0 -911.52105183970343 -538.45514927373279 0 -538.45514927373279 1523.6446847997286 0 0 0 0 -564.41089167304744 237.64388435539149 0 237.64388435539149 143.15758222922159 0 0 0 0 -1306.9798361464418 -425.99506244530039 0 -425.99506244530039 979.75331556524907 0 0 0 0 -1700.6280324248219 -226.74832841230818 0 -226.74832841230818 1062.3343703812097 0 0 0 0 336.86367957025504 158.61428787381737 0 158.61428787381737 288.94468533093459 0 0 0 0 8.3097853756335098 -197.08100210373232 0 -197.08100210373232 423.80452532287381 0 0 0 0 -19.46033180145605 102.65225736518914 0 102.65225736518914 -83.232824256130698 0 0 0 0 634.21314859905397 449.67917371960721 0 449.67917371960721 918.77697291836739 0 0 0 0 -310.52428364424122 657.99340248672343 0 657.99340248672343 1585.1539276855983 0 0 0 0 -466.75049142641365 560.03778416968271 0 560.03778416968271 2267.6912317740516 0 0 0 0 532.89527157767634 539.29001036586169 0 539.29001036586169 1133.7133262718489 0 0 0 0 -38.422390555111377 69.889661367129875 0 69.889661367129875 42.436602016858551 0 0 0 0 -27.168254909891402 -585.88617853833421 0 -585.88617853833421 1567.6869777167376 0 0 0 0 12.752315516256687 20.233640811746483 0 20.233640811746483 -2.0176138706324025 0 0 0 0 33.621509940741817 157.23756272167429 0 157.23756272167429 -47.232750450785261 0 0 0 0 72.050219777880898 55.735539800102394 0 55.735539800102394 16.650441247380918 0 0 0 0 247.07039754005018 608.40935877692027 0 608.40935877692027 1622.4943914609357 0 0 0 0 -92.037625516750268 133.43443088653657 0 133.43443088653657 1940.3320371987757 0 0 0 0 6.0659956219460582 -315.925496130385 0 -315.925496130385 812.71224455329593 0 0 0 0 493.43196343626187 -142.97925987644339 0 -142.97925987644339 848.58955439634155 0 0 0 0 -227.94112161707744 61.902431060461822 0 61.902431060461822 -142.14805405142397 0 0 0 0 -352.128693683655 304.21306901126445 0 304.21306901126445 1091.4051457181504 0 0 0 0 863.19748889682523 13.005873182092728 0 13.005873182092728 -411.98955837335961 0 0 0 0 -592.98522780119674 570.87647573987124 0 570.87647573987124 107.25800713519857 0 0 0 0 335.03517305967398 590.78214215908156 0 590.78214215908156 -426.47331990740531 0 0 0 0 -1.0889517736691445 -7.3775668724474883 0 -7.3775668724474883 -0.70323626887328317 0 0 0 0 173.33643976504391 408.93741449098525 0 408.93741449098525 -75.966341446524893 0 0 0 0 -718.23063694662596 315.67554669050514 0 315.67554669050514 53.266548635030631 0 0 0 0 182.54807847734764 -61.594561711279653 0 -61.594561711279653 199.76092076987698 0 0 0 0 255.16026051883819 201.63952329653148 0 201.63952329653148 -155.01541358645045 0 0 0 0 -33.387120426054025 -316.86406925004394 0 -316.86406925004394 -467.55615966496407 0 0 0 0 -8.7331749082900956 10.077643037553628 0 10.077643037553628 -11.382077346925314 0 0 0 0 -719.80379536644614 1271.7513142675034 0 1271.7513142675034 1559.0525914360151 0 0 0 0 320.75555595679907 465.3880578104463 0 465.3880578104463 -497.18924070602225 0 0 0 0 -16.225100997311529 569.55128471386342 0 569.55128471386342 1153.7893498973463 0 0 0 0 173.6597746485786 -96.796502646273439 0 -96.796502646273439 1344.5813032021597 0 0 0 0 32.878753729339223 168.73922109091473 0 168.73922109091473 -243.92467182135533 0 0 0 0 -49.514278378950621 158.87613405786192 0 158.87613405786192 -96.020087639681151 0 0 0 0 32.155265004532509 26.099158786676362 0 26.099158786676362 16.074063536530161 0 0 0 0 -809.51461138977174 -170.05749327706326 0 -170.05749327706326 3790.2228246106642 0 0 0 0 -25.948215322277974 71.881480619793365 0 71.881480619793365 -134.51428770320126 0 0 0 0 6.5954500761885129 6.5510593743811585 0 6.5510593743811585 7.0210823945554885 0 0 0 0 0.083170167352363933 177.40097090698328 0 177.40097090698328 -320.97762838026347 0 0 0 0 4.2719207592017483 994.66899238833867 0 994.66899238833867 553.37978007345737 0 0 0 0 -616.20049717275833 -1467.9998294007983 0 -1467.9998294007983 3890.7238101721168 0 0 0 0 -663.64107540527766 305.87387485356885 0 305.87387485356885 285.07804939706784 0 0 0 0 -226.02504024463997 864.0306600911581 0 864.0306600911581 496.68493054526334 0 0 0 0 13.647358209404047 148.43917442570455 0 148.43917442570455 228.77464906752539 0 0 0 0 94.477036149270134 221.5496403359939 0 221.5496403359939 310.00532108932293 0 0 0 0 61.703057677863399 99.774434439807919 0 99.774434439807919 228.67410111527897 0 0 0 0 15.221734208781527 153.81570323416196 0 153.81570323416196 178.25983349352464 0 0 0 0 19.398170747052063 106.59723114703229 0 106.59723114703229 86.927114630769211 0 0 0 0 -0.015788018441526219 156.60545929143427 0 156.60545929143427 223.99759768334479 0 0 0 0 -0.062740609468586422 170.0113980169132 0 170.0113980169132 55.492238566439482 0 0 0 0 31.816348128952086 119.63418371413172 0 119.63418371413172 -126.72943766583603 0 0 0 0 2.129429713688296 161.08779661825793 0 161.08779661825793 48.92106597376187 0 0 0 0 68.080932332202792 143.29648263121453 0 143.29648263121453 48.640240447887805 0 0 0 0 35.840175835968694 132.11689246012247 0 132.11689246012247 -94.19864567829427 0 0 0 0 17.567114516852598 200.19876015330669 0 200.19876015330669 12.936235260651301 0 0 0 0 15.719138730593841 123.111422304808 0 123.111422304808 -79.600487478699506 0 0 0 0 27.630454637095681 152.95269272446058 0 152.95269272446058 55.688368443119543 0 0 0 0 4.1336268036975525 132.65164501149047 0 132.65164501149047 217.64696849368011 0 0 0 0 53.154588960605906 205.85298742813393 0 205.85298742813393 117.3407319877806 0 0 0 0 30.100565735148848 138.66552569598389 0 138.66552569598389 174.36480848384235 0 0 0 0 23.63125561826746 258.89821069149002 0 258.89821069149002 546.82608211151273 0 0 0 0 69.142483678340795 105.1506476906452 0 105.1506476906452 373.93039152718848 0 0 0 0 91.499901017610682 191.36695882355525 0 191.36695882355525 202.03056607221333 0 0 0 0 -96.210901710262988 53.178556684546493 0 53.178556684546493 570.19581566819033 0 0 0 0 78.582051999699615 191.17548319937987 0 191.17548319937987 261.59157625160151 0 0 0 0 -40.314093528519152 113.12357713104939 0 113.12357713104939 306.39810253962605 0 0 0 0 -56.273445760889445 66.736616070571472 0 66.736616070571472 242.94742274935015 0 0 0 0 -70.800724874470461 14.630476585044896 0 14.630476585044896 7.6813840751639564 0 0 0 0 -65.577274651790503 99.593029660503817 0 99.593029660503817 152.1692423414006 0 0 0 0 -78.464133471541572 73.775504828987323 0 73.775504828987323 110.51019400716541 0 0 0 0 -14.984285015060038 65.215605286927143 0 65.215605286927143 45.007461342406231 0 0 0 0 -49.666297344490886 121.65040512568385 0 121.65040512568385 76.146046352612757 0 0 0 0 23.004593909211536 85.304492627390559 0 85.304492627390559 78.053071217843836 0 0 0 0 -76.209286253833852 142.67646671305465 0 142.67646671305465 111.07903741112932 0 0 0 0 -43.124406065442599 143.13308766089176 0 143.13308766089176 146.54793325703577 0 0 0 0 -7.7202151214150945 173.78349119453787 0 173.78349119453787 167.45373791532438 0 0 0 0 11.219353367632721 186.3435684680644 0 186.3435684680644 75.683197548276439 0 0 0 0 0.8559073439319036 160.35342804849279 0 160.35342804849279 15.245138535814476 0 0 0 0 35.540583755231637 134.23416911673939 0 134.23416911673939 2.4837564383979043 0 0 0 0 42.771376087622087 78.243716892355124 0 78.243716892355124 15.189118454100438 0 0 0 0 -129.99823450988333 93.407978945502691 0 93.407978945502691 30.422119931979978 0 0 0 0 -426.33026820221858 -445.31860233454063 0 -445.31860233454063 -108.11643624641874 0 0 0 0 365.08806758754145 335.03031901899976 0 335.03031901899976 24.162497830860957 0 0 0 0 4.3045283404419052 -4.2930626014602353 0 -4.2930626014602353 -5.3429493114284696 0 0 0 0 2581.3402975894569 -638.96060962542106 0 -638.96060962542106 -1024.4085933346141 0 0 0 0 273.35056768223876 158.25969959169743 0 158.25969959169743 -1.0314339705655584 0 0 0 0 -62.786867723661999 111.91328776892442 0 111.91328776892442 64.468525396005134 0 0 0 0 -18.895887569247861 17.798766629362945 0 17.798766629362945 19.804362868178032 0 0 0 0 123.71818700104268 260.30080310072844 0 260.30080310072844 151.56023331204051 0 0 0 0 -48.496317204189836 121.6299344498475 0 121.6299344498475 50.148327272756433 0 0 0 0 -6.7679350913313101 121.16253501329084 0 121.16253501329084 11.047998158606788 0 0 0 0 -28.855267911415638 59.051338029409216 0 59.051338029409216 31.63784721901207 0 0 0 0 -273.99598219643667 199.25791399060836 0 199.25791399060836 24.56104453439184 0 0 0 0 -263.5605924991105 113.67067342094742 0 113.67067342094742 49.929127565024828 0 0 0 0 -356.41067360164016 189.54260594761217 0 189.54260594761217 87.843891010532388 0 0 0 0 -223.91877166945778 353.2539469964504 0 353.2539469964504 413.75550609992206 0 0 0 0 -315.1795590032707 170.62496148694481 0 170.62496148694481 94.230456049004715 0 0 0 0 -384.16891857174664 -70.526357966007026 0 -70.526357966007026 80.860354943681159 0 0 0 0 84.862728239677381 39.112614855293941 0 39.112614855293941 2.7699504186057311 0 0 0 0 -377.1696048702288 45.459160940430593 0 45.459160940430593 351.74250626154662 0 0 0 0 548.64426080150588 -44.996718007954769 0 -44.996718007954769 -71.118634685291909 0 0 0 0 0.77816546433240319 6.0168425058465367 0 6.0168425058465367 12.682141146832834 0 0 0 0 -497.99373542694957 81.886401491592551 0 81.886401491592551 232.67539933651278 0 0 0 0 48.060797045785876 162.14412412819729 0 162.14412412819729 132.99501803630119 0 0 0 0 170.17322219087509 1826.1874574992908 0 1826.1874574992908 565.53568169298524 0 0 0 0 28.674806415022772 20.668980419219565 0 20.668980419219565 -3.2699629589609458 0 0 0 0 127.55338960715744 83.257716046668065 0 83.257716046668065 -25.879282721070922 0 0 0 0 26.394837618499878 105.10415476667731 0 105.10415476667731 -12.676226526513346 0 0 0 0 0.90313999716840954 59.349923683287187 0 59.349923683287187 49.335706965226763 0 0 0 0 33.012074426149354 57.427962945093277 0 57.427962945093277 18.382821495291036 0 0 0 0 24.704139524124912 65.797058730271601 0 65.797058730271601 21.581544125961955 0 0 0 0 7.6299626625205974 43.081053913606198 0 43.081053913606198 12.715598541791188 0 0 0 0 27.099696761892119 51.293813719035825 0 51.293813719035825 14.91475996599911 0 0 0 0 -5.8181572266403236 54.514747643768715 0 54.514747643768715 27.496191752468803 0 0 0 0 53.898562717869936 71.99586642486247 0 71.99586642486247 26.448621144696517 0 0 0 0 14.848198228243305 24.434203628162273 0 24.434203628162273 17.381963243812919 0 0 0 0 67.162464567809366 785.83378808700945 0 785.83378808700945 464.29300777229946 0 0 0 0 1.4169691309216432 50.841089532901606 0 50.841089532901606 29.270574861608111 0 0 0 0 -8.862674546380731 36.212147265763633 0 36.212147265763633 43.553612867370248 0 0 0 0 0.75015370947949123 59.273777984930348 0 59.273777984930348 34.112617535436584 0 0 0 0 4.016877173766261 40.541293627145933 0 40.541293627145933 66.407497370032615 0 0 0 0 12.272621096646617 51.737753521617378 0 51.737753521617378 27.331087934522657 0 0 0 0 20.19250128309146 51.36892399600714 0 51.36892399600714 44.379905613078513 0 0 0 0 30.888206328650995 99.56088530322495 0 99.56088530322495 82.376375405048748 0 0 0 0 -30.456961081043119 55.891142321765074 0 55.891142321765074 39.365513117525552 0 0 0 0 -30.696988925687037 54.409956896444783 0 54.409956896444783 31.813925223774277 0 0 0 0 54.443305362859974 78.441234328647624 0 78.441234328647624 43.39239712630706 0 0 0 0 -63.663735485635698 54.597275755921146 0 54.597275755921146 42.238866518504437 0 0 0 0 11.471124223869015 44.45993738636659 0 44.45993738636659 57.589325798888488 0 0 0 0 -21.628947934966874 -11.955981648516016 0 -11.955981648516016 7.6843066253211987 0 0 0 0 -115.46778003544023 107.12664478050647 0 107.12664478050647 171.30008161847945 0 0 0 0 -28.824618292966079 74.57764296044212 0 74.57764296044212 99.994561740437348 0 0 0 0 56.69182600385102 109.25905786316798 0 109.25905786316798 78.864623653702438 0 0 0 0 50.058485501867835 72.299782600643994 0 72.299782600643994 40.880630144843963 0 0 0 0 7.4626050816755587 9.1240026451578586 0 9.1240026451578586 -0.63042624138105907 0 0 0 0 -11.006640991588938 90.430313829743682 0 90.430313829743682 184.57643686616211 0 0 0 0 -14.303737254260341 73.972773820183647 0 73.972773820183647 105.23294789471765 0 0 0 0 19.433643680968089 61.150138894299744 0 61.150138894299744 28.669022685309756 0 0 0 0 12.854968033454497 96.11429433746207 0 96.11429433746207 97.368584144700435 0 0 0 0 -7.1595604472095147 83.469179959145549 0 83.469179959145549 112.38808148953831 0 0 0 0 8.3114320323511492 82.847701455575589 0 82.847701455575589 73.745913613738594 0 0 0 0 -4.049004180560587 74.496161588162067 0 74.496161588162067 100.78104928807443 0 0 0 0 -7.5385288918914739 81.430278366766288 0 81.430278366766288 107.32413129879569 0 0 0 0 8.4743347157782409 83.343869431926578 0 83.343869431926578 97.690627485033474 0 0 0 0 -0.67863623704761267 72.354801716985094 0 72.354801716985094 86.459002924821107 0 0 0 0 41.634096513989789 96.833603231336383 0 96.833603231336383 60.759243379638065 0 0 0 0 31.374179068792728 72.160678446514794 0 72.160678446514794 84.267757714447725 0 0 0 0 19.219467186565453 46.302723378801602 0 46.302723378801602 29.957681179053907 0 0 0 0 62.475536627709516 79.3781709370719 0 79.3781709370719 -40.084392846384389 0 0 0 0 21.415996009571245 89.296284721995107 0 89.296284721995107 99.572179928847618 0 0 0 0 18.154390525960167 64.8774096319096 0 64.8774096319096 -14.542621452366106 0 0 0 0 -1.990762120069121 70.96972060786311 0 70.96972060786311 -34.905173281840007 0 0 0 0 -24.363575624680379 47.399858149750798 0 47.399858149750798 75.845665518012538 0 0 0 0 1.7150488748962491 52.912630620039394 0 52.912630620039394 67.265420205182878 0 0 0 0 -33.593074332893593 40.571968134198869 0 40.571968134198869 72.564306861628211 0 0 0 0 -57.682074804150034 -3.9931139946711482 0 -3.9931139946711482 100.12771017795239 0 0 0 0 0.81360757768561598 40.610290504191653 0 40.610290504191653 50.434969621748678 0 0 0 0 -19.862602949433494 80.302542108071975 0 80.302542108071975 77.669498902123451 0 0 0 0 15.272793872689363 69.58213177750622 0 69.58213177750622 64.594514191482176 0 0 0 0 -11.727857981197303 93.762782606907422 0 93.762782606907422 99.333303692086702 0 0 0 0 -15.075635441113263 89.420839291597076 0 89.420839291597076 65.860204231867101 0 0 0 0 -30.442919643799542 58.755515732606 0 58.755515732606 62.03201590662502 0 0 0 0 2.5370979132267735 13.046994500122992 0 13.046994500122992 3.9240515267721277 0 0 0 0 -53.06638677281444 67.643092163612891 0 67.643092163612891 93.007537522235907 0 0 0 0 54.341484244127059 86.209599322736722 0 86.209599322736722 -155.19758819404888 0 0 0 0 -108.34170014657138 101.22313669409414 0 101.22313669409414 78.03472047190462 0 0 0 0 -112.98872959062282 176.94767169581246 0 176.94767169581246 95.571706878428813 0 0 0 0 32.752737030559985 38.96132712504874 0 38.96132712504874 29.720314988329431 0 0 0 0 -9.7187954065720987 171.98616200503398 0 171.98616200503398 -8.0123626493441407 0 0 0 0 -102.65888918520068 173.1104252037112 0 173.1104252037112 68.958696005245656 0 0 0 0 -156.95232882782875 -18.550487383990912 0 -18.550487383990912 18.995196315592693 0 0 0 0 -108.54729706978833 20.865440549401683 0 20.865440549401683 40.829057934657612 0 0 0 0 169.15069322103227 184.66712633752468 0 184.66712633752468 112.59501906787682 0 0 0 0 49.57180760855772 72.192311845666154 0 72.192311845666154 93.951483984092192 0 0 0 0 1.5222375614739292 -1.4830951110226067 0 -1.4830951110226067 -0.9392718648272691 0 0 0 0 -84.746811203520338 13.894413129289205 0 13.894413129289205 68.407065088364106 0 0 0 0 76.511137853274704 118.52749252269496 0 118.52749252269496 75.733340664068237 0 0 0 0 -9.5508095338961141 4.2517607823539265 0 4.2517607823539265 7.9903191810062282 0 0 0 0 -67.146894728211919 -12.053550415183963 0 -12.053550415183963 15.863266876770467 0 0 0 0 -56.365957387805679 7.4671344897779406 0 7.4671344897779406 0.6187550984432626 0 0 0 0 -81.953193124893915 64.601229973829732 0 64.601229973829732 31.905210126162274 0 0 0 0 -23.462664768441755 69.021312259406841 0 69.021312259406841 -20.766347921749912 0 0 0 0 116.47289326228201 119.10015920702881 0 119.10015920702881 -163.1236794469778 0 0 0 0 61.66796245623118 219.97598916509151 0 219.97598916509151 570.53247428507166 0 0 0 0 -4.927813230061389 2.1822725046156677 0 2.1822725046156677 -0.58311786460019732 0 0 0 0 1.7565077084205427 3.1593529590901994 0 3.1593529590901994 -1.0166558245813544 0 0 0 0 -9.2208104936071322 71.905642867404595 0 71.905642867404595 -177.30542709067959 0 0 0 0 -10.473200532209376 166.53931079510002 0 166.53931079510002 70.287584013208289 0 0 0 0 -24.786053943797015 97.439183968886027 0 97.439183968886027 146.74149673500415 0 0 0 0 -1.4570173537002802 -2.3935794908910992 0 -2.3935794908910992 1.6116340173324808 0 0 0 0 -2.3676559463164608 -1.9687159368747018 0 -1.9687159368747018 2.2178860517139807 0 0 0 0 -1.2780013756491826 103.68812441705654 0 103.68812441705654 57.140135560195631 0 0 0 0 -8.8463478445773944 81.992040686747714 0 81.992040686747714 2.2947480344309952 0 0 0 0 22.844509842613746 29.857384864169518 0 29.857384864169518 8.9164410451739151 0 0 0 0 -133.72347850730876 49.355248106163344 0 49.355248106163344 31.22489811802734 0 0 0 0 -21.366265952479807 88.130473829963137 0 88.130473829963137 14.444122288353356 0 0 0 0 -42.70293779108033 52.982467146102181 0 52.982467146102181 29.664373751024868 0 0 0 0 -34.84141705991351 44.248134679306077 0 44.248134679306077 27.932802688875199 0 0 0 0 -22.577456560247811 55.888689858632461 0 55.888689858632461 30.391030365416555 0 0 0 0 -32.338460188271711 50.051354993044924 0 50.051354993044924 22.128362154051416 0 0 0 0 -30.31376964552328 46.288305404510083 0 46.288305404510083 29.00147374964763 0 0 0 0 -13.315895625939447 86.554888896334859 0 86.554888896334859 -6.6946501838076529 0 0 0 0 -21.577272800626815 47.229934609830707 0 47.229934609830707 53.242502652412441 0 0 0 0 6.3990111385428463 73.309607994413909 0 73.309607994413909 19.976585997535949 0 0 0 0 26.623621052378439 57.759370032738161 0 57.759370032738161 10.489086505172736 0 0 0 0 24.251480674371123 10.541544905433511 0 10.541544905433511 93.220435067109975 0 0 0 0 63.516504717350472 37.501395836280608 0 37.501395836280608 -13.283688096484241 0 0 0 0 -20.863126123629627 106.5865090545974 0 106.5865090545974 -16.3160531937001 0 0 0 0 -45.357497125602094 93.64618021737806 0 93.64618021737806 0.16046569320371873 0 0 0 0 0.026312496273021679 133.46066952272577 0 133.46066952272577 -42.779355482497522 0 0 0 0 -2.5138030677810548 -2.1260243015838824 0 -2.1260243015838824 2.3190040298780934 0 0 0 0 0.86075040837749839 125.0914102288998 0 125.0914102288998 -56.278780883173567 0 0 0 0 18.775173014088068 87.185445702629295 0 87.185445702629295 -67.042133700736713 0 0 0 0 0.18984833439373339 90.584286792446932 0 90.584286792446932 63.097725935380367 0 0 0 0 -1.5744257475993777 -2.5460156695400684 0 -2.5460156695400684 1.9522734181959152 0 0 0 0 25.235939611593494 22.327895020282085 0 22.327895020282085 47.22118432426214 0 0 0 0 8.4236045297438977 145.6227621470407 0 145.6227621470407 226.70978509761562 0 0 0 0 25.049146591249155 18.894090019817668 0 18.894090019817668 72.18249875823949 0 0 0 0 18.413069311754953 136.09132522944401 0 136.09132522944401 240.88006292222417 0 0 0 0 9.8308799520309549 149.84434105153105 0 149.84434105153105 235.94150421769882 0 0 0 0 0.069088000352638332 147.4885868462429 0 147.4885868462429 236.61895312924753 0 0 0 0 -2.3957555210443715 -6.4336979609763745 0 -6.4336979609763745 26.221879837121094 0 0 0 0 -141.33124548850537 -22.933510510864608 0 -22.933510510864608 78.028145064759883 0 0 0 0 -139.01647589482309 9.2557956242053478 0 9.2557956242053478 79.133406197986915 0 0 0 0 -70.295818074904673 17.673083909256093 0 17.673083909256093 65.248591148239939 0 0 0 0 -146.05618141469313 31.122931994985265 0 31.122931994985265 94.925745899487083 0 0 0 0 -104.95339206900462 26.556082763152517 0 26.556082763152517 50.403930935019162 0 0 0 0 -66.271871018380949 -38.599615258503476 0 -38.599615258503476 111.13118868118909 0 0 0 0 -66.150491687520116 -10.694987438568205 0 -10.694987438568205 84.507437373717949 0 0 0 0 -29.568089856267761 -179.91204754357022 0 -179.91204754357022 62.236622710266602 0 0 0 0 -118.85868219297845 -193.08132706474498 0 -193.08132706474498 457.35355680700741 0 0 0 0 805.16318932642753 691.03410170993084 0 691.03410170993084 487.06097251711253 0 0 0 0 3.3242333077829116 -3.9161178458031429 0 -3.9161178458031429 6.9156835612778309 0 0 0 0 219.67920562602376 346.08097485556937 0 346.08097485556937 292.84125560474786 0 0 0 0 199.06200770788564 388.82125851736055 0 388.82125851736055 401.78659721720032 0 0 0 0 34.931504860498535 391.20706183778384 0 391.20706183778384 462.12961929143057 0 0 0 0 49.464875647149711 354.29068252970228 0 354.29068252970228 335.32593739233562 0 0 0 0 65.740992325761908 367.34056768199844 0 367.34056768199844 400.21592250587128 0 0 0 0 19.844103391027602 322.04545436092303 0 322.04545436092303 440.46823031357781 0 0 0 0 177.94595083064996 272.90967310236374 0 272.90967310236374 353.05086634808686 0 0 0 0 153.42491195131879 279.98417997726574 0 279.98417997726574 484.18096739816974 0 0 0 0 0.7458972832391737 59.830632801356842 0 59.830632801356842 -70.660110579090542 0 0 0 0 -1.9751553445911725 4.0640166644182898 0 4.0640166644182898 4.4975145556594427 0 0 0 0 -57.028504848024973 38.745776003101469 0 38.745776003101469 20.674589905593734 0 0 0 0 78.985976157760888 256.6164483055727 0 256.6164483055727 166.66506040924287 0 0 0 0 -28.797529415879097 39.020991977958289 0 39.020991977958289 -12.564143414199965 0 0 0 0 -30.45521302103225 204.3691317519806 0 204.3691317519806 421.84489816279529 0 0 0 0 -23.533285124060058 33.249139727118745 0 33.249139727118745 -4.1566478799795732 0 0 0 0 -40.773995505001608 37.623911119656228 0 37.623911119656228 0.018071296106313639 0 0 0 0 -91.346065298141184 63.904663402910955 0 63.904663402910955 11.817865768418415 0 0 0 0 -77.147455504578829 59.208897262549726 0 59.208897262549726 13.088224099396029 0 0 0 0 -18.384633828565711 48.609790237554989 0 48.609790237554989 22.546528780498193 0 0 0 0 -91.278143471212388 80.520770562792677 0 80.520770562792677 27.997217262440245 0 0 0 0 -92.778208717820235 72.267907629240653 0 72.267907629240653 18.670908920528746 0 0 0 0 -92.136405338918848 52.036313122880529 0 52.036313122880529 -17.208240096428199 0 0 0 0 -109.37608145711783 66.370167828103149 0 66.370167828103149 21.864206651080167 0 0 0 0 -68.463915316385851 33.009394657349844 0 33.009394657349844 18.548219395358942 0 0 0 0 -28.949757554426469 27.649214278344516 0 27.649214278344516 62.854698529234156 0 0 0 0 -93.081812983888085 -21.314202830213617 0 -21.314202830213617 52.699702500656713 0 0 0 0 -37.03449871434384 32.288370224213807 0 32.288370224213807 8.0574401017742048 0 0 0 0 -81.349197884763385 44.039215584342116 0 44.039215584342116 21.850758035700935 0 0 0 0 -165.84899606306863 -1.0593285699869739 0 -1.0593285699869739 206.17316323044361 0 0 0 0 -92.213990863041545 76.926971273540403 0 76.926971273540403 16.806894931127317 0 0 0 0 -102.05248003362067 -23.701370972510631 0 -23.701370972510631 121.36926046457666 0 0 0 0 -37.416569720408006 -29.390846166483243 0 -29.390846166483243 117.36670573378433 0 0 0 0 -5.2989847372361965 -16.196816662644281 0 -16.196816662644281 25.299723805723094 0 0 0 0 -102.49020180509251 65.537230940843074 0 65.537230940843074 78.988698998102336 0 0 0 0 -77.490231363321072 72.802725935987837 0 72.802725935987837 17.533639305940596 0 0 0 0 -84.867667571568745 69.508196737398976 0 69.508196737398976 34.735502402676502 0 0 0 0 -94.36998895801662 77.730550445703557 0 77.730550445703557 28.107314220440458 0 0 0 0 -74.783483967970824 68.770794457224838 0 68.770794457224838 23.014330428675748 0 0 0 0 -75.884585702100594 71.929980978424283 0 71.929980978424283 96.633046018258028 0 0 0 0 -71.845636078927782 104.10385482135825 0 104.10385482135825 46.446328067104332 0 0 0 0 -49.600743667695497 57.131029327603756 0 57.131029327603756 70.428466305922484 0 0 0 0 -73.803535706654657 45.363651622257748 0 45.363651622257748 135.86958161243456 0 0 0 0 -77.542302832804126 49.687888626762287 0 49.687888626762287 158.13243327053351 0 0 0 0 -78.770278680189222 44.591646305063477 0 44.591646305063477 145.7019324489811 0 0 0 0 -59.230838677324357 46.169095049959409 0 46.169095049959409 28.228494288184777 0 0 0 0 -31.851482767815469 32.359125229886558 0 32.359125229886558 129.97518943196337 0 0 0 0 -35.182500525669212 53.465271138592968 0 53.465271138592968 44.027547684073156 0 0 0 0 2883.5977668738924 3437.4078873653343 0 3437.4078873653343 -1496.1068229625962 0 0 0 0 -163.26940142573221 3.7041398806122743 0 3.7041398806122743 172.41920132390078 0 0 0 0 16.873327390581835 92.64196065669239 0 92.64196065669239 50.793871980589756 0 0 0 0 -113.12135291508093 10.801149778002582 0 10.801149778002582 162.20897633512504 0 0 0 0 -38.398842687399821 51.259623111353548 0 51.259623111353548 40.450133173520598 0 0 0 0 38.878136581715808 134.5650644368452 0 134.5650644368452 126.24779562978802 0 0 0 0 -38.177056638262002 93.708423810905515 0 93.708423810905515 201.09870606891127 0 0 0 0 -181.53459077860316 73.50487986536973 0 73.50487986536973 104.6634182179987 0 0 0 0 -4.2878895287145724 1.756652311500801 0 1.756652311500801 36.547908850200898 0 0 0 0 -128.82113984382886 124.29770313483823 0 124.29770313483823 23.054034118569689 0 0 0 0 5.8019843817537833 -9.4583727402066273 0 -9.4583727402066273 4.4376775136593949 0 0 0 0 -779.24989791804546 129.25421502672907 0 129.25421502672907 4.4048147353460081 0 0 0 0 351.07752380803868 196.20255025940787 0 196.20255025940787 83.483404765764135 0 0 0 0 402.95136953997098 707.60053952934231 0 707.60053952934231 228.41337975069473 0 0 0 0 44.502357780660532 39.74765551683231 0 39.74765551683231 178.32532780354086 0 0 0 0 -137.50078733375267 105.81763163803407 0 105.81763163803407 184.95517960067809 0 0 0 0 -177.94157406679733 154.45172476937296 0 154.45172476937296 -19.251533245322207 0 0 0 0 -128.42852055138655 22.401042142678534 0 22.401042142678534 120.90186914986407 0 0 0 0 -154.79496792546342 246.65871889075379 0 246.65871889075379 125.6960251898854 0 0 0 0 -336.09848299955047 429.51840518324025 0 429.51840518324025 -172.90617855659093 0 0 0 0 -412.64361827081302 377.06098118202499 0 377.06098118202499 -177.82614919689331 0 0 0 0 -37.396936865596217 102.02235018941428 0 102.02235018941428 -258.28527344981558 0 0 0 0 0.95430872810212009 5.6119111021675963 0 5.6119111021675963 5.3187912016127683 0 0 0 0 -1332.540701730235 -1564.5962343499123 0 -1564.5962343499123 -2673.4258986870773 0 0 0 0 -1360.3596119338472 387.23587007459719 0 387.23587007459719 1088.3295981372939 0 0 0 0 -140.45436713442905 -4.5348407222118112 0 -4.5348407222118112 144.74356267648545 0 0 0 0 -80.37397560266254 4.9401936776048387 0 4.9401936776048387 125.86961264189358 0 0 0 0 -55.984798088167736 -11.607988907639083 0 -11.607988907639083 96.290145892045985 0 0 0 0 -88.385919786895101 4.3780739402063773 0 4.3780739402063773 141.30470296481508 0 0 0 0 -120.67716651006776 34.654216124436061 0 34.654216124436061 174.26214595961574 0 0 0 0 -143.4856842400477 13.581613804315566 0 13.581613804315566 157.90614662186272 0 0 0 0 -124.79344017384574 15.130155085436854 0 15.130155085436854 143.27060341961624 0 0 0 0 -233.97237699208927 48.873072970134672 0 48.873072970134672 158.51919190070112 0 0 0 0 -175.59759332943941 -39.230463735679223 0 -39.230463735679223 141.8564606381351 0 0 0 0 -173.03218427606771 -12.41329917393341 0 -12.41329917393341 212.74527512142231 0 0 0 0 -96.772507318899443 -39.654793784298818 0 -39.654793784298818 141.33828267975332 0 0 0 0 -322.79344288435095 267.57375676522861 0 267.57375676522861 136.73602238140302 0 0 0 0 -270.16693281589141 238.09443325236589 0 238.09443325236589 68.25751253063936 0 0 0 0 -168.26966561281733 584.85019636321522 0 584.85019636321522 -254.95943929923305 0 0 0 0 13.13822269575212 157.74093624963007 0 157.74093624963007 -85.599238239774422 0 0 0 0 18.554554394672579 49.351654848976459 0 49.351654848976459 78.309864991087466 0 0 0 0 21.356630218142527 -5.3180905290500959 0 -5.3180905290500959 149.43593312511075 0 0 0 0 -13.162955722611514 64.922390402061865 0 64.922390402061865 28.686581596535689 0 0 0 0 446.15748213438201 -466.90719210704992 0 -466.90719210704992 167.42894212576903 0 0 0 0 140.48022125966963 40.974715901838863 0 40.974715901838863 -147.18507926019811 0 0 0 0 -263.49181796806806 148.35112262188341 0 148.35112262188341 -2.2266831965789606 0 0 0 0 -325.28643686687428 386.26009752800564 0 386.26009752800564 -144.28169374743447 0 0 0 0 65.73584147306974 112.33169435795935 0 112.33169435795935 12.161469111211773 0 0 0 0 -334.32267695240444 152.09965486653527 0 152.09965486653527 498.67410452934564 0 0 0 0 23.26970818384433 48.731283030557009 0 48.731283030557009 72.340385206593126 0 0 0 0 -7.3218132921339247 1.6144662716129865 0 1.6144662716129865 19.673858207895478 0 0 0 0 24.350245505294879 39.347188132869633 0 39.347188132869633 -2.6932877156787072 0 0 0 0 77.19438508454914 155.27840314473178 0 155.27840314473178 116.9184734414448 0 0 0 0 -13.513629249675432 99.880982948921883 0 99.880982948921883 127.63744193220919 0 0 0 0 19.568785936862696 177.88832983063185 0 177.88832983063185 295.42307329018513 0 0 0 0 34.282378130650613 126.23788129759487 0 126.23788129759487 121.12824504699256 0 0 0 0 66.301037901816017 106.43195890778588 0 106.43195890778588 31.141802197009383 0 0 0 0 24.920225728521473 99.178123240581044 0 99.178123240581044 86.960139364302449 0 0 0 0 7.0852868211459281 95.334235455290582 0 95.334235455290582 111.80541819706559 0 0 0 0 -3.2443466962140519 84.186918032923131 0 84.186918032923131 118.98529476485783 0 0 0 0 -3.2585234479483915 81.796531222679505 0 81.796531222679505 114.95967356236361 0 0 0 0 32.562082948519674 82.577259166781005 0 82.577259166781005 76.044691300514387 0 0 0 0 34.707562835646968 77.185546183531187 0 77.185546183531187 61.575295481919966 0 0 0 0 23.686430584806658 84.481338742225489 0 84.481338742225489 77.020724525558762 0 0 0 0 45.135527530161198 86.995540336654813 0 86.995540336654813 67.172882484377624 0 0 0 0 3.1372688310984813 74.893459174942109 0 74.893459174942109 91.196894243203133 0 0 0 0 -53.887599187641172 20.355367059426499 0 20.355367059426499 76.234866629267344 0 0 0 0 -27.442945515111205 51.231405793292652 0 51.231405793292652 79.371625333034899 0 0 0 0 10.484236331215016 53.474009105690399 0 53.474009105690399 -21.830152182930494 0 0 0 0 98.957803330838942 215.05581081430978 0 215.05581081430978 144.95197060820055 0 0 0 0 92.22270418946573 270.3365800966335 0 270.3365800966335 -28.326858169147499 0 0 0 0 41.449910533556249 109.3590528085374 0 109.3590528085374 7.9864725188858472 0 0 0 0 -143.76762827609491 449.31322159281262 0 449.31322159281262 -299.4848997671761 0 0 0 0 1.6290758932705103 17.290270675284646 0 17.290270675284646 41.40552931410982 0 0 0 0 -87.604098147425248 471.94455836660563 0 471.94455836660563 -997.95170916256029 0 0 0 0 99.365072101703845 96.730603180389153 0 96.730603180389153 15.147014732334355 0 0 0 0 30.528538803968416 54.895151665991307 0 54.895151665991307 61.440469811426766 0 0 0 0 9.6914613802079828 64.630441428620784 0 64.630441428620784 16.764811390246784 0 0 0 0 46.759933745051967 143.99425548067666 0 143.99425548067666 67.022653950378299 0 0 0 0 -57.60488124989206 44.54290864770519 0 44.54290864770519 111.02869633599039 0 0 0 0 10.017501242520623 4.6960276146884503 0 4.6960276146884503 -14.639781762695605 0 0 0 0 -43.052125186062767 71.074313712691946 0 71.074313712691946 115.26404332202947 0 0 0 0 -126.79090212714436 243.17065756806886 0 243.17065756806886 410.6016385801388 0 0 0 0 13.503021609278221 170.68947833127777 0 170.68947833127777 -58.275260964363099 0 0 0 0 39.110571203692032 99.477495777560819 0 99.477495777560819 111.0101344176219 0 0 0 0 -104.55387445629822 25.57461505745357 0 25.57461505745357 584.71088700551354 0 0 0 0 -459.72200579974015 335.03297792145167 0 335.03297792145167 72.573293079563882 0 0 0 0 -184.93489239702831 583.04650689628397 0 583.04650689628397 -375.58678956596123 0 0 0 0 -38.672827656464506 381.65840664958159 0 381.65840664958159 -280.87802479656966 0 0 0 0 34.08642581969616 344.09977430990693 0 344.09977430990693 -269.00475660041411 0 0 0 0 153.79237266330165 168.05874800604215 0 168.05874800604215 -21.599104169144994 0 0 0 0 244.44580051545199 108.94463882513446 0 108.94463882513446 -226.01624103572249 0 0 0 0 190.93059609762167 300.13045021072594 0 300.13045021072594 -378.92661036516074 0 0 0 0 -495.46361877216623 583.76254720148791 0 583.76254720148791 -139.11447458487964 0 0 0 0 273.27795950389554 341.94712729764797 0 341.94712729764797 -556.99568508542507 0 0 0 0 352.10665770009291 638.49930677489829 0 638.49930677489829 247.16808056864829 0 0 0 0 -199.27831984490194 231.88923076136348 0 231.88923076136348 -23.2677247777101 0 0 0 0 333.0740495473438 -200.05409565423162 0 -200.05409565423162 565.18842138600303 0 0 0 0 297.49095962293359 211.19990829153903 0 211.19990829153903 -18.812650051651872 0 0 0 0 111.53192047714401 481.22143468967261 0 481.22143468967261 877.22482999420754 0 0 0 0 -308.79020158159165 155.59253482277472 0 155.59253482277472 749.89010999436869 0 0 0 0 89.623920938742231 267.93034011100281 0 267.93034011100281 107.29930661551043 0 0 0 0 72.233281753979099 298.1256633850644 0 298.1256633850644 406.26544494100381 0 0 0 0 213.82684152587899 275.76178647472261 0 275.76178647472261 383.18198757727077 0 0 0 0 241.90353087899166 0.6970874337166606 0 0.6970874337166606 206.09060319145647 0 0 0 0 171.84189842545311 185.33493348960474 0 185.33493348960474 -9.1943338282071636 0 0 0 0 77.216700046734331 210.13834020751165 0 210.13834020751165 123.09531854039233 0 0 0 0 183.86922192081056 143.82663760613013 0 143.82663760613013 -123.19176881712337 0 0 0 0 124.66626672831626 97.103452736497275 0 97.103452736497275 -121.80594024872698 0 0 0 0 193.05843107998589 134.19600157293826 0 134.19600157293826 -194.27982707678166 0 0 0 0 150.7864845863005 101.54184477402305 0 101.54184477402305 -206.29771716398318 0 0 0 0 281.53511666400664 160.8206601330312 0 160.8206601330312 -210.44630643462006 0 0 0 0 204.0465077205954 71.084054296246904 0 71.084054296246904 -77.658911691938556 0 0 0 0 136.88152931337299 172.40159156400205 0 172.40159156400205 -207.2174081314588 0 0 0 0 101.06057773865905 190.1006274241081 0 190.1006274241081 -258.68213869708416 0 0 0 0 206.85801627307592 157.09682080318453 0 157.09682080318453 -258.38017108413624 0 0 0 0 138.50092819494603 125.21096202690023 0 125.21096202690023 -214.6367307556211 0 0 0 0 157.80894301940862 94.550554618597744 0 94.550554618597744 -243.23313994928321 0 0 0 0 147.77247131877812 117.65392952213006 0 117.65392952213006 -229.49406272084161 0 0 0 0 123.49236276632291 109.30386035011179 0 109.30386035011179 -231.06821016527647 0 0 0 0 46.80452671887906 63.725155456872017 0 63.725155456872017 -199.13402823306387 0 0 0 0 134.18415225789249 84.40616325269184 0 84.40616325269184 -247.10007443853829 0 0 0 0 109.29324102582359 40.077468307938034 0 40.077468307938034 -283.31355504083331 0 0 0 0 -21.825071556100738 6.7831959338800516 0 6.7831959338800516 -207.17357668618934 0 0 0 0 -32.953184251271296 -85.344834167146018 0 -85.344834167146018 -400.22858538816945 0 0 0 0 -34.392298287974981 20.862935874850066 0 20.862935874850066 -13.887749062761358 0 0 0 0 -45.286994195310399 -10.927839285650407 0 -10.927839285650407 -364.85509331446337 0 0 0 0 61.48758894267462 54.621460476702396 0 54.621460476702396 -504.56295611880341 0 0 0 0 56.219991763733105 84.740418016003332 0 84.740418016003332 -225.02716504469572 0 0 0 0 136.865413206011 126.28907845102367 0 126.28907845102367 -249.47231956051837 0 0 0 0 -679.57361439511806 -248.66618936290615 0 -248.66618936290615 305.00826538495676 0 0 0 0 -12.894257495874641 6.6898002839606789 0 6.6898002839606789 -4.3261381106797927 0 0 0 0 -407.66063468302673 667.91946767640184 0 667.91946767640184 -862.71272502427018 0 0 0 0 -58.296712026537534 -122.36553693428459 0 -122.36553693428459 -1307.8761284322318 0 0 0 0 -1060.2823466031841 316.42773073792159 0 316.42773073792159 67.125671560257615 0 0 0 0 -237.14880272644223 284.76273846335243 0 284.76273846335243 -107.91380118841334 0 0 0 0 -134.66280107653802 389.62349190426721 0 389.62349190426721 -124.36786359822145 0 0 0 0 -387.24923809498614 270.32998764822514 0 270.32998764822514 301.07732517142722 0 0 0 0 -233.38381951231349 41.717353909296435 0 41.717353909296435 90.589695795315492 0 0 0 0 80.234948652680032 249.93202293022478 0 249.93202293022478 -200.79392000112057 0 0 0 0 2.3508617935258371 216.40912393059989 0 216.40912393059989 -86.233757922469522 0 0 0 0 -30.777718997975171 371.74246562626649 0 371.74246562626649 -421.3537296150389 0 0 0 0 -43.580051154283865 428.42470476799645 0 428.42470476799645 14.193874758901075 0 0 0 0 -154.07458193991624 331.47327383481024 0 331.47327383481024 203.68088619796617 0 0 0 0 -7.6501425911083061 312.33865359430274 0 312.33865359430274 167.5479653862858 0 0 0 0 -15.424413117871154 343.78090296432129 0 343.78090296432129 347.12742659504147 0 0 0 0 -29.097522438984015 390.26506023779439 0 390.26506023779439 371.28213965226314 0 0 0 0 -54.091183440668829 398.97811948479648 0 398.97811948479648 468.45079906928004 0 0 0 0 -14.77328703016974 336.9517921649167 0 336.9517921649167 498.51856460083582 0 0 0 0 -108.74752180531505 332.11178860763175 0 332.11178860763175 527.44070514477062 0 0 0 0 -14.159123429431929 377.50933605116734 0 377.50933605116734 563.8352288953065 0 0 0 0 -110.64424964573755 324.93807544561878 0 324.93807544561878 752.32321988769399 0 0 0 0 -110.35424924713334 374.80012767851804 0 374.80012767851804 564.59912932710722 0 0 0 0 -41.712227355325012 320.33684347359667 0 320.33684347359667 198.42064471111735 0 0 0 0 -40.36526073787536 460.85109237677898 0 460.85109237677898 360.91403364066355 0 0 0 0 -90.85721749397635 411.41306595747301 0 411.41306595747301 364.51922078314237 0 0 0 0 -26.928493741417242 310.63718776502628 0 310.63718776502628 511.88493435773125 0 0 0 0 -56.447884530960437 179.74850447207427 0 179.74850447207427 325.87765338993995 0 0 0 0 60.715244757735491 -85.149077108068923 0 -85.149077108068923 315.22359298564697 0 0 0 0 173.23061267323646 156.33716724078477 0 156.33716724078477 462.72896757700073 0 0 0 0 386.91108070118935 183.13673696087062 0 183.13673696087062 547.29969569279092 0 0 0 0 26.127914148797572 495.65716708575201 0 495.65716708575201 845.53987937458442 0 0 0 0 -137.95116707099805 233.53337455004657 0 233.53337455004657 1057.0519865722817 0 0 0 0 66.319140540766966 -213.03187141123817 0 -213.03187141123817 579.26607385246461 0 0 0 0 378.75400864233961 740.91858866960683 0 740.91858866960683 1223.8247992999973 0 0 0 0 63.36332892889186 142.64359876163144 0 142.64359876163144 1236.9570598171267 0 0 0 0 -5.1377935550854232 4.2570182581989684 0 4.2570182581989684 12.358412652934021 0 0 0 0 115.97787979386339 483.47988994063053 0 483.47988994063053 1016.1370650682729 0 0 0 0 15.64446602099396 5.0956805955092364 0 5.0956805955092364 -4.869164142858704 0 0 0 0 27.661332913623482 76.541134890627291 0 76.541134890627291 -61.660657484913827 0 0 0 0 -21.680950558579021 29.680454563326975 0 29.680454563326975 -19.433146517942106 0 0 0 0 -28.139341818655879 32.376362404022643 0 32.376362404022643 -9.2023860156918502 0 0 0 0 -21.505516100736713 44.882514418855862 0 44.882514418855862 -17.274208865497712 0 0 0 0 -40.03665190198808 34.167774006982654 0 34.167774006982654 -0.89856961605983088 0 0 0 0 -29.842610578882159 46.102941097524308 0 46.102941097524308 10.608264716063786 0 0 0 0 -106.12485822803137 200.28160702293826 0 200.28160702293826 640.69781695273559 0 0 0 0 -29.799367845065788 30.459438151127131 0 30.459438151127131 -6.7494786630425594 0 0 0 0 -34.134849674222096 207.55883069066658 0 207.55883069066658 623.61879708166816 0 0 0 0 -141.74365685206067 196.2514518764583 0 196.2514518764583 695.14063515597081 0 0 0 0 -628.96645067270947 -284.58115616462601 0 -284.58115616462601 499.28195779629095 0 0 0 0 -3.5944510322190411 1.3428090114475992 0 1.3428090114475992 11.91084520797321 0 0 0 0 -548.4957149052243 223.91779342601876 0 223.91779342601876 151.83921858423128 0 0 0 0 -119.98078390031333 300.24883671167845 0 300.24883671167845 33.992699406342581 0 0 0 0 -1109.9370875360946 179.97988405370415 0 179.97988405370415 159.52167359812665 0 0 0 0 -3.2803807263656708 2.6742015258705294 0 2.6742015258705294 6.8894117076202406 0 0 0 0 -80.89604508002958 536.53157647093758 0 536.53157647093758 663.73811023001326 0 0 0 0 26.84967576663621 -33.676665287210199 0 -33.676665287210199 188.19207160225051 0 0 0 0 8.0749387480536825 115.55489163089806 0 115.55489163089806 -248.00248218102388 0 0 0 0 3.8232176850207082 -2.2957381841535351 0 -2.2957381841535351 1.5516906652981142 0 0 0 0 81.76350517089304 669.98883994016796 0 669.98883994016796 1748.8840646160043 0 0 0 0 -50.903950463587535 198.16225332530303 0 198.16225332530303 879.93285064089105 0 0 0 0 214.73323881580109 429.61081259686398 0 429.61081259686398 848.90190744113352 0 0 0 0 445.43625926517416 489.36370055112275 0 489.36370055112275 449.95650453292183 0 0 0 0 -488.89847148508125 126.57259002368664 0 126.57259002368664 585.24942273023407 0 0 0 0 0.065285812270985843 -279.7957422392584 0 -279.7957422392584 -123.99266281996097 0 0 0 0 93.571365859799698 264.6369244912712 0 264.6369244912712 125.25075258556171 0 0 0 0 18.24595984021289 26.152168684609933 0 26.152168684609933 525.09286119062199 0 0 0 0 -374.62461218839235 -474.69180205234079 0 -474.69180205234079 180.93362834489744 0 0 0 0 -1.4970053869556708 0.21555446257364963 0 0.21555446257364963 6.4200588185531444 0 0 0 0 245.3666993425868 45.868317633645347 0 45.868317633645347 -6.3911722879638546 0 0 0 0 199.53572122164223 143.48878361010247 0 143.48878361010247 448.00780739602487 0 0 0 0 -169.1994460456317 191.35165268498713 0 191.35165268498713 -52.123323171501397 0 0 0 0 -101.37427085539821 345.08315539719842 0 345.08315539719842 -18.559788236052555 0 0 0 0 115.57788614409583 328.25898328731273 0 328.25898328731273 -261.62496025567816 0 0 0 0 589.85698354017586 -340.75090047087724 0 -340.75090047087724 342.9710653771981 0 0 0 0 32.047303692453625 -29.61515367849961 0 -29.61515367849961 818.56484385439398 0 0 0 0 24.343582084336958 14.658457478410583 0 14.658457478410583 589.34164221586252 0 0 0 0 284.65737302308844 332.52059194036701 0 332.52059194036701 302.96631366786823 0 0 0 0 -299.45815453273826 -271.99271597768529 0 -271.99271597768529 551.50104347337037 0 0 0 0 -397.72627063770778 -30.252018461455009 0 -30.252018461455009 310.56455045328494 0 0 0 0 116.0669652929173 -185.4449035812504 0 -185.4449035812504 188.38647017924814 0 0 0 0 21.660982216340926 120.29323854844188 0 120.29323854844188 -25.25146283916547 0 0 0 0 -518.64968317437706 -378.61496238039399 0 -378.61496238039399 -450.45173726821668 0 0 0 0 167.05450799565006 381.72346799814477 0 381.72346799814477 -973.22429604985155 0 0 0 0 169.18288082588469 438.45242092338822 0 438.45242092338822 -121.06955885590287 0 0 0 0 317.38870210807727 227.39656145180561 0 227.39656145180561 -327.81721419554378 0 0 0 0 -799.01592291105021 803.84165547151156 0 803.84165547151156 224.59861341680516 0 0 0 0 339.92213446387177 136.1950116187254 0 136.1950116187254 -29.617710753027495 0 0 0 0 188.27108636778212 308.26608622165986 0 308.26608622165986 87.08197624076638 0 0 0 0 174.38757519130377 247.19763042846171 0 247.19763042846171 -65.260063543406432 0 0 0 0 204.6912278445343 191.37206990176674 0 191.37206990176674 37.481277500897704 0 0 0 0 87.274238294518 52.808279752633098 0 52.808279752633098 16.695709516650822 0 0 0 0 -9.4001801198028261 103.22656127898517 0 103.22656127898517 45.559934819211776 0 0 0 0 -22.963130995023675 48.554765342632891 0 48.554765342632891 37.556669768102438 0 0 0 0 -56.663822092046757 108.03426516102627 0 108.03426516102627 44.876651408834732 0 0 0 0 -26.647735916867532 75.98853558578412 0 75.98853558578412 21.417878111053142 0 0 0 0 -44.598527093621669 85.122225396466092 0 85.122225396466092 17.189629386568413 0 0 0 0 -44.586221152458165 85.929036805820942 0 85.929036805820942 24.986420619534329 0 0 0 0 -23.271565122526226 45.113219525715976 0 45.113219525715976 10.292862594755206 0 0 0 0 -33.968301210501423 38.041672180932181 0 38.041672180932181 7.4824408266179603 0 0 0 0 -84.536721134511026 32.740894324218971 0 32.740894324218971 46.939976580943039 0 0 0 0 1.7044981026123196 38.287658375349608 0 38.287658375349608 21.549321155978205 0 0 0 0 -16.879530007176072 53.972850409820239 0 53.972850409820239 -23.921283397976367 0 0 0 0 -4.7687655849684631 20.904500682651104 0 20.904500682651104 -14.045935179693174 0 0 0 0 -110.1309062081491 104.4218206335936 0 104.4218206335936 2.6444108785108256 0 0 0 0 118.08005775079437 264.09302192499581 0 264.09302192499581 401.78665328383067 0 0 0 0 18.75160570032422 32.827741919155628 0 32.827741919155628 30.244552199757265 0 0 0 0 -46.216598064769641 110.7877439980839 0 110.7877439980839 3.6040651691710082 0 0 0 0 -65.263769769037935 -125.1192041209415 0 -125.1192041209415 650.8327619617703 0 0 0 0 -261.19847831998777 439.8879271909318 0 439.8879271909318 365.03240562610517 0 0 0 0 -494.11681028080784 23.606388014437471 0 23.606388014437471 676.54671984830929 0 0 0 0 4.964507202454115 -37.093117285304288 0 -37.093117285304288 -272.35095603486116 0 0 0 0 511.6526781559387 758.05793760617871 0 758.05793760617871 -1339.4984038570037 0 0 0 0 -567.48894854231548 1315.8491157211356 0 1315.8491157211356 -1430.5324532116792 0 0 0 0 -788.77623842451067 238.21267653943141 0 238.21267653943141 101.21795331014073 0 0 0 0 -719.09283659198991 558.67132743560069 0 558.67132743560069 866.59794757096734 0 0 0 0 82.205386398713017 -943.95290041204498 0 -943.95290041204498 965.34165280602861 0 0 0 0 9.4135445629943177 7.5468488386369188 0 7.5468488386369188 10.243466324634142 0 0 0 0 320.39340430171023 123.75716470779685 0 123.75716470779685 -85.419738589123881 0 0 0 0 89.98289756527447 205.31905709764033 0 205.31905709764033 -142.653302038525 0 0 0 0 -404.13510524662979 130.63061925143631 0 130.63061925143631 -46.830209123290842 0 0 0 0 -16.319799155553397 42.702900818134367 0 42.702900818134367 -27.217188141612496 0 0 0 0 -525.89223026321338 117.97026497840943 0 117.97026497840943 -5.4060697382956278 0 0 0 0 -318.6367916227519 409.07201462005469 0 409.07201462005469 369.21263983279459 0 0 0 0 150.17768464436688 -323.45147822571016 0 -323.45147822571016 -254.38982480521372 0 0 0 0 -363.12441609095089 -5.1546834078326356 0 -5.1546834078326356 -185.36370882375923 0 0 0 0 -187.6824741062573 -271.91231719577627 0 -271.91231719577627 220.22283813361719 0 0 0 0 0.37329382673416278 2.555733533351539 0 2.555733533351539 -10.437085675833686 0 0 0 0 295.98842476729004 -235.94910063571842 0 -235.94910063571842 -728.32308014648152 0 0 0 0 251.9414634740375 -56.844201216488727 0 -56.844201216488727 -793.35205155754011 0 0 0 0 82.297165679933073 -107.42780499604123 0 -107.42780499604123 -755.98071686430194 0 0 0 0 296.36014709719541 -128.34236438756125 0 -128.34236438756125 -1189.2796602120579 0 0 0 0 782.18855080691355 213.31181613027729 0 213.31181613027729 -1432.5782886214001 0 0 0 0 153.07428068079321 401.23554849378343 0 401.23554849378343 -111.70682834717445 0 0 0 0 -11.472307491563566 47.454683485992781 0 47.454683485992781 -78.289477041148189 0 0 0 0 53.17927779603724 513.89128761312531 0 513.89128761312531 -643.91466329818468 0 0 0 0 224.30728226512656 241.07465415945626 0 241.07465415945626 65.004093706927961 0 0 0 0 723.83332191770387 229.90458765525545 0 229.90458765525545 -197.91297596518416 0 0 0 0 -68.439659041239793 442.93952155217266 0 442.93952155217266 58.164839707758802 0 0 0 0 -90.827938254835317 358.21703451833309 0 358.21703451833309 12.615787717437343 0 0 0 0 -273.56536480530485 499.18863196697384 0 499.18863196697384 -43.680860113963718 0 0 0 0 -49.920699867569056 426.8979548469797 0 426.8979548469797 -12.980693826906645 0 0 0 0 10.91386696356858 344.77649872744951 0 344.77649872744951 -34.854066816245904 0 0 0 0 125.92274616534269 467.88639760922888 0 467.88639760922888 -22.008173081267159 0 0 0 0 -25.528095137444325 404.64071814787167 0 404.64071814787167 -43.157178389174078 0 0 0 0 87.564583945099002 239.51397292977344 0 239.51397292977344 -414.91223785409511 0 0 0 0 144.46719188159386 350.38148239279781 0 350.38148239279781 -230.78471919021104 0 0 0 0 -62.12345253620515 203.13237605275208 0 203.13237605275208 -114.77595325729635 0 0 0 0 -207.57967297461437 372.14965531804046 0 372.14965531804046 0.74860357017314527 0 0 0 0 -36.801821135877617 337.3650633805255 0 337.3650633805255 -102.68252753047273 0 0 0 0 -69.088268095940293 171.52455393413402 0 171.52455393413402 -15.730863434696403 0 0 0 0 -215.80940467137282 214.39226461842918 0 214.39226461842918 45.150538905872963 0 0 0 0 -37.436758386535985 135.92729578058061 0 135.92729578058061 -3.3677694571233587 0 0 0 0 -76.802850948784908 184.22882254995056 0 184.22882254995056 -28.544499359690235 0 0 0 0 -529.60218318368061 152.70414770369825 0 152.70414770369825 86.900003515061144 0 0 0 0 -145.38164599477022 155.48912863852456 0 155.48912863852456 82.332435541507948 0 0 0 0 -125.43690289596816 -39.242285808112229 0 -39.242285808112229 4.3564645792648662 0 0 0 0 -1114.8178252662444 941.63553592741391 0 941.63553592741391 -430.16655996351619 0 0 0 0 -1248.662832972117 -48.622895923534088 0 -48.622895923534088 8.2569633421367143 0 0 0 0 -2.0646019821953274 4.0992541093174282 0 4.0992541093174282 -11.948431894278713 0 0 0 0 -182.63891163530207 406.4700732288984 0 406.4700732288984 -1333.7968653253333 0 0 0 0 45.297713996285893 115.85172755743042 0 115.85172755743042 -1615.3165360254934 0 0 0 0 47.656486017274801 15.395970535711967 0 15.395970535711967 -324.03259429338505 0 0 0 0 367.53500390661065 253.00362741431309 0 253.00362741431309 -936.41052642084105 0 0 0 0 -94.44625287216968 814.15350650900291 0 814.15350650900291 -429.84093053470133 0 0 0 0 -371.49840622881129 348.88292803024888 0 348.88292803024888 -68.836591174054774 0 0 0 0 869.69376761419994 578.31254068484941 0 578.31254068484941 -304.73727036143828 0 0 0 0 -7.692325560193245 19.194450331196702 0 19.194450331196702 -51.71071626776029 0 0 0 0 431.21070038793187 547.92981327584857 0 547.92981327584857 -174.54977577400859 0 0 0 0 189.29643656506596 447.18578020503628 0 447.18578020503628 -131.22730527687236 0 0 0 0 710.56648256012068 304.74255274382722 0 304.74255274382722 314.56198571743153 0 0 0 0 653.46546559475792 555.70122475197059 0 555.70122475197059 -519.49966654770833 0 0 0 0 368.4333388115918 220.82736043505747 0 220.82736043505747 8.6501428308838513 0 0 0 0 763.78483064206739 -19.512593596213264 0 -19.512593596213264 -391.8325649861581 0 0 0 0 335.84169546671546 49.077035589740262 0 49.077035589740262 -212.01578843922471 0 0 0 0 848.36236578001444 213.16569502560742 0 213.16569502560742 36.872974805606646 0 0 0 0 948.47425882461539 -108.62090952787548 0 -108.62090952787548 -449.94636908528628 0 0 0 0 1291.4225704886449 -146.94109812259921 0 -146.94109812259921 -248.72332193559851 0 0 0 0 -2.9275869060151902 8.6459021705468331 0 8.6459021705468331 -42.21209934311122 0 0 0 0 26.858561022243748 43.06924244968468 0 43.06924244968468 -450.87563214058173 0 0 0 0 1637.0472792825094 177.81881237496782 0 177.81881237496782 -313.56684874782513 0 0 0 0 2.05659172351407 -3.8885156656342588 0 -3.8885156656342588 -9.0886257626518443 0 0 0 0 -1194.8821503016843 675.12643386051786 0 675.12643386051786 -306.98943143079669 0 0 0 0 -1137.1859728405952 372.13233661486447 0 372.13233661486447 -599.93336750721937 0 0 0 0 -1207.5428449170986 729.03727051323949 0 729.03727051323949 -2.8677356345579028 0 0 0 0 -1580.7029465017772 440.38156726167472 0 440.38156726167472 73.969705904120929 0 0 0 0 -1100.7234684156615 314.77310739013046 0 314.77310739013046 90.782469571222464 0 0 0 0 0.57502839668741679 332.44020595059305 0 332.44020595059305 -203.78246008575661 0 0 0 0 -3.5254099083219446 7.9668151519100032 0 7.9668151519100032 -25.745509466081785 0 0 0 0 -507.80672823141413 87.654508365500078 0 87.654508365500078 -62.652463760328828 0 0 0 0 -27.701732358472839 287.07770079385955 0 287.07770079385955 -240.89512341048976 0 0 0 0 -128.09358592730405 -1062.3059915766717 0 -1062.3059915766717 502.45523034183861 0 0 0 0 -280.25745804212238 1086.0893655496911 0 1086.0893655496911 -2909.2751168982286 0 0 0 0 1485.9914174803389 -394.04489351432858 0 -394.04489351432858 -2351.5551201089111 0 0 0 0 -223.00204127921484 -487.6940053331291 0 -487.6940053331291 -980.35445521734073 0 0 0 0 -1274.2462145013478 657.1640400024844 0 657.1640400024844 -707.0864907358191 0 0 0 0 -0.67551044455184672 0.70281135926342309 0 0.70281135926342309 -16.444425101589957 0 0 0 0 -3067.4576829382131 1285.459570237821 0 1285.459570237821 -293.33184422153863 0 0 0 0 320.09523734944923 -332.79892311531876 0 -332.79892311531876 -1438.1029022722796 0 0 0 0 1165.7854873602532 -484.14416932812287 0 -484.14416932812287 -612.35317157782265 0 0 0 0 -926.86650251689116 659.80871434936853 0 659.80871434936853 -804.13515642646962 0 0 0 0 -2071.1309568510524 501.62877951101018 0 501.62877951101018 -181.9782372367772 0 0 0 0 -2160.3192245015725 273.82845138008406 0 273.82845138008406 -204.58071074042527 0 0 0 0 -2166.4896839865269 363.74807400609643 0 363.74807400609643 214.33352126801037 0 0 0 0 -2092.1623698762601 567.36376336963622 0 567.36376336963622 68.192005711141974 0 0 0 0 -1682.9846741450783 1911.2804054012959 0 1911.2804054012959 -1843.6270244583575 0 0 0 0 567.17925009090504 -251.26280154510823 0 -251.26280154510823 -645.53115189991149 0 0 0 0 682.29790375537414 -133.61909797763656 0 -133.61909797763656 -149.7366592662147 0 0 0 0 1005.0605673022001 -439.97692750729038 0 -439.97692750729038 -149.84490161424037 0 0 0 0 1016.337928352008 153.70864201743098 0 153.70864201743098 372.26578129846894 0 0 0 0 1004.166545561822 -391.54596906230506 0 -391.54596906230506 -609.08669573260704 0 0 0 0 634.21214538746426 -285.22831033154216 0 -285.22831033154216 -477.15163858342567 0 0 0 0 554.24220733603033 -124.8371463982221 0 -124.8371463982221 -790.19946921270457 0 0 0 0 -63.836481347866346 39.827357351147654 0 39.827357351147654 -17.026188209657548 0 0 0 0 -52.41438162283157 295.88807236906723 0 295.88807236906723 521.81599209727574 0 0 0 0 -6.1340433411460253 202.63939859421953 0 202.63939859421953 494.1724234215344 0 0 0 0 938.41848177727661 -292.09876706026625 0 -292.09876706026625 -765.90955526149628 0 0 0 0 -905.82812273535365 1190.0902708004833 0 1190.0902708004833 -674.87307637116464 0 0 0 0 -178.52621605580134 221.17682726246858 0 221.17682726246858 690.89877187235106 0 0 0 0 154.09403391481464 1244.4645618171853 0 1244.4645618171853 1512.5060651708336 0 0 0 0 190.08089786285382 -426.86144863502341 0 -426.86144863502341 -587.65142869045667 0 0 0 0 310.71819766354292 150.70815584381671 0 150.70815584381671 -548.23330971453106 0 0 0 0 -593.73973619345998 -230.3866576101791 0 -230.3866576101791 -676.88449538726127 0 0 0 0 178.84788440564807 -377.36036010595853 0 -377.36036010595853 -770.82210433180444 0 0 0 0 -329.66816002834821 -117.45539501078747 0 -117.45539501078747 -778.77741894260544 0 0 0 0 -35.369170314318744 29.35246613284319 0 29.35246613284319 -13.506285748945949 0 0 0 0 -815.03972136457196 42.495765683601348 0 42.495765683601348 -667.42376316458831 0 0 0 0 -326.61715909880149 855.60085879994585 0 855.60085879994585 1322.41469855787 0 0 0 0 1022.584138721053 546.93298136247904 0 546.93298136247904 1056.4167245939861 0 0 0 0 -602.45700828751069 273.57303982771555 0 273.57303982771555 686.85971042176971 0 0 0 0 1.8831519908113385 2.3240280870933603 0 2.3240280870933603 9.1926975526067451 0 0 0 0 -284.45076721378064 486.78076141844576 0 486.78076141844576 -352.93319055615575 0 0 0 0 287.80575443806083 183.18775872058541 0 183.18775872058541 131.7041290332636 0 0 0 0 -6.8769140527741257 14.686401464787526 0 14.686401464787526 23.775975052719588 0 0 0 0 -33.444441602339793 106.58681855647228 0 106.58681855647228 -385.47546715273165 0 0 0 0 369.0167337684943 176.56786748237846 0 176.56786748237846 44.207469658453192 0 0 0 0 299.51641375919644 320.26906712882919 0 320.26906712882919 183.39017560449793 0 0 0 0 631.81488894602444 171.45077958756156 0 171.45077958756156 63.067737184639554 0 0 0 0 1930.1088593073109 801.36810522837641 0 801.36810522837641 217.22013588248228 0 0 0 0 629.49096933649048 642.47982899887074 0 642.47982899887074 455.13268381904345 0 0 0 0 38.515503914204601 462.74172218288732 0 462.74172218288732 824.92867447058234 0 0 0 0 29.655871549624408 294.89692698407907 0 294.89692698407907 497.08690307594952 0 0 0 0 -35.233996175637003 270.07720904122107 0 270.07720904122107 495.3408904128155 0 0 0 0 176.99064420271679 430.82663268259239 0 430.82663268259239 446.082014470172 0 0 0 0 243.14732125397859 317.94965125396266 0 317.94965125396266 187.49416740227025 0 0 0 0 170.0879627068025 303.83950217944221 0 303.83950217944221 210.36125840930981 0 0 0 0 200.89435887092077 232.32385543683085 0 232.32385543683085 107.01826919078303 0 0 0 0 1.7417982615115761 288.57795999519658 0 288.57795999519658 340.4577739747474 0 0 0 0 13.479677374602034 261.40746221668815 0 261.40746221668815 270.70743530918116 0 0 0 0 -77.456493751442395 203.77951538833076 0 203.77951538833076 249.96652007839293 0 0 0 0 -142.23955202643265 201.10148038971965 0 201.10148038971965 444.38080434587755 0 0 0 0 -94.434341680120269 289.0215485004519 0 289.0215485004519 529.17819030747341 0 0 0 0 -138.09483915916462 205.6630011788493 0 205.6630011788493 446.67177514581999 0 0 0 0 -7.3735124226693785 9.2667012612529902 0 9.2667012612529902 -7.9291720579968512 0 0 0 0 1081.1879922717235 708.84023292516213 0 708.84023292516213 -107.38991905693911 0 0 0 0 -1069.0731534183192 399.13631450425339 0 399.13631450425339 357.96141790987167 0 0 0 0 -234.51097720550752 784.62042423224921 0 784.62042423224921 57.101850844839646 0 0 0 0 -1025.0341275946848 1450.1875999020449 0 1450.1875999020449 -496.65091328371636 0 0 0 0 798.44544111732785 465.0837351793125 0 465.0837351793125 -738.60787885187892 0 0 0 0 -288.67444996642371 936.74377171546439 0 936.74377171546439 -1386.945946628286 0 0 0 0 -264.46967207366106 1755.0953546137825 0 1755.0953546137825 -750.83838952583028 0 0 0 0 -36.063017923894222 715.40919471769303 0 715.40919471769303 1449.1103437734164 0 0 0 0 -11.59127404498534 12.772428298101289 0 12.772428298101289 -6.9092332509474517 0 0 0 0 384.04612602396082 272.30107128624877 0 272.30107128624877 -2886.6720394348085 0 0 0 0 -163.3696437736362 107.86050214343777 0 107.86050214343777 956.85925144323846 0 0 0 0 -336.19428686811079 42.563515329722577 0 42.563515329722577 1063.7919335890983 0 0 0 0 -577.64978130922827 133.89375931265386 0 133.89375931265386 1058.9555265154377 0 0 0 0 233.19436538379523 -38.936408971014316 0 -38.936408971014316 970.52517902472755 0 0 0 0 525.02633847053949 -373.15716634768614 0 -373.15716634768614 817.57927460693463 0 0 0 0 211.62199473633518 1374.7975528313618 0 1374.7975528313618 -107.48043820783641 0 0 0 0 -16.422762569878429 20.406480418209725 0 20.406480418209725 -16.457229885636906 0 0 0 0 -88.208395884605125 -441.61462905261578 0 -441.61462905261578 1151.8138871843403 0 0 0 0 294.52123225924879 1540.5124822068974 0 1540.5124822068974 -2966.4814502422232 0 0 0 0 -942.97322858157349 619.74612736284325 0 619.74612736284325 715.37243937676249 0 0 0 0 -801.46268088076613 -133.73075261372651 0 -133.73075261372651 1079.5622986180097 0 0 0 0 -528.6766746485755 -1185.985809478625 0 -1185.985809478625 941.84098469422315 0 0 0 0 -13.111583803088649 16.498790402972389 0 16.498790402972389 -3.5622848133830018 0 0 0 0 586.4751181227839 952.28606498000954 0 952.28606498000954 564.52251484330918 0 0 0 0 546.32723885546147 440.0374598463095 0 440.0374598463095 635.20536376444034 0 0 0 0 -1076.6430306311231 354.45726216700132 0 354.45726216700132 507.98899169957804 0 0 0 0 349.85052529205132 831.21911999432086 0 831.21911999432086 250.25922441517469 0 0 0 0 2.5675858245617107 5.6376268952716728 0 5.6376268952716728 3.8059256231339589 0 0 0 0 324.43376787695161 190.15498558130639 0 190.15498558130639 266.6697354324715 0 0 0 0 570.60419260518393 496.64197143351726 0 496.64197143351726 597.09741454879986 0 0 0 0 -1057.3940808981642 659.67778311453731 0 659.67778311453731 826.04943786980948 0 0 0 0 -950.80601225532882 964.26082145718101 0 964.26082145718101 676.39984976596315 0 0 0 0 -923.75066973686626 926.41555938045349 0 926.41555938045349 237.42647811675852 0 0 0 0 -1025.4041161690038 644.73264854383888 0 644.73264854383888 473.95685184269678 0 0 0 0 -898.73156848867711 185.68271488382197 0 185.68271488382197 -225.41804685458919 0 0 0 0 -854.59579107777972 792.448813774472 0 792.448813774472 105.93583033480536 0 0 0 0 3.4841112987963925 8.4821817765277103 0 8.4821817765277103 6.0286917416822519 0 0 0 0 -804.19988215704689 407.7592106791526 0 407.7592106791526 33.863931107473036 0 0 0 0 172.06169408694768 359.23161479863847 0 359.23161479863847 -144.88143913628301 0 0 0 0 -535.73827700979928 -0.26844358559355896 0 -0.26844358559355896 33.539183618384413 0 0 0 0 335.8929323870907 316.66295460667607 0 316.66295460667607 -350.13464909566392 0 0 0 0 379.38815602709656 657.34620964558053 0 657.34620964558053 353.77324041187239 0 0 0 0 960.47456447409058 364.00663864016678 0 364.00663864016678 184.9327218860999 0 0 0 0 815.2389765646767 594.5765162446005 0 594.5765162446005 -160.5423156243487 0 0 0 0 1090.0461830386848 881.02178110995737 0 881.02178110995737 -77.115130209378549 0 0 0 0 -11.039883307521279 11.815029878578486 0 11.815029878578486 -6.6449806752185623 0 0 0 0 1154.7377959466103 749.72393562148864 0 749.72393562148864 -88.794709513618727 0 0 0 0 1103.0598800677908 857.03796356580278 0 857.03796356580278 -66.851946285081794 0 0 0 0 781.62426014768062 928.22426318200087 0 928.22426318200087 184.60053254346712 0 0 0 0 669.31745355783642 644.73452629191161 0 644.73452629191161 -21.493145909847954 0 0 0 0 1170.2670829275521 1018.4160317130154 0 1018.4160317130154 173.58645243496721 0 0 0 0 182.03430733942514 324.62384723805008 0 324.62384723805008 -25.607159516112006 0 0 0 0 569.98042826029996 720.64343269255187 0 720.64343269255187 88.964714469082537 0 0 0 0 95.815254268803983 353.43026049287801 0 353.43026049287801 -307.20387913284503 0 0 0 0 267.6376711784701 711.54346366263826 0 711.54346366263826 808.33821502752835 0 0 0 0 186.24662023075507 158.97025108250091 0 158.97025108250091 41.384721429627007 0 0 0 0 981.13456538211904 139.59941124160105 0 139.59941124160105 -292.14654826174956 0 0 0 0 524.03588415788545 166.29600801302877 0 166.29600801302877 -290.21237396163815 0 0 0 0 191.00152099461047 651.15663781287731 0 651.15663781287731 -946.191678143834 0 0 0 0 -457.90605552151828 -178.89032984899677 0 -178.89032984899677 -360.4085806033786 0 0 0 0 -31.409345464406329 150.88451170810492 0 150.88451170810492 -936.16442000332609 0 0 0 0 -744.0169510814485 498.29660643092211 0 498.29660643092211 -571.48614159001227 0 0 0 0 -379.42323009577876 158.65589368492829 0 158.65589368492829 -263.28392125177197 0 0 0 0 -381.89405248693583 158.14119437269619 0 158.14119437269619 19.996898963701824 0 0 0 0 183.47394614861696 91.726507406689961 0 91.726507406689961 77.290332185060834 0 0 0 0 -180.62952177750776 176.2379322942943 0 176.2379322942943 151.55618947288167 0 0 0 0 -62.903909753535117 285.95995919095731 0 285.95995919095731 210.53252597746723 0 0 0 0 17.706789715073683 191.17172901325102 0 191.17172901325102 146.31470551574603 0 0 0 0 156.86849195062678 222.93021792559011 0 222.93021792559011 96.735312667726248 0 0 0 0 241.63825187178736 227.22653195446765 0 227.22653195446765 103.82968531775987 0 0 0 0 -15.238713143211186 18.497325053090677 0 18.497325053090677 -22.735100515416065 0 0 0 0 275.51351021390656 306.96652064962836 0 306.96652064962836 94.24729672855392 0 0 0 0 161.80284047647547 210.49431732895937 0 210.49431732895937 124.35696141146764 0 0 0 0 67.794550515780429 132.27532418189367 0 132.27532418189367 219.30190971077536 0 0 0 0 7.4898812455212465 20.531373330777569 0 20.531373330777569 52.150301853107521 0 0 0 0 222.91921872122839 123.63656058760944 0 123.63656058760944 41.863952776475344 0 0 0 0 -21.655152832795345 32.358229060319843 0 32.358229060319843 -24.39739541985881 0 0 0 0 -39.534668242704356 124.06590371772472 0 124.06590371772472 18.361666846496519 0 0 0 0 -531.6409509497098 411.63516207500652 0 411.63516207500652 -22.724138970646891 0 0 0 0 -55.002818877035679 152.36067860914591 0 152.36067860914591 -16.03306271584006 0 0 0 0 24.406085471317056 1406.9026864592524 0 1406.9026864592524 24.147812987212092 0 0 0 0 -9.0392422718846106 18.210325715597811 0 18.210325715597811 30.705356009683726 0 0 0 0 1736.1413794050677 252.38107932433923 0 252.38107932433923 -83.916122285401798 0 0 0 0 0.95730541760640619 1.5071032988326323 0 1.5071032988326323 8.5886710901186234 0 0 0 0 -295.34860966175984 62.272639634094958 0 62.272639634094958 281.88824197080976 0 0 0 0 -2963.2408831116627 -1201.4281005112571 0 -1201.4281005112571 196.95726668881252 0 0 0 0 -1.9388859552345821 60.121203517497634 0 60.121203517497634 -54.844046962010907 0 0 0 0 57.464898198359151 513.28866509699947 0 513.28866509699947 669.17460023438616 0 0 0 0 979.44203262009023 680.49180393629206 0 680.49180393629206 -298.90693993872264 0 0 0 0 500.84780516779574 679.22394259789871 0 679.22394259789871 -298.61856074980005 0 0 0 0 519.78915155389404 464.68690452568626 0 464.68690452568626 -729.9080114060489 0 0 0 0 271.32836040690745 352.44319651174737 0 352.44319651174737 -81.828110157046467 0 0 0 0 126.29052495959968 278.11348812766755 0 278.11348812766755 -112.77005051194283 0 0 0 0 55.907928088199697 191.60237229280392 0 191.60237229280392 48.243944669186021 0 0 0 0 116.69863822123443 39.918866703148524 0 39.918866703148524 -51.004399086519697 0 0 0 0 264.94838969853345 284.92508851179718 0 284.92508851179718 -724.68074915598845 0 0 0 0 220.92136482630303 497.10012082596222 0 497.10012082596222 -546.60563716548495 0 0 0 0 121.98127105497679 -6.8955450110138372 0 -6.8955450110138372 -1154.4017282779241 0 0 0 0 -17.650170810258714 764.33802013237437 0 764.33802013237437 -1192.4284325983258 0 0 0 0 -5.8398423627775031 7.0636183830150969 0 7.0636183830150969 -8.4300390122568842 0 0 0 0 -599.33368061755755 343.97488222397806 0 343.97488222397806 239.2324493577471 0 0 0 0 175.44595173044218 16.345927299640607 0 16.345927299640607 90.714699276184547 0 0 0 0 -351.25962358103789 423.19908943047267 0 423.19908943047267 -382.44229462873773 0 0 0 0 2.4893447286871435 4.6523687134932885 0 4.6523687134932885 5.6286570410183288 0 0 0 0 112.3057635817313 216.42235799449554 0 216.42235799449554 -58.581147761957254 0 0 0 0 281.41129109609756 170.5653641106619 0 170.5653641106619 -38.85845976949895 0 0 0 0 52.328350865493121 249.47024542911095 0 249.47024542911095 -35.6640066341497 0 0 0 0 53.596344653677079 405.84194381067937 0 405.84194381067937 -243.32254844339332 0 0 0 0 -144.23484057369933 310.75664406521537 0 310.75664406521537 -11.662614246219164 0 0 0 0 -298.7923958775209 240.83452166350617 0 240.83452166350617 257.61438144597923 0 0 0 0 -53.432239548019425 269.91307936180965 0 269.91307936180965 -83.38739028951386 0 0 0 0 -93.945221828558715 34.25718316937855 0 34.25718316937855 217.03999443187786 0 0 0 0 -424.73533669081917 428.7244004123786 0 428.7244004123786 -73.43246967138839 0 0 0 0 -794.24872473822279 708.280208100339 0 708.280208100339 -441.61436084631714 0 0 0 0 -118.2396935026045 430.32202173383848 0 430.32202173383848 -356.67702448155978 0 0 0 0 -182.45769462949829 484.94717623722318 0 484.94717623722318 -231.50745967599505 0 0 0 0 69.17975729322643 622.62765058714285 0 622.62765058714285 -586.62219351288513 0 0 0 0 184.46065631077363 430.43301262818204 0 430.43301262818204 -642.30949949898059 0 0 0 0 214.93376857059775 449.47766198415047 0 449.47766198415047 -381.62540656793863 0 0 0 0 114.09634705656208 456.28296049988421 0 456.28296049988421 -370.98706287536334 0 0 0 0 21.210819507148699 391.86322896647471 0 391.86322896647471 -155.41015456517925 0 0 0 0 47.93382386706071 358.32649322157522 0 358.32649322157522 -76.682281921224785 0 0 0 0 163.19316460056871 349.22913170924585 0 349.22913170924585 -170.27083072647292 0 0 0 0 118.19523108740395 340.10492307403183 0 340.10492307403183 -220.13872491063375 0 0 0 0 282.5240193351874 220.63175311537179 0 220.63175311537179 -595.41669401171384 0 0 0 0 69.333295845615794 138.58707699991646 0 138.58707699991646 -209.5673933541766 0 0 0 0 131.26613880289187 319.68462883746906 0 319.68462883746906 -336.62099255152862 0 0 0 0 270.66956740825117 302.97335259494139 0 302.97335259494139 -416.2480694102851 0 0 0 0 393.16974806274629 368.44432575406063 0 368.44432575406063 -752.96830185948784 0 0 0 0 221.67382670400366 437.70500632592666 0 437.70500632592666 -555.31312536413316 0 0 0 0 402.94059382771593 418.65640679308126 0 418.65640679308126 -586.22993552409753 0 0 0 0 536.71756058687606 246.38493620832742 0 246.38493620832742 -656.36584129564289 0 0 0 0 158.60587422545359 23.595842974216794 0 23.595842974216794 -506.35587463836055 0 0 0 0 128.43440718628517 -54.913950757847488 0 -54.913950757847488 -239.51708138009417 0 0 0 0 96.290318038245459 92.873398668347363 0 92.873398668347363 -134.61676731648913 0 0 0 0 93.802582255037123 86.756176921069709 0 86.756176921069709 -88.365234316472197 0 0 0 0 198.22180648136782 16.626413966438122 0 16.626413966438122 -94.83228740587947 0 0 0 0 94.877411527941149 98.174398968123569 0 98.174398968123569 25.99794139180085 0 0 0 0 30.331525535155379 128.00403013891628 0 128.00403013891628 -114.08221666007739 0 0 0 0 -20.859936263861528 161.71000450656629 0 161.71000450656629 -198.8909960759338 0 0 0 0 66.749373408216343 26.714104709782987 0 26.714104709782987 -162.89887406106573 0 0 0 0 -25.110097021872207 113.83105958553642 0 113.83105958553642 -57.86629106097098 0 0 0 0 29.436306814524869 56.441035511190421 0 56.441035511190421 -184.82843433824019 0 0 0 0 29.114645880524677 62.609170707217572 0 62.609170707217572 -95.674981653515715 0 0 0 0 138.1580772546622 66.87244339191966 0 66.87244339191966 -183.83747556213348 0 0 0 0 -46.817954825230117 188.68556985782197 0 188.68556985782197 161.9317706439324 0 0 0 0 -22.647458816143626 120.88430830816651 0 120.88430830816651 -140.57125642843312 0 0 0 0 93.51158473380201 284.3781765714084 0 284.3781765714084 -87.214215571160821 0 0 0 0 124.44155794291873 362.97633453020535 0 362.97633453020535 109.13708263210719 0 0 0 0 385.30394575836544 475.52147958360729 0 475.52147958360729 156.3710971896071 0 0 0 0 9.0353331716542016 -165.97013673277979 0 -165.97013673277979 -521.79124867916107 0 0 0 0 -198.06827279662139 -3.4432140909557347 0 -3.4432140909557347 -55.520882874814561 0 0 0 0 -139.54521355081215 361.04135310108722 0 361.04135310108722 728.8930069959024 0 0 0 0 -641.3410496571596 -383.55291248143476 0 -383.55291248143476 235.88495065565803 0 0 0 0 2.3090689807286253 -9.6656624377937987 0 -9.6656624377937987 -221.2886602235958 0 0 0 0 3.1277737202617573 15.253160695239785 0 15.253160695239785 -81.170293512994249 0 0 0 0 -266.69151113896544 462.08687071003078 0 462.08687071003078 -56.326312445045915 0 0 0 0 70.465379873740886 48.497355674882328 0 48.497355674882328 19.987621411063287 0 0 0 0 5.9823223001731094 156.40517144280602 0 156.40517144280602 -333.69062212057179 0 0 0 0 -444.3923072899529 218.09551232633021 0 218.09551232633021 103.48670105947531 0 0 0 0 -275.80558237638274 44.503753259312361 0 44.503753259312361 -143.52039316334412 0 0 0 0 -133.16707350622619 251.84651499662141 0 251.84651499662141 55.736657897607074 0 0 0 0 -156.65889604494026 -45.372282710375657 0 -45.372282710375657 271.94036988762673 0 0 0 0 -228.46220458103426 164.73067695054488 0 164.73067695054488 37.903715801890939 0 0 0 0 -268.97777565567822 49.811054387013428 0 49.811054387013428 474.68179811729351 0 0 0 0 -186.14136832972872 732.51228575542336 0 732.51228575542336 17.55225680366857 0 0 0 0 -210.1655760641579 338.42013098644384 0 338.42013098644384 26.10034013796394 0 0 0 0 -279.49509037613188 530.14081649272703 0 530.14081649272703 -322.2884288309433 0 0 0 0 -132.6707723531199 427.0550318949754 0 427.0550318949754 -467.96830158693047 0 0 0 0 68.35815667467692 45.253615502489282 0 45.253615502489282 14.052017577428927 0 0 0 0 416.74532216438092 249.81609431207471 0 249.81609431207471 1.8354496580432169 0 0 0 0 7.4733065334512503 379.08666590761277 0 379.08666590761277 -726.14479271248274 0 0 0 0 61.594175517766416 315.5178240576779 0 315.5178240576779 -1212.1540845520794 0 0 0 0 149.4240136056942 224.66316645214465 0 224.66316645214465 -1019.6271899568637 0 0 0 0 -49.424281342310906 -61.577968240659402 0 -61.577968240659402 -1233.2738899596443 0 0 0 0 542.92237778530318 19.006851893856037 0 19.006851893856037 -1404.243798034724 0 0 0 0 -68.920213629062346 -468.58965338654525 0 -468.58965338654525 -732.93358286815419 0 0 0 0 -241.63456018062789 447.91583689401159 0 447.91583689401159 -307.05284278456384 0 0 0 0 -0.48153644696355258 2.967043393895139 0 2.967043393895139 -13.654409457772971 0 0 0 0 -54.423321312089683 -69.594520612157794 0 -69.594520612157794 -41.943865219927829 0 0 0 0 134.17766786163429 7.5762945036053679 0 7.5762945036053679 -56.93933113910316 0 0 0 0 -3.5031118247936135 7.7882241894281634 0 7.7882241894281634 -35.451580778246893 0 0 0 0 272.11403831232383 99.417630056779672 0 99.417630056779672 -154.59279237105511 0 0 0 0 155.16038426272189 32.638193475318985 0 32.638193475318985 -51.610109056549845 0 0 0 0 90.163582382636378 69.921069139207248 0 69.921069139207248 -22.91067535077309 0 0 0 0 -135.81891517756321 160.48980887974449 0 160.48980887974449 -57.249409221753012 0 0 0 0 40.77537942616982 159.7808837291459 0 159.7808837291459 -412.8616740196012 0 0 0 0 66.703004480048548 67.511007476154191 0 67.511007476154191 -481.29704346902508 0 0 0 0 -109.79268810853318 261.40896451742447 0 261.40896451742447 -67.830556627057376 0 0 0 0 9.6005421302222942 4.8223395052262816 0 4.8223395052262816 -8.7536124326394997 0 0 0 0 126.21918998576439 14.549944235819567 0 14.549944235819567 -41.981708046238055 0 0 0 0 -32.751327315338131 162.31292113212839 0 162.31292113212839 -306.71549562381551 0 0 0 0 607.37218261646558 -21.813719258447236 0 -21.813719258447236 -304.80780465103817 0 0 0 0 3.7068404768415348 293.03120478670826 0 293.03120478670826 38.269070912967436 0 0 0 0 -0.93494346929884564 6.4883212044833556 0 6.4883212044833556 -24.098425254128927 0 0 0 0 139.04800437061203 194.01357453632954 0 194.01357453632954 -326.28779889187717 0 0 0 0 5.2983181495619647 80.886723255665856 0 80.886723255665856 -365.68020735686878 0 0 0 0 584.2872481088707 -191.07154403234381 0 -191.07154403234381 -687.62932671430463 0 0 0 0 -838.79827415738691 505.35994448416022 0 505.35994448416022 0.74355654760438483 0 0 0 0 -1526.340991204248 1066.8167914711521 0 1066.8167914711521 -451.5971029442444 0 0 0 0 -0.82324644401691582 4.7114193542503813 0 4.7114193542503813 -10.790756280759524 0 0 0 0 -64.511007233268174 17.182907576752768 0 17.182907576752768 295.21839027905662 0 0 0 0 -69.654775477436488 62.938996148695878 0 62.938996148695878 -110.70993531326803 0 0 0 0 274.30769116804731 -55.890737436755444 0 -55.890737436755444 -874.28797297208075 0 0 0 0 85.84128237359073 467.42326937506186 0 467.42326937506186 -1447.3815493923903 0 0 0 0 -1509.6822882402521 1124.4061148055116 0 1124.4061148055116 -787.32574819223373 0 0 0 0 -1153.3610481396227 790.09044813442961 0 790.09044813442961 -985.80208359914832 0 0 0 0 -1173.4865853113042 915.58971156710322 0 915.58971156710322 -1763.6200367539132 0 0 0 0 -1293.9536275703722 715.00004806513607 0 715.00004806513607 -1114.5795495962739 0 0 0 0 -855.09212161728647 65.721279008655983 0 65.721279008655983 -876.03852149512386 0 0 0 0 -1189.4255082074233 -50.573006250648177 0 -50.573006250648177 -1242.6932413544782 0 0 0 0 -611.10913507052464 626.74591957825032 0 626.74591957825032 -450.35757809756615 0 0 0 0 -1146.1739686014625 116.08927677039173 0 116.08927677039173 -476.5204735263701 0 0 0 0 -106.87121111725355 293.67087539017666 0 293.67087539017666 -1017.099316407126 0 0 0 0 -62.12515106536739 444.65095415357064 0 444.65095415357064 -1163.3728207749664 0 0 0 0 2.6845453891219222 538.82137473298644 0 538.82137473298644 -758.89042748245993 0 0 0 0 -25.967161429241969 677.55158579592353 0 677.55158579592353 -616.308476457707 0 0 0 0 -419.92704613817477 -52.51865093352535 0 -52.51865093352535 -16.319242906145519 0 0 0 0 -567.19939310539485 575.48916620489763 0 575.48916620489763 -500.48256509691419 0 0 0 0 -2.27890207005089 4.194818804496137 0 4.194818804496137 1.0117724145387115 0 0 0 0 -948.5351848071914 226.32668798792292 0 226.32668798792292 908.53063334098988 0 0 0 0 -152.84746456075663 1729.147218121514 0 1729.147218121514 -2040.5910485700515 0 0 0 0 -535.82322013351222 294.89835234732163 0 294.89835234732163 -729.29071935129832 0 0 0 0 2.4419404486809952 4.9226400918697095 0 4.9226400918697095 2.1591888374251198 0 0 0 0 -668.9198572135133 1248.5596297097131 0 1248.5596297097131 -993.62350386640173 0 0 0 0 -186.73422789375581 547.53179448744049 0 547.53179448744049 -1045.8094063098251 0 0 0 0 -448.42713977557287 316.99506167558138 0 316.99506167558138 -219.51397683366667 0 0 0 0 -412.05546469945693 176.89147766948008 0 176.89147766948008 -472.65863291933056 0 0 0 0 -296.2426655369818 497.15177977974236 0 497.15177977974236 -623.08990495747275 0 0 0 0 -373.29624336142388 320.84844534731656 0 320.84844534731656 -399.68398982180224 0 0 0 0 -785.36224451267481 934.32248600485036 0 934.32248600485036 -400.88360964761068 0 0 0 0 4.6957036563786687 10.110183947269547 0 10.110183947269547 8.6315803914185381 0 0 0 0 -169.46587629688293 316.44355113561323 0 316.44355113561323 -839.46876202087151 0 0 0 0 -3.6744291446727857 10.491145156841625 0 10.491145156841625 5.2051738670631948 0 0 0 0 -351.96033064298535 628.96449826948992 0 628.96449826948992 -837.42335756300599 0 0 0 0 21.828321835419047 363.2420723729374 0 363.2420723729374 -147.45462853714707 0 0 0 0 14.441933953516127 254.7866258914728 0 254.7866258914728 66.139870661805617 0 0 0 0 -121.82549020356964 100.56478288413564 0 100.56478288413564 -366.15343535806096 0 0 0 0 -329.05060922941448 648.5320137503204 0 648.5320137503204 -1071.7893422690249 0 0 0 0 -374.23339720628428 588.62505306613457 0 588.62505306613457 -1149.369908274457 0 0 0 0 0.13423886578280531 10.072540307293991 0 10.072540307293991 4.3983468415985101 0 0 0 0 -0.83686083631408792 -1.2667801007561792 0 -1.2667801007561792 -2.1176706917365777 0 0 0 0 -488.3645576061972 897.97290769408755 0 897.97290769408755 -947.94425859555486 0 0 0 0 -553.85343827716133 750.04708684988145 0 750.04708684988145 -1111.724365793576 0 0 0 0 -152.54763140884461 441.8497621471106 0 441.8497621471106 -1057.2467597981886 0 0 0 0 -630.72136063560902 496.13180252941675 0 496.13180252941675 -902.13889814349386 0 0 0 0 -253.71674896418699 411.31242632738577 0 411.31242632738577 -380.0940482012229 0 0 0 0 -476.35981229574099 711.10274790255789 0 711.10274790255789 -756.86944559557742 0 0 0 0 -230.04385441647355 414.62422070688172 0 414.62422070688172 -1054.5442575743073 0 0 0 0 -1.0380583005979034 0.93858158005171077 0 0.93858158005171077 -5.3235558348716268 0 0 0 0 -712.20564958709292 342.36801482801457 0 342.36801482801457 -188.63145995506784 0 0 0 0 -31.110837398518925 -90.308355932000268 0 -90.308355932000268 -280.80276809254792 0 0 0 0 1.0048253870240487 1.3488662252532322 0 1.3488662252532322 -6.5194406606854614 0 0 0 0 -86.881091059171013 371.2490951324653 0 371.2490951324653 -706.79995480089565 0 0 0 0 -5.0457346476301552 9.782312131720559 0 9.782312131720559 4.6836896522116973 0 0 0 0 -122.06362249393715 429.30912014671776 0 429.30912014671776 -274.00607023713746 0 0 0 0 -59.23411932750605 410.88311430672911 0 410.88311430672911 -929.67405102225166 0 0 0 0 -209.31018806085558 520.78983868684645 0 520.78983868684645 -777.36219003573933 0 0 0 0 -56.686015193114144 584.11540361930747 0 584.11540361930747 -670.6049112923065 0 0 0 0 -92.144917625613743 472.90574012338038 0 472.90574012338038 -765.6236309621745 0 0 0 0 -204.06701846265787 583.85678288072813 0 583.85678288072813 -643.51304001042445 0 0 0 0 3.7304037119829445 574.93171187389817 0 574.93171187389817 -703.45158187235938 0 0 0 0 82.109860182285047 266.83151914685368 0 266.83151914685368 -503.27085645667103 0 0 0 0 32.064629204862285 437.39189408907987 0 437.39189408907987 -805.42674092006928 0 0 0 0 -24.747258103436252 318.22040001671849 0 318.22040001671849 -403.16853694325255 0 0 0 0 -7.5861264830646462 19.664986790936041 0 19.664986790936041 10.745437911677897 0 0 0 0 -71.490357601924188 300.97259950323132 0 300.97259950323132 -405.956578710553 0 0 0 0 -26.880018011037464 90.18166517310965 0 90.18166517310965 -56.851124686996627 0 0 0 0 66.132893183130363 178.42525030945399 0 178.42525030945399 -570.93196055629232 0 0 0 0 117.85680961108301 -76.797241167267202 0 -76.797241167267202 -43.497093076774036 0 0 0 0 -3.7036552407716954 14.462200595706335 0 14.462200595706335 4.5932745479489654 0 0 0 0 7.4202669205275456 16.138872418416895 0 16.138872418416895 -18.189116874412548 0 0 0 0 -284.56742673093686 -34.666851562396914 0 -34.666851562396914 85.870830356085207 0 0 0 0 -86.856899885322491 73.668857198827027 0 73.668857198827027 -39.068668492262077 0 0 0 0 -348.71544120789986 405.40763587531274 0 405.40763587531274 -368.30865742242895 0 0 0 0 -9.7071281739504798 19.669782782392801 0 19.669782782392801 12.12261140577921 0 0 0 0 -161.91002015613776 70.583257982230862 0 70.583257982230862 76.160932951213908 0 0 0 0 -1.8819788497276022 26.880866853272892 0 26.880866853272892 -3.2357194047654048 0 0 0 0 -42.103630631361739 28.361005571561691 0 28.361005571561691 -13.837736511210096 0 0 0 0 -21.243771598838521 23.026054171233667 0 23.026054171233667 -1.398739834998679 0 0 0 0 -95.703281630878337 61.238574103790597 0 61.238574103790597 -5.3550223679994815 0 0 0 0 -62.8627943948959 71.522212589916307 0 71.522212589916307 -16.827114295381762 0 0 0 0 -2.6797208034742823 4.0700935433505805 0 4.0700935433505805 -2.2068651094510585 0 0 0 0 -9.1636302280494419 41.572419103322318 0 41.572419103322318 -24.437942305361503 0 0 0 0 16.142796545438614 23.603970738706266 0 23.603970738706266 -26.910172798305211 0 0 0 0 -29.629755815951285 51.5634178382752 0 51.5634178382752 -17.288916006364161 0 0 0 0 -18.451240075151873 41.334363409219804 0 41.334363409219804 -35.019968141357822 0 0 0 0 -9.360870641994552 31.953090392549711 0 31.953090392549711 1.9493639949068893 0 0 0 0 -124.57317950088691 18.549966327536822 0 18.549966327536822 -23.957315785832179 0 0 0 0 -5.613867300717871 24.960217043776254 0 24.960217043776254 4.4046375310396115 0 0 0 0 -14.390480854632187 34.861309669224283 0 34.861309669224283 -11.75104221559377 0 0 0 0 -8.5473171227149578 29.806160415289924 0 29.806160415289924 -11.915336946534808 0 0 0 0 -27.693753448369534 42.280637024388852 0 42.280637024388852 -10.044153520117106 0 0 0 0 -19.537878332825372 18.845970514445213 0 18.845970514445213 -5.0768301016733801 0 0 0 0 -9.1677454710097663 51.170313242333577 0 51.170313242333577 20.758418428056757 0 0 0 0 -32.963060807360307 51.948561993769545 0 51.948561993769545 20.74646564302202 0 0 0 0 -389.36696021490934 140.05168598210003 0 140.05168598210003 -57.424041019512515 0 0 0 0 -79.639618559409428 -12.693885953587596 0 -12.693885953587596 15.202795424556825 0 0 0 0 -2.6771787048029552 5.342749257497033 0 5.342749257497033 -5.1869531798278814 0 0 0 0 -11.480395446527091 23.217805920982087 0 23.217805920982087 -24.288313821451254 0 0 0 0 -416.01276147429235 71.021732184384746 0 71.021732184384746 -196.02118327094649 0 0 0 0 -827.43312950652762 377.67964546113944 0 377.67964546113944 45.007101004142896 0 0 0 0 -304.17825602683297 259.57962533843966 0 259.57962533843966 70.233470940278494 0 0 0 0 -358.47574626452479 300.70209142902604 0 300.70209142902604 197.54471285572799 0 0 0 0 299.84876203946442 514.53535304862635 0 514.53535304862635 183.11723567134322 0 0 0 0 -494.76009473290469 725.03566480118025 0 725.03566480118025 441.81595544925221 0 0 0 0 182.48002389590874 850.40293737224783 0 850.40293737224783 357.76654847657483 0 0 0 0 -479.03866311212187 571.28690057873973 0 571.28690057873973 -184.36826867198397 0 0 0 0 -240.60794894295896 695.39328155172643 0 695.39328155172643 -36.180245207899134 0 0 0 0 -749.04454225376685 733.41148920023261 0 733.41148920023261 -36.30935253628013 0 0 0 0 -575.72794769268512 447.47134689008817 0 447.47134689008817 -99.966713004629128 0 0 0 0 -585.32500012267701 1056.6120485959982 0 1056.6120485959982 -1779.0853406101232 0 0 0 0 -332.04283065578056 752.5724526613194 0 752.5724526613194 -613.46637013244617 0 0 0 0 -473.62481550395751 666.59395566266903 0 666.59395566266903 -526.77602646347805 0 0 0 0 -283.77488022283796 589.81570237175038 0 589.81570237175038 -227.13053379701887 0 0 0 0 2.3558378548425338 4.3663870149137445 0 4.3663870149137445 0.72915054671199186 0 0 0 0 374.48648684203727 185.03660899698662 0 185.03660899698662 -751.48606660659425 0 0 0 0 185.68826798398914 601.12463040343573 0 601.12463040343573 -1338.2305036914768 0 0 0 0 -369.35635522558005 451.43459979328327 0 451.43459979328327 -820.23776749180251 0 0 0 0 -692.15688610306461 -131.4964651022492 0 -131.4964651022492 -1872.8908592147054 0 0 0 0 -422.67086153036144 1216.1687566791115 0 1216.1687566791115 -1970.9313069197815 0 0 0 0 -1900.5214614786892 103.76885586333083 0 103.76885586333083 -664.01421690680218 0 0 0 0 154.78035987915428 264.81206173610917 0 264.81206173610917 -1351.02957757283 0 0 0 0 -184.79264746957051 625.95762000919058 0 625.95762000919058 -798.24358115638461 0 0 0 0 34.867796420850937 118.30234553520131 0 118.30234553520131 -245.78618986505899 0 0 0 0 -96.621847233218432 -158.75068445054785 0 -158.75068445054785 -372.77610668762645 0 0 0 0 -1967.6952621541886 -106.80154382547153 0 -106.80154382547153 179.47842309580301 0 0 0 0 -1669.7904640930901 1092.7492792510457 0 1092.7492792510457 -459.93088786613589 0 0 0 0 98.034708089675405 -316.19172639794124 0 -316.19172639794124 -1962.2061777592389 0 0 0 0 -4.9516841062752093 6.6584084571746587 0 6.6584084571746587 -11.152254488493611 0 0 0 0 
</DataArray>
<DataArray type="Float64" Name="cross_section_updated" format="ascii">
1 1 1 0.010502067770823374 1 1 1 1 1 1 1 1 1 1 1 1 1 1 0.010512132153349486 1 1 1 1 1 1 1 1 1 1 0.0043513604726183736 1 0.0024635148600594889 1 1 1 1 0.007775350875143229 1 1 1 1 1 1 1 1 1 1 1 1 1 1 1 0.010346175447205917 1 1 1 1 1 1 0.01114076224214422 1 1 1 1 1 1 1 1 1 1 1 1 1 1 1 1 1 1 1 1 1 1 1 1 1 1 1 1 1 1 1 1 1 0.0096742719275453581 1 1 1 1 1 1 1 0.0056107949185819801 1 1 1 1 1 0.0068338729467425745 1 1 0.0082560007121066717 1 1 1 1 1 1 1 1 1 1 0.01252651434955708 1 9.6515496983418103e-11 1 1 1 0.0094570180284214225 1 1 1 0.0097819071044859887 1 1 0.0011545204503886006 1 1 1 1 1 1 1 1 1 1 1 1 0.0096561912715494372 1 1 1 1 0.0085022407370135972 1 1 1 0.0068760739518756789 1 1 1 1 1 1 0.010242222498022396 1 0.012748646183513263 1 1 1 0.012620735938684171 1 1 1 1 1 1 1 1 1 1 1 1 1 0.0098360876299539626 1 1 1 1 1 1 1 1 0.015379125034037815 1 0.010464284128278462 1 0.0084077288784922492 1 0.021335505079928457 1 0.010834428831222619 1 1 1 1 1 1 0.010253268025022071 1 1 1 1 0.0099745992178856772 0.0090214133713821133 1 1 1 1 1 1 1 1 1 0.018578643263814289 1 1 1 0.034785428345990951 1 1 1 1 1 1 1 1 1 1 1 0.0099930880278824123 1 0.010174484201220704 1 1 1 1 1 1 0.0047409032911222872 1 0.0099896236835074967 1 0.0069934533017951619 1 1 1 1 1 1 0.010244131928489414 0.0051296294347374163 1 1 1 1 0.0018844140627052447 1 1 1 1 1 1 1 1 1 1 1 1 0.0087166582737881783 1 1 1 0.011834993546216562 1 1 1 1 1 1 1 1 1 1 1 1 1 1 1 1 1 1 1 0.016210443784406094 1 0.011247650502988905 1 1 0.0086526514635364548 1 1 1 1 0.010490786655053881 1 1 1 1 1 1 1 1 1 1 1 1 1 1 1 1 1 1 1 1 1 0.009141814647636656 1 1 1 0.0093613828896857917 1 1 1 1 1 1 1 1 1 1 1 1 1 1 1 0.010414658121758867 0.01167179440155286 1 1 1 0.01225389361092865 1 1 1 0.010201514928196702 1 1 0.010814044937279561 1 1 1 1 1 1 1 1 1 1 1 0.0097339487613391576 1 1 1 1 1 1 1 1 0.0055226592798629428 1 1 0.032665712347246904 1 1 1 0.03484268735630576 1 0.0099576488878487229 0.0097533711918439923 1 1 1 1 1 1 1 0.03678964227159412 1 1 1 1 1 1 1 1 1 1 1 1 1 1 1 1 1 1 1 1 1 1 0.0092827834738547811 1 1 0.0083527475999287636 1 1 0.012036960014386623 1 1 1 1 1 1 0.0071307734780964045 1 1 0.011228518769830963 1 1 1 1 1 1 1 1 1 1 1 1 1 1 1 0.01018212657097791 1 1 1 1 1 1 1 1 1 1 1 1 1 1 1 1 1 0.0096308058374054151 1 1 1 0.010003371709058788 1 1 1 1 1 1 1 1 1 1 1 1 1 1 1 0.0097830462178127471 1 1 1 1 1 1 1 0.011645410757801851 0.0087234190954387954 1 1 1 0.0099490093457624915 1 1 1 0.011800369084392776 1 1 0.0085933585773066284 1 0.012389047614291427 1 0.019736086917865225 0.0081066297668409421 0.010355896240906805 1 1 1 1 1 1 1 1 1 1 1 1 0.0080145317204727146 1 1 1 0.010314716769026129 1 0.010137260077984961 1 1 1 1 1 1 0.0091438623935659238 1 1 1 1 1 1 1 0.0097803049544785536 1 1 1 1 0.010483763955116361 1 0.0093684702732573684 1 1 1 1 0.011147941032979447 1 1 1 0.0090124134079223785 1 1 0.010021139273867705 1 1 1 1 0.0099419074765466058 1 1 1 1 1 0.0092564930937814541 0.010651722956657395 1 1 0.0098237495293306849 0.0099984591544149785 1 1 1 1 0.0098180539168340047 1 1 1 1 0.010848152748256425 1 0.0099926105844391887 1 0.010805977500356691 1 1 1 0.0097377882180069292 1 0.009303879020682828 0.013019618901825056 1 1 0.012317564548422325 1 1 1 1 1 1 0.010143483488438736 1 1 1 0.010901054525673182 1 1 0.011226302351387461 1 1 1 1 1 0.013516405215028796 1 0.010001471046405912 1 1 1 0.010907757605368173 1 0.011077433633696825 0.0085974631297985951 1 1 0.0093866292012450073 0.010558576625427583 1 1 0.010078910991214936 1 1 1 1 0.010530356440729055 1 0.01000611497324683 1 1 1 0.010183714254757854 1 1 1 1 1 1 1 0.010977723086136159 1 0.0099517281231505245 1 1 1 1 0.013842024960732179 1 1 1 1 1 1 0.011806686933648579 0.01079963643797726 1 1 0.010182479759669419 1 1 1 1 1 1 1 1 1 1 1 1 1 1 1 1 0.0092666435368878933 1 1 0.0079661200039168184 1 0.010887017299113979 1 1 1 1 1 1 1 1 1 1 1 1 1 1 1 1 1 1 1 1 1 1 1 1 1 0.010281742972409164 1 1 1 0.010570787081134899 0.010782926425699273 1 1 1 1 1 1 1 1 0.010048762376442637 1 1 0.014972433106529744 1 1 1 1 1 0.016322529544702882 1 1 0.01028021428789002 1 1 1 1 1 1 1 0.016747387293258458 1 1 0.0099784959445240531 0.010870153721256479 1 1 0.017266639941627943 0.010391541830146591 1 0.0099988862516998331 1 1 0.017849835046005465 1 1 0.014927593483950896 1 0.019171428225680204 0.0074551810302032999 1 0.0098892844925978357 1 1 1 0.0030441668131140284 1 1 1 1 1 1 1 1 1 1 1 1 1 1 1 0.029518879816988929 1 1 0.0022389611307386884 0.0063028477362563166 0.010322360438173273 1 1 1 1 1 1 1 1 1 1 1 1 1 1 0.0090556723177837549 1 1 1 0.010117377875582619 1 1 1 1 1 1 1 1 1 1 0.0097832984997760237 1 1 1 1 1 1 1 1 1 0.0046184367000776574 1 1 1 1 1 1 1 1 0.0073266875076336644 1 1 1 1 1 1 0.011936555398026141 1 1 1 1 1 0.009314899788283381 1 1 1 1 1 1 1 1 1 1 1 1 1 1 0.010783557827551075 1 0.012063552677293754 1 1 1 0.011406017839742245 1 1 1 1 0.010461100331197862 1 1 1 1 1 1 0.016597485821420559 1 1 1 0.011726708479578404 1 0.015103850685212587 1 0.0092221929939981379 1 1 1 1 1 0.0097573250870866199 1 1 1 1 1 1 1 1 1 1 0.012994913435863262 1 0.0073067855594397251 1 1 1 1 0.0061544193218866367 1 1 1 1 0.0038956076027107898 1 1 1 0.0044956643005833463 0.0099268410741856737 1 1 0.011005137093174298 1 1 1 0.010499904324324127 1 1 1 0.010154980265515211 1 1 1 1 1 1 1 1 1 1 1 1 1 1 1 1 1 1 1 0.012030586374789324 1 1 1 1 1 0.0079285344621687036 1 0.010338155209402343 1 1 1 1 1 1 0.020188753460001468 1 0.01455091506930381 1 1 0.025084129235216093 1 1 1 0.011541935185117327 1 1 1 1 1 1 1 1 1 1 1 1 0.012132649791250314 1 1 1 1 1 1 0.013527244015070265 0.010608131898595557 0.012072764878590644 1 1 0.007254539133877469 0.0086324301853077344 1 1 0.018955474084141305 1 1 1 0.0099726535540118882 1 1 1 1 1 1 1 1 1 1 1 1 1 1 0.018054122113847701 0.0017493259385910984 1 0.011339981703055198 1 1 1 1 1 1 0.012036809656578324 0.0057050484505344959 1 0.0098378861365425469 1 1 1 0.0033802635819869219 1 0.014491091442343161 1 1 0.011934546223446571 0.0045435730778184656 1 0.0098481359192838756 0.017235484597416275 1 1 1 0.01075254971452793 1 1 1 1 1 1 1 1 1 1 1 1 1 1 1 1 1 1 1 1 1 1 1 1 1 1 1 1 1 1 1 1 1 1 1 1 1 1 1 1 1 1 1 1 1 1 1 1 1 0.025449394653001778 1 1 1 1 1 1 0.025171931821022425 1 1 1 0.010018041798126294 1 1 1 1 1 1 1 1 1 1 0.010018656183202577 1 0.019320653981437688 0.015460694433837893 1 0.0051429737345281834 1 1 0.010134250065144063 1 1 1 1 1 1 1 1 1 1 1 1 0.0099972331186298797 1 1 1 0.0093312388326429324 1 1 1 1 0.014210237636673491 0.009359897278469231 0.010598710275632481 1 1 0.0072840696257341214 1 1 0.0090082269565460137 1 1 1 1 0.009669136256565819 0.0099856461046088016 1 1 1 1 1 1 1 1 1 1 1 1 1 1 1 1 0.009973144582482503 1 1 1 1 0.0031048417132889077 0.0074572914343197464 1 1 0.011893275057458857 1 1 1 1 1 1 1 1 1 1 1 1 1 1 1 0.010618111952880441 1 1 1 1 0.024023520349008867 0.0099239481061248955 1 1 1 1 1 1 1 1 1 1 1 1 0.020879058542937333 1 1 1 0.0069073239544098428 1 1 0.018623913547068355 1 1 1 1 1 1 1 1 1 1 1 1 1 1 1 1 1 0.008961488068501125 1 1 1 1 1 1 1 0.01119896296525015 1 1 1 1 1 1 1 1 1 1 1 1 1 1 1 1 1 1 1 1 1 1 1 1 0.010076457726669026 1 1 0.0082228900451389794 1 1 1 1 1 1 1 1 1 1 1 1 1 1 1 1 1 1 1 1 1 1 1 0.015897212044692018 1 1 0.010321886596033315 1 1 1 1 1 1 1 1 1 0.0088411663224569319 1 1 0.0030351741454750121 1 0.013613501678400149 1 1 1 0.0048875410124205008 0.0058054590570828183 1 1 1 1 1 0.0034288411504377839 1 1 1 1 0.012143967692296075 1 1 1 0.0084848788272085581 1 0.0098800443964035516 1 0.0092016864354104166 1 1 1 1 1 1 1 1 1 1 1 1 1 1 1 1 1 1 1 0.011016848539996854 1 1 1 1 1 1 0.010083412980194426 1 0.014249655890927831 0.0082539127116660616 1 1 1 0.012821858191501643 1 1 1 1 1 1 1 1 1 1 1 1 1 1 1 1 1 1 1 1 1 1 1 1 1 0.0094662369130940303 1 1 0.0014291374681867546 0.0078872618582865178 1 1 1 0.003802163616673934 1 1 1 1 1 1 1 1 1 1 1 0.019216742010263365 1 1 1 1 1 0.015100166298272353 0.0017526878552859525 1 0.010233251050465214 1 0.001947475152015956 1 1 0.0039182516473219037 0.013354243120819509 0.0045198582410852575 1 3.5182127714611378e-09 0.010083151059405174 1 1 1 1 0.0046123311464036599 1 0.0056025340558521425 1 1 0.010154126590109034 1 1 0.010012812281000495 1 0.00022684059474086188 1 1 1 0.010207380724099661 0.010021237530635666 1 1 0.0085123426882525235 1 1 1 1 0.0088892416597151028 1 1 1 1 1 1 1 1 1 0.0026736124414851285 1 1 1 1 1 1 0.013985540348223319 1 4.7922020691981704e-10 1 1 1.7499451922253773e-09 1 0.010071896096014117 1 1 1 1 1 1 1 1 1 0.0053809045579915355 1 1 1 1 1 1 1 0.0099258138824655107 1 1 1 0.0099385306157186212 1 0.0020825909527084872 1 1 1 1 1 1 1 1 1 0.0068318938959760576 1 1 1 1 1 1 0.0079366605500417499 1 1 1 1 1 1 2.9474519725944393e-09 1 1 1 1 1 0.0026006467285419974 1 1 1 1 1 1 1 0.0092231191468787159 1 1 1 1 1 1 1 1 1 1 1 0.022882412759931837 1 1 0.010493070519928031 1 1 1 1 1 0.021459878362845068 0.0050284678602123666 1 1 1 1 1 0.0026994948481904434 1 1 1 1 1 1 1 1 1 1 1 1 1 1 1 1 0.010000151430397378 1 1 1 1 1 1 1 1 1 1 1 1 1 1 0.00097199898138201728 1 1 1 1 1 0.00089882587125576438 1 1 1 1 1 1 1 1 1 1 1 1 1 1 1 1 1 1 1 1 1 1 1 1 1 1 1 1 0.010202713282533769 1 0.010001527053213406 1 1 1 1 1 1 1 1 1 1 1 1 1 1 1 0.010541010116521986 0.011056284586139869 1 1 1 0.012481716524994288 1 1 1 1 1 0.0080090492587451649 1 0.012790297799918396 1 1 0.011847102816601379 1 1 1 1 0.0099711900686835723 1 1 1 1 1 1 1 1 1 1 1 1 1 0.016482106303361724 1 1 1 1 1 1 1 1 1 1 1 1 1 1 0.013830176489675255 1 0.0097830895206197505 1 1 1 1 0.017305821777709091 1 1 1 1 1 1 1 1 1 1 1 1 1 1 1 1 1 1 0.0099198339554909601 1 1 1 1 1 1 1 1 1 1 1 1 1 0.010589909644434545 1 1 0.0089955424817102 1 1 1 1 0.0096623426765772603 1 1 1 1 1 1 0.012063146842307797 1 1 1 0.010015829842741237 1 1 0.011447597191753152 1 1 1 0.013073064682879795 1 1 1 1 1 1 0.0099981418029446521 1 1 1 1 0.010536549083696087 1 1 1 1 1 1 0.01086555310718379 1 1 0.013582203866766387 1 1 1 1 0.010466644481636842 1 1 1 1 1 1 0.011341424634200219 1 1 0.0064891472289168349 1 1 1 1 1 0.0098925685232194738 1 1 1 1 1 1 1 1 1 1 1 1 1 1 1 1 1 1 1 1 1 1 1 0.009245177481742731 1 1 1 1 1 1 1 1 1 1 1 1 1 1 1 1 1 1 1 1 0.009691355918352771 1 1 1 1 1 1 1 1 1 1 1 0.0094510025001828916 1 1 1 0.0093487029436930789 1 1 1 1 1 1 1 1 1 1 1 1 1 1 1 1 1 1 1 1 1 1 0.011516995959609044 1 1 1 1 0.0091669015592137672 1 1 0.014523011737248938 1 1 0.0076693092277910465 1 1 1 1 1 1 1 -1.8904785428069948e-09 1 1 1 0.0043859685653979373 1 1 0.013483641995537653 1 1 0.010729003597550442 0.014610568381858039 1 0.0097962676345099819 1 1 0.011218777985995751 1 1 0.009875567693113551 1 1 1 1 0.016032351802907054 1 1 1 1 0.0019303227288241936 1 1 0.0083033227836201498 1 0.004822323791500209 1 1 1 1 1 1 1 0.0050392339203650591 1 1 1 2.4948089774601279e-09 1 1 1 1 0.015292143984455915 1 1 1 1 0.0042223602591186082 1 0.011477134777907173 1 0.015210159614431239 0.0066789621884157675 1 1 0.01001222620829029 1 0.01610915638813111 1 0.017016653175309187 1 1 1 0.0014301594566348082 1 1 1 1 1 1 1 1 1 0.00078600967655522553 1 1 1 1 0.0091235429811482548 1 1 1 0.0099362801849099455 1 1 0.0097837475807431452 1 1 0.00027146112200003569 1 1 1 1 1 1 -1.0534228177261351e-09 1 1 1 0.0026290984040403115 1 1 1 1 1 0.0012690599314485688 1 1 1 1 1 1 1 1 1 1 1 1 0.0099454964264350087 0.010012942700559515 1 1 0.0010735688231729729 1 1 0.0059903072204172108 0.0057020510623490596 1 1 1 0.012055057660505171 1 1 1 1 1 1 1 1 1 1 1 0.0099998968687578984 1 1 0.00099110433125606384 1 1 1 1 1 1 1 1 1 1 1 0.013752248810080654 1 1 1 1 1 1 1 1 1 1 1 1 1 1 0.012243870206619109 1 1 1 1 1 1 0.010253433030023868 1 1 1 1 1 1 1 1 1 1 0.010296724571367027 0.01049750459161765 1 1 1 1 1 0.011192385199021691 1 1 1 1 1 1 1 1 1 1 1 1 1 1 1 1 1 1 1 1 1 1 1 1 1 1 1 0.0082734738168473432 1 1 1 1 1 1 0.010041160745954238 1 1 1 0.0099985024442228142 1 1 1 1 1 1 1 1 0.010242491987137385 1 1 0.010581862802576615 0.010630954251470889 1 1 1 1 1 1 1 1 1 1 1 1 1 1 0.010386108370560367 1 1 0.010068537298785011 1 1 1 1 1 1 1 1 1 1 1 0.0072562578714921045 1 1 1 1 1 1 1 -1.9032608696532838e-09 0.011156355245979492 1 1 1 0.0099949581611716506 1 1 1 1.2886528719113777e-09 1 1 1 1 1 1 1 1 1 1 1 1 0.0099508939617429775 1 1 0.014844563388109305 1 1 0.0022385362487262229 1 1 1 1 1 1 1 0.0078493628032012819 0.0034974952179074661 1 1 1 0.014391003601036035 1 1 1 1 0.014960944936002174 1 0.0044347830573070578 1 0.0099773610480569756 1 1 1 1 1 1 0.0097448188524371111 1 1 1 1 1 1 1 1 1 0.012270336946009932 0.011267523028645011 1 1 1 1 0.010382920368376361 1 1 1 1 1 1 1 0.0093813741408658845 1 1 0.011507343045302989 1 1 0.009453253063020731 1 1 1 0.01025989242822202 1 1 1 1 1 1 1 1 1 1 0.0089107964362353416 1 1 1 1 1 0.0089193858640797142 1 1 1 0.009999527745824301 1 1 0.0082422981647142027 1 0.0062180035466266569 0.012658067722033201 0.012221181969527942 1 1 1 1 1 1 0.004436331744934692 0.010019786823967002 0.013326569116252549 1 1 0.0066940400433500935 1 1 0.015302773148073608 1 1 0.0097995404849756766 1 1 1 1 0.0041920816882063117 1 1 1 1 1 1 1 0.0090583171765647764 1 1 1 1 1 1 1 1 1 1 1 1 1 1 1 1 1 0.0097042675316825061 1 1 1 1 1 0.0099562312627679943 1 1 1 1 1 1 0.0067826806256221575 1 0.015882111489632991 0.016503091795501884 1 1 0.0013971186725799667 1 1 1 0.013638174234542054 1 1 0.009904895033319986 1 1 0.0066137927598203944 1 0.0083987601615829466 1 1 1 0.0070482595895983782 1 1 1 1 0.0070374130448061911 0.011019883872499171 1 1 1 0.0067864767199205499 1 0.0092727982858035341 0.0056500253047206996 1 1 0.0077564463409963529 1 1 1 1 1 0.0099835835764167935 1 1 0.0086073698029184784 1 1 1 1 0.0095417737725847947 1 1 1 1 1 0.0068674715549475254 1 1 1 1 0.0061080762798621027 1 1 1 0.0050420164606322978 1 0.0089315576575014367 1 1 1 0.0052762918926865885 1 1 1 0.010001827897294563 1 1 1 1 1 1 1 1 0.0097623410294507915 1 1 1 1 1 1 1 1 1 1 1 1 1 1 1 1 0.0093091668111429521 1 0.011214994833759529 1 1 1 0.013125700891198381 1 1 1 1 1 1 0.010006266080057689 0.0091400442668363099 1 1 1 1 1 1 1 1 1 0.010339949182449841 1 1 1 1 0.011127935617915065 1 1 1 1 1 1 0.012573519875283155 0.0099202768717114431 1 1 1 0.0099427286031063319 0.01229634943600421 1 0.0098483936370447351 1 1 1 0.0070088211099827782 1 1 1 1 0.0074661132446071001 1 1 1 1 1 1 1 1 0.0093615144284145066 0.010013109706227747 1 0.011590406930518993 1 1 1 1 1 1 1 1 1 1 1 0.010400692773600399 1 1 1 1 1 1 1 1 1 1 1 1 1 1 1 1 1 1 1 1 1 1 1 1 0.01070754670656756 1 1 1 1 1 1 1 1 1 1 1 1 1 1 1 1 1 1 1 1 1 1 1 1 1 1 1 1 1 1 1 1 1 1 1 1 1 1 1 1 1 1 1 1 1 1 1 1 1 1 1 1 1 1 1 1 1 1 1 1 1 1 1 1 1 1 1 1 1 1 1 1 1 1 1 1 1 1 1 1 1 1 1 1 1 1 1 1 1 1 1 1 1 0.015589978595207091 1 0.0099563075836745299 1 1 1 0.010000361251506001 1 1 0.0069056936607693117 1 0.014718287633041902 1 1 1 1 1 0.0099945436454137275 1 1 1 1 1 1 0.010366404376664258 1 1 1 1 1 1 0.010003430767623174 1 0.014238015024200237 1 0.0091799848487796668 1 1 1 0.011773009881404402 1 0.011493176591021502 1 0.011054837938558663 1 1 0.010599169291108865 1 0.010022397617884014 1 1 1 1 1 1 1 1 1 1 0.010033898138451867 1 0.009794956762065413 1 1 1 0.010250528125645371 1 0.010265295120340752 1 1 1 1 1 1 1 0.011931712058152397 1 0.0091600546603002875 1 1 1 0.011388459116687007 1 0.01000054892914827 1 0.010296076246300424 1 1 1 1 0.012017889960963868 1 1 1 0.009384948084009052 1 1 1 1 1 1 1 1 1 1 1 0.010090249788567518 0.011229191533476058 1 0.0099770750619547731 1 1 1 1 1 0.010851348537769437 0.011050050891178172 1 1 0.010171278866405731 1 1 0.01011721170467729 1 1 1 0.010308876992001646 0.010465806451840927 1 1 1 1 1 1 1 1 1 1 1 1 1 0.011427140052681051 1 0.011140053647533329 1 1 1 1 1 1 1 1 1 0.01116603401330972 1 1 1 1 1 1 1 1 1 1 1 1 1 1 1 1 1 1 1 1 1 1 1 1 1 1 1 1 1 1 1 1 0.010083383211100807 1 0.0088934681678784974 1 0.01008132250592194 1 0.012427163891724428 1 1 1 1 0.010190979471526342 1 0.010695309440287556 1 1 1 1 1 0.023025805014163247 1 1 1 1 1 1 1 1 1 1 1 1 1 1 1 1 1 1 1 1 1 1 1 1 0.015928719749018355 1 1 1 0.0122626736696406 1 1 1 1 1 0.012630988043969784 1 0.01171297892613821 1 1 1 1 1 1 1 1 1 1 1 1 1 1 1 1 0.010508931149469172 0.0091955039562950022 1 1 1 1 1 1 1 1 1 1 0.010562343105762012 1 1 1 1 0.010914060202901166 1 1 1 1 1 1 1 1 0.01017295576739633 1 0.010031460228474063 1 1 1 1 1 1 1 0.010917009280872114 1 1 1 1 1 1 1 1 1 1 1 1 1 1 1 1 1 1 1 0.010977010280677218 0.0099937658808471157 1 0.010020731858831674 1 1 1 1 1 1 1 0.010562949256661628 1 1 1 1 0.010052096584551704 1 1 1 1 1 1 1 1 1 1 1 0.010854218524232255 1 1 1 1 0.011174375952845227 1 1 1 1 0.019329305463229127 1 1 1 1 1 1 1 1 1 1 1 0.0098078101231264952 1 1 1 1 1 1 1 1 1 1 1 1 1 1 1 1 1 1 1 1 1 1 1 1 1 1 1 1 1 1 1 1 1 1 1 0.013246541905665028 1 1 1 1 1 1 1 1 1 1 1 1 1 1 1 1 1 1 1 1 1 1 1 1 1 1 1 1 1 1 1 1 0.019127936120500698 1 1 1 1 1 1 1 1 1 1 1 1 1 1 1 1 1 1 1 1 1 1 1 1 1 1 1 1 1 1 1 0.015807645650944287 0.015929869703195002 1 1 1 1 1 1 1 1 1 1 1 1 1 1 1 1 1 0.010073851747316905 1 1 1 1 0.009295210847030895 1 0.0064742573812150567 1 1 1 1 1 1 1 0.011050047646712389 1 1 1 1 1 0.01012434132018983 1 1 1 1 1 1 1 1 1 1 1 1 1 1 1 1 1 1 1 1 1 1 1 1 1 1 1 1 1 1 1 1 1 1 1 1 1 1 1 1 1 1 1 1 1 1 1 1 1 1 1 1 1 1 1 1 1 1 1 1 1 1 1 1 1 1 1 1 1 1 1 1 1 1 1 1 1 1 1 1 1 1 1 1 1 1 1 1 1 0.020074524506697111 1 1 1 0.011055954247589709 1 1 1 1 1 1 1 1 1 1 1 0.014840728986596956 1 1 1 1 1 1 1 1 1 1 1 1 1 0.01551043309018044 1 1 1 1 1 1 1 1 1 1 1 1 1 1 1 1 1 0.011097873667084389 1 1 1 1 1 1 1 1 1 1 1 1 1 1 1 1 1 1 1 1 0.010608977019036164 1 1 0.011521985381966672 1 0.010937069533993975 1 1 1 1 1 1 1 1 1 1 1 1 1 1 0.015430984506001989 1 1 1 0.0098763191774995998 1 0.012082268212777462 1 1 1 1 0.0093918454492192202 1 1 0.0080661763197834441 1 1 1 1 1 1 1 1 1 1 1 1 1 1 1 1 1 1 1 1 0.010330055011620112 1 1 1 1 1 1 1 1 1 1 0.010463708599905518 1 1 1 1 1 1 0.011752026470230284 0.011464844107345088 1 1 1 1 0.012450879490506987 1 1 1 1 1 1 1 1 1 1 1 1 1 1 1 1 1 1 1 1 1 1 1 1 1 1 1 1 1 0.012666345143133943 0.010880773276007262 1 1 1 1 1 0.014014572632568277 1 0.0098018913441041411 1 1 1 1 1 1 1 1 1 1 1 0.011284907553033957 1 1 0.012598190977721966 0.0065752090419553613 1 1 0.010946516188219044 1 1 1 1 0.011094838128572962 1 1 0.010301543858614624 1 1 1 1 0.0094821965028345501 1 1 1 1 1 1 1 1 1 0.0072279909569152277 1 1 1 1 1 0.0077644654419236209 0.012452516235489515 1 0.011388452654778343 1 1 1 0.01287198058141743 1 0.011723931775366408 1 0.013221575764387832 1 1 1 1 1 0.0024752230096530548 1 1 1 0.011031650101751451 0.014155170790984864 1 1 1 0.0043310360040989676 0.016374795679591398 1 0.018880884131148086 0.0091197655845408412 1 1 1 1 0.0068285294024763646 1 1 1 1 1 0.020763437331092888 1 1 1 1 1 0.012253260789323393 1 1 1 1 0.009797670778152294 1 1 1 1 1 1 1 1 1 0.0088018415246568435 1 1 1 1 1 1 1 1 1 1 1 1 1 1 1 1 1 1 1 0.016868231769722668 1 1 0.0085462505718620161 1 0.021780395016934476 1 0.00829584415070048 1 1 1 1 1 1 1 1 1 0.011206815125715093 0.0082402005132771947 1 0.018330963109206129 1 1 0.020200220830437446 1 1 1 1 1 0.010163910539241781 1 1 1 1 1 1 1 1 1 1 1 1 0.013474944967727467 1 0.015228213606025708 1 0.0055684523339542269 -1.9983199123219109e-10 1 1 1 1 1 1 1 1 0.019696900088751145 1 1 0.010653024731617146 1 1 1 1 1 1 1 1 1 1 0.010541050021350248 1 1 1 1 0.017139155830838578 1 1 1 1 1 1 1 1 1 1 1 1 1 1 1 1 1 1 1 1 1 1 1 1 1 1 1 1 0.011156008370940386 1 1 1 1 1 0.013598477811006709 1 0.0094991250610851619 0.011971081927481749 1 1 1 1 1 1 1 1 1 1 1 1 1 1 1 1 1 1 1 0.010646962476856592 1 1 1 1 1 0.011296604657097153 1 1 1 1 1 1 1 1 1 1 1 1 1 1 0.011200518739129839 1 1 1 1 1 1 0.010651059024810002 1 1 1 1 1 1 1 1 1 1 1 1 1 1 1 0.0077595387397089086 1 1 1 1 1 1 1 1 1 0.013390519458719125 1 1 0.0033362600355478361 1 0.012665051213304895 1 1 1 1 0.00039253186577063032 1 1 1 0.023905024257603356 1 1 1 1 1 0.010897814293333476 1 1 1 1 1 1 0.0054014540120692275 1 1 1 1 1 1 1 1 1 1 1 1 1 1 1 1 1 0.0027850636221255359 1 1 1 0.01128293643339371 1 1 1 1 0.010011243458606975 1 0.0099190500372141679 1 1 1 1 1 1 1 1 0.01086304352455213 1 1 1 1 1 1 1 0.012417136001435153 1 1 1 1 1 1 1 1 1 1 0.0099790258953242755 0.0089175070073847645 1 1 1 1 1 1 1 1 1 1 1 1 1 1 1 1 1 1 0.0076833584766522536 1 1 1 1 1 0.011354330310897907 1 0.010003809431563499 1 1 1 1 1 1 1 0.010949710673296125 1 0.015406119730511623 1 1 1 1 0.0086582135780434097 0.013036689577665812 1 1 1 0.011686018012482514 1 0.011353646924616986 0.010028360665150371 1 1 1 1 0.011018384241271894 0.01002415736314341 1 1 1 1 1 1 0.011813810336091636 1 1 1 0.010361968691832967 1 1 1 1 1 0.016392349895631049 1 1 1 1 1 1 1 1 1 1 1 0.012319095475894402 1 1 1 1 1 1 1 1 1 1 1 1 1 1 1 1 1 1 1 1 1 0.01039636635296254 1 1 1 1 1 1 1 1 1 1 1 1 1 1 1 1 0.014927022055045562 1 1 1 1 0.011871088171709053 1 1 1 1 1 1 1 0.010210760039713038 1 0.012861216680597212 1 1 0.014100275858380446 1 0.013069270601957304 1 0.01077417330648802 1 1 1 1 1 1 1 1 1 0.012922770004792437 1 1 1 0.011619317321434649 1 1 1 0.011837708595295315 1 1 0.010321097113154827 1 1 1 1 1 1 1 1 1 1 1 1 0.011303452683357817 1 1 1 0.01716488513154792 1 1 1 1 1 1 1 1 0.0083367230112138396 1 1 1 1 1 0.018828794094807623 1 1 1 1 1 1 1 1 0.020873531478540208 0.023042041318150883 1 1 1 1 1 1 1 0.0097293058551713631 1 1 1 1 1 1 1 1 1 1 1 1 1 1 1 1 1 1 1 1 1 1 1 1 1 1 1 1 1 1 1 1 1 1 1 1 1 1 1 1 1 1 1 1 1 1 1 1 1 1 1 1 1 1 1 1 1 1 1 1 1 1 1 1 1 1 1 1 0.010115792951165978 1 1 0.0097181706639175112 1 1 1 1 1 0.010115423915418933 1 1 1 1 1 1 1 1 1 1 1 1 1 1 1 1 1 1 1 1 0.0094579982915561928 0.0057516132249932905 1 1 0.0083315603290752133 1 1 1 0.0097178704970097684 1 1 1 1 1 1 0.0097147673022375536 1 1 1 1 0.0089938635446441539 1 1 1 1 1 1 0.010720584174486368 0.0077497002176266025 1 1 1 1 1 1 0.010168565955101981 1 1 1 0.010141954250198079 1 1 1 0.011664070019218289 1 1 1 1 1 1 1 1 1 0.010024864361929349 1 1 1 1 1 1 0.010746832599530194 0.01211531282003675 1 1 1 1 1 0.01054861757221994 1 1 1 1 1 0.0097160532269931904 1 0.01344982356266544 1 0.0094946536236568055 1 1 1 0.014397796280266231 1 1 1 1 1 1 1 0.011185478443748408 0.011232447782326214 1 1 1 1 1 1 1 1 1 1 1 1 1 1 1 1 0.010595586910797738 1 1 1 1 1 1 1 1 0.010332051877073308 1 1 1 1 1 0.011365651484898818 1 1 1 1 1 1 0.013596157647856884 1 1 1 1 1 1 1 1 1 0.0098964103368933062 1 1 0.0081527504867088124 1 0.016042972059620214 1 0.0096465492270067787 0.017044760129117036 1 1 1 1 1 1 1 1 1 1 1 1 1 1 1 1 1 1 0.0089719358912767402 1 1 1 0.010350775720118813 1 1 0.0097643202333380086 1 1 1 1 1 1 1 1 1 1 1 1 1 1 1 1 1 1 1 1 1 1 1 1 1 1 1 1 1 1 1 1 1 1 1 1 1 1 1 1 1 1 1 1 1 1 1 1 1 0.010682827597192133 1 1 1 1 1 1 1 1 1 1 1 1 1 1 1 1 1 1 1 0.0082192267854697756 1 1 1 1 1 1 1 1 1 1 1 1 1 1 1 1 1 1 1 1 0.0053745617143487467 1 1 1 1 1 1 1 1 1 1 1 1 1 1 1 1 1 1 1 1 1 1 1 1 1 1 1 1 1 1 1 1 1 1 1 0.0092942525255640465 1 1 1 1 1 1 1 1 1 0.015624972611207755 1 1 1 1 1 1 1 1 1 1 1 0.0095868774113228444 1 1 1 1 1 1 1 1 1 1 1 1 1 1 0.018408573781037156 1 1 1 1 1 0.0071953577588123943 1 0.014601290874184072 1 1 1 1 1 1 1 1 1 1 1 0.0099626467436425593 1 1 1 0.0094278016360643917 1 1 0.011060153825834189 1 1 1 1 0.0036406858073611201 1 1 1 0.0059209306206837592 1 1 1 1 0.017797591222398684 1 1 1 1 1 1 0.0080594596914909111 1 1 1 1 0.012634590010270175 1 0.010187938429691921 1 1 1 1 1 1 1 1 1 1 1 1 0.015284955414134486 1 1 1 0.009527257590447348 1 1 0.014080178437579284 1 1 1 1 1 0.011249810161233177 1 1 1 1 0.0048108602943028912 1 1 1 1 1 1 1 0.011045913586549765 1 1 1 1 1 1 1 1 1 1 0.012118732582699458 1 1 1 1 0.0089451790216801032 1 1 1 1 1 1 1 1 1 1 1 0.0069220868075061115 1 1 1 1 0.010965702523024768 1 0.010330501557472045 1 1 1 1 1 1 1 1 1 1 1 0.011591540825677399 1 1 1 0.016897679342725971 1 1 1 0.018191606217975689 1 1 1 0.0093136374012489365 1 1 1 1 1 1 0.0096386033690720376 1 1 1 1 1 1 1 0.013069169085230203 1 1 1 1 0.011984089774772166 1 1 1 1 1 1 1 1 1 1 1 1 1 0.010006511143656933 1 1 0.010167158791640473 1 1 1 1 1 1 1 1 0.014713403555590823 1 1 1 1 1 1 -2.0457840803345118e-09 0.010028300091136096 1 1 1 1 1 1 0.004410264417175706 1 1 1 0.0064136354570373602 1 1 1 1 1 1 1 1 1 1 1 1 1 1 1 1 1 1 1 1 1 1 1 1 1 1 1 0.012562287915052477 1 1 1 0.010088285314392091 1 1 1 1 1 0.010040427136260265 1 1 1 1 0.011216676795561729 1 1 1 1 1 1 1 1 1 1 1 1 1 1 1 1 1 0.0099539334259321419 1 1 1 1 1 1 1 1 1 1 1 1 1 1 1 1 1 1 1 1 1 1 1 1 0.010743917429405947 0.0095805283674039315 1 1 1 1 1 1 1 1 1 1 1 1 1 1 1 1 1 1 1 1 1 1 1 1 1 1 1 1 1 1 1 1 1 1 1 1 1 1 1 1 1 1 1 1 1 1 1 1 1 1 1 1 1 1 1 1 1 1 1 1 1 1 1 1 1 1 1 1 1 1 0.010064816754832309 0.0060879043262008301 1 1 1 1 1 1 1 1 1 1 1 1 1 1 1 1 1 1 1 1 1 1 1 1 1 0.0087512713253540056 1 1 2.8098235196893917e-09 1 1 1 1 1 1 1 0.00079102516038353707 0.0032131561930383093 1 1 1 1 1 0.010767394950813126 1 1 1 1 1 1 1 1 1 0.0084455414018611979 1 1 1 1 1 1 1 1 1 1 1 1 1 1 1 1 1 1 1 1 1 0.0015077377985197142 1 1 1 1 1 0.00090530270880861963 0.0099506558917937995 0.0025990365895215747 1 1 1 1 0.0012462766787720275 1 1 1 1 1 1 1 1 1 1 2.8521390386554782e-05 1 1 1 1 1 1 1 0.00035328832841234267 1 1 1 1 1 -2.4867464407107853e-09 1 1 0.010056837246956067 1 1 0.00067278444319861068 1 1 0.010377273919688571 1 0.018752205560972485 1 1 1 1 0.016230784109236708 1 0.010915943948373537 1 1 1 1 1 1 1 1 1 1 1 1 1 1 1 1 1 1 1 1 1 1 1 1 1 1 1 1 1 1 0.011021543776678442 1 1 1 1 0.014122765812785324 1 1 0.01076929984337539 1 1 1 1 1 1 1 0.010286426095381912 1 1 1 1 1 1 1 1 1 1 1 1 1 1 1 1 1 1 1 1 1 1 1 1 1 1 1 1 1 1 1 1 1 1 1 1 1 1 1 1 1 1 1 1 1 1 1 1 1 1 1 1 1 1 1 1 1 1 1 1 1 1 1 1 1 1 1 1 1 1 1 1 1 1 1 1 1 0.0037102125185621004 1 1 1 1 1 1 1 1 1 1 1 1 1 1 1 1 1 1 1 1 1 1 1 1 1 1 1 1 1 1 1 1 1 1 1 1 1 1 1 1 1 1 1 1 1 1 1 1 0.010033804956692018 1 1 1 0.010053278507066256 1 1 1 1 1 1 0.0047292094537827838 1 1 1 1 0.006562995551374174 1 1 1 1 1 1 1 1 1 1 1 1 1 1 1 1 1 1 1 1 1 1 1 1 1 1 1 1 1 1 0.0013077828189338725 1 1 0.000607755308205251 1 1 0.0002457689984328576 1 1 1 1 1 0.009707375114241204 1 1 1 1 1 0.0029627553005626694 1 1 1 1 1 1 1 0.0025673688193055891 1 1 1 1 0.0023641231477664407 1 1 0.010096913472397528 1 1 1 1 1 1 1 0.0028653487911277017 1 1 0.014540207137143404 1 1 1 1 1 0.011698199524542036 1 1 1 1 1 1 0.0080277603813824275 1 1 1 1 1 1 1 1 0.010165476384863259 1 1 1 1 1 1 1 1 1 1 1 1 1 1 1 1 1 1 1 1 1 1 0.013360426863509418 1 1 1 1 0.0042963872701029908 1 1 1 1 1 1 1 1 1 1 0.010078577087026103 0.011121929972336589 1 1 1 1 0.0052248210646007182 1 1 1 1 1 1 1 1 1 1 1 1 1 1 1 0.0082599172443063341 1 1 1 1 1 1 1 1 1 1 1 1 1 1 1 1 1 1 1 1 1 1 1 1 1 1 1 1 1 1 1 1 1 0.0082392800174352944 1 1 0.0091145595550748519 1 1 1 1 0.0089444405629806028 1 1 1 1 1 0.0064083035531319124 1 1 1 1 2.4406193697978917e-09 1 1 1 1 1 1 1 1 1 1 1 0.01066344111270677 1 1 0.011798124814225489 1 0.0098244429030460035 1 0.0082665243208009387 0.012094439015510872 1 1 1 1 1 1 1 1 1 1 0.0080678280684189536 0.009953009875690446 1 1 1 1 1 1 1 1 1 1 1 1 1 1 1 1 1 1 1 1 1 1 1 1 1 1 1 1 1 1 1 1 1 0.016037528889779246 1 1 1 1 1 0.01225141196417491 1 1 1 1 1 1 1 1 1 1 1 1 1 1 1 1 1 1 1 1 1 1 1 1 1 1 0.0099722087739908035 1 1 1 -2.2572340177551276e-10 1 1 1 3.3153847401809489e-09 1 1 1 1 1 -2.1364027300713184e-10 1 0.0097431234530935378 1 1 1 1 2.2348083453249679e-10 1 -2.226756528733026e-10 1 0.0018003429853684621 1 1 1.2417076741821909e-09 1 1 1 1 1 1 1 1 1 1 1 1 1 1 1 1 1 1 -2.7130959579652059e-09 1 1 0.012838743797539184 1 1 0.0015646979594329037 1 0.011657271685380574 1 1 1 0.0048243908219944556 1 1 1 1 0.0096607813922846252 1 1 1 1 1 1 1 1 1 1 1 0.0072723474632614415 1 0.0086389478274015649 1 0.0011412632332922189 0.0065916768825798958 1 0.011005618899079302 1 1 1 1 1 1 1 1 1 1 1 1 3.1608027410701123e-09 1 0.0098256331115609361 1 1 1 1 1 1 1 1 0.010103290213336053 1 1 0.010029441930474964 0.0037254387914609274 1 1 1 1 1 1 1 0.0032181133496720212 0.0051090934642437375 1 1 1 1 1 1 1 2.545017053873222e-05 1 1 1 1 -7.4939704095000614e-10 1 1 1 1 1 1 1 1 1 1 1 1 1 1 1 0.0019590657844375942 1 1 1.2919278858519734e-09 1 1 1 0.018066965171065853 1 1 0.0060914531434496152 1 1 0.0098158236122346306 1 1 0.010036295914350127 1 1 1 1 1 1 1 1 1 0.0082864544284995175 1 1.6213077625240602e-10 1 1 1 1 1 0.0094723757357727568 1 1 -9.4064098697665965e-10 1 1 1 1 1 0.0006371757412204776 1 1 1 1 0.008774079398236604 1 1 1 1 1 0.0047360283002297297 1 1 1 0.0036833418780024825 1 1 0.0051004382557562188 1 1 1 0.0065189466644521177 1 1 1 1 1 1 1 1 1 0.010311708686799358 0.010045153724363876 1 1 0.01122285709167903 1 1 1 1 1 1 0.0024218588957756644 1 1 1 1 -9.2148530472790924e-10 1 1 1 1 1 1 1 1 1 1 1 0.0076957330733336392 1 1 0.010517911058713598 1 1 1 1 1 1 1 1 1 1 1 1 1 1 1 1 0.0089496974038962267 1 1 1 1 1 1 1 1 1 1 1 1 1 0.010211481754065629 1 1 1 0.015856087600857278 1 1 0.013316743104360419 1 1 0.010827175913608685 1 1 0.0083259063465259044 1 1 1 1 1 1 1 1 0.010037097132626363 1 1 1 1 0.0069924181121926929 1 1 1 1 1 1 1 1 1 1 1 1 1 1 1 0.0072565104870396923 1 1 1 1 1 1 1 1 1 1 1 1 1 0.0067884049383221089 1 1 1 1 0.013975245361068693 1 1 1 1 1 1 1 1 1 1 1 1 1 1 1 1 1 1 1 1 1 1 1 1 1 1 0.0099363018407807955 1 1 1 1 1 0.0098652287760462379 1 1 0.014931163382762253 1 1 1 1 1 1 1 1 1 0.0170970194023225 1 1 1 0.0022763524416136924 1 1 1 1 1 1 1 1 1 1 1 1 1 0.0044204658313583955 1 1 0.011519654524869583 1 1 1 1 1 0.011869572609387681 1 1 1 1 1 1 0.014651086680823169 1 1 1 0.011517368999569809 1 1 1 1 0.0096184781450797206 1 0.016603510967140338 1 1 1 1 1 1 1 1 0.006664637897124159 1 1 1 1 1 1 0.010616284306362248 1 1 1 1 1 1 1 1 1 1 1 1 1 1 1 1 1 1 1 1 1 1 1 1 1 1 1 1 1 0.0043147500585633495 1 1 1 1 1 1 0.0091240634139753401 0.013762343684154436 0.010032434075486188 1 0.0085171653039378872 0.0069814969053051835 1 1 1 1 0.0048583091686852323 1 1 1 1 1 1 1 1 1 1 0.0016988753937484209 1 1 1 1 1 0.009717576588706164 1 0.0047562777980171903 1 1 1 1 0.012659211612727025 1 0.010980228709889919 0.01090082524610435 0.0057156144856713546 1 1 1 0.010280699917382587 1 0.0069815705523552408 1 0.011126532045705247 1 1 1 0.0028855253503625739 1 1 1 1 0.008457420479771759 1 0.0078050982190174117 1 1 1 1 1 1 1 1 0.0079857757584682072 1 1 1 1 0.012065772491793865 1 1 1 1 1 1 1 1 1 1 1 1 1 1 0.017072367253542456 1 1 1 1 0.010783473979709777 1 1 1 1 0.0011112841209934242 0.017531140898481672 1 1 1 0.0094715168320163527 1 1 1 1 1 1 1 1 1 1 1 1 1 1 1 2.3647964784295761e-09 1 1 1 1 3.5924550938204458e-09 1 1 1 1 1 1 1 1 1 1 0.015943672323113917 1 1 1 1 1 1 0.013386161473329806 1 1 1 1 0.010368715079035751 0.010054844228373976 1 1 1 1 1 1 1 0.010474836026943574 1 1 1 1 1 1 0.011517760704070927 1 1 1 1 1 1 1 1 0.012659916059091557 1 1 0.017912080489763949 1 0.015870013207442805 1 1 1 1 1 1 0.0089232588838003245 1 1 1 1 0.0094145027934456199 1 0.011453778615410113 1 1 1 1 1 1 1 1 1 0.0091786933570904197 0.0090709634289322227 1 1 1 1 1 1 0.0096567220472842854 1 1 1 1 1 1 1 1 0.0086015382976571027 1 1 1 1 1 1 1 1 1 1 0.0042039611238197591 1 1 1 0.0075418652731223616 1 0.0066807463773464193 1 1 1 1 0.0084322883864513254 1 1 1 1 1 1 0.0042151064563889879 1 0.017115268338591408 1 1 1 0.0092274846061628779 1 1 1 0.013863386147522324 1 1 0.0054188966391057591 1 1 1 1 1 1 1 1 1 1 1 1 1 0.01206259513770533 1 1 1 1 1 1 1 0.010923921908171728 1 0.010987984819655195 0.0082034469206175801 1 1 0.010651565829859086 1 1 0.0093991138719569083 1 1 1 1 1 1 0.010046653056495311 1 1 1 0.0097890357066855865 1 1 1 1 1 1 1 1 1 0.0097309214861218876 1 1 1 1 0.0099724900571369866 1 1 1 1 1 1 1 1 1 1 0.0097061342143468683 1 0.0098305674936697909 1 1 1 1 1 1 1 1 1 1 1 1 1 1 1 1 0.010312075804481549 1 1 1 1 1 1 1 1 1 0.0097290397637940576 1 1 1 1 1 1 1 1 1 1 1 1 1 1 1 1 1 1 1 1 1 1 1 0.013010333002703982 1 1 1 1 1 1 1 0.016446697576630781 1 1 1 1 1 0.010914650798080079 1 1 1 1 1 1 1 1 1 1 1 1 1 1 1 1 1 1 1 1 1 1 1 1 1 1 1 1 0.014160842439361793 1 1 1 1 1 1 0.015372877388698089 1 1 1 1 0.019904610579272577 1 1 1 0.020202634998981304 0.010107555252754648 1 1 1 1 1 1 1 1 1 1 1 1 1 1 1 1 1 1 1 1 1 1 1 1 1 1 1 1 1 1 1 1 1 1 1 1 1 1 1 1 1 1 1 1 1 1 1 0.016918933387040216 1 1 1 1 0.01018459812711568 1 1 1 1 1 1 1 1 1 1 1 1 1 1 1 1 0.0093132559623350653 1 1 1 1 1 1 0.0079244619963079466 1 1 0.011059393133271516 1 0.0090663228987092701 1 1 1 1 1 1 0.0099209083715210179 1 1 1 1 1 1 1 1 1 1 1 1 1 1 1 1 1 1 1 1 1 1 1 1 1 1 1 0.008680689742109263 1 0.010366954966313596 1 1 0.0099918123183448063 1 1 1 1 1 1 1 1 1 0.017969179735325483 1 0.009504190519128701 1 1 1 1 1 1 1 0.01691053632153075 1 1 1 1 1 1 1 1 1 1 1 1 1 0.0098173756790187368 1 1 1 1 1 1 1 1 1 0.010513396201372219 1 1 1 1 0.012070740383408487 1 1 1 1 1 1 1 0.010066830251181512 0.014234222459166699 1 1 1 1 1 1 1 1 1 1 1 1 1 1 1 1 0.0087519167276636639 1 1 1 1 1 1 1 1 0.0092831761913071617 1 1 1 0.0096436484423665786 1 1 1 1 1 1 1 1 1 1 1 1 1 1 1 1 1 1 1 0.012856058498278341 1 1 1 1 1 1 1 0.010951872686658884 1 1 0.010372576232722901 1 1 1 1 1 1 1 1 0.0099762362799465151 1 1 0.0099531585898028907 1 1 1 1 1 1 1 1 1 1 1 1 0.0093349608021608341 1 1 1 1 0.01080259620206641 1 1 1 1 1 1 0.0096954330532202371 1 1 1 0.010004228990832592 1 1 1 0.0099811513006889466 1 1 1 1 1 1 1 1 1 0.011879294479545163 1 1 1 1 1 0.0092953319508217915 1 1 0.0079609454786563651 1 1 0.009791701496105313 1 1 1 1 1 1 0.013406253336627269 1 1 1 1 1 1 1 1 1 1 0.010251817537018417 1 1 1 1 1 0.0094662312655195667 1 1 1 1 1 1 1 1 1 1 1 1 1 1 1 1 1 1 1 1 1 1 1 0.010239538483927502 1 1 1 1 1 1 1 1 1 1 1 1 1 1 0.010243785540062361 1 1 0.010524965909061833 1 1 1 1 1 0.010423960252640469 1 1 0.012017790706573495 1 1 1 1 1 1 1 1 0.014108750018382684 1 1 1 1 1 1 1 1 1 1 1 1 1 1 1 1 1 1 1 1 1 1 1 0.010565804669264066 0.010252110415359048 1 1 1 1 0.0097279124012028192 1 1 1 1 1 1 1 1 1 0.0094316336324400916 1 1 1 1 1 1 1 1 1 0.0097037212312372639 1 1 1 1 1 1 1 1 0.0086398326250518714 1 1 1 0.0099585151788743886 0.0098698718560145948 1 1 0.010282974596772604 1 1 1 1 1 1 0.0097100274693803432 1 0.011920668904918288 1 1 1 1 1 1 0.011393436523292597 1 1 1 1 1 1 1 1 1 1 1 1 1 1 1 1 0.015889723395612128 1 1 1 0.019171952568279759 1 1 0.025584938795344021 1 1 0.012128930951252748 1 1 1 1 1 1 1 1 1 1 1 1 1 1 0.0069395237341919741 1 1 0.03039162274713153 1 0.0088342639944463119 1 1 0.010029899220107302 1 1 1 1 1 1 1 1 1 1 1 1 1 1 1 1 1 1 1 1 1 1 1 1 1 1 1 1 1 1 1 1 1 1 1 1 1 1 1 1 1 1 1 1 1 0.010177374617094323 1 1 1 1 1 1 1 1 1 1 1 0.010189407741382751 0.010366541606865537 1 1 1 1 0.010064640050593755 1 1 1 1 1 1 1 1 1 1 1 1 1 1 1 1 1 1 1 1 1 1 1 1 0.010258310635221706 1 1 0.010143017083010093 1 1 0.012050194549202475 1 1 1 1 0.0051041492791408655 1 0.0097362297481487208 1 1 1 1 1 6.3366645958184975e-10 1 1 1 0.0023289735504723168 1 0.010884614396475504 1 1 1 1 1 1 1 1 1 1 1 1 1 1 1 1 1 1 1 1 0.004947307975741522 1 1 1 1 1 0.0081117532263317148 1 1 1 1 1 1 1 1 0.0090160463590531446 1 1 1 1 1 1 1 1 1 1 1 0.0096198825221743417 1 1 1 1 1 1 1 0.0078213558531337532 1 1 1 1 1 1 1 1 1 1 1 1 1 1 0.0093445101152995549 1 1 1 1 0.0088833972863275878 1 1 1 1 1 1 1 1 1 1 0.0080044477036401787 1 1 1 1 0.010217785098872972 1 0.00898840134458701 1 1 1 1 1 1 1 1 0.0078172859142123137 1 1 1 1 1 0.0093438488524792262 1 1 0.0082777374803639295 1 1 1 1 1 1 0.010531479352777998 1 1 1 1 1 1 1 1 1 1 1 1 0.010021835580965276 1 1 1 1 1 1 1 0.011042399076653185 1 1 1 1 1 0.012783828391321486 1 1 1 1 1 1 0.0075670909320570134 1 1 1 1 1 1 1 1 1 1 1 1 1 0.0099812211050670577 1 1 0.0052214513720783978 1 1 1 1 1 1 1 1 1 1 1 0.0012818802756293032 1 1 1 1 1 0.00046524885148914452 1 1 1 1 1 1 1 1 1 1 1 0.00076261268321504289 1 1 1 0.0081236574344671457 1 1 1 1 1 1 1 1 1 1 1 1 1 1 1 1 1 1 1 1 1 1 1 1 1 0.010050698171099284 1 1 0.010140352377937131 1 1 1 0.0037720320827540135 1 1 0.007414872455534266 1 1 1 1 1 1 1 1 1 1 0.012837212693039439 0.01012944598322095 1 0.0088666080416108031 1 1 1 1 1 1 0.009462895202398458 1 1 1 1 1 0.0085685875761823058 1 1 1 1 0.008474739422135745 1 1 1 1 1 1 1 1 1 1 1 1 1 1 1 1 1 1 0.0094764180365485735 1 1 1 1 1 1 1 0.0094624841532586351 1 1 1 1 1 1 1 0.010166215592922939 1 1 1 0.0081387331303363897 1 1 1 1 1 1 1 1 1 1 1 1 1 1 1 1 1 1 0.012716477513777143 1 1 1 1 0.012575087276161884 1 1 1 1 1 0.0029196861848201847 1 1 0.0051592730817280399 1 1 1 1 0.011664545599247768 1 1 1 1 1 0.010517589319753703 1 1 1 1 1 1 1 0.009387995153844482 1 1 1 0.008718210600345791 1 1 1 1 1 1 1 1 1 0.0086859059067271385 1 1 0.0099810761999621078 1 1 1 1 1 1 1 1 1 1 1 1 1 1 1 1 1 1 1 1 1 1 1 1 1 1 1 1 1 1 0.0094755952746763128 1 0.010848267846585477 1 1 1 0.0098839080299868709 1 1 1 1 1 0.0096166874612371792 1 1 0.0097326503109936777 1 1 1 1 1 1 1 1 1 1 0.0091478722271002358 1 0.012516325135966691 1 1 1 1 1 0.0082548511206189112 0.0095849204298810928 1 1 0.007381894432157636 0.0056327345327177245 1 1 1 1 1 1 0.004428247480076572 1 1 1 1 1 1 1 1 1 1 1 1 1 1 1 0.0098106633526091735 1 1 1 0.0099013118874024964 1 1 0.0043683336001628312 1 1 1 1 1 1 1 1 1 1 1 1 1 0.0088379857985287913 1 1 1 1 1 1 1 1 1 1 1 1 1 1 1 1 1 1 1 1 1 0.010743773921558496 1 1 1 1 1 1 1 1 1 1 1 1 1 1 1 1 1 1 1 1 1 1 1 1 1 1 1 1 1 1 1 1 1 1 1 1 1 1 1 1 1 0.0099328379118729989 1 1 1 1 1 1 1 1 1 0.0097717260863769279 1 1 1 1 1 1 1 1 1 1 1 1 1 1 1 1 1 0.008069624536612828 1 1 0.010011406004617194 0.011937406724361766 1 1 1 1 0.0092674982847874426 1 0.013663020114923985 1 1 1 1 0.0097889515894899193 1 0.0067946253495163797 1 1 1 1 1 1 1 0.010705500837786326 0.011744230086943627 1 1 0.010161743004505746 1 1 1 1 0.0091826040034652112 1 1 1 1 1 1 1 1 1 1 1 1 1 1 1 1 1 1 0.0092832223828834912 0.0074650423285181882 1 1 1 1 1 1 1 1 1 1 1 1 1 1 1 1 1 1 1 1 1 1 1 0.012210607439083155 1 1 0.0093081892522890938 1 1 0.009966309140541349 1 1 1 0.0085096394345441778 1 0.010008778374202242 1 1 1 1 1 1 1 1 1 1 0.012639447946391928 1 1 0.011032826226954449 1 1 1 1 1 1 1 1 1 1 1 1 1 1 1 1 1 1 1 1 1 1 0.0076441463214223862 1 1 1 1 1 1 1 1 1 1 0.009182014193969093 1 1 1 1 1 1 1 1 1 1 1 1 1 1 1 1 0.0095843276936143362 1 1 1 0.0095972071949292879 1 1 1 1 1 1 0.0093262469587233419 1 1 1 1 1 1 1 1 1 1 1 1 1 1 1 1 1 1 1 1 1 1 0.0098879044746701724 0.0099734694472567356 1 1 1 1 1 1 0.0090309733287960939 1 1 1 1 1 1 1 1 1 1 1 0.0088271250881749534 1 1 1 1 1 1 1 1 1 1 1 1 1 1 1 1 1 1 1 1 1 0.0096024174591578092 1 1 1 1 1 1 1 0.0097141277546264528 1 1 1 1 1 1 1 0.0039910265266774186 0.0084970857777211944 1 1 1 0.0065866186006146394 0.0054318834278577069 1 1 1 1 0.01252792441662186 1 1 1 1 0.016573226766816808 1 0.0100049576570294 1 1 1 1 1 4.1802992031478303e-09 0.0099899450968226489 1 1 1 1 1 1 1 0.010002392646355072 0.013068009370200279 0.0041682440162447484 0.010005737522057988 0.010228723808419979 1 1 0.017930485895902695 1 1 1 1 1 2.7808099954673704e-09 1 1 1 0.001809724988782617 0.0095165460892978337 1 1 1 1 1 1 1 1 0.00830441762604852 0.019461240401632066 0.010100980157554238 1 1 1 1 0.014575439310350075 1 0.016336786220762657 1 0.010215533148184018 1 1 0.0096538926453174616 1 1 1 0.0065124534308603037 1 0.0099835403882030226 1 -7.0207153909929154e-09 1 1 1 1 1 1 1 1 0.01036988705558916 1 1 1 1 0.01099142981911299 1 1 1 0.0027131034028826974 1 0.017205290127544369 1 9.0216964454548076e-09 1 1 1 1 1 1 0.009712267818658981 1 1 1 1 3.7881210512152874e-09 1 1 0.011685478775661548 0.01558083390343537 0.0081595361987088708 1 1 0.0050139414124457608 1 1 0.010032813583481258 1 1 1 1 1 1 1 1 0.010028756768380984 1 0.0099673933215319692 1 1 0.0074617849166953992 0.0076558677906415611 1 1 1 1 1 1 1 1 1 1 1 1 1 1 0.0004785864102337372 0.015398737801872757 1 1 1 1 0.010007243387238374 1 1 0.016623454433895121 1 1 0.012536362051030543 0.01384989323426691 1 1 1 1 1 1 1 1 1 1 0.014051288268529305 1 1 1 1 1 1 0.012487978119200254 1 1 1 1 1 1 1 1 1 1 1 1 1 1 1 1.4080402729182984e-09 1 1 0.0098279131152182592 1 1 1 1 0.0094420607539317768 0.00028130706453034435 1 1 1 1 1 1 1 1 1 1 1 1 1 1 1 0.010811424707487905 0.005408486552267118 2.3037970836581323e-11 1 1 1 1 1 1 1 1 0.0098960097495621735 1 0.0091327162364331395 1 1 1 1 1 1 1 1 1 1 1 1 0.0099977874201116201 0.0046450315006238826 0.0044305891241553097 1 0.01000344018872415 1 1 1 0.008991461434158611 0.011120906836972026 1 1 1 1 1 1 0.0078862446323350044 1 1 1 1 1 1 1 1 1 1 0.0092250758312764254 0.009873035438272634 1 1 1 1 1 0.010725458953901257 1 0.0068462161491767946 0.0095682292822226178 0.0099482423182717557 0.010134538596684436 1 1 0.009978625320547 0.010000933722720012 0.010099901243437237 1 1 1 1 0.0090391194172067847 1 1 1 1 1 1 0.0086520120327771739 0.0090182861412461436 1 1 0.010042695278237274 1 1 1 1 1 1 1 1 0.012098916616725748 0.0096948062342479338 1 1 1 0.0049949000206727656 1 1 0.0073058291410276616 1 1 1 1 0.0099312153341590166 1 1 0.0082675578225728345 1 0.004613304968869511 1 0.010041324132969737 1 1 1 1 0.0048474786704131847 1 1 1 1 1 1 1 1 1 1 1 1 1 1 0.0071401661952648285 1 1 1 1 1 0.0098656784269791666 1 0.0092681789293572389 1 1 1 1 1 1 1 1 1 1 1 1 1 1 0.0080586685602129296 0.0065871348036371756 1 1 1 1 0.0066362358019393212 1 0.010191417599866333 1 1 0.010127215993652678 1 1 1 1 0.015208314027028415 1 1 0.0056108373617046528 1 0.013496009905044345 0.007238672630894883 1 1 1 1 1 1 1 1 1 0.0079346290644818195 1 1 0.0084259797076675011 1 1 0.0095051077491026294 1 0.0067995481802806505 0.010051332802581171 1 0.0099354595410525992 1 1 1 1 1 1 1 1 1 1 1 1 1 1 1 1 1 1 1 1 1 1 1 1 1 1 1 1 1 1 1 1 1 1 1 1 1 1 1 1 1 1 1 1 1 1 1 1 1 1 1 1 1 1 1 1 1 1 1 1 1 1 0.010801791979422874 1 1 1 1 1 1 1 1 1 1 1 1 1 1 1 1 1 1 0.0097846318339205249 1 1 1 1 1 1 1 1 0.0097400595971475976 1 1 1 0.0097161962864279264 1 1 1 0.0095009853282054454 1 1 1 1 0.0099130521687553902 1 1 1 0.0099579388539515756 1 1 1 1 1 1 1 1 1 0.0096989323943600103 1 1 0.010570666142187157 1 1 1 1 1 1 1 1 1 1 1 1 1 1 1 1 1 1 1 1 1 1 1 1 0.0095767204310596363 0.008207593909242264 1 1 0.01002460798547794 0.011510532688315804 0.009105638187420273 1 1 1 0.013394994254774972 1 1 0.011345350371914351 1 1 0.0095143958721400496 1 1 1 1 0.009929450712902986 1 1 0.008396485112534581 1 1 1 1 1 1 1 1 1 1 1 1 1 1 1 1 1 1 1 1 1 1 1 1 1 1 1 1 1 1 1 0.011755020519408695 1 1 1 1 0.010848063479555144 1 1 1 1 1 1 0.005732797454674322 1 1 1 1 1 1 1 1 1 1 1 1 1 1 0.0046444057321227486 1 1 1 1 1 1 1 1 0.0030479678370330058 1 1 1 1 1 1 1 0.010029267129123224 1 1 0.0099005073462364625 1 1 1 0.010120817097139443 1 1 1 1 1 1 1 1 1 1 1 1 1 1 1 1 1 1 1 1 1 1 1 1 1 4.1277183060461908e-10 1 1 1 1 1 1 1 1 1 1 1 0.00044332934539335206 1 1 1 1 1 1 1 1 1 1 1 1 1 1 1 1 1 1 1 1 1 1 0.011366864742834486 1 1 1 0.002959656490569687 1 1 0.010118708487363098 1 1 1 1 1 1 1 1 1 1 1 1 1 1 1 1 1 1 1 1 1 1 1 1 1 1 1 1 1 1 1 1 1 1 1 1 1 1 1 1 1 1 1 1 1 1 1 1 1 1 1 1 1 1 1 1 1 1 1 1 1 1 1 1 1 1 0.010193177120507525 1 1 0.0080029637338571435 1 0.010023582165490831 1 1 1 1 1 1 1 1 1 1 1 1 1 1 1 1 0.0103323032506184 1 1 1 1 1 0.0093298285221327572 1 1 0.016178036004463048 1 1 1 0.011128279243160198 1 1 1 1 0.0046822248040987655 1 1 1 1 1 1 1 1 0.0132488523620204 1 0.0049261516292989985 1 0.016417411503757983 1 0.011178616460425332 1 1 1 1 1 0.018473000889979104 1 1 1 0.010348562579801305 1 1 1 1 1 1 0.010615244290194958 1 1 1 1 1 1 0.011910935550422459 1 1 1 1 1 0.013336553163644023 1 1 1 1 1 1 1 1 1 1 1 1 1 1 1 1 1 1 1 1 0.0095243820516699145 1 1 1 1 1 0.0099634336762151228 1 1 4.1709320511285064e-09 1 1 1 1 1 0.0055865592328183371 0.0026637413026318266 1 0.012314929217024673 1 1 1 1 0.010274350432420408 1 1 1 1 1 1 1 1 1 1 0.0099057385630602172 1 1 1 1 1 0.0108705410079163 1 1 1 1 1 1 1 1 1 1 1 1 1 1 1 0.019841095617777471 1 0.0098789881189479001 1 1 0.0075579888192831776 1 1 1 1 1 0.018613638035572956 1 1 1 1 1 1 1 1 0.010244376035730397 1 0.015762382103155712 1 1 0.012564240602266349 1 1 1 1 1 1 1 1 1 1 1 1 1 1 1 0.013598469241763127 1 1 1 1 1 1 1 1 1 1 0.017494240308817213 1 1 1 1 1 1 1 1 1 1 1 1 1 1 1 1 1 1 1 1 1 1 1 1 1 1 1 1 0.0088501722142371852 1 0.018095637285350508 1 1 1 1 1 1 1 1 1 1 1 1 1 0.0072336458962443673 1 1 1 1 1 1 1 0.0080203628703530358 1 1 1 1 1 1 1 1 1 0.0045027077488865933 1 1 0.019425333410988614 1 0.0040219255243443414 0.017746690823021334 1 1 1 1 0.012724996819171219 1 1 1 1 1 1 1 1 1 1 1 1 1 1 1 1 1 1 1 1 1 1 0.0078016407800523199 1 1 1 1 1 1 1 1 1 1 1 1 1 1 1 1 1 1 1 1 1 1 1 1 1 1 1 1 1 1 1 1 1 1 1 1 1 1 1 1 1 1 1 1 1 1 1 1 1 1 1 1 1 1 1 1 1 1 1 1 1 1 1 1 1 1 1 1 1 1 1 1 1 1 1 1 1 1 0.0095947648728648138 1 1 1 1 1 1 1 1 1 1 1 1 1 0.0095953551749058466 1 1 1 1 1 1 1 1 1 1 1 1 1 1 1 1 1 1 1 0.0089099218810622313 1 1 1 1 0.007502679979394633 1 1 1 1 1 1 1 1 1 1 1 1 1 1 1 1 1 1 1 1 1 1 1 1 1 1 1 1 1 1 1 1 1 1 1 1 1 1 1 1 1 1 1 1 1 0.0032443788411195759 1 1 1 0.0053564884177539906 1 1 1 0.0082962289221868712 1 1 1 1 1 1 1 1 1 1 1 1 1 1 1 1 1 0.01039667465067546 1 1 1 1 1 1 1 0.010600882579778641 1 1 1 0.010398927431695668 1 1 1 0.01284900276652591 1 0.0082511303608756373 1 1 1 1 1 1 0.0098578533207217267 0.010018985411945999 1 1 1 0.009977753779760179 1 1 1 1 1 1 0.0098969971875543516 1 1 1 1 0.0075678657267102267 1 1 1 1 1 1 1 1 0.013341581528636967 1 1 1 1 1 1 1 1 1 0.0070503159414925659 1 1 1 0.0086964879646841201 1 1 1 1 0.0089751076283778319 1 1 0.010628571156892731 1 1 1 1 1 1 1 1 1 1 1 1 1 1 1 1 1 1 1 0.0087991522579255535 1 1 1 1 1 0.010487073175016896 1 0.0095581584678714124 0.01012938101368592 1 1 1 1 1 0.017980667255010251 1 0.0079881705010175705 1 0.0060260333128061352 0.01077927523704879 1 1 1 1 1 1 1 1 1 1 0.021097415592209089 1 1 1 0.010036190464140171 1 1 0.01037879559108193 1 1 1 1 1 1 1 1 1 1 1 1 1 1 1 1 1 1 1 1 1 1 1 1 1 1 1 1 1 1 1 1 1 1 1 1 1 1 1 1 1 1 1 1 1 1 1 1 1 1 1 1 1 1 0.022986642716172317 1 1 1 1 1 1 0.021239931303488065 1 1 0.0039695806622461957 1 1 0.0099238686006494596 1 1 1 1 1 1 1 1 1 1 0.014904917631889206 0.015219101275235663 1 1 1 1 1 1 1 1 1 1 1 0.011902324420841895 1 1 1 1 1 1 1 1 1 1 1 1 1 1 1 1 0.011012123534693408 1 1 1 0.0072060227099699919 1 1 1 0.0070208281930241971 1 1 1 0.01279395258711637 1 1 1 1 1 1 1 1 1 1 1 1 1 1 1 1 1 0.0016785801239445272 1 1 1 1 1 1 1 1 0.018144875218082474 1 0.020123732385509151 1 1 1 1 1 1 -2.69027375376929e-09 1 1 1 0.020925211004142498 1 1 1 0.0050818945462323753 1 1 0.017393134006207948 1 1 1 0.0082003052768537879 1 1 1 1 1 1 1 1 1 1 1 1 1 1 1 1 1 1 1 1 1 1 1 1 1 1 1 1 1 1 1 1 1 1 1 1 1 1 1 0.0073821101081250964 1 1 0.010623308408101134 1 1 1 1 1 0.010199499387106063 1 1 0.0098027528863278077 1 1 1 1 1 1 1 1 1 1 1 1 1 1 1 0.012641316867072197 1 1 1 0.009525118432964233 1 1 0.0097753888711820287 1 1 1 1 1 1 1 1 1 1 1 1 0.010415051605345844 1 1 1 1 1 1 1 1 1 1 1 1 1 1 1 1 1 1 1 1 1 1 0.0086998698730055626 1 1 1 1 0.0074939558916682011 1 1 1 1 1 1 1 1 1 1 1 1 1 0.010568116342313796 1 1 1 0.0097134329968080815 1 0.026281548927857428 1 1 1 1 1 0.011754964401662404 1 1 1 0.0081479182219276053 0.025580838037913653 1 1 1 1 1 1 1 1 1 0.0056418741135958045 1 1 1 1 1 0.011467041350586182 1 1 1 1 1 1 1 1 1 1 1 1 1 1 1 1 1 1 1 1 1 0.021551391283571558 1 1 1 1 1 1 1 1 1 1 0.011725799202388143 1 1 0.014489664879123832 1 1 1 0.014352536649698761 1 1 1 1 1 1 1 1 1 1 1 1 1 1 0.0055749484615194821 1 0.0046300098311173599 1 1 1 1 0.015828441123973316 1 1 1 1 1 1 1 0.013916925636881657 1 1 1 1 1 1 1 1 1 1 1 1 1 1 1 1 1 1 1 1 1 1 1 1 1 1 0.0040038884547365511 1 1 0.0095306468549198036 0.016782529514641584 1 1 1 8.6631763915323567e-10 1 1 0.0082642142042030717 1 1 1 1 0.0047684933313937097 1 1 1 1 1 1 1 1 1 1 1 1 1 0.0090207267017289039 1 1 1 1 0.010222978388052393 1 1 0.0068603758149523159 1 1 1 1 0.0017353902016566149 1 1 1 0.0074187030422331688 1 1 1 0.015266989654453344 1 1 1 1 1 1 1 1 1 0.015000245952338932 1 1 1 1 1 1 1 1 1 1 0.011935243778556124 1 1 1 1 1 1 1 1 1 1 1 1 1 1 1 0.010113946777553123 1 0.01083199521269029 1 0.019586355264817643 1 1 1 1 1 1 1 1 1 0.0097482349235669292 1 1 1 1 1 0.0080028272095588812 1 1 1 1 1 1 0.014394262478295453 1 1 0.010984210838124134 1 1 1 1 1 1 1 1 1 1 1 1 1 1 1 1 1 1 1 1 1 1 1 1 1 1 1 1 1 0.0026841393813790207 1 1 0.0086079974993592736 1 0.021480329021127474 1 1 1 1 1 1 0.015344456781911993 1 1 1 0.0099496246364307525 1 1 1 1 1 1 1 0.01040663662149441 1 1 1 1 1 1 1 1 1 0.01135904860681191 1 1 1 0.0086639605230798764 1 1 0.017431422595851242 0.011909360409501045 1 0.0097420754702577453 1 1 1 0.01404535831055705 1 1 1 1 1 1 0.016703221111025901 1 1 1 1 1 0.016052542815921451 0.010037694970989688 1 1 1 1 0.0099991967463146578 1 1 1 1 1 1 1 1 1 1 1 1 1 1 1 0.0096532852277474712 1 1 0.017074767492819755 1 1 1 1 1 1 1 1 0.0098398320083439156 1 1 1 1 0.016102483560654107 1 1 1 1 1 1 0.010058568535077301 1 1 0.010185208696007217 1 0.004267526398331993 1 1 1 1 0.010030132821697057 0.010096234935260982 1 1 1 0.010006206909881993 0.009966184166072603 1 1 0.013513973488681712 1 1 1 1 1 1 1 1 1 1 1 1 1 1 1 1 0.0099660886825275394 1 1 1 0.010006178854328841 1 1 1 1 1 1 0.012636079011344467 1 1 1 1 1 1 1 1 1 1 0.010921229381343335 1 1 1 1 1 1 1 1 1 0.010043960358906956 0.0079837406535972835 1 0.0060901021240668714 1 1 0.0065908126614842855 1 1 1 1 1 1 1 0.0024201346689992891 1 1 0.0081741927094628897 0.0046951479557792927 1 1 1 1 0.0099679891437173037 1 1 1 1 1 1 1 1 1 1 1 0.0069100671809819922 1 0.0096202000113592631 1 1 1 1 0.0091878501292160832 1 1 1 0.013150259780840265 1 0.011019492296566768 1 1 1 1 1 1 1 1 1 1 1 0.0099677914715417086 1 1 1 1 1 1 1 1 1 1 1 1 1 1 1 1 1 0.020179037009845361 1 1 1 1 1 1 1 1 0.019972892068355962 0.010434476618821471 1 1 1 1 1 1 1 1 1 1 1 1 1 1 1 1 1 0.0092522028754141224 1 1 1 1 0.0097141792526515437 1 1 0.019522987373592794 0.0089194675676512718 1 1 0.010043374659772829 1 1 1 0.026230289470607453 1 1 1 1 1 1 1 1 1 1 1 1 1 1 1 1 1 1 1 1 1 1 1 1 1 1 1 1 1 1 1 1 1 1 1 1 1 1 1 1 0.0052639932911506052 1 1 1 1 1 0.0083462963143069967 1 1 1 1 1 1 1 1 1 1 1 1 1 1 1 1 1 1 1 1 1 1 1 1 1 1 1 1 1 1 1 1 1 1 0.010445387330934008 1 0.011387308868137724 1 0.0054558804387635634 0.0063416320493765548 1 1 1 1 0.0062354807979553232 1 1 1 0.010892215241821988 1 1 1 0.010370807103869062 1 1 1 0.010440450160673419 1 1 1 1 1 1 1 1 1 0.010521408137952921 1 1 1 1 1 1 1 1 1 1 1 1 1 1 1 1 1 1 1 1 1 1 1 1 1 1 1 1 1 1 0.0058795447871877165 1 0.014839449871384053 1 0.0069426510230640448 1 1 0.01563637880247978 1 1 1 1 1 1 1 1 1 1 0.011726618996348349 1 1 1 1 1 1 1 1 1 0.0089661310968381248 1 1 1 1 1 1 -4.0687826077107081e-09 1 1 1 1 1 1 1 1 1 1 1 1 1 1 1 1 1 1 1 1 1 1 1 1 0.0087383519669343695 1 1 1 1 1 1 1 0.0041184339435337801 1 1 1 1 1 1 1 1 1 1 0.0058121702429619407 1 1 0.009433021744960671 1 1 1 1 1 1 0.0074557275625888406 1 1 1 1 1 1 1 0.0083587025830370414 1 1 1 1 1 1 1 1 1 1 1 1 1 1 1 1 0.0018611515235748138 1 1 1 1 1 1 1 1 1 1 1 0.0050734607475262043 1 1 1 1 0.010970689082469945 1 1 0.0127354016647763 1 1 1 1 1 1 1 1 1 1 1 1 1 1 1 1 1 1 1 0.008358316006976077 1 1 1 1 1 1 1 1 0.0081994667263013601 1 1 1 1 1 1 1 0.0064467628203936436 1 1 1 1 1 0.0075349614172581306 1 1 1 1 0.010759075711076293 1 1 1 1 1 1 1 1 0.011162479356953801 1 1 1 1 1 1 1 1 0.0080884468134175616 1 1 1 1 1 1 1 1 1 1 1 1 1 1 1 1 1 1 1 1 1 1 1 1 0.0062391244542135196 1 1 1 1 1 0.0044587010225320307 1 1 1 1 0.013510519658246657 1 0.010886096694018866 1 1 1 1 1 1 1 1 1 1 1 1 1 1 1 0.0085758863111987417 1 1 1 0.010874816182462686 1 1 1 1 1 1 1 1 1 1 1 1 1 1 1 1 1 1 1 1 1 1 1 1 1 1 1 1 1 1 1 1 1 1 1 1 1 1 1 1 1 1 1 1 1 1 1 1 1 1 1 1 1 0.019130199083572365 1 1 1 1 1 1 1 1 1 1 1 0.018388027311259589 1 1 1 1 1 1 1 1 0.0085758845495206085 1 1 0.0062819995198946516 1 1 1 1 1 1 1 0.010086870446036308 1 1 1 1 0.0075268744520761849 1 1 1 1 1 0.008872969299884445 1 1 1 1 1 1 1 1 1 1 1 1 1 1 1 1 1 1 0.010040543426578053 1 1 1 0.010704876498163646 1 1 1 1 1 1 1 0.011575417506079939 1 0.010309696609658411 1 1 1 1 1 1 0.010625549277325655 0.0097354869550728123 1 1 1 1 1 1 1 0.0095385358868740333 1 1 0.0093695296373037182 1 0.010139742364256615 1 1 1 1 1 1 1 1 1 1 0.01028821554043419 1 1 1 1 0.011099943121102945 0.0074075288882910761 1 1 1 0.010097440440501645 1 1 1 0.0090916030286253575 1 1 0.0099709184472792523 1 1 1 1 1 1 0.010687419740350734 1 1 1 0.007524106189275289 1 1 1 1 0.009971521187719521 0.0058907118896525182 1 1 1 1 1 1 1 1 1 1 1 1 1 1 1 0.01040340364587751 1 1 1 1 1 1 1 1 1 1 1 1 1 0.0084642861844175452 
</DataArray>
</CellData>
</Piece>
</UnstructuredGrid>
</VTKFile>
