<?xml version="1.0"?>
<VTKFile type="UnstructuredGrid" version="0.1" byte_order="LittleEndian">
<UnstructuredGrid>
<Piece NumberOfPoints="31226" NumberOfCells="11009">
<Points>
<DataArray type="Float64" NumberOfComponents="3" format="ascii">
-0.5 -0.5 0 -0.43871930207811111 -0.45891724975366438 0 -0.40384101907146369 -0.5 0 -0.5 -0.5 0 -0.43871930207811111 -0.45891724975366438 0 -0.46083075985932132 -0.42897289368348213 0 -0.5 -0.5 0 -0.5 -0.40326431735400148 0 -0.46083075985932132 -0.42897289368348213 0 -0.43871930207811111 -0.45891724975366438 0 -0.46083075985932132 -0.42897289368348213 0 -0.43091080924206532 -0.42715367974442969 0 -0.5 -0.40326431735400148 0 -0.45952682300873521 -0.38412174532472082 0 -0.47464425460675203 -0.3583195487233698 0 -0.5 -0.40326431735400148 0 -0.45952682300873521 -0.38412174532472082 0 -0.46083075985932132 -0.42897289368348213 0 -0.45952682300873521 -0.38412174532472082 0 -0.46083075985932132 -0.42897289368348213 0 -0.43582762482701659 -0.40038036992407638 0 -0.45952682300873521 -0.38412174532472082 0 -0.4346910646910595 -0.37575034760356429 0 -0.43582762482701659 -0.40038036992407638 0 -0.45952682300873521 -0.38412174532472082 0 -0.4346910646910595 -0.37575034760356429 0 -0.44123995097782442 -0.36643166531102639 0 -0.46083075985932132 -0.42897289368348213 0 -0.43091080924206532 -0.42715367974442969 0 -0.43582762482701659 -0.40038036992407638 0 -0.43091080924206532 -0.42715367974442969 0 -0.41151361289866278 -0.41092465734884193 0 -0.43582762482701659 -0.40038036992407638 0 -0.43091080924206532 -0.42715367974442969 0 -0.41151361289866278 -0.41092465734884193 0 -0.40700932804526269 -0.43892091401505678 0 -0.4346910646910595 -0.37575034760356429 0 -0.42635037099702722 -0.38628661989648161 0 -0.41725404796856491 -0.37643399477150868 0 -0.4346910646910595 -0.37575034760356429 0 -0.42635037099702722 -0.38628661989648161 0 -0.43582762482701659 -0.40038036992407638 0 -0.42635037099702722 -0.38628661989648161 0 -0.43582762482701659 -0.40038036992407638 0 -0.41762874650146792 -0.39258176728677691 0 -0.41151361289866278 -0.41092465734884193 0 -0.43582762482701659 -0.40038036992407638 0 -0.41762874650146792 -0.39258176728677691 0 -0.41151361289866278 -0.41092465734884193 0 -0.41762874650146792 -0.39258176728677691 0 -0.40418338934825859 -0.39739240496431433 0 -0.41762874650146792 -0.39258176728677691 0 -0.40288036993058352 -0.3837125203285387 0 -0.40418338934825859 -0.39739240496431433 0 -0.41762874650146792 -0.39258176728677691 0 -0.41725404796856491 -0.37643399477150868 0 -0.40288036993058352 -0.3837125203285387 0 -0.42635037099702722 -0.38628661989648161 0 -0.41762874650146792 -0.39258176728677691 0 -0.41725404796856491 -0.37643399477150868 0 -0.41725404796856491 -0.37643399477150868 0 -0.40288036993058352 -0.3837125203285387 0 -0.39866947172609718 -0.37080665172562038 0 -0.40288036993058352 -0.3837125203285387 0 -0.38447606531509682 -0.37985247333909022 0 -0.39866947172609718 -0.37080665172562038 0 -0.40288036993058352 -0.3837125203285387 0 -0.39280672532895328 -0.39212647076801688 0 -0.38447606531509682 -0.37985247333909022 0 -0.41151361289866278 -0.41092465734884193 0 -0.40418338934825859 -0.39739240496431433 0 -0.39235375255438798 -0.40687396911205093 0 -0.40288036993058352 -0.3837125203285387 0 -0.39280672532895328 -0.39212647076801688 0 -0.40418338934825859 -0.39739240496431433 0 -0.39280672532895328 -0.39212647076801688 0 -0.40418338934825859 -0.39739240496431433 0 -0.39235375255438798 -0.40687396911205093 0 -0.39280672532895328 -0.39212647076801688 0 -0.37543729610374182 -0.40035972880021758 0 -0.39235375255438798 -0.40687396911205093 0 -0.39280672532895328 -0.39212647076801688 0 -0.37543729610374182 -0.40035972880021758 0 -0.38447606531509682 -0.37985247333909022 0 -0.37543729610374182 -0.40035972880021758 0 -0.38447606531509682 -0.37985247333909022 0 -0.36888034525926222 -0.38213737344447007 0 -0.39281933665145041 -0.42196322252131679 0 -0.37994300046570861 -0.43881233864818592 0 -0.40700932804526269 -0.43892091401505678 0 -0.41151361289866278 -0.41092465734884193 0 -0.39281933665145041 -0.42196322252131679 0 -0.40700932804526269 -0.43892091401505678 0 -0.41151361289866278 -0.41092465734884193 0 -0.39281933665145041 -0.42196322252131679 0 -0.39235375255438798 -0.40687396911205093 0 -0.39281933665145041 -0.42196322252131679 0 -0.39235375255438798 -0.40687396911205093 0 -0.37569179333885278 -0.41750543381529159 0 -0.37543729610374182 -0.40035972880021758 0 -0.39235375255438798 -0.40687396911205093 0 -0.37569179333885278 -0.41750543381529159 0 -0.39281933665145041 -0.42196322252131679 0 -0.37569179333885278 -0.41750543381529159 0 -0.37994300046570861 -0.43881233864818592 0 -0.37994300046570861 -0.43881233864818592 0 -0.38292052203384208 -0.47291015650172752 0 -0.40700932804526269 -0.43892091401505678 0 -0.43871930207811111 -0.45891724975366438 0 -0.40384101907146369 -0.5 0 -0.38292052203384208 -0.47291015650172752 0 -0.43871930207811111 -0.45891724975366438 0 -0.43091080924206532 -0.42715367974442969 0 -0.40700932804526269 -0.43892091401505678 0 -0.43871930207811111 -0.45891724975366438 0 -0.38292052203384208 -0.47291015650172752 0 -0.40700932804526269 -0.43892091401505678 0 -0.48426433641225619 -0.30452504295788119 0 -0.5 -0.3342057304494942 0 -0.50000000000007061 -0.24971206281257469 0 -0.44166156803621048 -0.26068998837293411 0 -0.44156103305135391 -0.28590419087790031 0 -0.44166156803621048 -0.26068998837293411 0 -0.45151012702321092 -0.2792001649341872 0 -0.44156103305135391 -0.28590419087790031 0 -0.44166156803621048 -0.26068998837293411 0 -0.45151012702321092 -0.2792001649341872 0 -0.46259580027936592 -0.27292653742177542 0 -0.46259580027936592 -0.27292653742177542 0 -0.47775936345751291 -0.27481877015208611 0 -0.46384547035312368 -0.28608032109010739 0 -0.46259580027936592 -0.27292653742177542 0 -0.4731634513857978 -0.25383060944122859 0 -0.45593915217321729 -0.24874065597167061 0 -0.44166156803621048 -0.26068998837293411 0 -0.46259580027936592 -0.27292653742177542 0 -0.45593915217321729 -0.24874065597167061 0 -0.46259580027936592 -0.27292653742177542 0 -0.4731634513857978 -0.25383060944122859 0 -0.4731634513857978 -0.25383060944122859 0 -0.47775936345751291 -0.27481877015208611 0 -0.47775936345751291 -0.27481877015208611 0 -0.48101184993488511 -0.28967190655498343 0 -0.50000000000007061 -0.24971206281257469 0 -0.4731634513857978 -0.25383060944122859 0 -0.48266462991948589 -0.25833475050481602 0 -0.47775936345751291 -0.27481877015208611 0 -0.4731634513857978 -0.25383060944122859 0 -0.48266462991948589 -0.25833475050481602 0 -0.48129311132275548 -0.24895476074014711 0 -0.48266462991948589 -0.25833475050481602 0 -0.48756989638148879 -0.24185073085755471 0 -0.48266462991948589 -0.25833475050481602 0 -0.47775936345751291 -0.27481877015208611 0 -0.50000000000007061 -0.24971206281257469 0 -0.48266462991948589 -0.25833475050481602 0 -0.47775936345751291 -0.27481877015208611 0 -0.46259580027936592 -0.27292653742177542 0 -0.4731634513857978 -0.25383060944122859 0 -0.47775936345751291 -0.27481877015208611 0 -0.48101184993488511 -0.28967190655498343 0 -0.48426433641225619 -0.30452504295788119 0 -0.50000000000007061 -0.24971206281257469 0 -0.47775936345751291 -0.27481877015208611 0 -0.4714238992774904 -0.29610893182375569 0 -0.48101184993488511 -0.28967190655498343 0 -0.47775936345751291 -0.27481877015208611 0 -0.4714238992774904 -0.29610893182375569 0 -0.46384547035312368 -0.28608032109010739 0 -0.47775936345751291 -0.27481877015208611 0 -0.4714238992774904 -0.29610893182375569 0 -0.4714238992774904 -0.29610893182375569 0 -0.48101184993488511 -0.28967190655498343 0 -0.48426433641225619 -0.30452504295788119 0 -0.47775936345751291 -0.27481877015208611 0 -0.48101184993488511 -0.28967190655498343 0 -0.4714238992774904 -0.29610893182375569 0 -0.48426433641225619 -0.30452504295788119 0 -0.47932053420002818 -0.31787952843204892 0 -0.4714238992774904 -0.29610893182375569 0 -0.46508843509746889 -0.31739909349542572 0 -0.47932053420002818 -0.31787952843204892 0 -0.48101184993488511 -0.28967190655498343 0 -0.48426433641225619 -0.30452504295788119 0 -0.45424148032967099 -0.30769770547220959 0 -0.46132548684613722 -0.29986170345676388 0 -0.46508843509746889 -0.31739909349542572 0 -0.4714238992774904 -0.29610893182375569 0 -0.46132548684613722 -0.29986170345676388 0 -0.46508843509746889 -0.31739909349542572 0 -0.45424148032967099 -0.30769770547220959 0 -0.46132548684613722 -0.29986170345676388 0 -0.45202814917293188 -0.29202246540232107 0 -0.4714238992774904 -0.29610893182375569 0 -0.46508843509746889 -0.31739909349542572 0 -0.4714238992774904 -0.29610893182375569 0 -0.46132548684613722 -0.29986170345676388 0 -0.46384547035312368 -0.28608032109010739 0 -0.46259580027936592 -0.27292653742177542 0 -0.46384547035312368 -0.28608032109010739 0 -0.45202814917293188 -0.29202246540232107 0 -0.46259580027936592 -0.27292653742177542 0 -0.45202814917293188 -0.29202246540232107 0 -0.45151012702321092 -0.2792001649341872 0 -0.46259580027936592 -0.27292653742177542 0 -0.45202814917293188 -0.29202246540232107 0 -0.46132548684613722 -0.29986170345676388 0 -0.46384547035312368 -0.28608032109010739 0 -0.45202814917293188 -0.29202246540232107 0 -0.45202814917293188 -0.29202246540232107 0 -0.44156103305135391 -0.28590419087790031 0 -0.44146049806649751 -0.31111839338286651 0 -0.45151012702321092 -0.2792001649341872 0 -0.45202814917293188 -0.29202246540232107 0 -0.44156103305135391 -0.28590419087790031 0 -0.45424148032967099 -0.30769770547220959 0 -0.45202814917293188 -0.29202246540232107 0 -0.44146049806649751 -0.31111839338286651 0 -0.44156103305135391 -0.28590419087790031 0 -0.44146049806649751 -0.31111839338286651 0 -0.43221058229147702 -0.30027501697148973 0 -0.44156103305135391 -0.28590419087790031 0 -0.44146049806649751 -0.31111839338286651 0 -0.45202814917293188 -0.29202246540232107 0 -0.44146049806649751 -0.31111839338286651 0 -0.5 -0.40326431735400148 0 -0.5 -0.3342057304494942 0 -0.47464425460675203 -0.3583195487233698 0 -0.44146049806649751 -0.31111839338286651 0 -0.44138623940584298 -0.32974248638041931 0 -0.44146049806649751 -0.31111839338286651 0 -0.45193772932499432 -0.32058915968191642 0 -0.44138623940584298 -0.32974248638041931 0 -0.44146049806649751 -0.31111839338286651 0 -0.44138623940584298 -0.32974248638041931 0 -0.43552688059745931 -0.32184054258250122 0 -0.45193772932499432 -0.32058915968191642 0 -0.44138623940584298 -0.32974248638041931 0 -0.45183906456400952 -0.33099669457307429 0 -0.45424148032967099 -0.30769770547220959 0 -0.44146049806649751 -0.31111839338286651 0 -0.45193772932499432 -0.32058915968191642 0 -0.44146049806649751 -0.31111839338286651 0 -0.43552688059745931 -0.32184054258250122 0 -0.45183906456400952 -0.33099669457307429 0 -0.45769731701181388 -0.33974400674513572 0 -0.44131198074519062 -0.34836657937797211 0 -0.44138623940584298 -0.32974248638041931 0 -0.44131198074519062 -0.34836657937797211 0 -0.43415509774626199 -0.33613414952753451 0 -0.44138623940584298 -0.32974248638041931 0 -0.45183906456400952 -0.33099669457307429 0 -0.44131198074519062 -0.34836657937797211 0 -0.44138623940584298 -0.32974248638041931 0 -0.44131198074519062 -0.34836657937797211 0 -0.45183906456400952 -0.33099669457307429 0 -0.45769731701181388 -0.33974400674513572 0 -0.46193764333222809 -0.32836618266315359 0 -0.45769731701181388 -0.33974400674513572 0 -0.46193764333222809 -0.32836618266315359 0 -0.47408265327843679 -0.33112143411229839 0 -0.45769731701181388 -0.33974400674513572 0 -0.47408265327843679 -0.33112143411229839 0 -0.46193764333222809 -0.32836618266315359 0 -0.46508843509746889 -0.31739909349542572 0 -0.47408265327843679 -0.33112143411229839 0 -0.45193772932499432 -0.32058915968191642 0 -0.46193764333222809 -0.32836618266315359 0 -0.46508843509746889 -0.31739909349542572 0 -0.45193772932499432 -0.32058915968191642 0 -0.45183906456400952 -0.33099669457307429 0 -0.46193764333222809 -0.32836618266315359 0 -0.45424148032967099 -0.30769770547220959 0 -0.45193772932499432 -0.32058915968191642 0 -0.46508843509746889 -0.31739909349542572 0 -0.46508843509746889 -0.31739909349542572 0 -0.47932053420002818 -0.31787952843204892 0 -0.47408265327843679 -0.33112143411229839 0 -0.47932053420002818 -0.31787952843204892 0 -0.5 -0.3342057304494942 0 -0.47408265327843679 -0.33112143411229839 0 -0.48426433641225619 -0.30452504295788119 0 -0.47932053420002818 -0.31787952843204892 0 -0.5 -0.3342057304494942 0 -0.5 -0.3342057304494942 0 -0.47408265327843679 -0.33112143411229839 0 -0.47464425460675203 -0.3583195487233698 0 -0.45769731701181388 -0.33974400674513572 0 -0.47408265327843679 -0.33112143411229839 0 -0.47464425460675203 -0.3583195487233698 0 -0.45952682300873521 -0.38412174532472082 0 -0.47464425460675203 -0.3583195487233698 0 -0.45594843220178038 -0.35816583486399889 0 -0.45769731701181388 -0.33974400674513572 0 -0.47464425460675203 -0.3583195487233698 0 -0.45594843220178038 -0.35816583486399889 0 -0.45594843220178038 -0.35816583486399889 0 -0.44131198074519062 -0.34836657937797211 0 -0.44123995097782442 -0.36643166531102639 0 -0.45769731701181388 -0.33974400674513572 0 -0.44131198074519062 -0.34836657937797211 0 -0.45769731701181388 -0.33974400674513572 0 -0.45594843220178038 -0.35816583486399889 0 -0.44131198074519062 -0.34836657937797211 0 -0.44131198074519062 -0.34836657937797211 0 -0.44123995097782442 -0.36643166531102639 0 -0.45952682300873521 -0.38412174532472082 0 -0.45594843220178038 -0.35816583486399889 0 -0.44123995097782442 -0.36643166531102639 0 -0.4346910646910595 -0.37575034760356429 0 -0.4296397493010633 -0.35450894116881909 0 -0.4346910646910595 -0.37575034760356429 0 -0.41725404796856491 -0.37643399477150868 0 -0.42393486811856701 -0.36733776999777801 0 -0.4346910646910595 -0.37575034760356429 0 -0.44123995097782442 -0.36643166531102639 0 -0.4296397493010633 -0.35450894116881909 0 -0.4346910646910595 -0.37575034760356429 0 -0.42393486811856701 -0.36733776999777801 0 -0.4296397493010633 -0.35450894116881909 0 -0.42393486811856701 -0.36733776999777801 0 -0.4296397493010633 -0.35450894116881909 0 -0.41415461051358032 -0.3626577964472199 0 -0.44131198074519062 -0.34836657937797211 0 -0.4296397493010633 -0.35450894116881909 0 -0.43415509774626199 -0.33613414952753451 0 -0.44131198074519062 -0.34836657937797211 0 -0.44123995097782442 -0.36643166531102639 0 -0.4296397493010633 -0.35450894116881909 0 -0.44131198074519062 -0.34836657937797211 0 -0.4296397493010633 -0.35450894116881909 0 -0.4296397493010633 -0.35450894116881909 0 -0.41415461051358032 -0.3626577964472199 0 -0.41307394296092442 -0.34684738841213958 0 -0.41415461051358032 -0.3626577964472199 0 -0.39825245618860478 -0.35351681082114872 0 -0.4296397493010633 -0.35450894116881909 0 -0.41307394296092442 -0.34684738841213958 0 -0.41415461051358032 -0.3626577964472199 0 -0.41725404796856491 -0.37643399477150868 0 -0.41415461051358032 -0.3626577964472199 0 -0.39866947172609718 -0.37080665172562038 0 -0.41415461051358032 -0.3626577964472199 0 -0.39866947172609718 -0.37080665172562038 0 -0.41725404796856491 -0.37643399477150868 0 -0.42393486811856701 -0.36733776999777801 0 -0.41415461051358032 -0.3626577964472199 0 -0.39866947172609718 -0.37080665172562038 0 -0.3822335410512599 -0.36336055512041199 0 -0.39825245618860478 -0.35351681082114872 0 -0.41415461051358032 -0.3626577964472199 0 -0.39866947172609718 -0.37080665172562038 0 -0.39825245618860478 -0.35351681082114872 0 -0.38447606531509682 -0.37985247333909022 0 -0.39866947172609718 -0.37080665172562038 0 -0.3822335410512599 -0.36336055512041199 0 -0.38447606531509682 -0.37985247333909022 0 -0.3822335410512599 -0.36336055512041199 0 -0.3682664777651668 -0.3717743298857123 0 -0.3822335410512599 -0.36336055512041199 0 -0.38201375982667202 -0.33977887214626212 0 -0.36478090469524149 -0.35746663928442751 0 -0.3822335410512599 -0.36336055512041199 0 -0.39825245618860478 -0.35351681082114872 0 -0.38201375982667202 -0.33977887214626212 0 -0.41307394296092442 -0.34684738841213958 0 -0.39825245618860478 -0.35351681082114872 0 -0.40072876654512002 -0.33766405946732359 0 -0.39825245618860478 -0.35351681082114872 0 -0.40072876654512002 -0.33766405946732359 0 -0.38201375982667202 -0.33977887214626212 0 -0.40072876654512002 -0.33766405946732359 0 -0.38201375982667202 -0.33977887214626212 0 -0.39924661495810249 -0.32209110500809662 0 -0.38201375982667202 -0.33977887214626212 0 -0.39924661495810249 -0.32209110500809662 0 -0.39924661495810249 -0.32209110500809662 0 -0.3832641601098119 -0.3066079904111837 0 -0.3738528602191068 -0.31933848060334119 0 -0.38201375982667202 -0.33977887214626212 0 -0.39924661495810249 -0.32209110500809662 0 -0.3738528602191068 -0.31933848060334119 0 -0.39924661495810249 -0.32209110500809662 0 -0.4229106386817536 -0.3262121981279606 0 -0.41618152806244513 -0.29791545508710182 0 -0.40072876654512002 -0.33766405946732359 0 -0.39924661495810249 -0.32209110500809662 0 -0.4229106386817536 -0.3262121981279606 0 -0.4296397493010633 -0.35450894116881909 0 -0.41307394296092442 -0.34684738841213958 0 -0.4229106386817536 -0.3262121981279606 0 -0.41307394296092442 -0.34684738841213958 0 -0.40072876654512002 -0.33766405946732359 0 -0.4229106386817536 -0.3262121981279606 0 -0.4296397493010633 -0.35450894116881909 0 -0.43415509774626199 -0.33613414952753451 0 -0.4229106386817536 -0.3262121981279606 0 -0.4296397493010633 -0.35450894116881909 0 -0.4229106386817536 -0.3262121981279606 0 -0.44138623940584298 -0.32974248638041931 0 -0.43415509774626199 -0.33613414952753451 0 -0.43552688059745931 -0.32184054258250122 0 -0.43415509774626199 -0.33613414952753451 0 -0.43552688059745931 -0.32184054258250122 0 -0.4229106386817536 -0.3262121981279606 0 -0.43552688059745931 -0.32184054258250122 0 -0.4229106386817536 -0.3262121981279606 0 -0.41618152806244513 -0.29791545508710182 0 -0.43552688059745931 -0.32184054258250122 0 -0.43221058229147702 -0.30027501697148973 0 -0.41618152806244513 -0.29791545508710182 0 -0.44146049806649751 -0.31111839338286651 0 -0.43552688059745931 -0.32184054258250122 0 -0.43221058229147702 -0.30027501697148973 0 -0.44156103305135391 -0.28590419087790031 0 -0.43221058229147702 -0.30027501697148973 0 -0.42632297167962929 -0.28459650292707878 0 -0.43221058229147702 -0.30027501697148973 0 -0.42632297167962929 -0.28459650292707878 0 -0.41618152806244513 -0.29791545508710182 0 -0.41618152806244513 -0.29791545508710182 0 -0.40945241744313648 -0.26961871204624288 0 -0.42632297167962929 -0.28459650292707878 0 -0.41618152806244513 -0.29791545508710182 0 -0.40945241744313648 -0.26961871204624288 0 -0.41618152806244513 -0.29791545508710182 0 -0.3965555697962051 -0.29196729528794951 0 -0.40945241744313648 -0.26961871204624288 0 -0.4229106386817536 -0.3262121981279606 0 -0.41618152806244513 -0.29791545508710182 0 -0.39924661495810249 -0.32209110500809662 0 -0.41618152806244513 -0.29791545508710182 0 -0.39881196823164111 -0.3046454614485829 0 -0.41618152806244513 -0.29791545508710182 0 -0.39881196823164111 -0.3046454614485829 0 -0.3965555697962051 -0.29196729528794951 0 -0.39924661495810249 -0.32209110500809662 0 -0.39881196823164111 -0.3046454614485829 0 -0.3832641601098119 -0.3066079904111837 0 -0.39881196823164111 -0.3046454614485829 0 -0.3832641601098119 -0.3066079904111837 0 -0.3965555697962051 -0.29196729528794951 0 -0.3832641601098119 -0.3066079904111837 0 -0.37606693169028371 -0.29284738132296839 0 -0.3965555697962051 -0.29196729528794951 0 -0.3832641601098119 -0.3066079904111837 0 -0.37606693169028371 -0.29284738132296839 0 -0.36868888314755882 -0.30718510332281262 0 -0.3832641601098119 -0.3066079904111837 0 -0.36868888314755882 -0.30718510332281262 0 -0.3738528602191068 -0.31933848060334119 0 -0.37606693169028371 -0.29284738132296839 0 -0.3965555697962051 -0.29196729528794951 0 -0.38499556515093569 -0.28120927160445419 0 -0.3965555697962051 -0.29196729528794951 0 -0.38499556515093569 -0.28120927160445419 0 -0.40945241744313648 -0.26961871204624288 0 -0.38009461871458378 -0.2649399043476719 0 -0.36534722294301852 -0.24549226015484699 0 -0.39738094931869788 -0.2432067436779054 0 -0.38499556515093569 -0.28120927160445419 0 -0.38009461871458378 -0.2649399043476719 0 -0.40945241744313648 -0.26961871204624288 0 -0.38499556515093569 -0.28120927160445419 0 -0.38009461871458378 -0.2649399043476719 0 -0.3628082881104695 -0.28667306501743861 0 -0.38009461871458378 -0.2649399043476719 0 -0.39738094931869788 -0.2432067436779054 0 -0.38009461871458378 -0.2649399043476719 0 -0.40945241744313648 -0.26961871204624288 0 -0.39738094931869788 -0.2432067436779054 0 -0.40945241744313648 -0.26961871204624288 0 -0.428534551159651 -0.27105529444018828 0 -0.42300887284286121 -0.25113125677464299 0 -0.40945241744313648 -0.26961871204624288 0 -0.42300887284286121 -0.25113125677464299 0 -0.39738094931869788 -0.2432067436779054 0 -0.42632297167962929 -0.28459650292707878 0 -0.40945241744313648 -0.26961871204624288 0 -0.428534551159651 -0.27105529444018828 0 -0.44166156803621048 -0.26068998837293411 0 -0.44156103305135391 -0.28590419087790031 0 -0.428534551159651 -0.27105529444018828 0 -0.44156103305135391 -0.28590419087790031 0 -0.42632297167962929 -0.28459650292707878 0 -0.428534551159651 -0.27105529444018828 0 -0.44166156803621048 -0.26068998837293411 0 -0.428534551159651 -0.27105529444018828 0 -0.42300887284286121 -0.25113125677464299 0 -0.32272217373766182 -0.27344730516247368 0 -0.33015178759489039 -0.26396143557060231 0 -0.31239077332818083 -0.25696679495766411 0 -0.32958505460008192 -0.2526985449929372 0 -0.31239077332818083 -0.25696679495766411 0 -0.31769794996788808 -0.24278874263621031 0 -0.33015178759489039 -0.26396143557060231 0 -0.32958505460008192 -0.2526985449929372 0 -0.31239077332818083 -0.25696679495766411 0 -0.32272217373766182 -0.27344730516247368 0 -0.31239077332818083 -0.25696679495766411 0 -0.32272217373766182 -0.27344730516247368 0 -0.31809377003126421 -0.27979076394530189 0 -0.33305357414714359 -0.2899278153672829 0 -0.31809377003126421 -0.27979076394530189 0 -0.31239077332818083 -0.25696679495766411 0 -0.32272217373766182 -0.27344730516247368 0 -0.31809377003126421 -0.27979076394530189 0 -0.31239077332818083 -0.25696679495766411 0 -0.31809377003126421 -0.27979076394530189 0 -0.31347821341007659 -0.2822593408796662 0 -0.30608200692542242 -0.27284167694537959 0 -0.32272217373766182 -0.27344730516247368 0 -0.33903556249246991 -0.2750290349123346 0 -0.33305357414714359 -0.2899278153672829 0 -0.32272217373766182 -0.27344730516247368 0 -0.33903556249246991 -0.2750290349123346 0 -0.33015178759489039 -0.26396143557060231 0 -0.33903556249246991 -0.2750290349123346 0 -0.33015178759489039 -0.26396143557060231 0 -0.34702537381605819 -0.26166549782760129 0 -0.32958505460008192 -0.2526985449929372 0 -0.34702537381605819 -0.26166549782760129 0 -0.34288411954118519 -0.24571844432264611 0 -0.33015178759489039 -0.26396143557060231 0 -0.32958505460008192 -0.2526985449929372 0 -0.34702537381605819 -0.26166549782760129 0 -0.34702537381605819 -0.26166549782760129 0 -0.36311009130780147 -0.26524426968454712 0 -0.36534722294301852 -0.24549226015484699 0 -0.34702537381605819 -0.26166549782760129 0 -0.36534722294301852 -0.24549226015484699 0 -0.34288411954118519 -0.24571844432264611 0 -0.38009461871458378 -0.2649399043476719 0 -0.36311009130780147 -0.26524426968454712 0 -0.36534722294301852 -0.24549226015484699 0 -0.38009461871458378 -0.2649399043476719 0 -0.3628082881104695 -0.28667306501743861 0 -0.38009461871458378 -0.2649399043476719 0 -0.36311009130780147 -0.26524426968454712 0 -0.3628082881104695 -0.28667306501743861 0 -0.36311009130780147 -0.26524426968454712 0 -0.35379340318953978 -0.2751447783734115 0 -0.3628082881104695 -0.28667306501743861 0 -0.34702537381605819 -0.26166549782760129 0 -0.36311009130780147 -0.26524426968454712 0 -0.35379340318953978 -0.2751447783734115 0 -0.33903556249246991 -0.2750290349123346 0 -0.34702537381605819 -0.26166549782760129 0 -0.35379340318953978 -0.2751447783734115 0 -0.33903556249246991 -0.2750290349123346 0 -0.35379340318953978 -0.2751447783734115 0 -0.34620203026887958 -0.28259290016509148 0 -0.34844378931203263 -0.29298895602472719 0 -0.3628082881104695 -0.28667306501743861 0 -0.34552195750635528 -0.30840622568720522 0 -0.34620203026887958 -0.28259290016509148 0 -0.34844378931203263 -0.29298895602472719 0 -0.3628082881104695 -0.28667306501743861 0 -0.35379340318953978 -0.2751447783734115 0 -0.34620203026887958 -0.28259290016509148 0 -0.3628082881104695 -0.28667306501743861 0 -0.37606693169028371 -0.29284738132296839 0 -0.3628082881104695 -0.28667306501743861 0 -0.35278334756385632 -0.30914304162177342 0 -0.37606693169028371 -0.29284738132296839 0 -0.38499556515093569 -0.28120927160445419 0 -0.3628082881104695 -0.28667306501743861 0 -0.36868888314755882 -0.30718510332281262 0 -0.35278334756385632 -0.30914304162177342 0 -0.3612727302355413 -0.31374165277237848 0 -0.37606693169028371 -0.29284738132296839 0 -0.35278334756385632 -0.30914304162177342 0 -0.37606693169028371 -0.29284738132296839 0 -0.36868888314755882 -0.30718510332281262 0 -0.35278334756385632 -0.30914304162177342 0 -0.3628082881104695 -0.28667306501743861 0 -0.35278334756385632 -0.30914304162177342 0 -0.34552195750635528 -0.30840622568720522 0 -0.3628082881104695 -0.28667306501743861 0 -0.34552195750635528 -0.30840622568720522 0 -0.34844378931203263 -0.29298895602472719 0 -0.34552195750635528 -0.30840622568720522 0 -0.34180239672830998 -0.29894230319562909 0 -0.34552195750635528 -0.30840622568720522 0 -0.33328733081376122 -0.3109268812575694 0 -0.33601438971506392 -0.30241721657870052 0 -0.33328733081376122 -0.3109268812575694 0 -0.33601438971506392 -0.30241721657870052 0 -0.3237967667343466 -0.30261473293294022 0 -0.33601438971506392 -0.30241721657870052 0 -0.33305357414714359 -0.2899278153672829 0 -0.3237967667343466 -0.30261473293294022 0 -0.33601438971506392 -0.30241721657870052 0 -0.34180239672830998 -0.29894230319562909 0 -0.33305357414714359 -0.2899278153672829 0 -0.34552195750635528 -0.30840622568720522 0 -0.33601438971506392 -0.30241721657870052 0 -0.34180239672830998 -0.29894230319562909 0 -0.34844378931203263 -0.29298895602472719 0 -0.34180239672830998 -0.29894230319562909 0 -0.33305357414714359 -0.2899278153672829 0 -0.33903556249246991 -0.2750290349123346 0 -0.34620203026887958 -0.28259290016509148 0 -0.33305357414714359 -0.2899278153672829 0 -0.34620203026887958 -0.28259290016509148 0 -0.34844378931203263 -0.29298895602472719 0 -0.33305357414714359 -0.2899278153672829 0 -0.31809377003126421 -0.27979076394530189 0 -0.33305357414714359 -0.2899278153672829 0 -0.3237967667343466 -0.30261473293294022 0 -0.32272217373766182 -0.27344730516247368 0 -0.33305357414714359 -0.2899278153672829 0 -0.31809377003126421 -0.27979076394530189 0 -0.3237967667343466 -0.30261473293294022 0 -0.31347821341007659 -0.2822593408796662 0 -0.3237967667343466 -0.30261473293294022 0 -0.31003003784451078 -0.29952446310808561 0 -0.31809377003126421 -0.27979076394530189 0 -0.31347821341007659 -0.2822593408796662 0 -0.3237967667343466 -0.30261473293294022 0 -0.3237967667343466 -0.30261473293294022 0 -0.30888914361021658 -0.31724019190291441 0 -0.31003003784451078 -0.29952446310808561 0 -0.31399775021402798 -0.33628821461005298 0 -0.32949976343742882 -0.3254387019205785 0 -0.30888914361021658 -0.31724019190291441 0 -0.3237967667343466 -0.30261473293294022 0 -0.32949976343742882 -0.3254387019205785 0 -0.30888914361021658 -0.31724019190291441 0 -0.3237967667343466 -0.30261473293294022 0 -0.32949976343742882 -0.3254387019205785 0 -0.31399775021402798 -0.33628821461005298 0 -0.33147347123362109 -0.33333767992745672 0 -0.32477122466715108 -0.35505020618388122 0 -0.31399775021402798 -0.33628821461005298 0 -0.33147347123362109 -0.33333767992745672 0 -0.32949976343742882 -0.3254387019205785 0 -0.31399775021402798 -0.33628821461005298 0 -0.32949976343742882 -0.3254387019205785 0 -0.33147347123362109 -0.33333767992745672 0 -0.33594448455812309 -0.34186766079663422 0 -0.32477122466715108 -0.35505020618388122 0 -0.33147347123362109 -0.33333767992745672 0 -0.32949976343742882 -0.3254387019205785 0 -0.33147347123362109 -0.33333767992745672 0 -0.33950998595960602 -0.32906648511043918 0 -0.32949976343742882 -0.3254387019205785 0 -0.33594448455812309 -0.34186766079663422 0 -0.34284028136682071 -0.33508994076714088 0 -0.34364306373901299 -0.34562089194525852 0 -0.33147347123362109 -0.33333767992745672 0 -0.33594448455812309 -0.34186766079663422 0 -0.34284028136682071 -0.33508994076714088 0 -0.33147347123362109 -0.33333767992745672 0 -0.33950998595960602 -0.32906648511043918 0 -0.34284028136682071 -0.33508994076714088 0 -0.33950998595960602 -0.32906648511043918 0 -0.32949976343742882 -0.3254387019205785 0 -0.34413951191437248 -0.3218255952252278 0 -0.35278334756385632 -0.30914304162177342 0 -0.32949976343742882 -0.3254387019205785 0 -0.35278334756385632 -0.30914304162177342 0 -0.32949976343742882 -0.3254387019205785 0 -0.34413951191437248 -0.3218255952252278 0 -0.33328733081376122 -0.3109268812575694 0 -0.3237967667343466 -0.30261473293294022 0 -0.32949976343742882 -0.3254387019205785 0 -0.34552195750635528 -0.30840622568720522 0 -0.33328733081376122 -0.3109268812575694 0 -0.32949976343742882 -0.3254387019205785 0 -0.35278334756385632 -0.30914304162177342 0 -0.34552195750635528 -0.30840622568720522 0 -0.32949976343742882 -0.3254387019205785 0 -0.35278334756385632 -0.30914304162177342 0 -0.34413951191437248 -0.3218255952252278 0 -0.35261502157182628 -0.31868177408499337 0 -0.33950998595960602 -0.32906648511043918 0 -0.34413951191437248 -0.3218255952252278 0 -0.34946885008145279 -0.32862601861925012 0 -0.34413951191437248 -0.3218255952252278 0 -0.35261502157182628 -0.31868177408499337 0 -0.34946885008145279 -0.32862601861925012 0 -0.35901594242528251 -0.32232405610933768 0 -0.35261502157182628 -0.31868177408499337 0 -0.34946885008145279 -0.32862601861925012 0 -0.35901594242528251 -0.32232405610933768 0 -0.35261502157182628 -0.31868177408499337 0 -0.3612727302355413 -0.31374165277237848 0 -0.35278334756385632 -0.30914304162177342 0 -0.35261502157182628 -0.31868177408499337 0 -0.3612727302355413 -0.31374165277237848 0 -0.35901594242528251 -0.32232405610933768 0 -0.3612727302355413 -0.31374165277237848 0 -0.3738528602191068 -0.31933848060334119 0 -0.35901594242528251 -0.32232405610933768 0 -0.3738528602191068 -0.31933848060334119 0 -0.36757982687935559 -0.33044577443092421 0 -0.36868888314755882 -0.30718510332281262 0 -0.3612727302355413 -0.31374165277237848 0 -0.3738528602191068 -0.31933848060334119 0 -0.38201375982667202 -0.33977887214626212 0 -0.3738528602191068 -0.31933848060334119 0 -0.36757982687935559 -0.33044577443092421 0 -0.38201375982667202 -0.33977887214626212 0 -0.36757982687935559 -0.33044577443092421 0 -0.36597070697780681 -0.34136206495398391 0 -0.36757982687935559 -0.33044577443092421 0 -0.36597070697780681 -0.34136206495398391 0 -0.35796729486747841 -0.33445796392329408 0 -0.35901594242528251 -0.32232405610933768 0 -0.36757982687935559 -0.33044577443092421 0 -0.35796729486747841 -0.33445796392329408 0 -0.36597070697780681 -0.34136206495398391 0 -0.35796729486747841 -0.33445796392329408 0 -0.356825407130613 -0.34701091528002109 0 -0.35796729486747841 -0.33445796392329408 0 -0.35019391246478382 -0.33893631511431732 0 -0.356825407130613 -0.34701091528002109 0 -0.35796729486747841 -0.33445796392329408 0 -0.34946885008145279 -0.32862601861925012 0 -0.35019391246478382 -0.33893631511431732 0 -0.35901594242528251 -0.32232405610933768 0 -0.35796729486747841 -0.33445796392329408 0 -0.34946885008145279 -0.32862601861925012 0 -0.33950998595960602 -0.32906648511043918 0 -0.34284028136682071 -0.33508994076714088 0 -0.34946885008145279 -0.32862601861925012 0 -0.34284028136682071 -0.33508994076714088 0 -0.34946885008145279 -0.32862601861925012 0 -0.35019391246478382 -0.33893631511431732 0 -0.34284028136682071 -0.33508994076714088 0 -0.35019391246478382 -0.33893631511431732 0 -0.34364306373901299 -0.34562089194525852 0 -0.34821346251513868 -0.35362226755236498 0 -0.356825407130613 -0.34701091528002109 0 -0.34364306373901299 -0.34562089194525852 0 -0.35019391246478382 -0.33893631511431732 0 -0.356825407130613 -0.34701091528002109 0 -0.34364306373901299 -0.34562089194525852 0 -0.34821346251513868 -0.35362226755236498 0 -0.356825407130613 -0.34701091528002109 0 -0.36478090469524149 -0.35746663928442751 0 -0.34821346251513868 -0.35362226755236498 0 -0.36478090469524149 -0.35746663928442751 0 -0.35104671234367518 -0.3629626850682367 0 -0.38201375982667202 -0.33977887214626212 0 -0.36478090469524149 -0.35746663928442751 0 -0.36597070697780681 -0.34136206495398391 0 -0.356825407130613 -0.34701091528002109 0 -0.36478090469524149 -0.35746663928442751 0 -0.38201375982667202 -0.33977887214626212 0 -0.36597070697780681 -0.34136206495398391 0 -0.36478090469524149 -0.35746663928442751 0 -0.36478090469524149 -0.35746663928442751 0 -0.3682664777651668 -0.3717743298857123 0 -0.34754804956381108 -0.37515440642259268 0 -0.3822335410512599 -0.36336055512041199 0 -0.36478090469524149 -0.35746663928442751 0 -0.3682664777651668 -0.3717743298857123 0 -0.36478090469524149 -0.35746663928442751 0 -0.35104671234367518 -0.3629626850682367 0 -0.34754804956381108 -0.37515440642259268 0 -0.36478090469524149 -0.35746663928442751 0 -0.34754804956381108 -0.37515440642259268 0 -0.35104671234367518 -0.3629626850682367 0 -0.33008782402589931 -0.37311153101169148 0 -0.34754804956381108 -0.37515440642259268 0 -0.35104671234367518 -0.3629626850682367 0 -0.33008782402589931 -0.37311153101169148 0 -0.32477122466715108 -0.35505020618388122 0 -0.34821346251513868 -0.35362226755236498 0 -0.35104671234367518 -0.3629626850682367 0 -0.32477122466715108 -0.35505020618388122 0 -0.33594448455812309 -0.34186766079663422 0 -0.34364306373901299 -0.34562089194525852 0 -0.32477122466715108 -0.35505020618388122 0 -0.34821346251513868 -0.35362226755236498 0 -0.34364306373901299 -0.34562089194525852 0 -0.32477122466715108 -0.35505020618388122 0 -0.35104671234367518 -0.3629626850682367 0 -0.32477122466715108 -0.35505020618388122 0 -0.32477122466715108 -0.35505020618388122 0 -0.31023407643694467 -0.36781564227513158 0 -0.30467995318495472 -0.3566869958946588 0 -0.33008782402589931 -0.37311153101169148 0 -0.32477122466715108 -0.35505020618388122 0 -0.31023407643694467 -0.36781564227513158 0 -0.33008782402589931 -0.37311153101169148 0 -0.31023407643694467 -0.36781564227513158 0 -0.31685532290032659 -0.38297107153504789 0 -0.31023407643694467 -0.36781564227513158 0 -0.29519300262167869 -0.36364113185006158 0 -0.30087461417299782 -0.38281915493070129 0 -0.31023407643694467 -0.36781564227513158 0 -0.30467995318495472 -0.3566869958946588 0 -0.29519300262167869 -0.36364113185006158 0 -0.31399775021402798 -0.33628821461005298 0 -0.32477122466715108 -0.35505020618388122 0 -0.2984957369906267 -0.34713772729952702 0 -0.32477122466715108 -0.35505020618388122 0 -0.2984957369906267 -0.34713772729952702 0 -0.32477122466715108 -0.35505020618388122 0 -0.2984957369906267 -0.34713772729952702 0 -0.30467995318495472 -0.3566869958946588 0 -0.2984957369906267 -0.34713772729952702 0 -0.30467995318495472 -0.3566869958946588 0 -0.2947057252083719 -0.34979027186469192 0 -0.30467995318495472 -0.3566869958946588 0 -0.2947057252083719 -0.34979027186469192 0 -0.29519300262167869 -0.36364113185006158 0 -0.2947057252083719 -0.34979027186469192 0 -0.2824864935977433 -0.35630834161589869 0 -0.29519300262167869 -0.36364113185006158 0 -0.2947057252083719 -0.34979027186469192 0 -0.2824864935977433 -0.35630834161589869 0 -0.27235075759958433 -0.33926454907690201 0 -0.2984957369906267 -0.34713772729952702 0 -0.2947057252083719 -0.34979027186469192 0 -0.27235075759958433 -0.33926454907690201 0 -0.2984957369906267 -0.34713772729952702 0 -0.2947057252083719 -0.34979027186469192 0 -0.29519300262167869 -0.36364113185006158 0 -0.28086361008797639 -0.36894408394938621 0 -0.30087461417299782 -0.38281915493070129 0 -0.2824864935977433 -0.35630834161589869 0 -0.29519300262167869 -0.36364113185006158 0 -0.28086361008797639 -0.36894408394938621 0 -0.27079683140746458 -0.3659588699020232 0 -0.25709526763074081 -0.36849249547905338 0 -0.27139967136691417 -0.35218998753058572 0 -0.28086361008797639 -0.36894408394938621 0 -0.27079683140746458 -0.3659588699020232 0 -0.27241006737194218 -0.37613179524344992 0 -0.2824864935977433 -0.35630834161589869 0 -0.28086361008797639 -0.36894408394938621 0 -0.27079683140746458 -0.3659588699020232 0 -0.27079683140746458 -0.3659588699020232 0 -0.26354771855377412 -0.37494767072607471 0 -0.27241006737194218 -0.37613179524344992 0 -0.27079683140746458 -0.3659588699020232 0 -0.26354771855377412 -0.37494767072607471 0 -0.25709526763074081 -0.36849249547905338 0 -0.25732373348565718 -0.35997795034476149 0 -0.25709526763074081 -0.36849249547905338 0 -0.2422967093717312 -0.38069135161262158 0 -0.25732373348565718 -0.35997795034476149 0 -0.25709526763074081 -0.36849249547905338 0 -0.27139967136691417 -0.35218998753058572 0 -0.25709526763074081 -0.36849249547905338 0 -0.27139967136691417 -0.35218998753058572 0 -0.25732373348565718 -0.35997795034476149 0 -0.25654385994055262 -0.34877784043819637 0 -0.27235075759958433 -0.33926454907690201 0 -0.25732373348565718 -0.35997795034476149 0 -0.27235075759958433 -0.33926454907690201 0 -0.25732373348565718 -0.35997795034476149 0 -0.25654385994055262 -0.34877784043819637 0 -0.24401611360440639 -0.35610107602174301 0 -0.2824864935977433 -0.35630834161589869 0 -0.27139967136691417 -0.35218998753058572 0 -0.27235075759958433 -0.33926454907690201 0 -0.25732373348565718 -0.35997795034476149 0 -0.27139967136691417 -0.35218998753058572 0 -0.27235075759958433 -0.33926454907690201 0 -0.2824864935977433 -0.35630834161589869 0 -0.27079683140746458 -0.3659588699020232 0 -0.27139967136691417 -0.35218998753058572 0 -0.27444396809793531 -0.33637924666028512 0 -0.27235075759958433 -0.33926454907690201 0 -0.28795082134774869 -0.33675998594651951 0 -0.2720234315826987 -0.33191689186040779 0 -0.27329159419795862 -0.32666313356387039 0 -0.28185933657230511 -0.33071822506853132 0 -0.27444396809793531 -0.33637924666028512 0 -0.2720234315826987 -0.33191689186040779 0 -0.28185933657230511 -0.33071822506853132 0 -0.2720234315826987 -0.33191689186040779 0 -0.26615462706973841 -0.33003470300557891 0 -0.27235075759958433 -0.33926454907690201 0 -0.2720234315826987 -0.33191689186040779 0 -0.26615462706973841 -0.33003470300557891 0 -0.27329159419795862 -0.32666313356387039 0 -0.27444396809793531 -0.33637924666028512 0 -0.2720234315826987 -0.33191689186040779 0 -0.27235075759958433 -0.33926454907690201 0 -0.27444396809793531 -0.33637924666028512 0 -0.27235075759958433 -0.33926454907690201 0 -0.25654385994055262 -0.34877784043819637 0 -0.27235075759958433 -0.33926454907690201 0 -0.25521201594511111 -0.33410346764941962 0 -0.25654385994055262 -0.34877784043819637 0 -0.25521201594511111 -0.33410346764941962 0 -0.25200755245619738 -0.33313849032896592 0 -0.27235075759958433 -0.33926454907690201 0 -0.25521201594511111 -0.33410346764941962 0 -0.26615462706973841 -0.33003470300557891 0 -0.27235075759958433 -0.33926454907690201 0 -0.25521201594511111 -0.33410346764941962 0 -0.26615462706973841 -0.33003470300557891 0 -0.25521201594511111 -0.33410346764941962 0 -0.25200755245619738 -0.33313849032896592 0 -0.25521201594511111 -0.33410346764941962 0 -0.25200755245619738 -0.33313849032896592 0 -0.25200755245619738 -0.33313849032896592 0 -0.25119129651243649 -0.31847390087718652 0 -0.27252337851881792 -0.31609374316987771 0 -0.25119129651243649 -0.31847390087718652 0 -0.27252337851881792 -0.31609374316987771 0 -0.25794876186289362 -0.30849134296879799 0 -0.25200755245619738 -0.33313849032896592 0 -0.27252337851881792 -0.31609374316987771 0 -0.26615462706973841 -0.33003470300557891 0 -0.25200755245619738 -0.33313849032896592 0 -0.27252337851881792 -0.31609374316987771 0 -0.25119129651243649 -0.31847390087718652 0 -0.25794876186289362 -0.30849134296879799 0 -0.24412124319098019 -0.31093965898586901 0 -0.26615462706973841 -0.33003470300557891 0 -0.27252337851881792 -0.31609374316987771 0 -0.27329159419795862 -0.32666313356387039 0 -0.27252337851881792 -0.31609374316987771 0 -0.27329159419795862 -0.32666313356387039 0 -0.28185933657230511 -0.33071822506853132 0 -0.27252337851881792 -0.31609374316987771 0 -0.29136806548662519 -0.32261946855248869 0 -0.29300079596444739 -0.29917654202477179 0 -0.27252337851881792 -0.31609374316987771 0 -0.29136806548662519 -0.32261946855248869 0 -0.28185933657230511 -0.33071822506853132 0 -0.2984957369906267 -0.34713772729952702 0 -0.27235075759958433 -0.33926454907690201 0 -0.28795082134774869 -0.33675998594651951 0 -0.2984957369906267 -0.34713772729952702 0 -0.27235075759958433 -0.33926454907690201 0 -0.27444396809793531 -0.33637924666028512 0 -0.28185933657230511 -0.33071822506853132 0 -0.28795082134774869 -0.33675998594651951 0 -0.29136806548662519 -0.32261946855248869 0 -0.28185933657230511 -0.33071822506853132 0 -0.28795082134774869 -0.33675998594651951 0 -0.2984957369906267 -0.34713772729952702 0 -0.28795082134774869 -0.33675998594651951 0 -0.30025188126135788 -0.33286914695063841 0 -0.29136806548662519 -0.32261946855248869 0 -0.28795082134774869 -0.33675998594651951 0 -0.30025188126135788 -0.33286914695063841 0 -0.31399775021402798 -0.33628821461005298 0 -0.30025188126135788 -0.33286914695063841 0 -0.30888914361021658 -0.31724019190291441 0 -0.31399775021402798 -0.33628821461005298 0 -0.2984957369906267 -0.34713772729952702 0 -0.30025188126135788 -0.33286914695063841 0 -0.31399775021402798 -0.33628821461005298 0 -0.2984957369906267 -0.34713772729952702 0 -0.29136806548662519 -0.32261946855248869 0 -0.30025188126135788 -0.33286914695063841 0 -0.30888914361021658 -0.31724019190291441 0 -0.29136806548662519 -0.32261946855248869 0 -0.30888914361021658 -0.31724019190291441 0 -0.29300079596444739 -0.29917654202477179 0 -0.30888914361021658 -0.31724019190291441 0 -0.31003003784451078 -0.29952446310808561 0 -0.29300079596444739 -0.29917654202477179 0 -0.31347821341007659 -0.2822593408796662 0 -0.31003003784451078 -0.29952446310808561 0 -0.29300079596444739 -0.29917654202477179 0 -0.31347821341007659 -0.2822593408796662 0 -0.30754727457614711 -0.28584214060816998 0 -0.29300079596444739 -0.29917654202477179 0 -0.31347821341007659 -0.2822593408796662 0 -0.29300079596444739 -0.29917654202477179 0 -0.28899544672493188 -0.28261965802917721 0 -0.29300079596444739 -0.29917654202477179 0 -0.27778696407059439 -0.29424024523091419 0 -0.30754727457614711 -0.28584214060816998 0 -0.28899544672493188 -0.28261965802917721 0 -0.29300079596444739 -0.29917654202477179 0 -0.27252337851881792 -0.31609374316987771 0 -0.29300079596444739 -0.29917654202477179 0 -0.27252337851881792 -0.31609374316987771 0 -0.29300079596444739 -0.29917654202477179 0 -0.27778696407059439 -0.29424024523091419 0 -0.27252337851881792 -0.31609374316987771 0 -0.2650821202675403 -0.29840892658742019 0 -0.27778696407059439 -0.29424024523091419 0 -0.27252337851881792 -0.31609374316987771 0 -0.25794876186289362 -0.30849134296879799 0 -0.2650821202675403 -0.29840892658742019 0 -0.25794876186289362 -0.30849134296879799 0 -0.2650821202675403 -0.29840892658742019 0 -0.24688924757259009 -0.30014323663299408 0 -0.2650821202675403 -0.29840892658742019 0 -0.25184002281003648 -0.28821721180151999 0 -0.24688924757259009 -0.30014323663299408 0 -0.2650821202675403 -0.29840892658742019 0 -0.25184002281003648 -0.28821721180151999 0 -0.26580343329952871 -0.27884392606152469 0 -0.2650821202675403 -0.29840892658742019 0 -0.27778696407059439 -0.29424024523091419 0 -0.26580343329952871 -0.27884392606152469 0 -0.28899544672493188 -0.28261965802917721 0 -0.27778696407059439 -0.29424024523091419 0 -0.26580343329952871 -0.27884392606152469 0 -0.28899544672493188 -0.28261965802917721 0 -0.26580343329952871 -0.27884392606152469 0 -0.2867107651156659 -0.26453030662781502 0 -0.26580343329952871 -0.27884392606152469 0 -0.26819211516653502 -0.26186851430031183 0 -0.2867107651156659 -0.26453030662781502 0 -0.25184002281003648 -0.28821721180151999 0 -0.26580343329952871 -0.27884392606152469 0 -0.24111998839107429 -0.27465301777703488 0 -0.26580343329952871 -0.27884392606152469 0 -0.25228184908365758 -0.25819388120617048 0 -0.24111998839107429 -0.27465301777703488 0 -0.26580343329952871 -0.27884392606152469 0 -0.25228184908365758 -0.25819388120617048 0 -0.26819211516653502 -0.26186851430031183 0 -0.25228184908365758 -0.25819388120617048 0 -0.26819211516653502 -0.26186851430031183 0 -0.26587425565518491 -0.24321847264745999 0 -0.26819211516653502 -0.26186851430031183 0 -0.2867107651156659 -0.26453030662781502 0 -0.26587425565518491 -0.24321847264745999 0 -0.2867107651156659 -0.26453030662781502 0 -0.26587425565518491 -0.24321847264745999 0 -0.30754727457614711 -0.28584214060816998 0 -0.28899544672493188 -0.28261965802917721 0 -0.2867107651156659 -0.26453030662781502 0 -0.30754727457614711 -0.28584214060816998 0 -0.2867107651156659 -0.26453030662781502 0 -0.31809377003126421 -0.27979076394530189 0 -0.30608200692542242 -0.27284167694537959 0 -0.31239077332818083 -0.25696679495766411 0 -0.30754727457614711 -0.28584214060816998 0 -0.2867107651156659 -0.26453030662781502 0 -0.30608200692542242 -0.27284167694537959 0 -0.31347821341007659 -0.2822593408796662 0 -0.30754727457614711 -0.28584214060816998 0 -0.30608200692542242 -0.27284167694537959 0 -0.2867107651156659 -0.26453030662781502 0 -0.30608200692542242 -0.27284167694537959 0 -0.31239077332818083 -0.25696679495766411 0 -0.2867107651156659 -0.26453030662781502 0 -0.31239077332818083 -0.25696679495766411 0 -0.2995429949084496 -0.23647219258399529 0 -0.40384101907146369 -0.5 0 -0.38292052203384208 -0.47291015650172752 0 -0.33513131032047261 -0.5 0 -0.3385969295873078 -0.45752351334760061 0 -0.31869826034385251 -0.46652866108207758 0 -0.33181414871119802 -0.46902321902028782 0 -0.3385969295873078 -0.45752351334760061 0 -0.31869826034385251 -0.46652866108207758 0 -0.34204474258485917 -0.46044509008887258 0 -0.3385969295873078 -0.45752351334760061 0 -0.33181414871119802 -0.46902321902028782 0 -0.34204474258485917 -0.46044509008887258 0 -0.33181414871119802 -0.46902321902028782 0 -0.34499322742883087 -0.4717302918658004 0 -0.34204474258485917 -0.46044509008887258 0 -0.3385969295873078 -0.45752351334760061 0 -0.3385969295873078 -0.45752351334760061 0 -0.31872704289071968 -0.44068634762379533 0 -0.3385969295873078 -0.45752351334760061 0 -0.31872704289071968 -0.44068634762379533 0 -0.34319899241217339 -0.43446145694228172 0 -0.3385969295873078 -0.45752351334760061 0 -0.31872704289071968 -0.44068634762379533 0 -0.32016921062347442 -0.45395333326349679 0 -0.31872704289071968 -0.44068634762379533 0 -0.32016921062347442 -0.45395333326349679 0 -0.30465460967201741 -0.45107481100051411 0 -0.3385969295873078 -0.45752351334760061 0 -0.32016921062347442 -0.45395333326349679 0 -0.31869826034385251 -0.46652866108207758 0 -0.32016921062347442 -0.45395333326349679 0 -0.31869826034385251 -0.46652866108207758 0 -0.30465460967201741 -0.45107481100051411 0 -0.31550506782350851 -0.48993553869237128 0 -0.33513131032047261 -0.5 0 -0.28827308526024409 -0.49870768215087952 0 -0.31869826034385251 -0.46652866108207758 0 -0.31550506782350851 -0.48993553869237128 0 -0.33181414871119802 -0.46902321902028782 0 -0.31869826034385251 -0.46652866108207758 0 -0.31550506782350851 -0.48993553869237128 0 -0.30404934129650651 -0.48408630474448883 0 -0.31550506782350851 -0.48993553869237128 0 -0.33513131032047261 -0.5 0 -0.33181414871119802 -0.46902321902028782 0 -0.33513131032047261 -0.5 0 -0.33181414871119802 -0.46902321902028782 0 -0.34499322742883087 -0.4717302918658004 0 -0.33513131032047261 -0.5 0 -0.34499322742883087 -0.4717302918658004 0 -0.36158133638629042 -0.46963317701231011 0 -0.38292052203384208 -0.47291015650172752 0 -0.33513131032047261 -0.5 0 -0.36158133638629042 -0.46963317701231011 0 -0.37994300046570861 -0.43881233864818592 0 -0.38292052203384208 -0.47291015650172752 0 -0.3592699650265081 -0.44816792599789318 0 -0.38292052203384208 -0.47291015650172752 0 -0.36158133638629042 -0.46963317701231011 0 -0.3592699650265081 -0.44816792599789318 0 -0.36158133638629042 -0.46963317701231011 0 -0.35075362847092362 -0.46094284924679152 0 -0.3592699650265081 -0.44816792599789318 0 -0.34499322742883087 -0.4717302918658004 0 -0.36158133638629042 -0.46963317701231011 0 -0.35075362847092362 -0.46094284924679152 0 -0.3385969295873078 -0.45752351334760061 0 -0.35075362847092362 -0.46094284924679152 0 -0.3592699650265081 -0.44816792599789318 0 -0.34204474258485917 -0.46044509008887258 0 -0.3385969295873078 -0.45752351334760061 0 -0.35075362847092362 -0.46094284924679152 0 -0.34204474258485917 -0.46044509008887258 0 -0.34499322742883087 -0.4717302918658004 0 -0.35075362847092362 -0.46094284924679152 0 -0.3385969295873078 -0.45752351334760061 0 -0.3592699650265081 -0.44816792599789318 0 -0.3385969295873078 -0.45752351334760061 0 -0.3592699650265081 -0.44816792599789318 0 -0.34319899241217339 -0.43446145694228172 0 -0.3592699650265081 -0.44816792599789318 0 -0.36446069645394807 -0.43259663474618232 0 -0.34319899241217339 -0.43446145694228172 0 -0.37994300046570861 -0.43881233864818592 0 -0.3592699650265081 -0.44816792599789318 0 -0.37994300046570861 -0.43881233864818592 0 -0.3592699650265081 -0.44816792599789318 0 -0.36446069645394807 -0.43259663474618232 0 -0.37569179333885278 -0.41750543381529159 0 -0.37994300046570861 -0.43881233864818592 0 -0.36446069645394807 -0.43259663474618232 0 -0.37569179333885278 -0.41750543381529159 0 -0.36446069645394807 -0.43259663474618232 0 -0.35868593222665007 -0.41601286872976168 0 -0.37543729610374182 -0.40035972880021758 0 -0.37569179333885278 -0.41750543381529159 0 -0.35868593222665007 -0.41601286872976168 0 -0.35868593222665007 -0.41601286872976168 0 -0.35397905828406317 -0.3969342235387649 0 -0.33942311390689228 -0.41322542217146419 0 -0.35868593222665007 -0.41601286872976168 0 -0.34319899241217339 -0.43446145694228172 0 -0.33942311390689228 -0.41322542217146419 0 -0.36446069645394807 -0.43259663474618232 0 -0.35868593222665007 -0.41601286872976168 0 -0.34319899241217339 -0.43446145694228172 0 -0.38447606531509682 -0.37985247333909022 0 -0.3682664777651668 -0.3717743298857123 0 -0.36888034525926222 -0.38213737344447007 0 -0.3682664777651668 -0.3717743298857123 0 -0.36888034525926222 -0.38213737344447007 0 -0.35744344752346813 -0.3825365247466983 0 -0.36888034525926222 -0.38213737344447007 0 -0.35397905828406317 -0.3969342235387649 0 -0.35744344752346813 -0.3825365247466983 0 -0.37543729610374182 -0.40035972880021758 0 -0.36888034525926222 -0.38213737344447007 0 -0.35397905828406317 -0.3969342235387649 0 -0.37543729610374182 -0.40035972880021758 0 -0.35868593222665007 -0.41601286872976168 0 -0.35397905828406317 -0.3969342235387649 0 -0.35397905828406317 -0.3969342235387649 0 -0.34732143745093091 -0.38686683206720363 0 -0.33031519443238072 -0.39284217356075812 0 -0.3682664777651668 -0.3717743298857123 0 -0.34754804956381108 -0.37515440642259268 0 -0.35744344752346813 -0.3825365247466983 0 -0.35397905828406317 -0.3969342235387649 0 -0.34732143745093091 -0.38686683206720363 0 -0.35744344752346813 -0.3825365247466983 0 -0.34732143745093091 -0.38686683206720363 0 -0.34754804956381108 -0.37515440642259268 0 -0.35744344752346813 -0.3825365247466983 0 -0.34754804956381108 -0.37515440642259268 0 -0.33031519443238072 -0.39284217356075812 0 -0.33008782402589931 -0.37311153101169148 0 -0.34754804956381108 -0.37515440642259268 0 -0.33031519443238072 -0.39284217356075812 0 -0.34732143745093091 -0.38686683206720363 0 -0.34754804956381108 -0.37515440642259268 0 -0.33031519443238072 -0.39284217356075812 0 -0.35397905828406317 -0.3969342235387649 0 -0.33031519443238072 -0.39284217356075812 0 -0.33942311390689228 -0.41322542217146419 0 -0.33031519443238072 -0.39284217356075812 0 -0.33942311390689228 -0.41322542217146419 0 -0.32209559872808152 -0.41258672813651032 0 -0.33031519443238072 -0.39284217356075812 0 -0.31276490543341068 -0.39826685589695671 0 -0.31685532290032659 -0.38297107153504789 0 -0.33031519443238072 -0.39284217356075812 0 -0.31276490543341068 -0.39826685589695671 0 -0.32209559872808152 -0.41258672813651032 0 -0.33008782402589931 -0.37311153101169148 0 -0.33031519443238072 -0.39284217356075812 0 -0.31685532290032659 -0.38297107153504789 0 -0.34319899241217339 -0.43446145694228172 0 -0.33942311390689228 -0.41322542217146419 0 -0.32797046978166272 -0.4256838429812918 0 -0.31872704289071968 -0.44068634762379533 0 -0.34319899241217339 -0.43446145694228172 0 -0.32797046978166272 -0.4256838429812918 0 -0.33942311390689228 -0.41322542217146419 0 -0.32209559872808152 -0.41258672813651032 0 -0.32797046978166272 -0.4256838429812918 0 -0.32209559872808152 -0.41258672813651032 0 -0.31499910060400471 -0.42346931216320771 0 -0.32797046978166272 -0.4256838429812918 0 -0.31276490543341068 -0.39826685589695671 0 -0.32209559872808152 -0.41258672813651032 0 -0.30724097955992979 -0.41351210964481949 0 -0.32209559872808152 -0.41258672813651032 0 -0.31499910060400471 -0.42346931216320771 0 -0.30724097955992979 -0.41351210964481949 0 -0.31872704289071968 -0.44068634762379533 0 -0.31499910060400471 -0.42346931216320771 0 -0.32797046978166272 -0.4256838429812918 0 -0.31872704289071968 -0.44068634762379533 0 -0.3011414796470902 -0.43127357071405809 0 -0.29885715619413161 -0.42384918189998999 0 -0.31872704289071968 -0.44068634762379533 0 -0.31499910060400471 -0.42346931216320771 0 -0.29885715619413161 -0.42384918189998999 0 -0.31872704289071968 -0.44068634762379533 0 -0.29885715619413161 -0.42384918189998999 0 -0.31499910060400471 -0.42346931216320771 0 -0.29885715619413161 -0.42384918189998999 0 -0.30724097955992979 -0.41351210964481949 0 -0.30724097955992979 -0.41351210964481949 0 -0.29900923437861981 -0.41229403633245443 0 -0.29945135899564101 -0.40299689654940252 0 -0.29885715619413161 -0.42384918189998999 0 -0.30724097955992979 -0.41351210964481949 0 -0.29900923437861981 -0.41229403633245443 0 -0.29885715619413161 -0.42384918189998999 0 -0.29048744276477723 -0.40881795723560582 0 -0.27898726949754321 -0.40701201617618521 0 -0.29885715619413161 -0.42384918189998999 0 -0.27898726949754321 -0.40701201617618521 0 -0.29885715619413161 -0.42384918189998999 0 -0.28582778935235492 -0.42121564444063347 0 -0.27898726949754321 -0.40701201617618521 0 -0.29885715619413161 -0.42384918189998999 0 -0.29900923437861981 -0.41229403633245443 0 -0.29048744276477723 -0.40881795723560582 0 -0.29900923437861981 -0.41229403633245443 0 -0.29048744276477723 -0.40881795723560582 0 -0.29945135899564101 -0.40299689654940252 0 -0.28582778935235492 -0.42121564444063347 0 -0.29010518553309939 -0.43303319662611239 0 -0.28115444839108139 -0.4334575241781693 0 -0.28582778935235492 -0.42121564444063347 0 -0.28115444839108139 -0.4334575241781693 0 -0.27876384270132187 -0.41154498645862769 0 -0.3011414796470902 -0.43127357071405809 0 -0.29885715619413161 -0.42384918189998999 0 -0.29010518553309939 -0.43303319662611239 0 -0.29885715619413161 -0.42384918189998999 0 -0.28582778935235492 -0.42121564444063347 0 -0.29010518553309939 -0.43303319662611239 0 -0.31023407643694467 -0.36781564227513158 0 -0.31685532290032659 -0.38297107153504789 0 -0.30087461417299782 -0.38281915493070129 0 -0.31276490543341068 -0.39826685589695671 0 -0.31685532290032659 -0.38297107153504789 0 -0.30087461417299782 -0.38281915493070129 0 -0.31276490543341068 -0.39826685589695671 0 -0.30087461417299782 -0.38281915493070129 0 -0.29945135899564101 -0.40299689654940252 0 -0.31276490543341068 -0.39826685589695671 0 -0.30724097955992979 -0.41351210964481949 0 -0.29945135899564101 -0.40299689654940252 0 -0.28830036390714292 -0.39795859987694321 0 -0.27991890791399482 -0.38811057137554478 0 -0.27898726949754321 -0.40701201617618521 0 -0.30087461417299782 -0.38281915493070129 0 -0.29945135899564101 -0.40299689654940252 0 -0.28830036390714292 -0.39795859987694321 0 -0.29048744276477723 -0.40881795723560582 0 -0.29945135899564101 -0.40299689654940252 0 -0.28830036390714292 -0.39795859987694321 0 -0.29048744276477723 -0.40881795723560582 0 -0.28830036390714292 -0.39795859987694321 0 -0.27898726949754321 -0.40701201617618521 0 -0.30087461417299782 -0.38281915493070129 0 -0.27991890791399482 -0.38811057137554478 0 -0.30087461417299782 -0.38281915493070129 0 -0.28830036390714292 -0.39795859987694321 0 -0.27991890791399482 -0.38811057137554478 0 -0.28086361008797639 -0.36894408394938621 0 -0.30087461417299782 -0.38281915493070129 0 -0.27991890791399482 -0.38811057137554478 0 -0.28086361008797639 -0.36894408394938621 0 -0.27241006737194218 -0.37613179524344992 0 -0.27991890791399482 -0.38811057137554478 0 -0.28086361008797639 -0.36894408394938621 0 -0.27991890791399482 -0.38811057137554478 0 -0.26692326889650098 -0.3826977802642193 0 -0.27991890791399482 -0.38811057137554478 0 -0.25523209631643612 -0.39434410983249751 0 -0.26692326889650098 -0.3826977802642193 0 -0.27241006737194218 -0.37613179524344992 0 -0.27991890791399482 -0.38811057137554478 0 -0.26354771855377412 -0.37494767072607471 0 -0.26692326889650098 -0.3826977802642193 0 -0.27241006737194218 -0.37613179524344992 0 -0.27991890791399482 -0.38811057137554478 0 -0.27653237257703472 -0.39109110170551059 0 -0.27898726949754321 -0.40701201617618521 0 -0.27653237257703472 -0.39109110170551059 0 -0.26520054076835742 -0.40400298503231019 0 -0.25523209631643612 -0.39434410983249751 0 -0.27653237257703472 -0.39109110170551059 0 -0.27898726949754321 -0.40701201617618521 0 -0.27991890791399482 -0.38811057137554478 0 -0.25523209631643612 -0.39434410983249751 0 -0.27991890791399482 -0.38811057137554478 0 -0.27898726949754321 -0.40701201617618521 0 -0.27991890791399482 -0.38811057137554478 0 -0.27653237257703472 -0.39109110170551059 0 -0.25523209631643612 -0.39434410983249751 0 -0.27653237257703472 -0.39109110170551059 0 -0.27304791292422692 -0.40197917766810831 0 -0.27898726949754321 -0.40701201617618521 0 -0.27304791292422692 -0.40197917766810831 0 -0.27898726949754321 -0.40701201617618521 0 -0.2722870764962898 -0.40851323274404733 0 -0.27304791292422692 -0.40197917766810831 0 -0.27898726949754321 -0.40701201617618521 0 -0.27304791292422692 -0.40197917766810831 0 -0.26520054076835742 -0.40400298503231019 0 -0.2722870764962898 -0.40851323274404733 0 -0.27653237257703472 -0.39109110170551059 0 -0.27304791292422692 -0.40197917766810831 0 -0.26520054076835742 -0.40400298503231019 0 -0.26520054076835742 -0.40400298503231019 0 -0.25523209631643612 -0.39434410983249751 0 -0.25315373568125871 -0.40814568674427232 0 -0.25709526763074081 -0.36849249547905338 0 -0.25537900419147042 -0.38185970000668301 0 -0.2427908638945673 -0.38479500342752099 0 -0.26692326889650098 -0.3826977802642193 0 -0.25523209631643612 -0.39434410983249751 0 -0.25537900419147042 -0.38185970000668301 0 -0.26692326889650098 -0.3826977802642193 0 -0.25523209631643612 -0.39434410983249751 0 -0.25523209631643612 -0.39434410983249751 0 -0.25537900419147042 -0.38185970000668301 0 -0.2491258286198563 -0.38846867651232558 0 -0.26354771855377412 -0.37494767072607471 0 -0.25709526763074081 -0.36849249547905338 0 -0.25537900419147042 -0.38185970000668301 0 -0.26354771855377412 -0.37494767072607471 0 -0.26692326889650098 -0.3826977802642193 0 -0.25537900419147042 -0.38185970000668301 0 -0.28115444839108139 -0.4334575241781693 0 -0.27773895033666801 -0.43233840385646038 0 -0.27876384270132187 -0.41154498645862769 0 -0.27265398544446628 -0.42312943305587442 0 -0.27773895033666801 -0.43233840385646038 0 -0.27876384270132187 -0.41154498645862769 0 -0.27773895033666801 -0.43233840385646038 0 -0.27876384270132187 -0.41154498645862769 0 -0.28115444839108139 -0.4334575241781693 0 -0.27876384270132187 -0.41154498645862769 0 -0.26572253021165693 -0.4221535544654888 0 -0.2691465699380638 -0.42648721004469908 0 -0.2658829196178078 -0.4300514504370605 0 -0.27265398544446628 -0.42312943305587442 0 -0.2691465699380638 -0.42648721004469908 0 -0.27194130463729682 -0.43084475512492609 0 -0.27265398544446628 -0.42312943305587442 0 -0.26572253021165693 -0.4221535544654888 0 -0.2691465699380638 -0.42648721004469908 0 -0.2691465699380638 -0.42648721004469908 0 -0.2658829196178078 -0.4300514504370605 0 -0.27194130463729682 -0.43084475512492609 0 -0.2658829196178078 -0.4300514504370605 0 -0.26607122716867038 -0.43527780482411382 0 -0.27194130463729682 -0.43084475512492609 0 -0.26607122716867038 -0.43527780482411382 0 -0.27194130463729682 -0.43084475512492609 0 -0.26997997060333179 -0.43755187375362881 0 -0.27296565783342408 -0.43591015452938242 0 -0.27194130463729682 -0.43084475512492609 0 -0.26997997060333179 -0.43755187375362881 0 -0.27296565783342408 -0.43591015452938242 0 -0.27194130463729682 -0.43084475512492609 0 -0.27773895033666801 -0.43233840385646038 0 -0.27296565783342408 -0.43591015452938242 0 -0.27773895033666801 -0.43233840385646038 0 -0.27220240575639959 -0.44290558538251412 0 -0.27265398544446628 -0.42312943305587442 0 -0.27194130463729682 -0.43084475512492609 0 -0.27773895033666801 -0.43233840385646038 0 -0.27265398544446628 -0.42312943305587442 0 -0.27876384270132187 -0.41154498645862769 0 -0.27114865964465062 -0.41547424299179408 0 -0.28582778935235492 -0.42121564444063347 0 -0.27898726949754321 -0.40701201617618521 0 -0.27876384270132187 -0.41154498645862769 0 -0.27898726949754321 -0.40701201617618521 0 -0.27876384270132187 -0.41154498645862769 0 -0.27876384270132187 -0.41154498645862769 0 -0.2722870764962898 -0.40851323274404733 0 -0.27114865964465062 -0.41547424299179408 0 -0.27898726949754321 -0.40701201617618521 0 -0.27876384270132187 -0.41154498645862769 0 -0.2722870764962898 -0.40851323274404733 0 -0.26520054076835742 -0.40400298503231019 0 -0.2722870764962898 -0.40851323274404733 0 -0.26631586336951812 -0.41203000823493258 0 -0.2722870764962898 -0.40851323274404733 0 -0.26631586336951812 -0.41203000823493258 0 -0.27114865964465062 -0.41547424299179408 0 -0.26572253021165693 -0.4221535544654888 0 -0.26631586336951812 -0.41203000823493258 0 -0.27114865964465062 -0.41547424299179408 0 -0.27265398544446628 -0.42312943305587442 0 -0.26572253021165693 -0.4221535544654888 0 -0.27114865964465062 -0.41547424299179408 0 -0.26572253021165693 -0.4221535544654888 0 -0.26631586336951812 -0.41203000823493258 0 -0.25918333565361612 -0.41393300781724812 0 -0.26572253021165693 -0.4221535544654888 0 -0.25918333565361612 -0.41393300781724812 0 -0.25691416788966981 -0.4211608603457519 0 -0.26520054076835742 -0.40400298503231019 0 -0.26631586336951812 -0.41203000823493258 0 -0.25918333565361612 -0.41393300781724812 0 -0.26520054076835742 -0.40400298503231019 0 -0.25918333565361612 -0.41393300781724812 0 -0.25315373568125871 -0.40814568674427232 0 -0.25918333565361612 -0.41393300781724812 0 -0.25315373568125871 -0.40814568674427232 0 -0.24908549452786249 -0.41756327322724301 0 -0.25918333565361612 -0.41393300781724812 0 -0.25691416788966981 -0.4211608603457519 0 -0.24908549452786249 -0.41756327322724301 0 -0.25691416788966981 -0.4211608603457519 0 -0.25148115017164308 -0.42481503991236852 0 -0.24908549452786249 -0.41756327322724301 0 -0.25691416788966981 -0.4211608603457519 0 -0.25148115017164308 -0.42481503991236852 0 -0.25958873438710278 -0.42763924799965369 0 -0.25148115017164308 -0.42481503991236852 0 -0.25958873438710278 -0.42763924799965369 0 -0.25341371244249938 -0.43261616692877208 0 -0.26572253021165693 -0.4221535544654888 0 -0.25691416788966981 -0.4211608603457519 0 -0.25958873438710278 -0.42763924799965369 0 -0.26572253021165693 -0.4221535544654888 0 -0.2658829196178078 -0.4300514504370605 0 -0.25958873438710278 -0.42763924799965369 0 -0.25958873438710278 -0.42763924799965369 0 -0.26105712642434559 -0.43574493863148739 0 -0.25341371244249938 -0.43261616692877208 0 -0.2658829196178078 -0.4300514504370605 0 -0.25958873438710278 -0.42763924799965369 0 -0.26105712642434559 -0.43574493863148739 0 -0.2658829196178078 -0.4300514504370605 0 -0.26607122716867038 -0.43527780482411382 0 -0.26105712642434559 -0.43574493863148739 0 -0.26105712642434559 -0.43574493863148739 0 -0.25341371244249938 -0.43261616692877208 0 -0.25750448946905158 -0.44094998055301798 0 -0.25750448946905158 -0.44094998055301798 0 -0.25725088185947148 -0.44809622947868322 0 -0.24896113504957779 -0.44185755829748219 0 -0.25341371244249938 -0.43261616692877208 0 -0.25750448946905158 -0.44094998055301798 0 -0.24896113504957779 -0.44185755829748219 0 -0.25725088185947148 -0.44809622947868322 0 -0.26127753761363909 -0.45788979304971528 0 -0.2482161603724127 -0.45301093363896172 0 -0.25725088185947148 -0.44809622947868322 0 -0.24896113504957779 -0.44185755829748219 0 -0.2482161603724127 -0.45301093363896172 0 -0.25725088185947148 -0.44809622947868322 0 -0.26478409862611252 -0.44212183546966127 0 -0.2664457963655274 -0.44882905292697339 0 -0.25725088185947148 -0.44809622947868322 0 -0.26127753761363909 -0.45788979304971528 0 -0.2664457963655274 -0.44882905292697339 0 -0.26607122716867038 -0.43527780482411382 0 -0.26105712642434559 -0.43574493863148739 0 -0.26478409862611252 -0.44212183546966127 0 -0.26105712642434559 -0.43574493863148739 0 -0.25750448946905158 -0.44094998055301798 0 -0.26478409862611252 -0.44212183546966127 0 -0.25750448946905158 -0.44094998055301798 0 -0.25725088185947148 -0.44809622947868322 0 -0.26478409862611252 -0.44212183546966127 0 -0.26127753761363909 -0.45788979304971528 0 -0.26724958230742019 -0.47768503094885523 0 -0.24714218365709451 -0.46674752488338539 0 -0.26127753761363909 -0.45788979304971528 0 -0.2482161603724127 -0.45301093363896172 0 -0.24714218365709451 -0.46674752488338539 0 -0.28354505408083991 -0.45537006189771112 0 -0.26724958230742019 -0.47768503094885523 0 -0.26127753761363909 -0.45788979304971528 0 -0.27671405797201443 -0.45313182125429308 0 -0.26724958230742019 -0.47768503094885523 0 -0.27671405797201443 -0.45313182125429308 0 -0.28354505408083991 -0.45537006189771112 0 -0.26724958230742019 -0.47768503094885523 0 -0.26127753761363909 -0.45788979304971528 0 -0.27671405797201443 -0.45313182125429308 0 -0.2664457963655274 -0.44882905292697339 0 -0.27773895033666801 -0.43233840385646038 0 -0.27671405797201443 -0.45313182125429308 0 -0.28115444839108139 -0.4334575241781693 0 -0.27773895033666801 -0.43233840385646038 0 -0.27671405797201443 -0.45313182125429308 0 -0.27773895033666801 -0.43233840385646038 0 -0.27671405797201443 -0.45313182125429308 0 -0.27220240575639959 -0.44290558538251412 0 -0.28115444839108139 -0.4334575241781693 0 -0.27671405797201443 -0.45313182125429308 0 -0.28354505408083991 -0.45537006189771112 0 -0.27296565783342408 -0.43591015452938242 0 -0.27220240575639959 -0.44290558538251412 0 -0.26997997060333179 -0.43755187375362881 0 -0.26607122716867038 -0.43527780482411382 0 -0.26478409862611252 -0.44212183546966127 0 -0.26997997060333179 -0.43755187375362881 0 -0.26478409862611252 -0.44212183546966127 0 -0.27220240575639959 -0.44290558538251412 0 -0.26997997060333179 -0.43755187375362881 0 -0.26478409862611252 -0.44212183546966127 0 -0.27220240575639959 -0.44290558538251412 0 -0.2664457963655274 -0.44882905292697339 0 -0.27671405797201443 -0.45313182125429308 0 -0.27220240575639959 -0.44290558538251412 0 -0.2664457963655274 -0.44882905292697339 0 -0.3011414796470902 -0.43127357071405809 0 -0.28354505408083991 -0.45537006189771112 0 -0.3011414796470902 -0.43127357071405809 0 -0.29010518553309939 -0.43303319662611239 0 -0.28354505408083991 -0.45537006189771112 0 -0.29010518553309939 -0.43303319662611239 0 -0.28115444839108139 -0.4334575241781693 0 -0.28354505408083991 -0.45537006189771112 0 -0.28115444839108139 -0.4334575241781693 0 -0.28354505408083991 -0.45537006189771112 0 -0.3011414796470902 -0.43127357071405809 0 -0.28354505408083991 -0.45537006189771112 0 -0.30465460967201741 -0.45107481100051411 0 -0.28354505408083991 -0.45537006189771112 0 -0.29531317542826208 -0.46231924413864978 0 -0.28590906967054242 -0.47703887202429529 0 -0.28354505408083991 -0.45537006189771112 0 -0.29531317542826208 -0.46231924413864978 0 -0.30465460967201741 -0.45107481100051411 0 -0.28354505408083991 -0.45537006189771112 0 -0.28590906967054242 -0.47703887202429529 0 -0.31869826034385251 -0.46652866108207758 0 -0.29531317542826208 -0.46231924413864978 0 -0.30465460967201741 -0.45107481100051411 0 -0.31869826034385251 -0.46652866108207758 0 -0.29531317542826208 -0.46231924413864978 0 -0.29879959110039728 -0.47553380881655472 0 -0.31872704289071968 -0.44068634762379533 0 -0.3011414796470902 -0.43127357071405809 0 -0.30465460967201741 -0.45107481100051411 0 -0.33513131032047261 -0.5 0 -0.28827308526024409 -0.49870768215087952 0 -0.28603444982967863 -0.5 0 -0.31550506782350851 -0.48993553869237128 0 -0.30404934129650651 -0.48408630474448883 0 -0.28827308526024409 -0.49870768215087952 0 -0.31869826034385251 -0.46652866108207758 0 -0.29879959110039728 -0.47553380881655472 0 -0.30404934129650651 -0.48408630474448883 0 -0.31869826034385251 -0.46652866108207758 0 -0.29879959110039728 -0.47553380881655472 0 -0.29879959110039728 -0.47553380881655472 0 -0.30404934129650651 -0.48408630474448883 0 -0.29449108520432887 -0.48413296228289149 0 -0.29879959110039728 -0.47553380881655472 0 -0.29449108520432887 -0.48413296228289149 0 -0.28590906967054242 -0.47703887202429529 0 -0.29531317542826208 -0.46231924413864978 0 -0.29879959110039728 -0.47553380881655472 0 -0.28590906967054242 -0.47703887202429529 0 -0.30404934129650651 -0.48408630474448883 0 -0.29449108520432887 -0.48413296228289149 0 -0.28827308526024409 -0.49870768215087952 0 -0.28590906967054242 -0.47703887202429529 0 -0.28827308526024409 -0.49870768215087952 0 -0.29449108520432887 -0.48413296228289149 0 -0.28590906967054242 -0.47703887202429529 0 -0.28827308526024409 -0.49870768215087952 0 -0.28590906967054242 -0.47703887202429529 0 -0.28827308526024409 -0.49870768215087952 0 -0.28091522947392689 -0.48854704739828558 0 -0.28827308526024409 -0.49870768215087952 0 -0.28603444982967863 -0.5 0 -0.28091522947392689 -0.48854704739828558 0 -0.28603444982967863 -0.5 0 -0.28091522947392689 -0.48854704739828558 0 -0.25095411053400102 -0.49999999999999989 0 -0.28091522947392689 -0.48854704739828558 0 -0.26724958230742019 -0.47768503094885523 0 -0.25095411053400102 -0.49999999999999989 0 -0.28590906967054242 -0.47703887202429529 0 -0.28091522947392689 -0.48854704739828558 0 -0.26724958230742019 -0.47768503094885523 0 -0.28354505408083991 -0.45537006189771112 0 -0.28590906967054242 -0.47703887202429529 0 -0.26724958230742019 -0.47768503094885523 0 -0.26724958230742019 -0.47768503094885523 0 -0.24261612674874461 -0.48332880886671681 0 -0.24714218365709451 -0.46674752488338539 0 -0.26724958230742019 -0.47768503094885523 0 -0.25095411053400102 -0.49999999999999989 0 -0.24261612674874461 -0.48332880886671681 0 -0.26724958230742019 -0.47768503094885523 0 -0.25095411053400102 -0.49999999999999989 0 -0.25095411053400102 -0.49999999999999989 0 -0.24261612674874461 -0.48332880886671681 0 -0.22370342076698679 -0.5 0 -0.24261612674874461 -0.48332880886671681 0 -0.23191558203807019 -0.47055045012939462 0 -0.24714218365709451 -0.46674752488338539 0 -0.21965880405609881 -0.47918038868658269 0 -0.23191558203807019 -0.47055045012939462 0 -0.2224247651082788 -0.46194650637134121 0 -0.24261612674874461 -0.48332880886671681 0 -0.21965880405609881 -0.47918038868658269 0 -0.23191558203807019 -0.47055045012939462 0 -0.24261612674874461 -0.48332880886671681 0 -0.21965880405609881 -0.47918038868658269 0 -0.22370342076698679 -0.5 0 -0.2389019583654701 -0.4460407657190375 0 -0.23302220273342741 -0.43914694148856009 0 -0.24188559880898569 -0.43594682220705788 0 -0.24896113504957779 -0.44185755829748219 0 -0.2389019583654701 -0.4460407657190375 0 -0.24188559880898569 -0.43594682220705788 0 -0.24896113504957779 -0.44185755829748219 0 -0.2482161603724127 -0.45301093363896172 0 -0.2389019583654701 -0.4460407657190375 0 -0.2482161603724127 -0.45301093363896172 0 -0.2389019583654701 -0.4460407657190375 0 -0.23576326568922321 -0.45743373040546659 0 -0.2482161603724127 -0.45301093363896172 0 -0.23576326568922321 -0.45743373040546659 0 -0.24714218365709451 -0.46674752488338539 0 -0.23191558203807019 -0.47055045012939462 0 -0.23576326568922321 -0.45743373040546659 0 -0.24714218365709451 -0.46674752488338539 0 -0.23191558203807019 -0.47055045012939462 0 -0.23576326568922321 -0.45743373040546659 0 -0.2224247651082788 -0.46194650637134121 0 -0.2224247651082788 -0.46194650637134121 0 -0.22645219715602871 -0.44930610338044968 0 -0.21353967964050211 -0.45498528082358991 0 -0.23576326568922321 -0.45743373040546659 0 -0.2224247651082788 -0.46194650637134121 0 -0.22645219715602871 -0.44930610338044968 0 -0.2389019583654701 -0.4460407657190375 0 -0.23576326568922321 -0.45743373040546659 0 -0.22645219715602871 -0.44930610338044968 0 -0.22645219715602871 -0.44930610338044968 0 -0.21777538995291279 -0.44314578085332029 0 -0.21353967964050211 -0.45498528082358991 0 -0.22645219715602871 -0.44930610338044968 0 -0.21777538995291279 -0.44314578085332029 0 -0.22515202497960421 -0.43737319562613453 0 -0.22645219715602871 -0.44930610338044968 0 -0.23302220273342741 -0.43914694148856009 0 -0.22515202497960421 -0.43737319562613453 0 -0.2389019583654701 -0.4460407657190375 0 -0.22645219715602871 -0.44930610338044968 0 -0.23302220273342741 -0.43914694148856009 0 -0.21777538995291279 -0.44314578085332029 0 -0.2036010574831858 -0.44577711110645429 0 -0.22081140376093569 -0.42863277734846861 0 -0.21777538995291279 -0.44314578085332029 0 -0.2036010574831858 -0.44577711110645429 0 -0.21353967964050211 -0.45498528082358991 0 -0.2036010574831858 -0.44577711110645429 0 -0.21353967964050211 -0.45498528082358991 0 -0.20191433238227291 -0.46130219945957618 0 -0.2224247651082788 -0.46194650637134121 0 -0.21353967964050211 -0.45498528082358991 0 -0.20984391988578249 -0.46925448438310208 0 -0.21353967964050211 -0.45498528082358991 0 -0.20191433238227291 -0.46130219945957618 0 -0.20984391988578249 -0.46925448438310208 0 -0.2036010574831858 -0.44577711110645429 0 -0.20191433238227291 -0.46130219945957618 0 -0.1863907112054359 -0.4629214448644402 0 -0.2036010574831858 -0.44577711110645429 0 -0.1863907112054359 -0.4629214448644402 0 -0.20191433238227291 -0.46130219945957618 0 -0.20984391988578249 -0.46925448438310208 0 -0.1967752981676161 -0.47378359613492382 0 -0.20191433238227291 -0.46130219945957618 0 -0.1967752981676161 -0.47378359613492382 0 -0.1863907112054359 -0.4629214448644402 0 -0.2036010574831858 -0.44577711110645429 0 -0.1934296491775043 -0.44805019917350708 0 -0.20808870642078431 -0.42784400714329679 0 -0.1934296491775043 -0.44805019917350708 0 -0.20808870642078431 -0.42784400714329679 0 -0.2036010574831858 -0.44577711110645429 0 -0.1934296491775043 -0.44805019917350708 0 -0.1863907112054359 -0.4629214448644402 0 -0.1934296491775043 -0.44805019917350708 0 -0.1810634373167164 -0.43800834305149983 0 -0.19313884387340999 -0.43197674216083282 0 -0.21965880405609881 -0.47918038868658269 0 -0.22370342076698679 -0.5 0 -0.20713694085989109 -0.48636448098460361 0 -0.22370342076698679 -0.5 0 -0.20713694085989109 -0.48636448098460361 0 -0.19645273099997271 -0.5 0 -0.21965880405609881 -0.47918038868658269 0 -0.2224247651082788 -0.46194650637134121 0 -0.20984391988578249 -0.46925448438310208 0 -0.21965880405609881 -0.47918038868658269 0 -0.20713694085989109 -0.48636448098460361 0 -0.20984391988578249 -0.46925448438310208 0 -0.20713694085989109 -0.48636448098460361 0 -0.20984391988578249 -0.46925448438310208 0 -0.1967752981676161 -0.47378359613492382 0 -0.1967752981676161 -0.47378359613492382 0 -0.18481237711404849 -0.47863806217955412 0 -0.1863907112054359 -0.4629214448644402 0 -0.20713694085989109 -0.48636448098460361 0 -0.1967752981676161 -0.47378359613492382 0 -0.19352662624125691 -0.48556127586884151 0 -0.1967752981676161 -0.47378359613492382 0 -0.19352662624125691 -0.48556127586884151 0 -0.18481237711404849 -0.47863806217955412 0 -0.19352662624125691 -0.48556127586884151 0 -0.19645273099997271 -0.5 0 -0.18245578406475579 -0.48902024004512579 0 -0.20713694085989109 -0.48636448098460361 0 -0.19352662624125691 -0.48556127586884151 0 -0.19645273099997271 -0.5 0 -0.18245578406475579 -0.48902024004512579 0 -0.16920204123295859 -0.5 0 -0.16918036492768601 -0.48006577862242611 0 -0.19645273099997271 -0.5 0 -0.18245578406475579 -0.48902024004512579 0 -0.16920204123295859 -0.5 0 -0.19352662624125691 -0.48556127586884151 0 -0.18245578406475579 -0.48902024004512579 0 -0.18481237711404849 -0.47863806217955412 0 -0.16920204123295859 -0.5 0 -0.16918036492768601 -0.48006577862242611 0 -0.15547928819676529 -0.48796780219092178 0 -0.16918036492768601 -0.48006577862242611 0 -0.1670622175938101 -0.46935986914783262 0 -0.15519927056494351 -0.47519990018426528 0 -0.1670622175938101 -0.46935986914783262 0 -0.15944366208404651 -0.46307720521049101 0 -0.15519927056494351 -0.47519990018426528 0 -0.16918036492768601 -0.48006577862242611 0 -0.15547928819676529 -0.48796780219092178 0 -0.15519927056494351 -0.47519990018426528 0 -0.16918036492768601 -0.48006577862242611 0 -0.1670622175938101 -0.46935986914783262 0 -0.1787705919342242 -0.46825639120371743 0 -0.16918036492768601 -0.48006577862242611 0 -0.1863907112054359 -0.4629214448644402 0 -0.16918036492768601 -0.48006577862242611 0 -0.18481237711404849 -0.47863806217955412 0 -0.1863907112054359 -0.4629214448644402 0 -0.18245578406475579 -0.48902024004512579 0 -0.16918036492768601 -0.48006577862242611 0 -0.18481237711404849 -0.47863806217955412 0 -0.16918036492768601 -0.48006577862242611 0 -0.1863907112054359 -0.4629214448644402 0 -0.1787705919342242 -0.46825639120371743 0 -0.1934296491775043 -0.44805019917350708 0 -0.1787705919342242 -0.46825639120371743 0 -0.17812734122281351 -0.45120876542481508 0 -0.1934296491775043 -0.44805019917350708 0 -0.1787705919342242 -0.46825639120371743 0 -0.1787705919342242 -0.46825639120371743 0 -0.17812734122281351 -0.45120876542481508 0 -0.16865861110871719 -0.45853003245062862 0 -0.1934296491775043 -0.44805019917350708 0 -0.1863907112054359 -0.4629214448644402 0 -0.1787705919342242 -0.46825639120371743 0 -0.1934296491775043 -0.44805019917350708 0 -0.1810634373167164 -0.43800834305149983 0 -0.17812734122281351 -0.45120876542481508 0 -0.1810634373167164 -0.43800834305149983 0 -0.17812734122281351 -0.45120876542481508 0 -0.16592623400497369 -0.4427854958048274 0 -0.17812734122281351 -0.45120876542481508 0 -0.16592623400497369 -0.4427854958048274 0 -0.16865861110871719 -0.45853003245062862 0 -0.16592623400497369 -0.4427854958048274 0 -0.16865861110871719 -0.45853003245062862 0 -0.15478663973002549 -0.45086839745750912 0 -0.1670622175938101 -0.46935986914783262 0 -0.16865861110871719 -0.45853003245062862 0 -0.15944366208404651 -0.46307720521049101 0 -0.1670622175938101 -0.46935986914783262 0 -0.1787705919342242 -0.46825639120371743 0 -0.16865861110871719 -0.45853003245062862 0 -0.16865861110871719 -0.45853003245062862 0 -0.15944366208404651 -0.46307720521049101 0 -0.15478663973002549 -0.45086839745750912 0 -0.15944366208404651 -0.46307720521049101 0 -0.1426247571416131 -0.4569995866818477 0 -0.15519927056494351 -0.47519990018426528 0 -0.15944366208404651 -0.46307720521049101 0 -0.1426247571416131 -0.4569995866818477 0 -0.15478663973002549 -0.45086839745750912 0 -0.1426247571416131 -0.4569995866818477 0 -0.15478663973002549 -0.45086839745750912 0 -0.1427006225157347 -0.4303050474784933 0 -0.1426247571416131 -0.4569995866818477 0 -0.1427006225157347 -0.4303050474784933 0 -0.16592623400497369 -0.4427854958048274 0 -0.15478663973002549 -0.45086839745750912 0 -0.1427006225157347 -0.4303050474784933 0 -0.1426247571416131 -0.4569995866818477 0 -0.1212786470888633 -0.45161509620477791 0 -0.1249880535428054 -0.43392171619934561 0 -0.1426247571416131 -0.4569995866818477 0 -0.1427006225157347 -0.4303050474784933 0 -0.1249880535428054 -0.43392171619934561 0 -0.1426247571416131 -0.4569995866818477 0 -0.1322187367381934 -0.47098269756093569 0 -0.1212786470888633 -0.45161509620477791 0 -0.1322187367381934 -0.47098269756093569 0 -0.1292245375975925 -0.48721175298735819 0 -0.1425488917674915 -0.48369412588520211 0 -0.1322187367381934 -0.47098269756093569 0 -0.1292245375975925 -0.48721175298735819 0 -0.1180269090912258 -0.4757394090871756 0 -0.1426247571416131 -0.4569995866818477 0 -0.1322187367381934 -0.47098269756093569 0 -0.1425488917674915 -0.48369412588520211 0 -0.1292245375975925 -0.48721175298735819 0 -0.14195135146594451 -0.5 0 -0.1425488917674915 -0.48369412588520211 0 -0.1292245375975925 -0.48721175298735819 0 -0.14195135146594451 -0.5 0 -0.1147006616989303 -0.50000000000000211 0 -0.16920204123295859 -0.5 0 -0.14195135146594451 -0.5 0 -0.15547928819676529 -0.48796780219092178 0 -0.14195135146594451 -0.5 0 -0.15547928819676529 -0.48796780219092178 0 -0.1425488917674915 -0.48369412588520211 0 -0.1426247571416131 -0.4569995866818477 0 -0.1425488917674915 -0.48369412588520211 0 -0.1426247571416131 -0.4569995866818477 0 -0.15519927056494351 -0.47519990018426528 0 -0.1425488917674915 -0.48369412588520211 0 -0.15547928819676529 -0.48796780219092178 0 -0.15519927056494351 -0.47519990018426528 0 -0.1425488917674915 -0.48369412588520211 0 -0.1330709969776524 -0.38088952676460769 0 -0.1568021525714331 -0.38180994011320291 0 -0.1500899579940512 -0.36297878918707999 0 -0.14277648788985631 -0.40361050827513889 0 -0.1330709969776524 -0.38088952676460769 0 -0.1568021525714331 -0.38180994011320291 0 -0.14277648788985631 -0.40361050827513889 0 -0.1330709969776524 -0.38088952676460769 0 -0.122424295354629 -0.39796386354793167 0 -0.14277648788985631 -0.40361050827513889 0 -0.1249880535428054 -0.43392171619934561 0 -0.11073168922962839 -0.41825428274749238 0 -0.14277648788985631 -0.40361050827513889 0 -0.11073168922962839 -0.41825428274749238 0 -0.122424295354629 -0.39796386354793167 0 -0.14277648788985631 -0.40361050827513889 0 -0.1427006225157347 -0.4303050474784933 0 -0.1249880535428054 -0.43392171619934561 0 -0.14277648788985631 -0.40361050827513889 0 -0.1427006225157347 -0.4303050474784933 0 -0.14277648788985631 -0.40361050827513889 0 -0.1427006225157347 -0.4303050474784933 0 -0.16664589750875869 -0.42564782429910791 0 -0.14277648788985631 -0.40361050827513889 0 -0.16664589750875869 -0.42564782429910791 0 -0.16919921556398981 -0.39861818770671043 0 -0.16592623400497369 -0.4427854958048274 0 -0.1427006225157347 -0.4303050474784933 0 -0.16664589750875869 -0.42564782429910791 0 -0.1810634373167164 -0.43800834305149983 0 -0.16592623400497369 -0.4427854958048274 0 -0.16664589750875869 -0.42564782429910791 0 -0.1810634373167164 -0.43800834305149983 0 -0.16664589750875869 -0.42564782429910791 0 -0.18331276094866161 -0.42584332500628491 0 -0.1810634373167164 -0.43800834305149983 0 -0.18331276094866161 -0.42584332500628491 0 -0.19313884387340999 -0.43197674216083282 0 -0.16664589750875869 -0.42564782429910791 0 -0.18331276094866161 -0.42584332500628491 0 -0.18015174788406019 -0.41330225829428252 0 -0.16664589750875869 -0.42564782429910791 0 -0.18015174788406019 -0.41330225829428252 0 -0.16919921556398981 -0.39861818770671043 0 -0.18331276094866161 -0.42584332500628491 0 -0.18015174788406019 -0.41330225829428252 0 -0.19556387816036261 -0.42028145722570182 0 -0.16919921556398981 -0.39861818770671043 0 -0.17735555672394551 -0.38083186436021688 0 -0.19309095381350419 -0.39398798167339227 0 -0.18015174788406019 -0.41330225829428252 0 -0.16919921556398981 -0.39861818770671043 0 -0.19309095381350419 -0.39398798167339227 0 -0.14277648788985631 -0.40361050827513889 0 -0.16919921556398981 -0.39861818770671043 0 -0.1568021525714331 -0.38180994011320291 0 -0.1568021525714331 -0.38180994011320291 0 -0.17735555672394551 -0.38083186436021688 0 -0.16961760653277669 -0.3653828067602507 0 -0.16919921556398981 -0.39861818770671043 0 -0.1568021525714331 -0.38180994011320291 0 -0.17735555672394551 -0.38083186436021688 0 -0.17735555672394551 -0.38083186436021688 0 -0.196092358796951 -0.37704952253979979 0 -0.18647084864933219 -0.36762546339367358 0 -0.17735555672394551 -0.38083186436021688 0 -0.196092358796951 -0.37704952253979979 0 -0.19309095381350419 -0.39398798167339227 0 -0.196092358796951 -0.37704952253979979 0 -0.19309095381350419 -0.39398798167339227 0 -0.21011390615841061 -0.38352806581210808 0 -0.18015174788406019 -0.41330225829428252 0 -0.19309095381350419 -0.39398798167339227 0 -0.2037107165709317 -0.40735350558738059 0 -0.19309095381350419 -0.39398798167339227 0 -0.21269862866377731 -0.39545200190278978 0 -0.21011390615841061 -0.38352806581210808 0 -0.21269862866377731 -0.39545200190278978 0 -0.2037107165709317 -0.40735350558738059 0 -0.22848646015839399 -0.40109751137598881 0 -0.19309095381350419 -0.39398798167339227 0 -0.21269862866377731 -0.39545200190278978 0 -0.2037107165709317 -0.40735350558738059 0 -0.2037107165709317 -0.40735350558738059 0 -0.2227477636640644 -0.4076378151130865 0 -0.22848646015839399 -0.40109751137598881 0 -0.2037107165709317 -0.40735350558738059 0 -0.22848646015839399 -0.40109751137598881 0 -0.21269862866377731 -0.39545200190278978 0 -0.21011390615841061 -0.38352806581210808 0 -0.22482755587031519 -0.38314917872796977 0 -0.21011390615841061 -0.38352806581210808 0 -0.22482755587031519 -0.38314917872796977 0 -0.22057816856062501 -0.36915780504681928 0 -0.1934296491775043 -0.44805019917350708 0 -0.19313884387340999 -0.43197674216083282 0 -0.20808870642078431 -0.42784400714329679 0 -0.18331276094866161 -0.42584332500628491 0 -0.19313884387340999 -0.43197674216083282 0 -0.19556387816036261 -0.42028145722570182 0 -0.19313884387340999 -0.43197674216083282 0 -0.19556387816036261 -0.42028145722570182 0 -0.20808870642078431 -0.42784400714329679 0 -0.18015174788406019 -0.41330225829428252 0 -0.19556387816036261 -0.42028145722570182 0 -0.2037107165709317 -0.40735350558738059 0 -0.18015174788406019 -0.41330225829428252 0 -0.2037107165709317 -0.40735350558738059 0 -0.19556387816036261 -0.42028145722570182 0 -0.2037107165709317 -0.40735350558738059 0 -0.20808870642078431 -0.42784400714329679 0 -0.2037107165709317 -0.40735350558738059 0 -0.22054659079047059 -0.41067193395424972 0 -0.2227477636640644 -0.4076378151130865 0 -0.2037107165709317 -0.40735350558738059 0 -0.20808870642078431 -0.42784400714329679 0 -0.22054659079047059 -0.41067193395424972 0 -0.20808870642078431 -0.42784400714329679 0 -0.22054659079047059 -0.41067193395424972 0 -0.2036010574831858 -0.44577711110645429 0 -0.22081140376093569 -0.42863277734846861 0 -0.20808870642078431 -0.42784400714329679 0 -0.22081140376093569 -0.42863277734846861 0 -0.22054659079047059 -0.41067193395424972 0 -0.2036010574831858 -0.44577711110645429 0 -0.20808870642078431 -0.42784400714329679 0 -0.22081140376093569 -0.42863277734846861 0 -0.22081140376093569 -0.42863277734846861 0 -0.23362341488435559 -0.42964769330115449 0 -0.23802175003868559 -0.41148844359048281 0 -0.23302220273342741 -0.43914694148856009 0 -0.22515202497960421 -0.43737319562613453 0 -0.23362341488435559 -0.42964769330115449 0 -0.21777538995291279 -0.44314578085332029 0 -0.22515202497960421 -0.43737319562613453 0 -0.22081140376093569 -0.42863277734846861 0 -0.22515202497960421 -0.43737319562613453 0 -0.22081140376093569 -0.42863277734846861 0 -0.23362341488435559 -0.42964769330115449 0 -0.22081140376093569 -0.42863277734846861 0 -0.22054659079047059 -0.41067193395424972 0 -0.2227477636640644 -0.4076378151130865 0 -0.22081140376093569 -0.42863277734846861 0 -0.2227477636640644 -0.4076378151130865 0 -0.23802175003868559 -0.41148844359048281 0 -0.22081140376093569 -0.42863277734846861 0 -0.23802175003868559 -0.41148844359048281 0 -0.22054659079047059 -0.41067193395424972 0 -0.2227477636640644 -0.4076378151130865 0 -0.2227477636640644 -0.4076378151130865 0 -0.23802175003868559 -0.41148844359048281 0 -0.22848646015839399 -0.40109751137598881 0 -0.25315373568125871 -0.40814568674427232 0 -0.23802175003868559 -0.41148844359048281 0 -0.24908549452786249 -0.41756327322724301 0 -0.23802175003868559 -0.41148844359048281 0 -0.24908549452786249 -0.41756327322724301 0 -0.24339116937858421 -0.42637180750734149 0 -0.23362341488435559 -0.42964769330115449 0 -0.23802175003868559 -0.41148844359048281 0 -0.24339116937858421 -0.42637180750734149 0 -0.25148115017164308 -0.42481503991236852 0 -0.25341371244249938 -0.43261616692877208 0 -0.24339116937858421 -0.42637180750734149 0 -0.25148115017164308 -0.42481503991236852 0 -0.24908549452786249 -0.41756327322724301 0 -0.24339116937858421 -0.42637180750734149 0 -0.25341371244249938 -0.43261616692877208 0 -0.24339116937858421 -0.42637180750734149 0 -0.24188559880898569 -0.43594682220705788 0 -0.25341371244249938 -0.43261616692877208 0 -0.24896113504957779 -0.44185755829748219 0 -0.24188559880898569 -0.43594682220705788 0 -0.23302220273342741 -0.43914694148856009 0 -0.23362341488435559 -0.42964769330115449 0 -0.24188559880898569 -0.43594682220705788 0 -0.23362341488435559 -0.42964769330115449 0 -0.24339116937858421 -0.42637180750734149 0 -0.24188559880898569 -0.43594682220705788 0 -0.22482755587031519 -0.38314917872796977 0 -0.22848646015839399 -0.40109751137598881 0 -0.2422967093717312 -0.38069135161262158 0 -0.21269862866377731 -0.39545200190278978 0 -0.22482755587031519 -0.38314917872796977 0 -0.22848646015839399 -0.40109751137598881 0 -0.2227477636640644 -0.4076378151130865 0 -0.22848646015839399 -0.40109751137598881 0 -0.25523209631643612 -0.39434410983249751 0 -0.25315373568125871 -0.40814568674427232 0 -0.23802175003868559 -0.41148844359048281 0 -0.22848646015839399 -0.40109751137598881 0 -0.2427908638945673 -0.38479500342752099 0 -0.25523209631643612 -0.39434410983249751 0 -0.22848646015839399 -0.40109751137598881 0 -0.22848646015839399 -0.40109751137598881 0 -0.2427908638945673 -0.38479500342752099 0 -0.2491258286198563 -0.38846867651232558 0 -0.25523209631643612 -0.39434410983249751 0 -0.23802175003868559 -0.41148844359048281 0 -0.22848646015839399 -0.40109751137598881 0 -0.25523209631643612 -0.39434410983249751 0 -0.23802175003868559 -0.41148844359048281 0 -0.22848646015839399 -0.40109751137598881 0 -0.2422967093717312 -0.38069135161262158 0 -0.25523209631643612 -0.39434410983249751 0 -0.22848646015839399 -0.40109751137598881 0 -0.2491258286198563 -0.38846867651232558 0 -0.25537900419147042 -0.38185970000668301 0 -0.2427908638945673 -0.38479500342752099 0 -0.2491258286198563 -0.38846867651232558 0 -0.22848646015839399 -0.40109751137598881 0 -0.2427908638945673 -0.38479500342752099 0 -0.2422967093717312 -0.38069135161262158 0 -0.25709526763074081 -0.36849249547905338 0 -0.2427908638945673 -0.38479500342752099 0 -0.22482755587031519 -0.38314917872796977 0 -0.2422967093717312 -0.38069135161262158 0 -0.23660646857404841 -0.36754819070836242 0 -0.25709526763074081 -0.36849249547905338 0 -0.2427908638945673 -0.38479500342752099 0 -0.2422967093717312 -0.38069135161262158 0 -0.25732373348565718 -0.35997795034476149 0 -0.2422967093717312 -0.38069135161262158 0 -0.23660646857404841 -0.36754819070836242 0 -0.25732373348565718 -0.35997795034476149 0 -0.23660646857404841 -0.36754819070836242 0 -0.24401611360440639 -0.35610107602174301 0 -0.25732373348565718 -0.35997795034476149 0 -0.2422967093717312 -0.38069135161262158 0 -0.23660646857404841 -0.36754819070836242 0 -0.23059653055155521 -0.35621178249625962 0 -0.24401611360440639 -0.35610107602174301 0 -0.22482755587031519 -0.38314917872796977 0 -0.23660646857404841 -0.36754819070836242 0 -0.22057816856062501 -0.36915780504681928 0 -0.23660646857404841 -0.36754819070836242 0 -0.22057816856062501 -0.36915780504681928 0 -0.23059653055155521 -0.35621178249625962 0 -0.22057816856062501 -0.36915780504681928 0 -0.23059653055155521 -0.35621178249625962 0 -0.21727847878734211 -0.35304876309652672 0 -0.2275289783582147 -0.34332757473284709 0 -0.21638240874224071 -0.34047677712917462 0 -0.21727847878734211 -0.35304876309652672 0 -0.23059653055155521 -0.35621178249625962 0 -0.2275289783582147 -0.34332757473284709 0 -0.21727847878734211 -0.35304876309652672 0 -0.23059653055155521 -0.35621178249625962 0 -0.23960820683472439 -0.34687671171649959 0 -0.2275289783582147 -0.34332757473284709 0 -0.25654385994055262 -0.34877784043819637 0 -0.23960820683472439 -0.34687671171649959 0 -0.24401611360440639 -0.35610107602174301 0 -0.23059653055155521 -0.35621178249625962 0 -0.23960820683472439 -0.34687671171649959 0 -0.24401611360440639 -0.35610107602174301 0 -0.25654385994055262 -0.34877784043819637 0 -0.2380732742906384 -0.32894238622193589 0 -0.23960820683472439 -0.34687671171649959 0 -0.2380732742906384 -0.32894238622193589 0 -0.2275289783582147 -0.34332757473284709 0 -0.25654385994055262 -0.34877784043819637 0 -0.25200755245619738 -0.33313849032896592 0 -0.2380732742906384 -0.32894238622193589 0 -0.25654385994055262 -0.34877784043819637 0 -0.23960820683472439 -0.34687671171649959 0 -0.2380732742906384 -0.32894238622193589 0 -0.25200755245619738 -0.33313849032896592 0 -0.2380732742906384 -0.32894238622193589 0 -0.25200755245619738 -0.33313849032896592 0 -0.2380732742906384 -0.32894238622193589 0 -0.24614358150010479 -0.32561691661588421 0 -0.25119129651243649 -0.31847390087718652 0 -0.2424081979522944 -0.31949090886177728 0 -0.24412124319098019 -0.31093965898586901 0 -0.25200755245619738 -0.33313849032896592 0 -0.25119129651243649 -0.31847390087718652 0 -0.24614358150010479 -0.32561691661588421 0 -0.25119129651243649 -0.31847390087718652 0 -0.2424081979522944 -0.31949090886177728 0 -0.24614358150010479 -0.32561691661588421 0 -0.2380732742906384 -0.32894238622193589 0 -0.2424081979522944 -0.31949090886177728 0 -0.24614358150010479 -0.32561691661588421 0 -0.2380732742906384 -0.32894238622193589 0 -0.2424081979522944 -0.31949090886177728 0 -0.23396387110901701 -0.31408950491155369 0 -0.2424081979522944 -0.31949090886177728 0 -0.23396387110901701 -0.31408950491155369 0 -0.24412124319098019 -0.31093965898586901 0 -0.2380732742906384 -0.32894238622193589 0 -0.21967451734491419 -0.3165065773562139 0 -0.2194411246970821 -0.30893342942878033 0 -0.2380732742906384 -0.32894238622193589 0 -0.21967451734491419 -0.3165065773562139 0 -0.2142675983307965 -0.32177365501972099 0 -0.2380732742906384 -0.32894238622193589 0 -0.23396387110901701 -0.31408950491155369 0 -0.2194411246970821 -0.30893342942878033 0 -0.2380732742906384 -0.32894238622193589 0 -0.22388673850763621 -0.33156875861129592 0 -0.2142675983307965 -0.32177365501972099 0 -0.2380732742906384 -0.32894238622193589 0 -0.2142675983307965 -0.32177365501972099 0 -0.2380732742906384 -0.32894238622193589 0 -0.2194411246970821 -0.30893342942878033 0 -0.2380732742906384 -0.32894238622193589 0 -0.2275289783582147 -0.34332757473284709 0 -0.22388673850763621 -0.33156875861129592 0 -0.2275289783582147 -0.34332757473284709 0 -0.22388673850763621 -0.33156875861129592 0 -0.21638240874224071 -0.34047677712917462 0 -0.22388673850763621 -0.33156875861129592 0 -0.21574835153513339 -0.3316194450887941 0 -0.2142675983307965 -0.32177365501972099 0 -0.21638240874224071 -0.34047677712917462 0 -0.21574835153513339 -0.3316194450887941 0 -0.20845666055986009 -0.33265858959498501 0 -0.21574835153513339 -0.3316194450887941 0 -0.20845666055986009 -0.33265858959498501 0 -0.2142675983307965 -0.32177365501972099 0 -0.22388673850763621 -0.33156875861129592 0 -0.21638240874224071 -0.34047677712917462 0 -0.21574835153513339 -0.3316194450887941 0 -0.21638240874224071 -0.34047677712917462 0 -0.20845666055986009 -0.33265858959498501 0 -0.20421104357321959 -0.34651210830679458 0 -0.21967451734491419 -0.3165065773562139 0 -0.2142675983307965 -0.32177365501972099 0 -0.19718826076803539 -0.30654539555148952 0 -0.20845666055986009 -0.33265858959498501 0 -0.2142675983307965 -0.32177365501972099 0 -0.19981472292150479 -0.32591441880642252 0 -0.2142675983307965 -0.32177365501972099 0 -0.19046192237095319 -0.31460492381751082 0 -0.19718826076803539 -0.30654539555148952 0 -0.2142675983307965 -0.32177365501972099 0 -0.19981472292150479 -0.32591441880642252 0 -0.19046192237095319 -0.31460492381751082 0 -0.2142675983307965 -0.32177365501972099 0 -0.19046192237095319 -0.31460492381751082 0 -0.19981472292150479 -0.32591441880642252 0 -0.19071322923658321 -0.32624887368556782 0 -0.19046192237095319 -0.31460492381751082 0 -0.20845666055986009 -0.33265858959498501 0 -0.19451175972173529 -0.33518512758659041 0 -0.20421104357321959 -0.34651210830679458 0 -0.20845666055986009 -0.33265858959498501 0 -0.19981472292150479 -0.32591441880642252 0 -0.19451175972173529 -0.33518512758659041 0 -0.19981472292150479 -0.32591441880642252 0 -0.19071322923658321 -0.32624887368556782 0 -0.19451175972173529 -0.33518512758659041 0 -0.20437374293819729 -0.36260653086726519 0 -0.20421104357321959 -0.34651210830679458 0 -0.18491497825479081 -0.35225659244083518 0 -0.19451175972173529 -0.33518512758659041 0 -0.20421104357321959 -0.34651210830679458 0 -0.18491497825479081 -0.35225659244083518 0 -0.20437374293819729 -0.36260653086726519 0 -0.18647084864933219 -0.36762546339367358 0 -0.18491497825479081 -0.35225659244083518 0 -0.196092358796951 -0.37704952253979979 0 -0.20437374293819729 -0.36260653086726519 0 -0.18647084864933219 -0.36762546339367358 0 -0.196092358796951 -0.37704952253979979 0 -0.21011390615841061 -0.38352806581210808 0 -0.20437374293819729 -0.36260653086726519 0 -0.21011390615841061 -0.38352806581210808 0 -0.22057816856062501 -0.36915780504681928 0 -0.20437374293819729 -0.36260653086726519 0 -0.22057816856062501 -0.36915780504681928 0 -0.20437374293819729 -0.36260653086726519 0 -0.21727847878734211 -0.35304876309652672 0 -0.20437374293819729 -0.36260653086726519 0 -0.21727847878734211 -0.35304876309652672 0 -0.20421104357321959 -0.34651210830679458 0 -0.21638240874224071 -0.34047677712917462 0 -0.21727847878734211 -0.35304876309652672 0 -0.20421104357321959 -0.34651210830679458 0 -0.23114956755196009 -0.25204157717235842 0 -0.22441097544152691 -0.26993615965426421 0 -0.21331090291110899 -0.26027838270220632 0 -0.23114956755196009 -0.25204157717235842 0 -0.24111998839107429 -0.27465301777703488 0 -0.22441097544152691 -0.26993615965426421 0 -0.23114956755196009 -0.25204157717235842 0 -0.21331090291110899 -0.26027838270220632 0 -0.21478340671061399 -0.24419724834015319 0 -0.25228184908365758 -0.25819388120617048 0 -0.23114956755196009 -0.25204157717235842 0 -0.24111998839107429 -0.27465301777703488 0 -0.24111998839107429 -0.27465301777703488 0 -0.22441097544152691 -0.26993615965426421 0 -0.22560097290113479 -0.28547498817104627 0 -0.22441097544152691 -0.26993615965426421 0 -0.22560097290113479 -0.28547498817104627 0 -0.2108734454523564 -0.27723283244867541 0 -0.22560097290113479 -0.28547498817104627 0 -0.2235367288969142 -0.29815700924269872 0 -0.2160522494102029 -0.2917445463853649 0 -0.22560097290113479 -0.28547498817104627 0 -0.2403053245194495 -0.289036951948626 0 -0.232869432613829 -0.29764054173205168 0 -0.22560097290113479 -0.28547498817104627 0 -0.232869432613829 -0.29764054173205168 0 -0.2235367288969142 -0.29815700924269872 0 -0.24111998839107429 -0.27465301777703488 0 -0.22560097290113479 -0.28547498817104627 0 -0.2403053245194495 -0.289036951948626 0 -0.25184002281003648 -0.28821721180151999 0 -0.24111998839107429 -0.27465301777703488 0 -0.2403053245194495 -0.289036951948626 0 -0.25184002281003648 -0.28821721180151999 0 -0.2403053245194495 -0.289036951948626 0 -0.24688924757259009 -0.30014323663299408 0 -0.2403053245194495 -0.289036951948626 0 -0.24688924757259009 -0.30014323663299408 0 -0.232869432613829 -0.29764054173205168 0 -0.24688924757259009 -0.30014323663299408 0 -0.23739366713222659 -0.30557172128875337 0 -0.232869432613829 -0.29764054173205168 0 -0.25794876186289362 -0.30849134296879799 0 -0.24688924757259009 -0.30014323663299408 0 -0.24412124319098019 -0.31093965898586901 0 -0.24688924757259009 -0.30014323663299408 0 -0.24412124319098019 -0.31093965898586901 0 -0.23739366713222659 -0.30557172128875337 0 -0.23396387110901701 -0.31408950491155369 0 -0.24412124319098019 -0.31093965898586901 0 -0.23739366713222659 -0.30557172128875337 0 -0.2235367288969142 -0.29815700924269872 0 -0.2194411246970821 -0.30893342942878033 0 -0.2160522494102029 -0.2917445463853649 0 -0.23396387110901701 -0.31408950491155369 0 -0.23739366713222659 -0.30557172128875337 0 -0.2291245411747167 -0.30504566418129841 0 -0.23396387110901701 -0.31408950491155369 0 -0.2291245411747167 -0.30504566418129841 0 -0.2194411246970821 -0.30893342942878033 0 -0.23739366713222659 -0.30557172128875337 0 -0.2291245411747167 -0.30504566418129841 0 -0.232869432613829 -0.29764054173205168 0 -0.2291245411747167 -0.30504566418129841 0 -0.232869432613829 -0.29764054173205168 0 -0.2235367288969142 -0.29815700924269872 0 -0.2291245411747167 -0.30504566418129841 0 -0.2235367288969142 -0.29815700924269872 0 -0.2194411246970821 -0.30893342942878033 0 -0.21967451734491419 -0.3165065773562139 0 -0.2194411246970821 -0.30893342942878033 0 -0.19718826076803539 -0.30654539555148952 0 -0.2194411246970821 -0.30893342942878033 0 -0.20228564618393979 -0.30043768591556902 0 -0.20080897510352699 -0.28892447263562371 0 -0.2194411246970821 -0.30893342942878033 0 -0.19718826076803539 -0.30654539555148952 0 -0.20228564618393979 -0.30043768591556902 0 -0.21967451734491419 -0.3165065773562139 0 -0.19718826076803539 -0.30654539555148952 0 -0.2194411246970821 -0.30893342942878033 0 -0.20080897510352699 -0.28892447263562371 0 -0.19046192237095319 -0.31460492381751082 0 -0.19718826076803539 -0.30654539555148952 0 -0.19046192237095319 -0.31460492381751082 0 -0.19718826076803539 -0.30654539555148952 0 -0.18242196148429221 -0.30628735416052322 0 -0.19718826076803539 -0.30654539555148952 0 -0.19630541669843221 -0.29821615111243183 0 -0.1877161950029714 -0.29541664289808672 0 -0.19718826076803539 -0.30654539555148952 0 -0.19630541669843221 -0.29821615111243183 0 -0.20228564618393979 -0.30043768591556902 0 -0.19718826076803539 -0.30654539555148952 0 -0.20228564618393979 -0.30043768591556902 0 -0.19630541669843221 -0.29821615111243183 0 -0.20228564618393979 -0.30043768591556902 0 -0.20080897510352699 -0.28892447263562371 0 -0.1877161950029714 -0.29541664289808672 0 -0.20080897510352699 -0.28892447263562371 0 -0.18056081200746851 -0.2837160332567375 0 -0.19630541669843221 -0.29821615111243183 0 -0.1877161950029714 -0.29541664289808672 0 -0.20080897510352699 -0.28892447263562371 0 -0.2194411246970821 -0.30893342942878033 0 -0.20080897510352699 -0.28892447263562371 0 -0.2160522494102029 -0.2917445463853649 0 -0.20080897510352699 -0.28892447263562371 0 -0.2160522494102029 -0.2917445463853649 0 -0.2108734454523564 -0.27723283244867541 0 -0.22560097290113479 -0.28547498817104627 0 -0.2160522494102029 -0.2917445463853649 0 -0.2108734454523564 -0.27723283244867541 0 -0.2108734454523564 -0.27723283244867541 0 -0.19979318554252359 -0.26644320573330099 0 -0.21331090291110899 -0.26027838270220632 0 -0.22441097544152691 -0.26993615965426421 0 -0.2108734454523564 -0.27723283244867541 0 -0.21331090291110899 -0.26027838270220632 0 -0.20080897510352699 -0.28892447263562371 0 -0.2108734454523564 -0.27723283244867541 0 -0.19979318554252359 -0.26644320573330099 0 -0.20080897510352699 -0.28892447263562371 0 -0.18217682550997191 -0.26891551584246692 0 -0.18056081200746851 -0.2837160332567375 0 -0.20080897510352699 -0.28892447263562371 0 -0.18217682550997191 -0.26891551584246692 0 -0.20080897510352699 -0.28892447263562371 0 -0.19979318554252359 -0.26644320573330099 0 -0.18217682550997191 -0.26891551584246692 0 -0.19979318554252359 -0.26644320573330099 0 -0.18884806638878221 -0.25124257237634551 0 -0.18217682550997191 -0.26891551584246692 0 -0.19979318554252359 -0.26644320573330099 0 -0.18884806638878221 -0.25124257237634551 0 -0.20274089788939509 -0.25206545839448852 0 -0.20274089788939509 -0.25206545839448852 0 -0.21331090291110899 -0.26027838270220632 0 -0.21478340671061399 -0.24419724834015319 0 -0.19979318554252359 -0.26644320573330099 0 -0.20274089788939509 -0.25206545839448852 0 -0.21331090291110899 -0.26027838270220632 0 -0.16159365589185309 -0.27194063837652099 0 -0.15258645839546101 -0.25406646760822232 0 -0.16354467591641669 -0.24890655904931019 0 -0.18217682550997191 -0.26891551584246692 0 -0.16159365589185309 -0.27194063837652099 0 -0.16354467591641669 -0.24890655904931019 0 -0.18884806638878221 -0.25124257237634551 0 -0.18217682550997191 -0.26891551584246692 0 -0.17651839600625319 -0.24692319827703549 0 -0.18217682550997191 -0.26891551584246692 0 -0.16354467591641669 -0.24890655904931019 0 -0.18217682550997191 -0.26891551584246692 0 -0.17651839600625319 -0.24692319827703549 0 -0.16354467591641669 -0.24890655904931019 0 -0.18217682550997191 -0.26891551584246692 0 -0.16159365589185309 -0.27194063837652099 0 -0.18056081200746851 -0.2837160332567375 0 -0.16159365589185309 -0.27194063837652099 0 -0.18056081200746851 -0.2837160332567375 0 -0.1731094971192666 -0.29587874939283182 0 -0.16159365589185309 -0.27194063837652099 0 -0.1731094971192666 -0.29587874939283182 0 -0.149030733470498 -0.28521210323417368 0 -0.1731094971192666 -0.29587874939283182 0 -0.15961570131388789 -0.29771174311257009 0 -0.149030733470498 -0.28521210323417368 0 -0.1731094971192666 -0.29587874939283182 0 -0.149030733470498 -0.28521210323417368 0 -0.1877161950029714 -0.29541664289808672 0 -0.18056081200746851 -0.2837160332567375 0 -0.1731094971192666 -0.29587874939283182 0 -0.19046192237095319 -0.31460492381751082 0 -0.18242196148429221 -0.30628735416052322 0 -0.16892816567891381 -0.30812034788026088 0 -0.19046192237095319 -0.31460492381751082 0 -0.16892816567891381 -0.30812034788026088 0 -0.1731094971192666 -0.29587874939283182 0 -0.18242196148429221 -0.30628735416052322 0 -0.16892816567891381 -0.30812034788026088 0 -0.19718826076803539 -0.30654539555148952 0 -0.1731094971192666 -0.29587874939283182 0 -0.19718826076803539 -0.30654539555148952 0 -0.1877161950029714 -0.29541664289808672 0 -0.1731094971192666 -0.29587874939283182 0 -0.19718826076803539 -0.30654539555148952 0 -0.1731094971192666 -0.29587874939283182 0 -0.18242196148429221 -0.30628735416052322 0 -0.16892816567891381 -0.30812034788026088 0 -0.15961570131388789 -0.29771174311257009 0 -0.14739440898687339 -0.30163577194301389 0 -0.16892816567891381 -0.30812034788026088 0 -0.14739440898687339 -0.30163577194301389 0 -0.15393841973573491 -0.31497322232899599 0 -0.16892816567891381 -0.30812034788026088 0 -0.14739440898687339 -0.30163577194301389 0 -0.1731094971192666 -0.29587874939283182 0 -0.16892816567891381 -0.30812034788026088 0 -0.15961570131388789 -0.29771174311257009 0 -0.14739440898687339 -0.30163577194301389 0 -0.15393841973573491 -0.31497322232899599 0 -0.13971809983300901 -0.3148693815103783 0 -0.14739440898687339 -0.30163577194301389 0 -0.12608339401199209 -0.30793043767277062 0 -0.13175441885258191 -0.2921307456040439 0 -0.14739440898687339 -0.30163577194301389 0 -0.12608339401199209 -0.30793043767277062 0 -0.13971809983300901 -0.3148693815103783 0 -0.13175441885258191 -0.2921307456040439 0 -0.149030733470498 -0.28521210323417368 0 -0.1249519698217294 -0.2745454570755157 0 -0.15961570131388789 -0.29771174311257009 0 -0.14739440898687339 -0.30163577194301389 0 -0.149030733470498 -0.28521210323417368 0 -0.14739440898687339 -0.30163577194301389 0 -0.13175441885258191 -0.2921307456040439 0 -0.149030733470498 -0.28521210323417368 0 -0.16159365589185309 -0.27194063837652099 0 -0.149030733470498 -0.28521210323417368 0 -0.14415284226395739 -0.27217831392498187 0 -0.16159365589185309 -0.27194063837652099 0 -0.14415284226395739 -0.27217831392498187 0 -0.14767921239307899 -0.26431454156694362 0 -0.14415284226395739 -0.27217831392498187 0 -0.13750863974262781 -0.26487882937175578 0 -0.14767921239307899 -0.26431454156694362 0 -0.14415284226395739 -0.27217831392498187 0 -0.13750863974262781 -0.26487882937175578 0 -0.1249519698217294 -0.2745454570755157 0 -0.149030733470498 -0.28521210323417368 0 -0.14415284226395739 -0.27217831392498187 0 -0.1249519698217294 -0.2745454570755157 0 -0.149030733470498 -0.28521210323417368 0 -0.1249519698217294 -0.2745454570755157 0 -0.13750863974262781 -0.26487882937175578 0 -0.12985807829629339 -0.25650406988562702 0 -0.1249519698217294 -0.2745454570755157 0 -0.13750863974262781 -0.26487882937175578 0 -0.12985807829629339 -0.25650406988562702 0 -0.1416673347082745 -0.25431095401974591 0 -0.12985807829629339 -0.25650406988562702 0 -0.13468299930696129 -0.24652942527312899 0 -0.1255943865027532 -0.24876207797521749 0 -0.12985807829629339 -0.25650406988562702 0 -0.1416673347082745 -0.25431095401974591 0 -0.13468299930696129 -0.24652942527312899 0 -0.1416673347082745 -0.25431095401974591 0 -0.14767921239307899 -0.26431454156694362 0 -0.15258645839546101 -0.25406646760822232 0 -0.1416673347082745 -0.25431095401974591 0 -0.15258645839546101 -0.25406646760822232 0 -0.1450756494442754 -0.24175051143088799 0 -0.16159365589185309 -0.27194063837652099 0 -0.14767921239307899 -0.26431454156694362 0 -0.15258645839546101 -0.25406646760822232 0 -0.13750863974262781 -0.26487882937175578 0 -0.1416673347082745 -0.25431095401974591 0 -0.14767921239307899 -0.26431454156694362 0 -0.16354727945301889 -0.34685416739722391 0 -0.16961760653277669 -0.3653828067602507 0 -0.1500899579940512 -0.36297878918707999 0 -0.16354727945301889 -0.34685416739722391 0 -0.1500899579940512 -0.36297878918707999 0 -0.1568021525714331 -0.38180994011320291 0 -0.16961760653277669 -0.3653828067602507 0 -0.1500899579940512 -0.36297878918707999 0 -0.17735555672394551 -0.38083186436021688 0 -0.16961760653277669 -0.3653828067602507 0 -0.18647084864933219 -0.36762546339367358 0 -0.16961760653277669 -0.3653828067602507 0 -0.18647084864933219 -0.36762546339367358 0 -0.18491497825479081 -0.35225659244083518 0 -0.16354727945301889 -0.34685416739722391 0 -0.16961760653277669 -0.3653828067602507 0 -0.18491497825479081 -0.35225659244083518 0 -0.19071322923658321 -0.32624887368556782 0 -0.19451175972173529 -0.33518512758659041 0 -0.17700460091198639 -0.33072954560736773 0 -0.19451175972173529 -0.33518512758659041 0 -0.18491497825479081 -0.35225659244083518 0 -0.17700460091198639 -0.33072954560736773 0 -0.16354727945301889 -0.34685416739722391 0 -0.18491497825479081 -0.35225659244083518 0 -0.17700460091198639 -0.33072954560736773 0 -0.19046192237095319 -0.31460492381751082 0 -0.17700460091198639 -0.33072954560736773 0 -0.17494749620206049 -0.31889349893588059 0 -0.19071322923658321 -0.32624887368556782 0 -0.19046192237095319 -0.31460492381751082 0 -0.17700460091198639 -0.33072954560736773 0 -0.19046192237095319 -0.31460492381751082 0 -0.16892816567891381 -0.30812034788026088 0 -0.17494749620206049 -0.31889349893588059 0 -0.19046192237095319 -0.31460492381751082 0 -0.17700460091198639 -0.33072954560736773 0 -0.17700460091198639 -0.33072954560736773 0 -0.17494749620206049 -0.31889349893588059 0 -0.16451955237674171 -0.32331158362782769 0 -0.16892816567891381 -0.30812034788026088 0 -0.17494749620206049 -0.31889349893588059 0 -0.16451955237674171 -0.32331158362782769 0 -0.16892816567891381 -0.30812034788026088 0 -0.16451955237674171 -0.32331158362782769 0 -0.15393841973573491 -0.31497322232899599 0 -0.16354727945301889 -0.34685416739722391 0 -0.17700460091198639 -0.33072954560736773 0 -0.16451955237674171 -0.32331158362782769 0 -0.16354727945301889 -0.34685416739722391 0 -0.16451955237674171 -0.32331158362782769 0 -0.14913187180313639 -0.32692902668349921 0 -0.16354727945301889 -0.34685416739722391 0 -0.17700460091198639 -0.33072954560736773 0 -0.16354727945301889 -0.34685416739722391 0 -0.14913187180313639 -0.32692902668349921 0 -0.13782123963178339 -0.34727782116687123 0 -0.16451955237674171 -0.32331158362782769 0 -0.15393841973573491 -0.31497322232899599 0 -0.14913187180313639 -0.32692902668349921 0 -0.15393841973573491 -0.31497322232899599 0 -0.14913187180313639 -0.32692902668349921 0 -0.13971809983300901 -0.3148693815103783 0 -0.12608339401199209 -0.30793043767277062 0 -0.13971809983300901 -0.3148693815103783 0 -0.1243916994601576 -0.3300871600263201 0 -0.14913187180313639 -0.32692902668349921 0 -0.13971809983300901 -0.3148693815103783 0 -0.1243916994601576 -0.3300871600263201 0 -0.14913187180313639 -0.32692902668349921 0 -0.13782123963178339 -0.34727782116687123 0 -0.1243916994601576 -0.3300871600263201 0 -0.14913187180313639 -0.32692902668349921 0 -0.1243916994601576 -0.3300871600263201 0 -0.13782123963178339 -0.34727782116687123 0 -0.13480495552337149 -0.36549598960639113 0 -0.1204629518062849 -0.35964154446968072 0 -0.13782123963178339 -0.34727782116687123 0 -0.1204629518062849 -0.35964154446968072 0 -0.1243916994601576 -0.3300871600263201 0 -0.13782123963178339 -0.34727782116687123 0 -0.1500899579940512 -0.36297878918707999 0 -0.13480495552337149 -0.36549598960639113 0 -0.16354727945301889 -0.34685416739722391 0 -0.13782123963178339 -0.34727782116687123 0 -0.1500899579940512 -0.36297878918707999 0 -0.1330709969776524 -0.38088952676460769 0 -0.13480495552337149 -0.36549598960639113 0 -0.1204629518062849 -0.35964154446968072 0 -0.1330709969776524 -0.38088952676460769 0 -0.1500899579940512 -0.36297878918707999 0 -0.13480495552337149 -0.36549598960639113 0 -0.1330709969776524 -0.38088952676460769 0 -0.1204629518062849 -0.35964154446968072 0 -0.1063323431907027 -0.37002309018386242 0 -0.1204629518062849 -0.35964154446968072 0 -0.1063323431907027 -0.37002309018386242 0 -0.104749261099279 -0.35025754429797767 0 -0.1063323431907027 -0.37002309018386242 0 -0.088721568132975576 -0.36066798738289518 0 -0.087086644598874302 -0.37938397297762549 0 -0.1063323431907027 -0.37002309018386242 0 -0.104749261099279 -0.35025754429797767 0 -0.088721568132975576 -0.36066798738289518 0 -0.104749261099279 -0.35025754429797767 0 -0.088721568132975576 -0.36066798738289518 0 -0.08890171620807491 -0.34672565356169671 0 -0.1204629518062849 -0.35964154446968072 0 -0.104749261099279 -0.35025754429797767 0 -0.1243916994601576 -0.3300871600263201 0 -0.104749261099279 -0.35025754429797767 0 -0.1243916994601576 -0.3300871600263201 0 -0.099651527117178687 -0.33324529336914099 0 -0.1243916994601576 -0.3300871600263201 0 -0.099651527117178687 -0.33324529336914099 0 -0.1243916994601576 -0.3300871600263201 0 -0.1072331605431416 -0.3132976576955942 0 -0.099651527117178687 -0.33324529336914099 0 -0.12608339401199209 -0.30793043767277062 0 -0.1243916994601576 -0.3300871600263201 0 -0.1072331605431416 -0.3132976576955942 0 -0.1072331605431416 -0.3132976576955942 0 -0.099651527117178687 -0.33324529336914099 0 -0.092319262357859533 -0.31758343695634361 0 -0.104749261099279 -0.35025754429797767 0 -0.099651527117178687 -0.33324529336914099 0 -0.08890171620807491 -0.34672565356169671 0 -0.099651527117178687 -0.33324529336914099 0 -0.074911354774199773 -0.33640342671196172 0 -0.099651527117178687 -0.33324529336914099 0 -0.082903959097421945 -0.32723494640259271 0 -0.074911354774199773 -0.33640342671196172 0 -0.099651527117178687 -0.33324529336914099 0 -0.074911354774199773 -0.33640342671196172 0 -0.08890171620807491 -0.34672565356169671 0 -0.082903959097421945 -0.32723494640259271 0 -0.074911354774199773 -0.33640342671196172 0 -0.099651527117178687 -0.33324529336914099 0 -0.092319262357859533 -0.31758343695634361 0 -0.082903959097421945 -0.32723494640259271 0 -0.092319262357859533 -0.31758343695634361 0 -0.082903959097421945 -0.32723494640259271 0 -0.078356066962498305 -0.31613890974525549 0 -0.078356066962498305 -0.31613890974525549 0 -0.072124358233298588 -0.32506799012737492 0 -0.065752872125489303 -0.31920437992433542 0 -0.078356066962498305 -0.31613890974525549 0 -0.065752872125489303 -0.31920437992433542 0 -0.067394457621075474 -0.30813304500664251 0 -0.082903959097421945 -0.32723494640259271 0 -0.078356066962498305 -0.31613890974525549 0 -0.072124358233298588 -0.32506799012737492 0 -0.072124358233298588 -0.32506799012737492 0 -0.065752872125489303 -0.31920437992433542 0 -0.060036184881045701 -0.32829352855444122 0 -0.082903959097421945 -0.32723494640259271 0 -0.072124358233298588 -0.32506799012737492 0 -0.074911354774199773 -0.33640342671196172 0 -0.072124358233298588 -0.32506799012737492 0 -0.074911354774199773 -0.33640342671196172 0 -0.060036184881045701 -0.32829352855444122 0 -0.075987866373860735 -0.35306717158267409 0 -0.06973309460367394 -0.36679489392241987 0 -0.059075011760151647 -0.35456962051125229 0 -0.074911354774199773 -0.33640342671196172 0 -0.059075011760151647 -0.35456962051125229 0 -0.074911354774199773 -0.33640342671196172 0 -0.075987866373860735 -0.35306717158267409 0 -0.059075011760151647 -0.35456962051125229 0 -0.06973309460367394 -0.36679489392241987 0 -0.088721568132975576 -0.36066798738289518 0 -0.087086644598874302 -0.37938397297762549 0 -0.075987866373860735 -0.35306717158267409 0 -0.06973309460367394 -0.36679489392241987 0 -0.088721568132975576 -0.36066798738289518 0 -0.074911354774199773 -0.33640342671196172 0 -0.075987866373860735 -0.35306717158267409 0 -0.08890171620807491 -0.34672565356169671 0 -0.075987866373860735 -0.35306717158267409 0 -0.088721568132975576 -0.36066798738289518 0 -0.08890171620807491 -0.34672565356169671 0 -0.115424215089746 -0.25410178664707522 0 -0.1004114854263112 -0.27187140641996532 0 -0.099616169645383987 -0.24200729644999569 0 -0.12985807829629339 -0.25650406988562702 0 -0.115424215089746 -0.25410178664707522 0 -0.1249519698217294 -0.2745454570755157 0 -0.12985807829629339 -0.25650406988562702 0 -0.115424215089746 -0.25410178664707522 0 -0.1255943865027532 -0.24876207797521749 0 -0.115424215089746 -0.25410178664707522 0 -0.1249519698217294 -0.2745454570755157 0 -0.1004114854263112 -0.27187140641996532 0 -0.1249519698217294 -0.2745454570755157 0 -0.1004114854263112 -0.27187140641996532 0 -0.1113115879718167 -0.29132995809474571 0 -0.1004114854263112 -0.27187140641996532 0 -0.1113115879718167 -0.29132995809474571 0 -0.08935302279644608 -0.29973150155069411 0 -0.1113115879718167 -0.29132995809474571 0 -0.08935302279644608 -0.29973150155069411 0 -0.13175441885258191 -0.2921307456040439 0 -0.1249519698217294 -0.2745454570755157 0 -0.1113115879718167 -0.29132995809474571 0 -0.12608339401199209 -0.30793043767277062 0 -0.13175441885258191 -0.2921307456040439 0 -0.1113115879718167 -0.29132995809474571 0 -0.12608339401199209 -0.30793043767277062 0 -0.1072331605431416 -0.3132976576955942 0 -0.1113115879718167 -0.29132995809474571 0 -0.1072331605431416 -0.3132976576955942 0 -0.092319262357859533 -0.31758343695634361 0 -0.08935302279644608 -0.29973150155069411 0 -0.1072331605431416 -0.3132976576955942 0 -0.1113115879718167 -0.29132995809474571 0 -0.08935302279644608 -0.29973150155069411 0 -0.078356066962498305 -0.31613890974525549 0 -0.08935302279644608 -0.29973150155069411 0 -0.067394457621075474 -0.30813304500664251 0 -0.08935302279644608 -0.29973150155069411 0 -0.067394457621075474 -0.30813304500664251 0 -0.092319262357859533 -0.31758343695634361 0 -0.078356066962498305 -0.31613890974525549 0 -0.08935302279644608 -0.29973150155069411 0 -0.067394457621075474 -0.30813304500664251 0 -0.081713834999700391 -0.28175506924441163 0 -0.061110299910735848 -0.27993905332913122 0 -0.1004114854263112 -0.27187140641996532 0 -0.08935302279644608 -0.29973150155069411 0 -0.081713834999700391 -0.28175506924441163 0 -0.08935302279644608 -0.29973150155069411 0 -0.067394457621075474 -0.30813304500664251 0 -0.081713834999700391 -0.28175506924441163 0 -0.1004114854263112 -0.27187140641996532 0 -0.081713834999700391 -0.28175506924441163 0 -0.080363234778061177 -0.26097317488956467 0 -0.081713834999700391 -0.28175506924441163 0 -0.080363234778061177 -0.26097317488956467 0 -0.061110299910735848 -0.27993905332913122 0 -0.080363234778061177 -0.26097317488956467 0 -0.061110299910735848 -0.27993905332913122 0 -0.080363234778061177 -0.26097317488956467 0 -0.059375995008823117 -0.27049464813989038 0 -0.061110299910735848 -0.27993905332913122 0 -0.063871673280685104 -0.25706534243394769 0 -0.074230681078241628 -0.25309159691770139 0 -0.080363234778061177 -0.26097317488956467 0 -0.063871673280685104 -0.25706534243394769 0 -0.080363234778061177 -0.26097317488956467 0 -0.059705607499623677 -0.26310005019010452 0 -0.080363234778061177 -0.26097317488956467 0 -0.059705607499623677 -0.26310005019010452 0 -0.059375995008823117 -0.27049464813989038 0 -0.063871673280685104 -0.25706534243394769 0 -0.072624378874701093 -0.24401504466419441 0 -0.063871673280685104 -0.25706534243394769 0 -0.074230681078241628 -0.25309159691770139 0 -0.072624378874701093 -0.24401504466419441 0 -0.080363234778061177 -0.26097317488956467 0 -0.099616169645383987 -0.24200729644999569 0 -0.074230681078241628 -0.25309159691770139 0 -0.080363234778061177 -0.26097317488956467 0 -0.086412865588894827 -0.24437866182787851 0 -0.1004114854263112 -0.27187140641996532 0 -0.080363234778061177 -0.26097317488956467 0 -0.099616169645383987 -0.24200729644999569 0 -0.036251570865059583 -0.27128792182278388 0 -0.03133723326674312 -0.24707738072685059 0 -0.043819512158200999 -0.25843714629776859 0 -0.036251570865059583 -0.27128792182278388 0 -0.03133723326674312 -0.24707738072685059 0 -0.043819512158200999 -0.25843714629776859 0 -0.05227063760657269 -0.26241303767468538 0 -0.043589301695675958 -0.26689394248853737 0 -0.043819512158200999 -0.25843714629776859 0 -0.043589301695675958 -0.26689394248853737 0 -0.036251570865059583 -0.27128792182278388 0 -0.043819512158200999 -0.25843714629776859 0 -0.045166968935051718 -0.24905139343276861 0 -0.03133723326674312 -0.24707738072685059 0 -0.052647461709189339 -0.25395870791139019 0 -0.059705607499623677 -0.26310005019010452 0 -0.061906936740129037 -0.24557037651629371 0 -0.059705607499623677 -0.26310005019010452 0 -0.061906936740129037 -0.24557037651629371 0 -0.063871673280685104 -0.25706534243394769 0 -0.059705607499623677 -0.26310005019010452 0 -0.061906936740129037 -0.24557037651629371 0 -0.043819512158200999 -0.25843714629776859 0 -0.052647461709189339 -0.25395870791139019 0 -0.045166968935051718 -0.24905139343276861 0 -0.059705607499623677 -0.26310005019010452 0 -0.05227063760657269 -0.26241303767468538 0 -0.059375995008823117 -0.27049464813989038 0 -0.052647461709189339 -0.25395870791139019 0 -0.059705607499623677 -0.26310005019010452 0 -0.05227063760657269 -0.26241303767468538 0 -0.043819512158200999 -0.25843714629776859 0 -0.052647461709189339 -0.25395870791139019 0 -0.05227063760657269 -0.26241303767468538 0 -0.05227063760657269 -0.26241303767468538 0 -0.050520070351906733 -0.26967156905464179 0 -0.043589301695675958 -0.26689394248853737 0 -0.05227063760657269 -0.26241303767468538 0 -0.050520070351906733 -0.26967156905464179 0 -0.059375995008823117 -0.27049464813989038 0 -0.050520070351906733 -0.26967156905464179 0 -0.061110299910735848 -0.27993905332913122 0 -0.039842523144771998 -0.2733524573330981 0 -0.050520070351906733 -0.26967156905464179 0 -0.059375995008823117 -0.27049464813989038 0 -0.061110299910735848 -0.27993905332913122 0 -0.039842523144771998 -0.2733524573330981 0 -0.036251570865059583 -0.27128792182278388 0 -0.041857365043410137 -0.29890493176869731 0 -0.050520070351906733 -0.26967156905464179 0 -0.043589301695675958 -0.26689394248853737 0 -0.039842523144771998 -0.2733524573330981 0 -0.043589301695675958 -0.26689394248853737 0 -0.039842523144771998 -0.2733524573330981 0 -0.036251570865059583 -0.27128792182278388 0 -0.039842523144771998 -0.2733524573330981 0 -0.036251570865059583 -0.27128792182278388 0 -0.036251570865059583 -0.27128792182278388 0 -0.041857365043410137 -0.29890493176869731 0 -0.024316493726870218 -0.29184013778311568 0 -0.036251570865059583 -0.27128792182278388 0 -0.041857365043410137 -0.29890493176869731 0 -0.061110299910735848 -0.27993905332913122 0 -0.041857365043410137 -0.29890493176869731 0 -0.061110299910735848 -0.27993905332913122 0 -0.039842523144771998 -0.2733524573330981 0 -0.041857365043410137 -0.29890493176869731 0 -0.061110299910735848 -0.27993905332913122 0 -0.053880959362733273 -0.30440575571095357 0 -0.041857365043410137 -0.29890493176869731 0 -0.053880959362733273 -0.30440575571095357 0 -0.041857365043410137 -0.29890493176869731 0 -0.045435892445705013 -0.3165345884625913 0 -0.067394457621075474 -0.30813304500664251 0 -0.061110299910735848 -0.27993905332913122 0 -0.053880959362733273 -0.30440575571095357 0 -0.067394457621075474 -0.30813304500664251 0 -0.045435892445705013 -0.3165345884625913 0 -0.067394457621075474 -0.30813304500664251 0 -0.053880959362733273 -0.30440575571095357 0 -0.045435892445705013 -0.3165345884625913 0 -0.041857365043410137 -0.29890493176869731 0 -0.026090209198272679 -0.31443700327661572 0 -0.041857365043410137 -0.29890493176869731 0 -0.045435892445705013 -0.3165345884625913 0 -0.041857365043410137 -0.29890493176869731 0 -0.045435892445705013 -0.3165345884625913 0 -0.026090209198272679 -0.31443700327661572 0 -0.041857365043410137 -0.29890493176869731 0 -0.024316493726870218 -0.29184013778311568 0 -0.026090209198272679 -0.31443700327661572 0 -0.011713601272198761 -0.3031316910961232 0 -0.024316493726870218 -0.29184013778311568 0 -0.026090209198272679 -0.31443700327661572 0 -0.011713601272198761 -0.3031316910961232 0 -0.0085030300180145516 -0.31696487366930581 0 0.0045075079626795923 -0.30824275826121761 0 -0.011713601272198761 -0.3031316910961232 0 0.0045075079626795923 -0.30824275826121761 0 0.0016856820358308101 -0.2957047111440802 0 -0.011713601272198761 -0.3031316910961232 0 -0.026090209198272679 -0.31443700327661572 0 -0.0085030300180145516 -0.31696487366930581 0 -0.011713601272198761 -0.3031316910961232 0 -0.010882409774257 -0.28739490984198179 0 0.0016856820358308101 -0.2957047111440802 0 -0.010882409774257 -0.28739490984198179 0 -0.0057211416947120682 -0.27518994993694662 0 0.002416987500766314 -0.28245869293965048 0 -0.010882409774257 -0.28739490984198179 0 0.002416987500766314 -0.28245869293965048 0 0.0016856820358308101 -0.2957047111440802 0 -0.011713601272198761 -0.3031316910961232 0 -0.010882409774257 -0.28739490984198179 0 -0.024316493726870218 -0.29184013778311568 0 -0.010882409774257 -0.28739490984198179 0 -0.024316493726870218 -0.29184013778311568 0 -0.019103806208022701 -0.27588436889249229 0 -0.036251570865059583 -0.27128792182278388 0 -0.024316493726870218 -0.29184013778311568 0 -0.019103806208022701 -0.27588436889249229 0 -0.036251570865059583 -0.27128792182278388 0 -0.017879315934768811 -0.26072521595714948 0 -0.036251570865059583 -0.27128792182278388 0 -0.019103806208022701 -0.27588436889249229 0 -0.017879315934768811 -0.26072521595714948 0 -0.010882409774257 -0.28739490984198179 0 -0.019103806208022701 -0.27588436889249229 0 -0.0057211416947120682 -0.27518994993694662 0 -0.0057211416947120682 -0.27518994993694662 0 0.002416987500766314 -0.28245869293965048 0 0.0031689510316897989 -0.27340261691581769 0 -0.0057211416947120682 -0.27518994993694662 0 -0.00083297773098638193 -0.26843895633517389 0 0.0031689510316897989 -0.27340261691581769 0 -0.0057211416947120682 -0.27518994993694662 0 -0.00083297773098638193 -0.26843895633517389 0 -0.0072917843082292476 -0.26352328077775222 0 -0.019103806208022701 -0.27588436889249229 0 -0.0057211416947120682 -0.27518994993694662 0 -0.0072917843082292476 -0.26352328077775222 0 -0.019103806208022701 -0.27588436889249229 0 -0.0072917843082292476 -0.26352328077775222 0 -0.017879315934768811 -0.26072521595714948 0 -0.0072917843082292476 -0.26352328077775222 0 -0.017879315934768811 -0.26072521595714948 0 0.00049293899552194792 -0.25016251009151491 0 -0.017879315934768811 -0.26072521595714948 0 0.00049293899552194792 -0.25016251009151491 0 -0.017879315934768811 -0.26072521595714948 0 -0.013729577760887761 -0.24670769385494479 0 0.00049293899552194792 -0.25016251009151491 0 -0.00083297773098638193 -0.26843895633517389 0 -0.0072917843082292476 -0.26352328077775222 0 0.0019556784967545318 -0.26359056266407188 0 -0.0072917843082292476 -0.26352328077775222 0 0.0019556784967545318 -0.26359056266407188 0 0.00079770224661259576 -0.25820453977982111 0 -0.0072917843082292476 -0.26352328077775222 0 0.00079770224661259576 -0.25820453977982111 0 0.00049293899552194792 -0.25016251009151491 0 -0.036251570865059583 -0.27128792182278388 0 -0.017879315934768811 -0.26072521595714948 0 -0.03133723326674312 -0.24707738072685059 0 -0.017879315934768811 -0.26072521595714948 0 -0.013729577760887761 -0.24670769385494479 0 -0.03133723326674312 -0.24707738072685059 0 -0.03582422372035407 -0.35621416997912808 0 -0.047675317366523008 -0.33988016230907309 0 -0.020439279958846191 -0.34335689790618429 0 -0.03582422372035407 -0.35621416997912808 0 -0.043238668746103749 -0.37273581431054298 0 -0.022751013445350719 -0.37444484435099612 0 -0.03582422372035407 -0.35621416997912808 0 -0.043238668746103749 -0.37273581431054298 0 -0.059075011760151647 -0.35456962051125229 0 -0.043238668746103749 -0.37273581431054298 0 -0.059075011760151647 -0.35456962051125229 0 -0.06973309460367394 -0.36679489392241987 0 -0.043238668746103749 -0.37273581431054298 0 -0.059075011760151647 -0.35456962051125229 0 -0.06973309460367394 -0.36679489392241987 0 -0.043238668746103749 -0.37273581431054298 0 -0.067527409063754568 -0.38315882446381189 0 -0.03582422372035407 -0.35621416997912808 0 -0.059075011760151647 -0.35456962051125229 0 -0.047675317366523008 -0.33988016230907309 0 -0.074911354774199773 -0.33640342671196172 0 -0.047675317366523008 -0.33988016230907309 0 -0.074911354774199773 -0.33640342671196172 0 -0.059075011760151647 -0.35456962051125229 0 -0.047675317366523008 -0.33988016230907309 0 -0.074911354774199773 -0.33640342671196172 0 -0.060036184881045701 -0.32829352855444122 0 -0.047675317366523008 -0.33988016230907309 0 -0.060036184881045701 -0.32829352855444122 0 -0.04927018807366642 -0.32919486916476409 0 -0.047675317366523008 -0.33988016230907309 0 -0.067394457621075474 -0.30813304500664251 0 -0.05435118555728273 -0.32053395971052651 0 -0.045435892445705013 -0.3165345884625913 0 -0.065752872125489303 -0.31920437992433542 0 -0.067394457621075474 -0.30813304500664251 0 -0.05435118555728273 -0.32053395971052651 0 -0.065752872125489303 -0.31920437992433542 0 -0.060036184881045701 -0.32829352855444122 0 -0.05435118555728273 -0.32053395971052651 0 -0.060036184881045701 -0.32829352855444122 0 -0.04927018807366642 -0.32919486916476409 0 -0.05435118555728273 -0.32053395971052651 0 -0.05435118555728273 -0.32053395971052651 0 -0.048391920257799079 -0.32372709878523548 0 -0.045920804677730548 -0.31892351418991532 0 -0.04927018807366642 -0.32919486916476409 0 -0.05435118555728273 -0.32053395971052651 0 -0.048391920257799079 -0.32372709878523548 0 -0.05435118555728273 -0.32053395971052651 0 -0.045435892445705013 -0.3165345884625913 0 -0.045920804677730548 -0.31892351418991532 0 -0.045435892445705013 -0.3165345884625913 0 -0.027879472899419191 -0.32325183162356141 0 -0.045435892445705013 -0.3165345884625913 0 -0.039305891873376263 -0.32697228637370013 0 -0.027879472899419191 -0.32325183162356141 0 -0.045435892445705013 -0.3165345884625913 0 -0.026090209198272679 -0.31443700327661572 0 -0.027879472899419191 -0.32325183162356141 0 -0.045435892445705013 -0.3165345884625913 0 -0.045920804677730548 -0.31892351418991532 0 -0.048391920257799079 -0.32372709878523548 0 -0.045920804677730548 -0.31892351418991532 0 -0.039305891873376263 -0.32697228637370013 0 -0.04927018807366642 -0.32919486916476409 0 -0.048391920257799079 -0.32372709878523548 0 -0.039305891873376263 -0.32697228637370013 0 -0.045435892445705013 -0.3165345884625913 0 -0.045920804677730548 -0.31892351418991532 0 -0.039305891873376263 -0.32697228637370013 0 -0.039305891873376263 -0.32697228637370013 0 -0.029124603090259878 -0.33268605059941048 0 -0.027879472899419191 -0.32325183162356141 0 -0.047675317366523008 -0.33988016230907309 0 -0.039305891873376263 -0.32697228637370013 0 -0.029124603090259878 -0.33268605059941048 0 -0.047675317366523008 -0.33988016230907309 0 -0.020439279958846191 -0.34335689790618429 0 -0.029124603090259878 -0.33268605059941048 0 -0.047675317366523008 -0.33988016230907309 0 -0.020439279958846191 -0.34335689790618429 0 -0.04927018807366642 -0.32919486916476409 0 -0.047675317366523008 -0.33988016230907309 0 -0.039305891873376263 -0.32697228637370013 0 -0.020439279958846191 -0.34335689790618429 0 -0.029124603090259878 -0.33268605059941048 0 -0.01032305335313392 -0.32996907478453302 0 -0.029124603090259878 -0.33268605059941048 0 -0.027879472899419191 -0.32325183162356141 0 -0.01032305335313392 -0.32996907478453302 0 -0.026090209198272679 -0.31443700327661572 0 -0.01032305335313392 -0.32996907478453302 0 -0.027879472899419191 -0.32325183162356141 0 -0.01032305335313392 -0.32996907478453302 0 -0.026090209198272679 -0.31443700327661572 0 -0.027879472899419191 -0.32325183162356141 0 -0.01032305335313392 -0.32996907478453302 0 -0.026090209198272679 -0.31443700327661572 0 -0.0085030300180145516 -0.31696487366930581 0 -0.01032305335313392 -0.32996907478453302 0 -0.0085030300180145516 -0.31696487366930581 0 -0.0031298632793290261 -0.32613043934447938 0 0.0037172934237153449 -0.32146348826377841 0 -0.0085030300180145516 -0.31696487366930581 0 -0.0031298632793290261 -0.32613043934447938 0 -0.01032305335313392 -0.32996907478453302 0 -0.0085030300180145516 -0.31696487366930581 0 0.0037172934237153449 -0.32146348826377841 0 0.0045075079626795923 -0.30824275826121761 0 -0.01032305335313392 -0.32996907478453302 0 0.0067967574488307318 -0.34683363350329471 0 -0.01032305335313392 -0.32996907478453302 0 -0.0042628988531581702 -0.33228774410443862 0 0.0067967574488307318 -0.34683363350329471 0 -0.020439279958846191 -0.34335689790618429 0 -0.01032305335313392 -0.32996907478453302 0 0.0067967574488307318 -0.34683363350329471 0 -0.0031298632793290261 -0.32613043934447938 0 -0.0042628988531581702 -0.33228774410443862 0 0.0042418853049126922 -0.33021436338067178 0 -0.0031298632793290261 -0.32613043934447938 0 -0.01032305335313392 -0.32996907478453302 0 -0.0042628988531581702 -0.33228774410443862 0 -0.01032305335313392 -0.32996907478453302 0 -0.0042628988531581702 -0.33228774410443862 0 -0.020439279958846191 -0.34335689790618429 0 0.0067967574488307318 -0.34683363350329471 0 -0.020439279958846191 -0.34335689790618429 0 -0.0070507761596772566 -0.35767157363222069 0 0.0067967574488307318 -0.34683363350329471 0 -0.020439279958846191 -0.34335689790618429 0 -0.0070507761596772566 -0.35767157363222069 0 -0.020045740521660201 -0.35927324786307152 0 -0.03582422372035407 -0.35621416997912808 0 -0.020439279958846191 -0.34335689790618429 0 -0.020045740521660201 -0.35927324786307152 0 -0.03582422372035407 -0.35621416997912808 0 -0.020045740521660201 -0.35927324786307152 0 -0.022751013445350719 -0.37444484435099612 0 -0.020045740521660201 -0.35927324786307152 0 -0.022751013445350719 -0.37444484435099612 0 -0.006074205156008765 -0.3718711405643727 0 -0.0070507761596772566 -0.35767157363222069 0 -0.020045740521660201 -0.35927324786307152 0 -0.006074205156008765 -0.3718711405643727 0 -0.0070507761596772566 -0.35767157363222069 0 -0.006074205156008765 -0.3718711405643727 0 0.0045085873892973171 -0.36702294832418081 0 -0.022751013445350719 -0.37444484435099612 0 -0.006074205156008765 -0.3718711405643727 0 -0.00065398562956667239 -0.39463952831271337 0 -0.00065398562956667239 -0.39463952831271337 0 -0.027402325732055852 -0.39090200810983378 0 -0.017799258234798429 -0.40586208736118068 0 -0.00065398562956667239 -0.39463952831271337 0 -0.017799258234798429 -0.40586208736118068 0 -0.003412123355992188 -0.41350049880094047 0 -0.027402325732055852 -0.39090200810983378 0 -0.017799258234798429 -0.40586208736118068 0 -0.036539982901774487 -0.40938979079860888 0 -0.043238668746103749 -0.37273581431054298 0 -0.022751013445350719 -0.37444484435099612 0 -0.027402325732055852 -0.39090200810983378 0 -0.022751013445350719 -0.37444484435099612 0 -0.00065398562956667239 -0.39463952831271337 0 -0.027402325732055852 -0.39090200810983378 0 -0.043238668746103749 -0.37273581431054298 0 -0.027402325732055852 -0.39090200810983378 0 -0.043238668746103749 -0.37273581431054298 0 -0.027402325732055852 -0.39090200810983378 0 -0.046552334898165383 -0.39205096052112298 0 -0.027402325732055852 -0.39090200810983378 0 -0.046552334898165383 -0.39205096052112298 0 -0.036539982901774487 -0.40938979079860888 0 -0.046552334898165383 -0.39205096052112298 0 -0.059065143928992273 -0.40512734936823641 0 -0.067527409063754568 -0.38315882446381189 0 -0.046552334898165383 -0.39205096052112298 0 -0.059065143928992273 -0.40512734936823641 0 -0.036539982901774487 -0.40938979079860888 0 -0.043238668746103749 -0.37273581431054298 0 -0.046552334898165383 -0.39205096052112298 0 -0.067527409063754568 -0.38315882446381189 0 -0.047818024459114712 -0.42228606805140939 0 -0.045516179806329091 -0.44158777656775527 0 -0.064716788978011711 -0.4240922298466655 0 -0.045516179806329091 -0.44158777656775527 0 -0.064716788978011711 -0.4240922298466655 0 -0.059065143928992273 -0.40512734936823641 0 -0.047818024459114712 -0.42228606805140939 0 -0.036539982901774487 -0.40938979079860888 0 -0.059065143928992273 -0.40512734936823641 0 -0.047818024459114712 -0.42228606805140939 0 -0.064716788978011711 -0.4240922298466655 0 -0.047818024459114712 -0.42228606805140939 0 -0.036539982901774487 -0.40938979079860888 0 -0.033252026680465951 -0.43123319367578128 0 -0.047818024459114712 -0.42228606805140939 0 -0.033252026680465951 -0.43123319367578128 0 -0.045516179806329091 -0.44158777656775527 0 -0.033252026680465951 -0.43123319367578128 0 -0.045516179806329091 -0.44158777656775527 0 -0.033252026680465951 -0.43123319367578128 0 -0.02098787355460292 -0.42087861078380723 0 -0.019945364241929879 -0.44122954508662832 0 -0.02098787355460292 -0.42087861078380723 0 -0.0069941690171042344 -0.43223093226146592 0 -0.019945364241929879 -0.44122954508662832 0 -0.033252026680465951 -0.43123319367578128 0 -0.02098787355460292 -0.42087861078380723 0 -0.036539982901774487 -0.40938979079860888 0 -0.033252026680465951 -0.43123319367578128 0 -0.02098787355460292 -0.42087861078380723 0 -0.017799258234798429 -0.40586208736118068 0 -0.036539982901774487 -0.40938979079860888 0 -0.02098787355460292 -0.42087861078380723 0 -0.017799258234798429 -0.40586208736118068 0 -0.02098787355460292 -0.42087861078380723 0 -0.003412123355992188 -0.41350049880094047 0 -0.02098787355460292 -0.42087861078380723 0 -0.003412123355992188 -0.41350049880094047 0 -0.0069941690171042344 -0.43223093226146592 0 -0.003412123355992188 -0.41350049880094047 0 -0.0069941690171042344 -0.43223093226146592 0 0.010202372808157121 -0.42487402836342159 0 -0.0069941690171042344 -0.43223093226146592 0 -0.0085703415318514817 -0.45120391584620068 0 -0.019945364241929879 -0.44122954508662832 0 -0.0069941690171042344 -0.43223093226146592 0 -0.0085703415318514817 -0.45120391584620068 0 0.0049373900052483276 -0.4404990250137506 0 -0.0085703415318514817 -0.45120391584620068 0 -0.017728874616927341 -0.45657449820212059 0 -0.019945364241929879 -0.44122954508662832 0 -0.001646952939765318 -0.4647065348169781 0 -0.017728874616927341 -0.45657449820212059 0 -0.016110853153130631 -0.46838183615772899 0 -0.0085703415318514817 -0.45120391584620068 0 -0.001646952939765318 -0.4647065348169781 0 0.0083718544506426358 -0.45432770698729469 0 -0.0085703415318514817 -0.45120391584620068 0 -0.001646952939765318 -0.4647065348169781 0 -0.0085703415318514817 -0.45120391584620068 0 -0.001646952939765318 -0.4647065348169781 0 -0.017728874616927341 -0.45657449820212059 0 -0.017728874616927341 -0.45657449820212059 0 -0.016110853153130631 -0.46838183615772899 0 -0.030813516479729471 -0.45498480636274169 0 -0.016110853153130631 -0.46838183615772899 0 -0.030813516479729471 -0.45498480636274169 0 -0.01985722185107984 -0.47292761218200802 0 -0.016110853153130631 -0.46838183615772899 0 -0.030813516479729471 -0.45498480636274169 0 -0.033252026680465951 -0.43123319367578128 0 -0.030813516479729471 -0.45498480636274169 0 -0.019945364241929879 -0.44122954508662832 0 -0.017728874616927341 -0.45657449820212059 0 -0.030813516479729471 -0.45498480636274169 0 -0.019945364241929879 -0.44122954508662832 0 -0.0038519879085910369 -0.50000000000000266 0 -0.0062630960320489851 -0.48710628856233651 0 -0.031564156356175821 -0.5 0 -0.0038519879085910369 -0.50000000000000266 0 -0.0062630960320489851 -0.48710628856233651 0 0.0085440860196800885 -0.48458202124323801 0 -0.0062630960320489851 -0.48710628856233651 0 -0.01985722185107984 -0.47292761218200802 0 0.0052764356523212503 -0.4782091537877553 0 -0.016110853153130631 -0.46838183615772899 0 -0.01985722185107984 -0.47292761218200802 0 0.0052764356523212503 -0.4782091537877553 0 -0.001646952939765318 -0.4647065348169781 0 -0.016110853153130631 -0.46838183615772899 0 0.0052764356523212503 -0.4782091537877553 0 -0.01985722185107984 -0.47292761218200802 0 0.0052764356523212503 -0.4782091537877553 0 -0.0062630960320489851 -0.48710628856233651 0 -0.01985722185107984 -0.47292761218200802 0 -0.031564156356175821 -0.5 0 -0.045202144329304313 -0.48609040665811731 0 -0.031564156356175821 -0.5 0 -0.05927632480376066 -0.5 0 -0.01985722185107984 -0.47292761218200802 0 -0.045202144329304313 -0.48609040665811731 0 -0.031564156356175821 -0.5 0 -0.01985722185107984 -0.47292761218200802 0 -0.045202144329304313 -0.48609040665811731 0 -0.044990879354481088 -0.4676460705762614 0 -0.01985722185107984 -0.47292761218200802 0 -0.044990879354481088 -0.4676460705762614 0 -0.045202144329304313 -0.48609040665811731 0 -0.044990879354481088 -0.4676460705762614 0 -0.06842033997523464 -0.48380204749506189 0 -0.044990879354481088 -0.4676460705762614 0 -0.070124536857882752 -0.46236452897051589 0 -0.06842033997523464 -0.48380204749506189 0 -0.045202144329304313 -0.48609040665811731 0 -0.05927632480376066 -0.5 0 -0.06842033997523464 -0.48380204749506189 0 -0.033252026680465951 -0.43123319367578128 0 -0.030813516479729471 -0.45498480636274169 0 -0.045516179806329091 -0.44158777656775527 0 -0.030813516479729471 -0.45498480636274169 0 -0.045516179806329091 -0.44158777656775527 0 -0.044918143635231653 -0.45432506989453952 0 -0.030813516479729471 -0.45498480636274169 0 -0.045516179806329091 -0.44158777656775527 0 -0.030813516479729471 -0.45498480636274169 0 -0.01985722185107984 -0.47292761218200802 0 -0.044990879354481088 -0.4676460705762614 0 -0.030813516479729471 -0.45498480636274169 0 -0.044990879354481088 -0.4676460705762614 0 -0.044918143635231653 -0.45432506989453952 0 -0.044990879354481088 -0.4676460705762614 0 -0.070124536857882752 -0.46236452897051589 0 -0.044990879354481088 -0.4676460705762614 0 -0.057820358332105637 -0.45197615276913589 0 -0.070124536857882752 -0.46236452897051589 0 -0.044990879354481088 -0.4676460705762614 0 -0.044918143635231653 -0.45432506989453952 0 -0.057820358332105637 -0.45197615276913589 0 -0.045516179806329091 -0.44158777656775527 0 -0.057820358332105637 -0.45197615276913589 0 -0.064716788978011711 -0.4240922298466655 0 -0.045516179806329091 -0.44158777656775527 0 -0.044918143635231653 -0.45432506989453952 0 -0.057820358332105637 -0.45197615276913589 0 -0.045516179806329091 -0.44158777656775527 0 -0.057820358332105637 -0.45197615276913589 0 -0.057820358332105637 -0.45197615276913589 0 -0.076870986945593231 -0.44189308022629692 0 -0.070124536857882752 -0.46236452897051589 0 -0.057820358332105637 -0.45197615276913589 0 -0.076870986945593231 -0.44189308022629692 0 -0.064716788978011711 -0.4240922298466655 0 -0.057820358332105637 -0.45197615276913589 0 -0.070124536857882752 -0.46236452897051589 0 -0.070124536857882752 -0.46236452897051589 0 -0.09570159197337294 -0.45698981258764643 0 -0.076870986945593231 -0.44189308022629692 0 -0.070124536857882752 -0.46236452897051589 0 -0.09570159197337294 -0.45698981258764643 0 -0.070124536857882752 -0.46236452897051589 0 -0.09241259927840588 -0.48118226448526003 0 -0.09570159197337294 -0.45698981258764643 0 -0.076870986945593231 -0.44189308022629692 0 -0.1020670767174852 -0.4379079196447081 0 -0.09570159197337294 -0.45698981258764643 0 -0.05927632480376066 -0.5 0 -0.06842033997523464 -0.48380204749506189 0 -0.0869884932513455 -0.5 0 -0.070124536857882752 -0.46236452897051589 0 -0.06842033997523464 -0.48380204749506189 0 -0.09241259927840588 -0.48118226448526003 0 -0.070124536857882752 -0.46236452897051589 0 -0.09241259927840588 -0.48118226448526003 0 -0.06842033997523464 -0.48380204749506189 0 -0.09241259927840588 -0.48118226448526003 0 -0.0869884932513455 -0.5 0 -0.09241259927840588 -0.48118226448526003 0 -0.0869884932513455 -0.5 0 -0.1147006616989303 -0.50000000000000211 0 -0.09241259927840588 -0.48118226448526003 0 -0.1180269090912258 -0.4757394090871756 0 -0.1147006616989303 -0.50000000000000211 0 -0.09241259927840588 -0.48118226448526003 0 -0.1147006616989303 -0.50000000000000211 0 -0.09241259927840588 -0.48118226448526003 0 -0.1180269090912258 -0.4757394090871756 0 -0.09570159197337294 -0.45698981258764643 0 -0.1292245375975925 -0.48721175298735819 0 -0.1180269090912258 -0.4757394090871756 0 -0.1147006616989303 -0.50000000000000211 0 -0.1020670767174852 -0.4379079196447081 0 -0.09570159197337294 -0.45698981258764643 0 -0.1212786470888633 -0.45161509620477791 0 -0.09570159197337294 -0.45698981258764643 0 -0.1212786470888633 -0.45161509620477791 0 -0.1180269090912258 -0.4757394090871756 0 -0.09570159197337294 -0.45698981258764643 0 -0.1212786470888633 -0.45161509620477791 0 -0.1322187367381934 -0.47098269756093569 0 -0.1180269090912258 -0.4757394090871756 0 -0.1212786470888633 -0.45161509620477791 0 -0.1020670767174852 -0.4379079196447081 0 -0.1212786470888633 -0.45161509620477791 0 -0.1249880535428054 -0.43392171619934561 0 -0.1020670767174852 -0.4379079196447081 0 -0.1249880535428054 -0.43392171619934561 0 -0.11073168922962839 -0.41825428274749238 0 -0.1020670767174852 -0.4379079196447081 0 -0.11073168922962839 -0.41825428274749238 0 -0.087660788004082751 -0.42574883911814793 0 -0.11073168922962839 -0.41825428274749238 0 -0.087660788004082751 -0.42574883911814793 0 -0.083917398149695122 -0.40659668312557662 0 -0.11073168922962839 -0.41825428274749238 0 -0.122424295354629 -0.39796386354793167 0 -0.1031180073213787 -0.38910113640448762 0 -0.1330709969776524 -0.38088952676460769 0 -0.1063323431907027 -0.37002309018386242 0 -0.1031180073213787 -0.38910113640448762 0 -0.1330709969776524 -0.38088952676460769 0 -0.122424295354629 -0.39796386354793167 0 -0.1031180073213787 -0.38910113640448762 0 -0.1063323431907027 -0.37002309018386242 0 -0.1031180073213787 -0.38910113640448762 0 -0.087086644598874302 -0.37938397297762549 0 -0.11073168922962839 -0.41825428274749238 0 -0.1031180073213787 -0.38910113640448762 0 -0.083917398149695122 -0.40659668312557662 0 -0.1031180073213787 -0.38910113640448762 0 -0.087086644598874302 -0.37938397297762549 0 -0.083917398149695122 -0.40659668312557662 0 -0.1031180073213787 -0.38910113640448762 0 -0.083917398149695122 -0.40659668312557662 0 -0.087086644598874302 -0.37938397297762549 0 -0.067527409063754568 -0.38315882446381189 0 -0.083917398149695122 -0.40659668312557662 0 -0.06973309460367394 -0.36679489392241987 0 -0.087086644598874302 -0.37938397297762549 0 -0.067527409063754568 -0.38315882446381189 0 -0.059065143928992273 -0.40512734936823641 0 -0.067527409063754568 -0.38315882446381189 0 -0.083917398149695122 -0.40659668312557662 0 -0.064716788978011711 -0.4240922298466655 0 -0.083917398149695122 -0.40659668312557662 0 -0.059065143928992273 -0.40512734936823641 0 -0.064716788978011711 -0.4240922298466655 0 -0.083917398149695122 -0.40659668312557662 0 -0.076870986945593231 -0.44189308022629692 0 -0.064716788978011711 -0.4240922298466655 0 -0.087660788004082751 -0.42574883911814793 0 -0.076870986945593231 -0.44189308022629692 0 -0.1020670767174852 -0.4379079196447081 0 -0.087660788004082751 -0.42574883911814793 0 -0.064716788978011711 -0.4240922298466655 0 -0.087660788004082751 -0.42574883911814793 0 -0.083917398149695122 -0.40659668312557662 0 -0.090481625850609537 -0.086527050743005859 0 -0.070125278219022813 -0.093769347315873608 0 -0.097589499645623176 -0.097806443116566721 0 -0.080881669342628776 -0.081691676126742996 0 -0.090481625850609537 -0.086527050743005859 0 -0.070125278219022813 -0.093769347315873608 0 -0.080881669342628776 -0.081691676126742996 0 -0.090481625850609537 -0.086527050743005859 0 -0.091940046042534987 -0.074814357338079562 0 -0.091940046042534987 -0.074814357338079562 0 -0.093205389089543594 -0.063533833231413206 0 -0.082330738091710515 -0.06464364603219773 0 -0.091940046042534987 -0.074814357338079562 0 -0.082330738091710515 -0.06464364603219773 0 -0.081325192693010542 -0.073779941312622763 0 -0.080881669342628776 -0.081691676126742996 0 -0.091940046042534987 -0.074814357338079562 0 -0.081325192693010542 -0.073779941312622763 0 -0.07014831729516792 -0.073970085753470763 0 -0.056666780615519337 -0.080266967005009487 0 -0.06074416290567608 -0.06405949858241182 0 -0.07014831729516792 -0.073970085753470763 0 -0.070171356371312374 -0.054170824191067939 0 -0.080881669342628776 -0.081691676126742996 0 -0.081325192693010542 -0.073779941312622763 0 -0.07014831729516792 -0.073970085753470763 0 -0.07014831729516792 -0.073970085753470763 0 -0.070171356371312374 -0.054170824191067939 0 -0.06074416290567608 -0.06405949858241182 0 -0.082330738091710515 -0.06464364603219773 0 -0.07014831729516792 -0.073970085753470763 0 -0.070171356371312374 -0.054170824191067939 0 -0.082330738091710515 -0.06464364603219773 0 -0.081325192693010542 -0.073779941312622763 0 -0.07014831729516792 -0.073970085753470763 0 -0.07014831729516792 -0.073970085753470763 0 -0.070125278219022813 -0.093769347315873608 0 -0.07014831729516792 -0.073970085753470763 0 -0.064050765767230997 -0.092876426000921233 0 -0.056666780615519337 -0.080266967005009487 0 -0.080881669342628776 -0.081691676126742996 0 -0.07014831729516792 -0.073970085753470763 0 -0.070125278219022813 -0.093769347315873608 0 -0.07014831729516792 -0.073970085753470763 0 -0.064050765767230997 -0.092876426000921233 0 -0.070125278219022813 -0.093769347315873608 0 -0.064050765767230997 -0.092876426000921233 0 -0.070125278219022813 -0.093769347315873608 0 -0.064050765767230997 -0.092876426000921233 0 -0.064891020235195093 -0.097739337769749773 0 -0.059648375683385199 -0.098985378142181446 0 -0.064891020235195093 -0.097739337769749773 0 -0.065144352012487555 -0.106545605504791 0 -0.059648375683385199 -0.098985378142181446 0 -0.070125278219022813 -0.093769347315873608 0 -0.064891020235195093 -0.097739337769749773 0 -0.065144352012487555 -0.106545605504791 0 -0.070125278219022813 -0.093769347315873608 0 -0.065144352012487555 -0.106545605504791 0 -0.070095531016645354 -0.1193334210201014 0 -0.070125278219022813 -0.093769347315873608 0 -0.070095531016645354 -0.1193334210201014 0 -0.070125278219022813 -0.093769347315873608 0 -0.070095531016645354 -0.1193334210201014 0 -0.079551327362633983 -0.1050641750383389 0 -0.064050765767230997 -0.092876426000921233 0 -0.070125278219022813 -0.093769347315873608 0 -0.064891020235195093 -0.097739337769749773 0 -0.070095531016645354 -0.1193334210201014 0 -0.079551327362633983 -0.1050641750383389 0 -0.076323704786106922 -0.1307664504943061 0 -0.079551327362633983 -0.1050641750383389 0 -0.076323704786106922 -0.1307664504943061 0 -0.070095531016645354 -0.1193334210201014 0 -0.059704508626529117 -0.11600420598319661 0 -0.060700784166540858 -0.12661506615414511 0 -0.065144352012487555 -0.106545605504791 0 -0.070095531016645354 -0.1193334210201014 0 -0.059704508626529117 -0.11600420598319661 0 -0.088152855187030629 -0.12020989001014561 0 -0.079551327362633983 -0.1050641750383389 0 -0.076323704786106922 -0.1307664504943061 0 -0.088152855187030629 -0.12020989001014561 0 -0.079551327362633983 -0.1050641750383389 0 -0.094653525008706038 -0.1113184421974915 0 -0.088152855187030629 -0.12020989001014561 0 -0.099294287012125532 -0.1222744307112564 0 -0.089907479312185012 -0.13100501245156679 0 -0.070125278219022813 -0.093769347315873608 0 -0.097589499645623176 -0.097806443116566721 0 -0.079551327362633983 -0.1050641750383389 0 -0.097589499645623176 -0.097806443116566721 0 -0.094653525008706038 -0.1113184421974915 0 -0.070125278219022813 -0.093769347315873608 0 -0.079551327362633983 -0.1050641750383389 0 -0.097589499645623176 -0.097806443116566721 0 -0.097589499645623176 -0.097806443116566721 0 -0.094653525008706038 -0.1113184421974915 0 -0.1086796558361168 -0.1112372721111501 0 -0.088152855187030629 -0.12020989001014561 0 -0.099294287012125532 -0.1222744307112564 0 -0.094653525008706038 -0.1113184421974915 0 -0.099294287012125532 -0.1222744307112564 0 -0.094653525008706038 -0.1113184421974915 0 -0.1086796558361168 -0.1112372721111501 0 -0.099294287012125532 -0.1222744307112564 0 -0.1086796558361168 -0.1112372721111501 0 -0.1124658744176253 -0.1214867477078152 0 -0.1086796558361168 -0.1112372721111501 0 -0.1124658744176253 -0.1214867477078152 0 -0.121904997388519 -0.11251165843290729 0 -0.1124658744176253 -0.1214867477078152 0 -0.121904997388519 -0.11251165843290729 0 -0.12315706631179529 -0.1232805541161409 0 -0.097589499645623176 -0.097806443116566721 0 -0.1140117968418472 -0.090485009432793168 0 -0.12505372107222359 -0.1018435389172599 0 -0.097589499645623176 -0.097806443116566721 0 -0.12505372107222359 -0.1018435389172599 0 -0.097589499645623176 -0.097806443116566721 0 -0.1086796558361168 -0.1112372721111501 0 -0.12505372107222359 -0.1018435389172599 0 -0.1086796558361168 -0.1112372721111501 0 -0.121904997388519 -0.11251165843290729 0 -0.12505372107222359 -0.1018435389172599 0 -0.121904997388519 -0.11251165843290729 0 -0.12505372107222359 -0.1018435389172599 0 -0.12680063918169129 -0.10815788323485021 0 -0.121904997388519 -0.11251165843290729 0 -0.12505372107222359 -0.1018435389172599 0 -0.1140117968418472 -0.090485009432793168 0 -0.1278399105784194 -0.092403713251026878 0 -0.12505372107222359 -0.1018435389172599 0 -0.1140117968418472 -0.090485009432793168 0 -0.1033391174294796 -0.081033062383240442 0 -0.1219171054958436 -0.067730641854529094 0 -0.1140117968418472 -0.090485009432793168 0 -0.1219171054958436 -0.067730641854529094 0 -0.1278399105784194 -0.092403713251026878 0 -0.1219171054958436 -0.067730641854529094 0 -0.1278399105784194 -0.092403713251026878 0 -0.090481625850609537 -0.086527050743005859 0 -0.097589499645623176 -0.097806443116566721 0 -0.1033391174294796 -0.081033062383240442 0 -0.097589499645623176 -0.097806443116566721 0 -0.1140117968418472 -0.090485009432793168 0 -0.1033391174294796 -0.081033062383240442 0 -0.090481625850609537 -0.086527050743005859 0 -0.091940046042534987 -0.074814357338079562 0 -0.1033391174294796 -0.081033062383240442 0 -0.1023170226642211 -0.06810146193227494 0 -0.1219171054958436 -0.067730641854529094 0 -0.098283358316279781 -0.053275195561201812 0 -0.1033391174294796 -0.081033062383240442 0 -0.1023170226642211 -0.06810146193227494 0 -0.1219171054958436 -0.067730641854529094 0 -0.091940046042534987 -0.074814357338079562 0 -0.093205389089543594 -0.063533833231413206 0 -0.1023170226642211 -0.06810146193227494 0 -0.091940046042534987 -0.074814357338079562 0 -0.1033391174294796 -0.081033062383240442 0 -0.1023170226642211 -0.06810146193227494 0 -0.1219171054958436 -0.067730641854529094 0 -0.1153063419717774 -0.040191690607528703 0 -0.12724664040926911 -0.056473905996416267 0 -0.1219171054958436 -0.067730641854529094 0 -0.1153063419717774 -0.040191690607528703 0 -0.1066260916448156 -0.046513870944942241 0 -0.1219171054958436 -0.067730641854529094 0 -0.1153063419717774 -0.040191690607528703 0 -0.1219171054958436 -0.067730641854529094 0 -0.098283358316279781 -0.053275195561201812 0 -0.1153063419717774 -0.040191690607528703 0 -0.12733855241798911 -0.030034451320622591 0 -0.1315862105093204 -0.040374063621242212 0 -0.1153063419717774 -0.040191690607528703 0 -0.1315862105093204 -0.040374063621242212 0 -0.12724664040926911 -0.056473905996416267 0 -0.096631147238170303 -0.042587320771371229 0 -0.104588219320188 -0.030627586376040149 0 -0.09381202754308765 -0.020846020133169461 0 -0.1153063419717774 -0.040191690607528703 0 -0.1066260916448156 -0.046513870944942241 0 -0.104588219320188 -0.030627586376040149 0 -0.096631147238170303 -0.042587320771371229 0 -0.09381202754308765 -0.020846020133169461 0 -0.1066260916448156 -0.046513870944942241 0 -0.096631147238170303 -0.042587320771371229 0 -0.104588219320188 -0.030627586376040149 0 -0.096631147238170303 -0.042587320771371229 0 -0.09381202754308765 -0.020846020133169461 0 -0.092237653056959731 -0.034303716220102129 0 -0.096631147238170303 -0.042587320771371229 0 -0.098283358316279781 -0.053275195561201812 0 -0.088956512364782109 -0.040956698390920407 0 -0.1219171054958436 -0.067730641854529094 0 -0.1066260916448156 -0.046513870944942241 0 -0.098283358316279781 -0.053275195561201812 0 -0.1066260916448156 -0.046513870944942241 0 -0.096631147238170303 -0.042587320771371229 0 -0.098283358316279781 -0.053275195561201812 0 -0.093205389089543594 -0.063533833231413206 0 -0.1023170226642211 -0.06810146193227494 0 -0.098283358316279781 -0.053275195561201812 0 -0.1152454136241719 -0.006376720041756003 0 -0.10869557844771149 -0.01265273936052819 0 -0.1057469685677799 -0.0003694950068303185 0 -0.1152454136241719 -0.006376720041756003 0 -0.1057469685677799 -0.0003694950068303185 0 -0.10947993032286921 0.0053361750019564648 0 -0.1152454136241719 -0.006376720041756003 0 -0.1162932503112503 0.0050747472876079124 0 -0.1152454136241719 -0.006376720041756003 0 -0.1057469685677799 -0.0003694950068303185 0 -0.1152454136241719 -0.006376720041756003 0 -0.1149932058159364 -0.0091330173844199839 0 -0.1152454136241719 -0.006376720041756003 0 -0.11744070662131 -0.0077651177187700827 0 -0.1152454136241719 -0.006376720041756003 0 -0.11744070662131 -0.0077651177187700827 0 -0.1149932058159364 -0.0091330173844199839 0 -0.11744070662131 -0.0077651177187700827 0 -0.1264402431020083 -0.0027353081613576201 0 -0.1152454136241719 -0.006376720041756003 0 -0.1264402431020083 -0.0027353081613576201 0 -0.1162932503112503 0.0050747472876079124 0 -0.1152454136241719 -0.006376720041756003 0 -0.11744070662131 -0.0077651177187700827 0 -0.1264402431020083 -0.0027353081613576201 0 -0.11744070662131 -0.0077651177187700827 0 -0.13234821757708121 -0.017193268588770429 0 -0.1149932058159364 -0.0091330173844199839 0 -0.1137481155172208 -0.02274020546402029 0 -0.10869557844771149 -0.01265273936052819 0 -0.11744070662131 -0.0077651177187700827 0 -0.1149932058159364 -0.0091330173844199839 0 -0.1137481155172208 -0.02274020546402029 0 -0.11744070662131 -0.0077651177187700827 0 -0.1149932058159364 -0.0091330173844199839 0 -0.1149932058159364 -0.0091330173844199839 0 -0.10869557844771149 -0.01265273936052819 0 -0.1152454136241719 -0.006376720041756003 0 -0.1149932058159364 -0.0091330173844199839 0 -0.10869557844771149 -0.01265273936052819 0 -0.1153063419717774 -0.040191690607528703 0 -0.1137481155172208 -0.02274020546402029 0 -0.12733855241798911 -0.030034451320622591 0 -0.1153063419717774 -0.040191690607528703 0 -0.1137481155172208 -0.02274020546402029 0 -0.10869557844771149 -0.01265273936052819 0 -0.11744070662131 -0.0077651177187700827 0 -0.1137481155172208 -0.02274020546402029 0 -0.13234821757708121 -0.017193268588770429 0 -0.1137481155172208 -0.02274020546402029 0 -0.13234821757708121 -0.017193268588770429 0 -0.12733855241798911 -0.030034451320622591 0 -0.1153063419717774 -0.040191690607528703 0 -0.104588219320188 -0.030627586376040149 0 -0.10869557844771149 -0.01265273936052819 0 -0.1153063419717774 -0.040191690607528703 0 -0.10869557844771149 -0.01265273936052819 0 -0.1149932058159364 -0.0091330173844199839 0 -0.1137481155172208 -0.02274020546402029 0 -0.104588219320188 -0.030627586376040149 0 -0.09381202754308765 -0.020846020133169461 0 -0.10869557844771149 -0.01265273936052819 0 -0.09381202754308765 -0.020846020133169461 0 -0.10869557844771149 -0.01265273936052819 0 -0.093242343171044753 -0.016452563827261651 0 -0.09381202754308765 -0.020846020133169461 0 -0.10869557844771149 -0.01265273936052819 0 -0.099384607322613311 -0.0049481512694408911 0 -0.093242343171044753 -0.016452563827261651 0 -0.089853539103909641 0.0096821931168466699 0 -0.10869557844771149 -0.01265273936052819 0 -0.099384607322613311 -0.0049481512694408911 0 -0.093242343171044753 -0.016452563827261651 0 -0.10869557844771149 -0.01265273936052819 0 -0.1057469685677799 -0.0003694950068303185 0 -0.10869557844771149 -0.01265273936052819 0 -0.099384607322613311 -0.0049481512694408911 0 -0.1057469685677799 -0.0003694950068303185 0 -0.093242343171044753 -0.016452563827261651 0 -0.089853539103909641 0.0096821931168466699 0 -0.084676882046832921 -0.003726421551112771 0 -0.093242343171044753 -0.016452563827261651 0 -0.089853539103909641 0.0096821931168466699 0 -0.084676882046832921 -0.003726421551112771 0 -0.081737606353054354 -0.011804401185985689 0 -0.074828279467209852 -0.0044579459570286816 0 -0.084676882046832921 -0.003726421551112771 0 -0.074828279467209852 -0.0044579459570286816 0 -0.079405063389824782 0.0054395139613942003 0 -0.084676882046832921 -0.003726421551112771 0 -0.086448565964872229 -0.01268154547783005 0 -0.093242343171044753 -0.016452563827261651 0 -0.084676882046832921 -0.003726421551112771 0 -0.086448565964872229 -0.01268154547783005 0 -0.081737606353054354 -0.011804401185985689 0 -0.086448565964872229 -0.01268154547783005 0 -0.081737606353054354 -0.011804401185985689 0 -0.086137432288556859 -0.018742795346960089 0 -0.081737606353054354 -0.011804401185985689 0 -0.079921873915841685 -0.0198330152009762 0 -0.074968655249733548 -0.01315905602006532 0 -0.09381202754308765 -0.020846020133169461 0 -0.093242343171044753 -0.016452563827261651 0 -0.092237653056959731 -0.034303716220102129 0 -0.093242343171044753 -0.016452563827261651 0 -0.089559635524637277 -0.023827965417427811 0 -0.092237653056959731 -0.034303716220102129 0 -0.081737606353054354 -0.011804401185985689 0 -0.079921873915841685 -0.0198330152009762 0 -0.086137432288556859 -0.018742795346960089 0 -0.079921873915841685 -0.0198330152009762 0 -0.086137432288556859 -0.018742795346960089 0 -0.086621113581987805 -0.025812786275387412 0 -0.086448565964872229 -0.01268154547783005 0 -0.086137432288556859 -0.018742795346960089 0 -0.093242343171044753 -0.016452563827261651 0 -0.09381202754308765 -0.020846020133169461 0 -0.093242343171044753 -0.016452563827261651 0 -0.086137432288556859 -0.018742795346960089 0 -0.093242343171044753 -0.016452563827261651 0 -0.089559635524637277 -0.023827965417427811 0 -0.086137432288556859 -0.018742795346960089 0 -0.089559635524637277 -0.023827965417427811 0 -0.086621113581987805 -0.025812786275387412 0 -0.086621113581987805 -0.025812786275387412 0 -0.092237653056959731 -0.034303716220102129 0 -0.086515895669998247 -0.031368995195703048 0 -0.089559635524637277 -0.023827965417427811 0 -0.086621113581987805 -0.025812786275387412 0 -0.092237653056959731 -0.034303716220102129 0 -0.077904729439264755 -0.025565123358025969 0 -0.086515895669998247 -0.031368995195703048 0 -0.08298079207578557 -0.035797510134051337 0 -0.079921873915841685 -0.0198330152009762 0 -0.086621113581987805 -0.025812786275387412 0 -0.077904729439264755 -0.025565123358025969 0 -0.086621113581987805 -0.025812786275387412 0 -0.077904729439264755 -0.025565123358025969 0 -0.086515895669998247 -0.031368995195703048 0 -0.08298079207578557 -0.035797510134051337 0 -0.061273437143083309 -0.021874680889850319 0 -0.077904729439264755 -0.025565123358025969 0 -0.0708600575522393 -0.018338223384280181 0 -0.061273437143083309 -0.021874680889850319 0 -0.077904729439264755 -0.025565123358025969 0 -0.08298079207578557 -0.035797510134051337 0 -0.061273437143083309 -0.021874680889850319 0 -0.0708600575522393 -0.018338223384280181 0 -0.065454982776664575 -0.01102342299049777 0 -0.061273437143083309 -0.021874680889850319 0 -0.079921873915841685 -0.0198330152009762 0 -0.077904729439264755 -0.025565123358025969 0 -0.0708600575522393 -0.018338223384280181 0 -0.079921873915841685 -0.0198330152009762 0 -0.0708600575522393 -0.018338223384280181 0 -0.074968655249733548 -0.01315905602006532 0 -0.074968655249733548 -0.01315905602006532 0 -0.065454982776664575 -0.01102342299049777 0 -0.074828279467209852 -0.0044579459570286816 0 -0.0708600575522393 -0.018338223384280181 0 -0.074968655249733548 -0.01315905602006532 0 -0.065454982776664575 -0.01102342299049777 0 -0.081737606353054354 -0.011804401185985689 0 -0.074968655249733548 -0.01315905602006532 0 -0.074828279467209852 -0.0044579459570286816 0 -0.064722814706606319 -0.0020232014957569269 0 -0.074828279467209852 -0.0044579459570286816 0 -0.06924472992207395 0.006335139175882248 0 -0.065454982776664575 -0.01102342299049777 0 -0.064722814706606319 -0.0020232014957569269 0 -0.074828279467209852 -0.0044579459570286816 0 -0.098283358316279781 -0.053275195561201812 0 -0.0833422292543569 -0.050785373232420453 0 -0.074649611136715144 -0.038819749267875563 0 -0.082330738091710515 -0.06464364603219773 0 -0.0833422292543569 -0.050785373232420453 0 -0.070171356371312374 -0.054170824191067939 0 -0.082330738091710515 -0.06464364603219773 0 -0.0833422292543569 -0.050785373232420453 0 -0.089290428687972684 -0.058059512014308298 0 -0.093205389089543594 -0.063533833231413206 0 -0.098283358316279781 -0.053275195561201812 0 -0.089290428687972684 -0.058059512014308298 0 -0.093205389089543594 -0.063533833231413206 0 -0.082330738091710515 -0.06464364603219773 0 -0.089290428687972684 -0.058059512014308298 0 -0.098283358316279781 -0.053275195561201812 0 -0.0833422292543569 -0.050785373232420453 0 -0.089290428687972684 -0.058059512014308298 0 -0.098283358316279781 -0.053275195561201812 0 -0.074649611136715144 -0.038819749267875563 0 -0.098283358316279781 -0.053275195561201812 0 -0.088956512364782109 -0.040956698390920407 0 -0.074649611136715144 -0.038819749267875563 0 -0.096631147238170303 -0.042587320771371229 0 -0.088956512364782109 -0.040956698390920407 0 -0.092237653056959731 -0.034303716220102129 0 -0.088956512364782109 -0.040956698390920407 0 -0.092237653056959731 -0.034303716220102129 0 -0.08298079207578557 -0.035797510134051337 0 -0.092237653056959731 -0.034303716220102129 0 -0.086515895669998247 -0.031368995195703048 0 -0.08298079207578557 -0.035797510134051337 0 -0.088956512364782109 -0.040956698390920407 0 -0.08298079207578557 -0.035797510134051337 0 -0.074649611136715144 -0.038819749267875563 0 -0.074649611136715144 -0.038819749267875563 0 -0.068631066815662334 -0.045392745571976277 0 -0.074198565894511681 -0.047292173065835059 0 -0.08298079207578557 -0.035797510134051337 0 -0.074649611136715144 -0.038819749267875563 0 -0.061273437143083309 -0.021874680889850319 0 -0.0833422292543569 -0.050785373232420453 0 -0.074649611136715144 -0.038819749267875563 0 -0.074198565894511681 -0.047292173065835059 0 -0.074649611136715144 -0.038819749267875563 0 -0.060075491573852773 -0.042896891321437071 0 -0.057161286351815117 -0.036257857069455328 0 -0.074649611136715144 -0.038819749267875563 0 -0.05101586395715068 -0.02436430297454939 0 -0.074649611136715144 -0.038819749267875563 0 -0.068631066815662334 -0.045392745571976277 0 -0.060075491573852773 -0.042896891321437071 0 -0.068631066815662334 -0.045392745571976277 0 -0.070171356371312374 -0.054170824191067939 0 -0.060075491573852773 -0.042896891321437071 0 -0.068631066815662334 -0.045392745571976277 0 -0.070171356371312374 -0.054170824191067939 0 -0.074198565894511681 -0.047292173065835059 0 -0.0833422292543569 -0.050785373232420453 0 -0.070171356371312374 -0.054170824191067939 0 -0.074198565894511681 -0.047292173065835059 0 -0.070171356371312374 -0.054170824191067939 0 -0.052969840463086983 -0.049291618772277078 0 -0.060075491573852773 -0.042896891321437071 0 -0.070171356371312374 -0.054170824191067939 0 -0.052969840463086983 -0.049291618772277078 0 -0.06074416290567608 -0.06405949858241182 0 -0.048048711303347973 -0.059011393346830789 0 -0.052969840463086983 -0.049291618772277078 0 -0.06074416290567608 -0.06405949858241182 0 -0.074649611136715144 -0.038819749267875563 0 -0.057161286351815117 -0.036257857069455328 0 -0.05101586395715068 -0.02436430297454939 0 -0.052969840463086983 -0.049291618772277078 0 -0.060075491573852773 -0.042896891321437071 0 -0.054147071663429171 -0.041142736467055942 0 -0.060075491573852773 -0.042896891321437071 0 -0.057161286351815117 -0.036257857069455328 0 -0.054147071663429171 -0.041142736467055942 0 -0.057161286351815117 -0.036257857069455328 0 -0.046816273839628712 -0.035601605622167562 0 -0.05101586395715068 -0.02436430297454939 0 -0.057161286351815117 -0.036257857069455328 0 -0.054147071663429171 -0.041142736467055942 0 -0.046816273839628712 -0.035601605622167562 0 -0.052969840463086983 -0.049291618772277078 0 -0.054147071663429171 -0.041142736467055942 0 -0.046816273839628712 -0.035601605622167562 0 -0.052969840463086983 -0.049291618772277078 0 -0.046816273839628712 -0.035601605622167562 0 -0.039430641991176602 -0.037755819688652097 0 -0.039430641991176602 -0.037755819688652097 0 -0.028542736784695089 -0.029650233005451179 0 -0.02959630751877123 -0.038134709304240247 0 -0.039430641991176602 -0.037755819688652097 0 -0.035149754265127092 -0.046981601210920633 0 -0.02959630751877123 -0.038134709304240247 0 -0.048048711303347973 -0.059011393346830789 0 -0.032167527933559863 -0.054800602389792848 0 -0.032848620258576419 -0.063861948759291257 0 -0.048048711303347973 -0.059011393346830789 0 -0.039430641991176602 -0.037755819688652097 0 -0.035149754265127092 -0.046981601210920633 0 -0.048048711303347973 -0.059011393346830789 0 -0.035149754265127092 -0.046981601210920633 0 -0.032167527933559863 -0.054800602389792848 0 -0.048048711303347973 -0.059011393346830789 0 -0.052969840463086983 -0.049291618772277078 0 -0.039430641991176602 -0.037755819688652097 0 -0.048048711303347973 -0.059011393346830789 0 -0.039430641991176602 -0.037755819688652097 0 -0.054409494022465477 -0.0089700795200289493 0 -0.061273437143083309 -0.021874680889850319 0 -0.039566082210381 -0.0079518516456492834 0 -0.061273437143083309 -0.021874680889850319 0 -0.039566082210381 -0.0079518516456492834 0 -0.048527118606112023 -0.002568113682287656 0 -0.054409494022465477 -0.0089700795200289493 0 -0.056106670124102621 0.0027471253245948341 0 -0.048527118606112023 -0.002568113682287656 0 -0.054409494022465477 -0.0089700795200289493 0 -0.039566082210381 -0.0079518516456492834 0 -0.065454982776664575 -0.01102342299049777 0 -0.064722814706606319 -0.0020232014957569269 0 -0.054409494022465477 -0.0089700795200289493 0 -0.064722814706606319 -0.0020232014957569269 0 -0.054409494022465477 -0.0089700795200289493 0 -0.056106670124102621 0.0027471253245948341 0 -0.065454982776664575 -0.01102342299049777 0 -0.054409494022465477 -0.0089700795200289493 0 -0.061273437143083309 -0.021874680889850319 0 -0.061273437143083309 -0.021874680889850319 0 -0.05101586395715068 -0.02436430297454939 0 -0.039566082210381 -0.0079518516456492834 0 -0.074649611136715144 -0.038819749267875563 0 -0.061273437143083309 -0.021874680889850319 0 -0.05101586395715068 -0.02436430297454939 0 -0.046816273839628712 -0.035601605622167562 0 -0.030812572679005518 -0.016500246030473221 0 -0.039430641991176602 -0.037755819688652097 0 -0.030812572679005518 -0.016500246030473221 0 -0.05101586395715068 -0.02436430297454939 0 -0.041566577929154143 -0.018756318779607359 0 -0.039566082210381 -0.0079518516456492834 0 -0.039430641991176602 -0.037755819688652097 0 -0.030812572679005518 -0.016500246030473221 0 -0.028542736784695089 -0.029650233005451179 0 -0.046816273839628712 -0.035601605622167562 0 -0.041566577929154143 -0.018756318779607359 0 -0.030812572679005518 -0.016500246030473221 0 -0.046816273839628712 -0.035601605622167562 0 -0.039430641991176602 -0.037755819688652097 0 -0.030812572679005518 -0.016500246030473221 0 -0.046816273839628712 -0.035601605622167562 0 -0.05101586395715068 -0.02436430297454939 0 -0.041566577929154143 -0.018756318779607359 0 -0.041566577929154143 -0.018756318779607359 0 -0.039566082210381 -0.0079518516456492834 0 -0.030812572679005518 -0.016500246030473221 0 -0.039566082210381 -0.0079518516456492834 0 -0.027967174748664381 -0.0094823673033005151 0 -0.030812572679005518 -0.016500246030473221 0 -0.048527118606112023 -0.002568113682287656 0 -0.039566082210381 -0.0079518516456492834 0 -0.044026228067498972 0.003902351111932773 0 -0.039566082210381 -0.0079518516456492834 0 -0.027967174748664381 -0.0094823673033005151 0 -0.017858727277677441 0.0059709775985498257 0 -0.01805189943303543 -0.013697836081908251 0 -0.030812572679005518 -0.016500246030473221 0 -0.015605737154914791 0.0016500075066230341 0 -0.030812572679005518 -0.016500246030473221 0 -0.015605737154914791 0.0016500075066230341 0 -0.027967174748664381 -0.0094823673033005151 0 -0.030812572679005518 -0.016500246030473221 0 -0.015605737154914791 0.0016500075066230341 0 -0.039566082210381 -0.0079518516456492834 0 -0.017858727277677441 0.0059709775985498257 0 -0.027967174748664381 -0.0094823673033005151 0 -0.017858727277677441 0.0059709775985498257 0 -0.015605737154914791 0.0016500075066230341 0 -0.027967174748664381 -0.0094823673033005151 0 -0.030812572679005518 -0.016500246030473221 0 -0.01805189943303543 -0.013697836081908251 0 -0.02036069361938897 -0.02250696050571549 0 -0.030812572679005518 -0.016500246030473221 0 -0.02036069361938897 -0.02250696050571549 0 -0.030812572679005518 -0.016500246030473221 0 -0.028542736784695089 -0.029650233005451179 0 -0.02036069361938897 -0.02250696050571549 0 -0.028542736784695089 -0.029650233005451179 0 -0.019901122571865042 -0.033299176238882983 0 -0.01805189943303543 -0.013697836081908251 0 -0.02036069361938897 -0.02250696050571549 0 -0.0029393738775248951 -0.022642587628183591 0 -0.02036069361938897 -0.02250696050571549 0 -0.0029393738775248951 -0.022642587628183591 0 -0.019901122571865042 -0.033299176238882983 0 -0.0029393738775248951 -0.022642587628183591 0 -0.00090933940267264371 -0.0086130736903058808 0 -0.015605737154914791 0.0016500075066230341 0 -0.01805189943303543 -0.013697836081908251 0 -0.0029393738775248951 -0.022642587628183591 0 -0.015605737154914791 0.0016500075066230341 0 -0.0029393738775248951 -0.022642587628183591 0 -0.015605737154914791 0.0016500075066230341 0 -0.00090933940267264371 -0.0086130736903058808 0 -0.015605737154914791 0.0016500075066230341 0 -0.001586950804156211 0.0049023834655272172 0 -0.019576459886253401 -0.058498769445057178 0 -0.0252140939544944 -0.045649299186864438 0 -0.010518589606587241 -0.043921613089839891 0 -0.032167527933559863 -0.054800602389792848 0 -0.019576459886253401 -0.058498769445057178 0 -0.032848620258576419 -0.063861948759291257 0 -0.032167527933559863 -0.054800602389792848 0 -0.019576459886253401 -0.058498769445057178 0 -0.0252140939544944 -0.045649299186864438 0 -0.035149754265127092 -0.046981601210920633 0 -0.032167527933559863 -0.054800602389792848 0 -0.0252140939544944 -0.045649299186864438 0 -0.035149754265127092 -0.046981601210920633 0 -0.0252140939544944 -0.045649299186864438 0 -0.02959630751877123 -0.038134709304240247 0 -0.0252140939544944 -0.045649299186864438 0 -0.02959630751877123 -0.038134709304240247 0 -0.019901122571865042 -0.033299176238882983 0 -0.028542736784695089 -0.029650233005451179 0 -0.02959630751877123 -0.038134709304240247 0 -0.019901122571865042 -0.033299176238882983 0 -0.0252140939544944 -0.045649299186864438 0 -0.019901122571865042 -0.033299176238882983 0 -0.010518589606587241 -0.043921613089839891 0 -0.0029393738775248951 -0.022642587628183591 0 -0.010518589606587241 -0.043921613089839891 0 0.009726989399862343 -0.046935182762991558 0 -0.0029393738775248951 -0.022642587628183591 0 -0.019901122571865042 -0.033299176238882983 0 -0.010518589606587241 -0.043921613089839891 0 -0.010518589606587241 -0.043921613089839891 0 -0.0054618806809071888 -0.058551256850748329 0 0.009726989399862343 -0.046935182762991558 0 -0.019576459886253401 -0.058498769445057178 0 -0.010518589606587241 -0.043921613089839891 0 -0.0054618806809071888 -0.058551256850748329 0 -0.0054618806809071888 -0.058551256850748329 0 -0.0041618443689724564 -0.075031136194595727 0 -0.015103638251669421 -0.071491021968505847 0 -0.0054618806809071888 -0.058551256850748329 0 -0.0041618443689724564 -0.075031136194595727 0 0.0053968919818204036 -0.06721819662794673 0 -0.0041618443689724564 -0.075031136194595727 0 -0.015103638251669421 -0.071491021968505847 0 -0.014780947569947909 -0.081237401674049622 0 -0.019576459886253401 -0.058498769445057178 0 -0.0054618806809071888 -0.058551256850748329 0 -0.015103638251669421 -0.071491021968505847 0 -0.0058623025964171377 -0.085291057964872255 0 -0.0045302970299483276 -0.096455079387621726 0 0.0093783789161308376 -0.08617408675257679 0 -0.0041618443689724564 -0.075031136194595727 0 -0.0058623025964171377 -0.085291057964872255 0 0.0093783789161308376 -0.08617408675257679 0 -0.0041618443689724564 -0.075031136194595727 0 -0.0058623025964171377 -0.085291057964872255 0 -0.014780947569947909 -0.081237401674049622 0 -0.0058623025964171377 -0.085291057964872255 0 -0.014780947569947909 -0.081237401674049622 0 -0.020339741933446349 -0.091526486557407361 0 -0.014780947569947909 -0.081237401674049622 0 -0.020339741933446349 -0.091526486557407361 0 -0.027234289876338798 -0.079778423324090214 0 -0.020339741933446349 -0.091526486557407361 0 -0.027234289876338798 -0.079778423324090214 0 -0.031497025496154608 -0.090963672496209652 0 -0.019576459886253401 -0.058498769445057178 0 -0.015103638251669421 -0.071491021968505847 0 -0.024427111536870692 -0.068438264733757442 0 -0.015103638251669421 -0.071491021968505847 0 -0.014780947569947909 -0.081237401674049622 0 -0.027234289876338798 -0.079778423324090214 0 -0.015103638251669421 -0.071491021968505847 0 -0.027234289876338798 -0.079778423324090214 0 -0.024427111536870692 -0.068438264733757442 0 -0.027234289876338798 -0.079778423324090214 0 -0.024427111536870692 -0.068438264733757442 0 -0.038445045787510228 -0.072792070258203695 0 -0.019576459886253401 -0.058498769445057178 0 -0.024427111536870692 -0.068438264733757442 0 -0.032848620258576419 -0.063861948759291257 0 -0.024427111536870692 -0.068438264733757442 0 -0.032848620258576419 -0.063861948759291257 0 -0.038445045787510228 -0.072792070258203695 0 -0.048048711303347973 -0.059011393346830789 0 -0.032848620258576419 -0.063861948759291257 0 -0.038445045787510228 -0.072792070258203695 0 -0.027234289876338798 -0.079778423324090214 0 -0.031497025496154608 -0.090963672496209652 0 -0.04144476113440821 -0.085395424380243085 0 -0.027234289876338798 -0.079778423324090214 0 -0.038445045787510228 -0.072792070258203695 0 -0.04144476113440821 -0.085395424380243085 0 -0.038445045787510228 -0.072792070258203695 0 -0.04144476113440821 -0.085395424380243085 0 -0.056666780615519337 -0.080266967005009487 0 -0.031497025496154608 -0.090963672496209652 0 -0.04144476113440821 -0.085395424380243085 0 -0.042486109705218517 -0.096992844065738604 0 -0.04144476113440821 -0.085395424380243085 0 -0.054108168369375251 -0.090231994158069276 0 -0.042486109705218517 -0.096992844065738604 0 -0.04144476113440821 -0.085395424380243085 0 -0.054108168369375251 -0.090231994158069276 0 -0.056666780615519337 -0.080266967005009487 0 -0.064050765767230997 -0.092876426000921233 0 -0.054108168369375251 -0.090231994158069276 0 -0.056666780615519337 -0.080266967005009487 0 -0.048048711303347973 -0.059011393346830789 0 -0.038445045787510228 -0.072792070258203695 0 -0.056666780615519337 -0.080266967005009487 0 -0.048048711303347973 -0.059011393346830789 0 -0.056666780615519337 -0.080266967005009487 0 -0.06074416290567608 -0.06405949858241182 0 -0.048048711303347973 -0.059011393346830789 0 -0.056666780615519337 -0.080266967005009487 0 -0.049752458546448358 -0.1115305365410704 0 -0.050781250507077623 -0.1206631885526557 0 -0.059704508626529117 -0.11600420598319661 0 -0.049752458546448358 -0.1115305365410704 0 -0.050781250507077623 -0.1206631885526557 0 -0.044097791252969573 -0.1153130711395421 0 -0.050781250507077623 -0.1206631885526557 0 -0.059704508626529117 -0.11600420598319661 0 -0.060700784166540858 -0.12661506615414511 0 -0.049752458546448358 -0.1115305365410704 0 -0.059704508626529117 -0.11600420598319661 0 -0.056265832485485542 -0.10658217155623061 0 -0.065144352012487555 -0.106545605504791 0 -0.059704508626529117 -0.11600420598319661 0 -0.056265832485485542 -0.10658217155623061 0 -0.065144352012487555 -0.106545605504791 0 -0.056265832485485542 -0.10658217155623061 0 -0.059648375683385199 -0.098985378142181446 0 -0.056265832485485542 -0.10658217155623061 0 -0.059648375683385199 -0.098985378142181446 0 -0.053430115230536798 -0.099936733863326938 0 -0.054108168369375251 -0.090231994158069276 0 -0.059648375683385199 -0.098985378142181446 0 -0.053430115230536798 -0.099936733863326938 0 -0.064050765767230997 -0.092876426000921233 0 -0.054108168369375251 -0.090231994158069276 0 -0.059648375683385199 -0.098985378142181446 0 -0.054108168369375251 -0.090231994158069276 0 -0.053430115230536798 -0.099936733863326938 0 -0.042486109705218517 -0.096992844065738604 0 -0.053430115230536798 -0.099936733863326938 0 -0.047101102318130757 -0.10372833267913149 0 -0.042486109705218517 -0.096992844065738604 0 -0.049752458546448358 -0.1115305365410704 0 -0.056265832485485542 -0.10658217155623061 0 -0.047101102318130757 -0.10372833267913149 0 -0.056265832485485542 -0.10658217155623061 0 -0.053430115230536798 -0.099936733863326938 0 -0.047101102318130757 -0.10372833267913149 0 -0.049752458546448358 -0.1115305365410704 0 -0.047101102318130757 -0.10372833267913149 0 -0.039972339800728868 -0.10836839105524861 0 -0.047101102318130757 -0.10372833267913149 0 -0.039972339800728868 -0.10836839105524861 0 -0.042486109705218517 -0.096992844065738604 0 -0.031497025496154608 -0.090963672496209652 0 -0.042486109705218517 -0.096992844065738604 0 -0.030731161320160821 -0.1023127810040029 0 -0.039972339800728868 -0.10836839105524861 0 -0.042486109705218517 -0.096992844065738604 0 -0.030731161320160821 -0.1023127810040029 0 -0.039972339800728868 -0.10836839105524861 0 -0.035647909922106827 -0.1194565462565544 0 -0.030731161320160821 -0.1023127810040029 0 -0.050781250507077623 -0.1206631885526557 0 -0.035647909922106827 -0.1194565462565544 0 -0.052856846868186202 -0.13217702049044219 0 -0.039972339800728868 -0.10836839105524861 0 -0.044097791252969573 -0.1153130711395421 0 -0.035647909922106827 -0.1194565462565544 0 -0.049752458546448358 -0.1115305365410704 0 -0.039972339800728868 -0.10836839105524861 0 -0.044097791252969573 -0.1153130711395421 0 -0.050781250507077623 -0.1206631885526557 0 -0.044097791252969573 -0.1153130711395421 0 -0.035647909922106827 -0.1194565462565544 0 -0.01610626872918788 -0.122677923983726 0 -0.018438972976027569 -0.10673607202266661 0 -0.031158285048569021 -0.1284243104807033 0 -0.035647909922106827 -0.1194565462565544 0 -0.018438972976027569 -0.10673607202266661 0 -0.018438972976027569 -0.10673607202266661 0 -0.031158285048569021 -0.1284243104807033 0 -0.035647909922106827 -0.1194565462565544 0 -0.018438972976027569 -0.10673607202266661 0 -0.031158285048569021 -0.1284243104807033 0 -0.035647909922106827 -0.1194565462565544 0 -0.030731161320160821 -0.1023127810040029 0 -0.018438972976027569 -0.10673607202266661 0 -0.020339741933446349 -0.091526486557407361 0 -0.031497025496154608 -0.090963672496209652 0 -0.030731161320160821 -0.1023127810040029 0 -0.020339741933446349 -0.091526486557407361 0 -0.030731161320160821 -0.1023127810040029 0 -0.018438972976027569 -0.10673607202266661 0 -0.0058623025964171377 -0.085291057964872255 0 -0.020339741933446349 -0.091526486557407361 0 -0.018438972976027569 -0.10673607202266661 0 -0.0058623025964171377 -0.085291057964872255 0 -0.018438972976027569 -0.10673607202266661 0 -0.0058623025964171377 -0.085291057964872255 0 -0.018438972976027569 -0.10673607202266661 0 -0.0045302970299483276 -0.096455079387621726 0 -0.018438972976027569 -0.10673607202266661 0 -0.0045302970299483276 -0.096455079387621726 0 -0.018438972976027569 -0.10673607202266661 0 -0.0049971017344059886 -0.1089256185876992 0 -0.0045302970299483276 -0.096455079387621726 0 -0.0049971017344059886 -0.1089256185876992 0 -0.0045302970299483276 -0.096455079387621726 0 0.0072176439397689486 -0.10191505279702941 0 -0.01610626872918788 -0.122677923983726 0 -0.018438972976027569 -0.10673607202266661 0 -0.01081392169615949 -0.1155899356268298 0 -0.01610626872918788 -0.122677923983726 0 -0.01081392169615949 -0.1155899356268298 0 -0.0087570496872570805 -0.12637437773848029 0 -0.01081392169615949 -0.1155899356268298 0 -0.0040327225020871573 -0.11980853711188851 0 -0.0087570496872570805 -0.12637437773848029 0 -0.018438972976027569 -0.10673607202266661 0 -0.0049971017344059886 -0.1089256185876992 0 -0.01081392169615949 -0.1155899356268298 0 -0.0049971017344059886 -0.1089256185876992 0 -0.0040327225020871573 -0.11980853711188851 0 0.0055281932006795821 -0.1165902836910206 0 -0.0049971017344059886 -0.1089256185876992 0 -0.01081392169615949 -0.1155899356268298 0 -0.0040327225020871573 -0.11980853711188851 0 -0.0040327225020871573 -0.11980853711188851 0 -0.00085551499931944093 -0.12554303272294789 0 -0.0087570496872570805 -0.12637437773848029 0 -0.00085551499931944093 -0.12554303272294789 0 -0.0041070743575563878 -0.133429830209292 0 -0.0087570496872570805 -0.12637437773848029 0 -0.0024144284113497201 -0.1392840286461689 0 -0.0041070743575563878 -0.133429830209292 0 -0.013093069113441909 -0.13338732057630179 0 -0.0024144284113497201 -0.1392840286461689 0 -0.0041070743575563878 -0.133429830209292 0 0.00582690782722824 -0.127803406652089 0 -0.0024144284113497201 -0.1392840286461689 0 -0.0041070743575563878 -0.133429830209292 0 -0.0024144284113497201 -0.1392840286461689 0 -0.013093069113441909 -0.13338732057630179 0 -0.014349907992907401 -0.14416661299702321 0 -0.0041070743575563878 -0.133429830209292 0 -0.013093069113441909 -0.13338732057630179 0 -0.0087570496872570805 -0.12637437773848029 0 -0.01610626872918788 -0.122677923983726 0 -0.013093069113441909 -0.13338732057630179 0 -0.0087570496872570805 -0.12637437773848029 0 -0.01610626872918788 -0.122677923983726 0 -0.013093069113441909 -0.13338732057630179 0 -0.020791357416645111 -0.130604443248936 0 -0.01610626872918788 -0.122677923983726 0 -0.020791357416645111 -0.130604443248936 0 -0.031158285048569021 -0.1284243104807033 0 -0.013093069113441909 -0.13338732057630179 0 -0.020791357416645111 -0.130604443248936 0 -0.022807806775381641 -0.13792821795501309 0 -0.013093069113441909 -0.13338732057630179 0 -0.022807806775381641 -0.13792821795501309 0 -0.014349907992907401 -0.14416661299702321 0 -0.022807806775381641 -0.13792821795501309 0 -0.031158285048569021 -0.1284243104807033 0 -0.029785604306901931 -0.1438031458287311 0 -0.020791357416645111 -0.130604443248936 0 -0.022807806775381641 -0.13792821795501309 0 -0.031158285048569021 -0.1284243104807033 0 -0.029785604306901931 -0.1438031458287311 0 -0.014349907992907401 -0.14416661299702321 0 -0.02364406083042208 -0.1562588018678161 0 -0.022807806775381641 -0.13792821795501309 0 -0.029785604306901931 -0.1438031458287311 0 -0.014349907992907401 -0.14416661299702321 0 -0.014349907992907401 -0.14416661299702321 0 -0.02364406083042208 -0.1562588018678161 0 0.0022978301567557458 -0.15558188278715421 0 -0.0024144284113497201 -0.1392840286461689 0 0.0022978301567557458 -0.15558188278715421 0 -0.0024144284113497201 -0.1392840286461689 0 -0.014349907992907401 -0.14416661299702321 0 0.0022978301567557458 -0.15558188278715421 0 -0.0024144284113497201 -0.1392840286461689 0 -0.014349907992907401 -0.14416661299702321 0 -0.0070525166353859027 -0.17618373527454809 0 -0.020681725581003729 -0.1730123474788397 0 0.0022978301567557458 -0.15558188278715421 0 -0.020681725581003729 -0.1730123474788397 0 0.0022978301567557458 -0.15558188278715421 0 -0.020681725581003729 -0.1730123474788397 0 -0.02364406083042208 -0.1562588018678161 0 0.0022978301567557458 -0.15558188278715421 0 -0.0070525166353859027 -0.17618373527454809 0 -0.0046387155639124036 -0.19264294657292649 0 -0.010579560095701041 -0.188535017899954 0 -0.0070525166353859027 -0.17618373527454809 0 -0.0046387155639124036 -0.19264294657292649 0 0.0057000899391789241 -0.16734896493730381 0 -0.0070525166353859027 -0.17618373527454809 0 -0.014796774932379681 -0.18056788677516339 0 -0.020681725581003729 -0.1730123474788397 0 -0.014796774932379681 -0.18056788677516339 0 -0.02087329741742806 -0.18454044644731171 0 -0.010579560095701041 -0.188535017899954 0 -0.0070525166353859027 -0.17618373527454809 0 -0.014796774932379681 -0.18056788677516339 0 -0.010579560095701041 -0.188535017899954 0 -0.014796774932379681 -0.18056788677516339 0 -0.02087329741742806 -0.18454044644731171 0 -0.020681725581003729 -0.1730123474788397 0 -0.02087329741742806 -0.18454044644731171 0 -0.020681725581003729 -0.1730123474788397 0 -0.03189346845748621 -0.1855007916463263 0 -0.020681725581003729 -0.1730123474788397 0 -0.02364406083042208 -0.1562588018678161 0 -0.038485558650740208 -0.16784858196243291 0 -0.038485558650740208 -0.16784858196243291 0 -0.05659690919365172 -0.17180078739677679 0 -0.043877597121110383 -0.15011254893873999 0 -0.02364406083042208 -0.1562588018678161 0 -0.038485558650740208 -0.16784858196243291 0 -0.043877597121110383 -0.15011254893873999 0 -0.020681725581003729 -0.1730123474788397 0 -0.038485558650740208 -0.16784858196243291 0 -0.043661281318764282 -0.190442812170524 0 -0.020681725581003729 -0.1730123474788397 0 -0.043661281318764282 -0.190442812170524 0 -0.038485558650740208 -0.16784858196243291 0 -0.05659690919365172 -0.17180078739677679 0 -0.043661281318764282 -0.190442812170524 0 -0.020681725581003729 -0.1730123474788397 0 -0.03189346845748621 -0.1855007916463263 0 -0.043661281318764282 -0.190442812170524 0 -0.05659690919365172 -0.17180078739677679 0 -0.043661281318764282 -0.190442812170524 0 -0.069868459633052771 -0.18217100140624071 0 -0.05659690919365172 -0.17180078739677679 0 -0.060284623518579702 -0.16166525819217459 0 -0.069868459633052771 -0.18217100140624071 0 -0.05659690919365172 -0.17180078739677679 0 -0.060284623518579702 -0.16166525819217459 0 -0.043877597121110383 -0.15011254893873999 0 -0.05659690919365172 -0.17180078739677679 0 -0.043877597121110383 -0.15011254893873999 0 -0.057309714814947468 -0.1436001847572364 0 -0.052856846868186202 -0.13217702049044219 0 -0.043877597121110383 -0.15011254893873999 0 -0.060284623518579702 -0.16166525819217459 0 -0.057753530176126722 -0.1516166534076194 0 -0.063792366414177321 -0.15536201491967769 0 -0.060284623518579702 -0.16166525819217459 0 -0.057753530176126722 -0.1516166534076194 0 -0.043877597121110383 -0.15011254893873999 0 -0.057753530176126722 -0.1516166534076194 0 -0.063461571049848439 -0.14921843350376801 0 -0.063792366414177321 -0.15536201491967769 0 -0.057753530176126722 -0.1516166534076194 0 -0.057309714814947468 -0.1436001847572364 0 -0.043877597121110383 -0.15011254893873999 0 -0.057753530176126722 -0.1516166534076194 0 -0.057309714814947468 -0.1436001847572364 0 -0.063461571049848439 -0.14921843350376801 0 -0.060700784166540858 -0.12661506615414511 0 -0.052856846868186202 -0.13217702049044219 0 -0.070065783814266022 -0.14489749472432939 0 -0.052856846868186202 -0.13217702049044219 0 -0.070065783814266022 -0.14489749472432939 0 -0.057309714814947468 -0.1436001847572364 0 -0.052856846868186202 -0.13217702049044219 0 -0.070065783814266022 -0.14489749472432939 0 -0.050781250507077623 -0.1206631885526557 0 -0.060700784166540858 -0.12661506615414511 0 -0.052856846868186202 -0.13217702049044219 0 -0.035647909922106827 -0.1194565462565544 0 -0.052856846868186202 -0.13217702049044219 0 -0.031158285048569021 -0.1284243104807033 0 -0.043877597121110383 -0.15011254893873999 0 -0.035647909922106827 -0.1194565462565544 0 -0.031158285048569021 -0.1284243104807033 0 -0.052856846868186202 -0.13217702049044219 0 -0.031158285048569021 -0.1284243104807033 0 -0.052856846868186202 -0.13217702049044219 0 -0.043877597121110383 -0.15011254893873999 0 -0.029785604306901931 -0.1438031458287311 0 -0.02364406083042208 -0.1562588018678161 0 -0.043877597121110383 -0.15011254893873999 0 -0.031158285048569021 -0.1284243104807033 0 -0.029785604306901931 -0.1438031458287311 0 -0.043877597121110383 -0.15011254893873999 0 -0.026422895668426791 -0.22286683963091711 0 -0.03133723326674312 -0.24707738072685059 0 -0.018547821779480039 -0.23439605218463949 0 -0.013729577760887761 -0.24670769385494479 0 -0.03133723326674312 -0.24707738072685059 0 -0.018547821779480039 -0.23439605218463949 0 -0.026422895668426791 -0.22286683963091711 0 -0.03133723326674312 -0.24707738072685059 0 -0.0071391058162095997 -0.2349246009935971 0 0.00049293899552194792 -0.25016251009151491 0 0.0065814447112018176 -0.23125056494165791 0 -0.013729577760887761 -0.24670769385494479 0 -0.0071391058162095997 -0.2349246009935971 0 0.00049293899552194792 -0.25016251009151491 0 -0.0071391058162095997 -0.2349246009935971 0 0.00049293899552194792 -0.25016251009151491 0 -0.018547821779480039 -0.23439605218463949 0 -0.013729577760887761 -0.24670769385494479 0 -0.0071391058162095997 -0.2349246009935971 0 -0.0071391058162095997 -0.2349246009935971 0 -0.01477115062793566 -0.21968669189567649 0 -0.00033785732622192138 -0.21724277336945 0 -0.0071391058162095997 -0.2349246009935971 0 -0.01477115062793566 -0.21968669189567649 0 -0.018547821779480039 -0.23439605218463949 0 -0.0071391058162095997 -0.2349246009935971 0 -0.01477115062793566 -0.21968669189567649 0 -0.0071391058162095997 -0.2349246009935971 0 -0.00033785732622192138 -0.21724277336945 0 0.0065814447112018176 -0.23125056494165791 0 -0.01477115062793566 -0.21968669189567649 0 -0.039439708304286197 -0.2238636973690793 0 -0.018547821779480039 -0.23439605218463949 0 -0.01477115062793566 -0.21968669189567649 0 -0.026422895668426791 -0.22286683963091711 0 -0.01477115062793566 -0.21968669189567649 0 -0.026422895668426791 -0.22286683963091711 0 -0.039439708304286197 -0.2238636973690793 0 -0.01477115062793566 -0.21968669189567649 0 -0.031853001429444368 -0.2108808341771993 0 -0.039439708304286197 -0.2238636973690793 0 -0.01477115062793566 -0.21968669189567649 0 -0.02679871428531792 -0.195672823240328 0 -0.031853001429444368 -0.2108808341771993 0 -0.01477115062793566 -0.21968669189567649 0 -0.02679871428531792 -0.195672823240328 0 -0.01477115062793566 -0.21968669189567649 0 -0.012947233309989139 -0.2075155925238617 0 -0.02679871428531792 -0.195672823240328 0 -0.01477115062793566 -0.21968669189567649 0 -0.00033785732622192138 -0.21724277336945 0 -0.012947233309989139 -0.2075155925238617 0 -0.01477115062793566 -0.21968669189567649 0 -0.00033785732622192138 -0.21724277336945 0 -0.00033785732622192138 -0.21724277336945 0 -0.0026317519027113669 -0.2073985136837625 0 -0.012947233309989139 -0.2075155925238617 0 -0.0026317519027113669 -0.2073985136837625 0 -0.012947233309989139 -0.2075155925238617 0 -0.0006495613821282404 -0.19771821390074781 0 -0.012947233309989139 -0.2075155925238617 0 -0.012672714511603331 -0.1979118751676795 0 -0.0006495613821282404 -0.19771821390074781 0 -0.012672714511603331 -0.1979118751676795 0 -0.0006495613821282404 -0.19771821390074781 0 -0.0046387155639124036 -0.19264294657292649 0 -0.012947233309989139 -0.2075155925238617 0 -0.0006495613821282404 -0.19771821390074781 0 -0.012672714511603331 -0.1979118751676795 0 -0.0046387155639124036 -0.19264294657292649 0 -0.010579560095701041 -0.188535017899954 0 -0.010579560095701041 -0.188535017899954 0 -0.02679871428531792 -0.195672823240328 0 -0.012672714511603331 -0.1979118751676795 0 -0.010579560095701041 -0.188535017899954 0 -0.02679871428531792 -0.195672823240328 0 -0.02087329741742806 -0.18454044644731171 0 -0.010579560095701041 -0.188535017899954 0 -0.02679871428531792 -0.195672823240328 0 -0.012947233309989139 -0.2075155925238617 0 -0.012672714511603331 -0.1979118751676795 0 -0.02679871428531792 -0.195672823240328 0 -0.03189346845748621 -0.1855007916463263 0 -0.02679871428531792 -0.195672823240328 0 -0.02087329741742806 -0.18454044644731171 0 -0.03189346845748621 -0.1855007916463263 0 -0.02679871428531792 -0.195672823240328 0 -0.03189346845748621 -0.1855007916463263 0 -0.02679871428531792 -0.195672823240328 0 -0.043661281318764282 -0.190442812170524 0 -0.02679871428531792 -0.195672823240328 0 -0.046402432500237303 -0.2043001242037141 0 -0.02679871428531792 -0.195672823240328 0 -0.043661281318764282 -0.190442812170524 0 -0.046402432500237303 -0.2043001242037141 0 -0.043661281318764282 -0.190442812170524 0 -0.066640837056525015 -0.20787327686220791 0 -0.069868459633052771 -0.18217100140624071 0 -0.043661281318764282 -0.190442812170524 0 -0.046402432500237303 -0.2043001242037141 0 -0.066640837056525015 -0.20787327686220791 0 -0.043661281318764282 -0.190442812170524 0 -0.066640837056525015 -0.20787327686220791 0 -0.046402432500237303 -0.2043001242037141 0 -0.066006150715155976 -0.21292742516710189 0 -0.066640837056525015 -0.20787327686220791 0 -0.053174023194310423 -0.21735439242249299 0 -0.046402432500237303 -0.2043001242037141 0 -0.066006150715155976 -0.21292742516710189 0 -0.046402432500237303 -0.2043001242037141 0 -0.066006150715155976 -0.21292742516710189 0 -0.053174023194310423 -0.21735439242249299 0 -0.046402432500237303 -0.2043001242037141 0 -0.039439708304286197 -0.2238636973690793 0 -0.031853001429444368 -0.2108808341771993 0 -0.046402432500237303 -0.2043001242037141 0 -0.039439708304286197 -0.2238636973690793 0 -0.02679871428531792 -0.195672823240328 0 -0.031853001429444368 -0.2108808341771993 0 -0.046402432500237303 -0.2043001242037141 0 -0.026422895668426791 -0.22286683963091711 0 -0.039439708304286197 -0.2238636973690793 0 -0.03133723326674312 -0.24707738072685059 0 -0.039439708304286197 -0.2238636973690793 0 -0.053865109911565331 -0.23636358083399969 0 -0.045126609742432711 -0.24023658036628101 0 -0.053174023194310423 -0.21735439242249299 0 -0.039439708304286197 -0.2238636973690793 0 -0.064108265980636708 -0.2280407028424831 0 -0.039439708304286197 -0.2238636973690793 0 -0.064108265980636708 -0.2280407028424831 0 -0.039439708304286197 -0.2238636973690793 0 -0.053865109911565331 -0.23636358083399969 0 -0.064108265980636708 -0.2280407028424831 0 -0.053174023194310423 -0.21735439242249299 0 -0.064108265980636708 -0.2280407028424831 0 -0.066006150715155976 -0.21292742516710189 0 -0.053865109911565331 -0.23636358083399969 0 -0.052137922957602147 -0.2449724726806444 0 -0.045126609742432711 -0.24023658036628101 0 -0.053865109911565331 -0.23636358083399969 0 -0.061906936740129037 -0.24557037651629371 0 -0.064108265980636708 -0.2280407028424831 0 -0.053865109911565331 -0.23636358083399969 0 -0.061906936740129037 -0.24557037651629371 0 -0.052137922957602147 -0.2449724726806444 0 -0.052647461709189339 -0.25395870791139019 0 -0.061906936740129037 -0.24557037651629371 0 -0.052137922957602147 -0.2449724726806444 0 -0.052137922957602147 -0.2449724726806444 0 -0.045166968935051718 -0.24905139343276861 0 -0.045126609742432711 -0.24023658036628101 0 -0.052647461709189339 -0.25395870791139019 0 -0.052137922957602147 -0.2449724726806444 0 -0.045166968935051718 -0.24905139343276861 0 -0.039439708304286197 -0.2238636973690793 0 -0.045126609742432711 -0.24023658036628101 0 -0.03133723326674312 -0.24707738072685059 0 -0.045166968935051718 -0.24905139343276861 0 -0.045126609742432711 -0.24023658036628101 0 -0.03133723326674312 -0.24707738072685059 0 -0.086412865588894827 -0.24437866182787851 0 -0.081377084468717165 -0.23096474689444119 0 -0.1015974102913768 -0.23438855515852219 0 -0.080363234778061177 -0.26097317488956467 0 -0.086412865588894827 -0.24437866182787851 0 -0.099616169645383987 -0.24200729644999569 0 -0.086412865588894827 -0.24437866182787851 0 -0.099616169645383987 -0.24200729644999569 0 -0.086412865588894827 -0.24437866182787851 0 -0.072624378874701093 -0.24401504466419441 0 -0.081377084468717165 -0.23096474689444119 0 -0.074230681078241628 -0.25309159691770139 0 -0.086412865588894827 -0.24437866182787851 0 -0.072624378874701093 -0.24401504466419441 0 -0.061906936740129037 -0.24557037651629371 0 -0.072624378874701093 -0.24401504466419441 0 -0.064108265980636708 -0.2280407028424831 0 -0.061906936740129037 -0.24557037651629371 0 -0.064108265980636708 -0.2280407028424831 0 -0.063871673280685104 -0.25706534243394769 0 -0.061906936740129037 -0.24557037651629371 0 -0.072624378874701093 -0.24401504466419441 0 -0.072624378874701093 -0.24401504466419441 0 -0.081377084468717165 -0.23096474689444119 0 -0.072624378874701093 -0.24401504466419441 0 -0.064108265980636708 -0.2280407028424831 0 -0.081377084468717165 -0.23096474689444119 0 -0.064108265980636708 -0.2280407028424831 0 -0.07366070730172454 -0.22408101130222721 0 -0.081377084468717165 -0.23096474689444119 0 -0.064108265980636708 -0.2280407028424831 0 -0.081377084468717165 -0.23096474689444119 0 -0.07366070730172454 -0.22408101130222721 0 -0.083389794398332315 -0.2205777047850323 0 -0.066006150715155976 -0.21292742516710189 0 -0.064108265980636708 -0.2280407028424831 0 -0.066006150715155976 -0.21292742516710189 0 -0.064108265980636708 -0.2280407028424831 0 -0.07366070730172454 -0.22408101130222721 0 -0.066006150715155976 -0.21292742516710189 0 -0.083389794398332315 -0.2205777047850323 0 -0.081377084468717165 -0.23096474689444119 0 -0.086673197778617095 -0.2230682336421502 0 -0.081377084468717165 -0.23096474689444119 0 -0.1015974102913768 -0.23438855515852219 0 -0.081377084468717165 -0.23096474689444119 0 -0.086673197778617095 -0.2230682336421502 0 -0.1015974102913768 -0.23438855515852219 0 -0.07366070730172454 -0.22408101130222721 0 -0.083389794398332315 -0.2205777047850323 0 -0.081377084468717165 -0.23096474689444119 0 -0.083389794398332315 -0.2205777047850323 0 -0.086673197778617095 -0.2230682336421502 0 -0.081377084468717165 -0.23096474689444119 0 -0.086673197778617095 -0.2230682336421502 0 -0.083389794398332315 -0.2205777047850323 0 -0.086673197778617095 -0.2230682336421502 0 -0.084307038958660305 -0.20197569280224001 0 -0.086673197778617095 -0.2230682336421502 0 -0.084307038958660305 -0.20197569280224001 0 -0.1034980259212674 -0.1979823884908376 0 -0.083389794398332315 -0.2205777047850323 0 -0.066640837056525015 -0.20787327686220791 0 -0.083389794398332315 -0.2205777047850323 0 -0.066640837056525015 -0.20787327686220791 0 -0.084307038958660305 -0.20197569280224001 0 -0.083389794398332315 -0.2205777047850323 0 -0.066006150715155976 -0.21292742516710189 0 -0.066640837056525015 -0.20787327686220791 0 -0.083389794398332315 -0.2205777047850323 0 -0.066006150715155976 -0.21292742516710189 0 -0.066006150715155976 -0.21292742516710189 0 -0.066640837056525015 -0.20787327686220791 0 -0.066640837056525015 -0.20787327686220791 0 -0.076247747743674876 -0.1933497769062141 0 -0.084307038958660305 -0.20197569280224001 0 -0.066640837056525015 -0.20787327686220791 0 -0.069868459633052771 -0.18217100140624071 0 -0.066640837056525015 -0.20787327686220791 0 -0.076247747743674876 -0.1933497769062141 0 -0.069868459633052771 -0.18217100140624071 0 -0.084307038958660305 -0.20197569280224001 0 -0.08417465532646165 -0.18137913655416751 0 -0.094815338805913085 -0.18620414048807599 0 -0.076247747743674876 -0.1933497769062141 0 -0.084307038958660305 -0.20197569280224001 0 -0.08417465532646165 -0.18137913655416751 0 -0.084307038958660305 -0.20197569280224001 0 -0.1034980259212674 -0.1979823884908376 0 -0.094815338805913085 -0.18620414048807599 0 -0.1034980259212674 -0.1979823884908376 0 -0.118804787236378 -0.20852269611509139 0 -0.12666986159946239 -0.19716924279271089 0 -0.1034980259212674 -0.1979823884908376 0 -0.11978142181313819 -0.173703819674702 0 -0.12666986159946239 -0.19716924279271089 0 -0.1034980259212674 -0.1979823884908376 0 -0.118804787236378 -0.20852269611509139 0 -0.1098832344858853 -0.21510954327737239 0 -0.118804787236378 -0.20852269611509139 0 -0.1211459494768316 -0.2194627000630649 0 -0.13166680090603619 -0.2124054342632524 0 -0.118804787236378 -0.20852269611509139 0 -0.1098832344858853 -0.21510954327737239 0 -0.1211459494768316 -0.2194627000630649 0 -0.1098832344858853 -0.21510954327737239 0 -0.1016765237138627 -0.21754419647610271 0 -0.1067707515629041 -0.22336870298830599 0 -0.086673197778617095 -0.2230682336421502 0 -0.1034980259212674 -0.1979823884908376 0 -0.1016765237138627 -0.21754419647610271 0 -0.086673197778617095 -0.2230682336421502 0 -0.1034980259212674 -0.1979823884908376 0 -0.1034980259212674 -0.1979823884908376 0 -0.1098832344858853 -0.21510954327737239 0 -0.1016765237138627 -0.21754419647610271 0 -0.086673197778617095 -0.2230682336421502 0 -0.1016765237138627 -0.21754419647610271 0 -0.1016051798618776 -0.2285940214263629 0 -0.086673197778617095 -0.2230682336421502 0 -0.1016051798618776 -0.2285940214263629 0 -0.086673197778617095 -0.2230682336421502 0 -0.1015974102913768 -0.23438855515852219 0 -0.086673197778617095 -0.2230682336421502 0 -0.1016051798618776 -0.2285940214263629 0 -0.1015974102913768 -0.23438855515852219 0 -0.1016051798618776 -0.2285940214263629 0 -0.1159957296943588 -0.23492708554575201 0 -0.1015974102913768 -0.23438855515852219 0 -0.1016051798618776 -0.2285940214263629 0 -0.1159957296943588 -0.23492708554575201 0 -0.1016051798618776 -0.2285940214263629 0 -0.108376601958141 -0.23004757176057161 0 -0.1159957296943588 -0.23492708554575201 0 -0.1016051798618776 -0.2285940214263629 0 -0.108376601958141 -0.23004757176057161 0 -0.1067707515629041 -0.22336870298830599 0 -0.1016765237138627 -0.21754419647610271 0 -0.1016051798618776 -0.2285940214263629 0 -0.1067707515629041 -0.22336870298830599 0 -0.1098832344858853 -0.21510954327737239 0 -0.1067707515629041 -0.22336870298830599 0 -0.1152614491305837 -0.22386442500609369 0 -0.1098832344858853 -0.21510954327737239 0 -0.1152614491305837 -0.22386442500609369 0 -0.1211459494768316 -0.2194627000630649 0 -0.108376601958141 -0.23004757176057161 0 -0.1159957296943588 -0.23492708554575201 0 -0.13013070816915659 -0.23133360694115351 0 -0.108376601958141 -0.23004757176057161 0 -0.1067707515629041 -0.22336870298830599 0 -0.1152614491305837 -0.22386442500609369 0 -0.108376601958141 -0.23004757176057161 0 -0.1152614491305837 -0.22386442500609369 0 -0.13013070816915659 -0.23133360694115351 0 -0.108376601958141 -0.23004757176057161 0 -0.13013070816915659 -0.23133360694115351 0 -0.1152614491305837 -0.22386442500609369 0 -0.1211459494768316 -0.2194627000630649 0 -0.13013070816915659 -0.23133360694115351 0 -0.1224122533180121 -0.23791303009503881 0 -0.1086498305494705 -0.24038481539435269 0 -0.1015974102913768 -0.23438855515852219 0 -0.115424215089746 -0.25410178664707522 0 -0.1224122533180121 -0.23791303009503881 0 -0.1086498305494705 -0.24038481539435269 0 -0.115424215089746 -0.25410178664707522 0 -0.1224122533180121 -0.23791303009503881 0 -0.1255943865027532 -0.24876207797521749 0 -0.1224122533180121 -0.23791303009503881 0 -0.1015974102913768 -0.23438855515852219 0 -0.1224122533180121 -0.23791303009503881 0 -0.1086498305494705 -0.24038481539435269 0 -0.1159957296943588 -0.23492708554575201 0 -0.1224122533180121 -0.23791303009503881 0 -0.1015974102913768 -0.23438855515852219 0 -0.1159957296943588 -0.23492708554575201 0 -0.1224122533180121 -0.23791303009503881 0 -0.13013070816915659 -0.23133360694115351 0 -0.115424215089746 -0.25410178664707522 0 -0.1086498305494705 -0.24038481539435269 0 -0.099616169645383987 -0.24200729644999569 0 -0.1086498305494705 -0.24038481539435269 0 -0.099616169645383987 -0.24200729644999569 0 -0.1086498305494705 -0.24038481539435269 0 -0.1037391532442728 -0.23794578550199649 0 -0.099616169645383987 -0.24200729644999569 0 -0.1086498305494705 -0.24038481539435269 0 -0.1015974102913768 -0.23438855515852219 0 -0.1037391532442728 -0.23794578550199649 0 -0.1015974102913768 -0.23438855515852219 0 -0.099616169645383987 -0.24200729644999569 0 -0.1086498305494705 -0.24038481539435269 0 -0.1037391532442728 -0.23794578550199649 0 -0.1015974102913768 -0.23438855515852219 0 -0.1037391532442728 -0.23794578550199649 0 -0.099616169645383987 -0.24200729644999569 0 -0.086412865588894827 -0.24437866182787851 0 -0.1015974102913768 -0.23438855515852219 0 -0.099616169645383987 -0.24200729644999569 0 -0.083631017635224361 -0.1410069252504805 0 -0.083224407427556601 -0.15173150124770429 0 -0.087868207656084218 -0.14534730240758079 0 -0.083631017635224361 -0.1410069252504805 0 -0.083224407427556601 -0.15173150124770429 0 -0.07309608220957986 -0.15646872595027331 0 -0.083224407427556601 -0.15173150124770429 0 -0.092924950544242532 -0.15121701235498961 0 -0.087562226061691201 -0.15858585750784429 0 -0.083224407427556601 -0.15173150124770429 0 -0.092924950544242532 -0.15121701235498961 0 -0.087868207656084218 -0.14534730240758079 0 -0.083631017635224361 -0.1410069252504805 0 -0.087868207656084218 -0.14534730240758079 0 -0.09408708008550383 -0.1403758168743984 0 -0.092924950544242532 -0.15121701235498961 0 -0.087868207656084218 -0.14534730240758079 0 -0.09408708008550383 -0.1403758168743984 0 -0.083631017635224361 -0.1410069252504805 0 -0.089907479312185012 -0.13100501245156679 0 -0.09408708008550383 -0.1403758168743984 0 -0.088152855187030629 -0.12020989001014561 0 -0.089907479312185012 -0.13100501245156679 0 -0.076323704786106922 -0.1307664504943061 0 -0.083631017635224361 -0.1410069252504805 0 -0.089907479312185012 -0.13100501245156679 0 -0.076323704786106922 -0.1307664504943061 0 -0.070095531016645354 -0.1193334210201014 0 -0.070065783814266022 -0.14489749472432939 0 -0.070095531016645354 -0.1193334210201014 0 -0.060700784166540858 -0.12661506615414511 0 -0.070065783814266022 -0.14489749472432939 0 -0.070095531016645354 -0.1193334210201014 0 -0.076323704786106922 -0.1307664504943061 0 -0.070065783814266022 -0.14489749472432939 0 -0.057309714814947468 -0.1436001847572364 0 -0.070065783814266022 -0.14489749472432939 0 -0.063461571049848439 -0.14921843350376801 0 -0.083631017635224361 -0.1410069252504805 0 -0.076323704786106922 -0.1307664504943061 0 -0.07309608220957986 -0.15646872595027331 0 -0.076323704786106922 -0.1307664504943061 0 -0.071866300089334284 -0.14622839743822039 0 -0.07309608220957986 -0.15646872595027331 0 -0.076323704786106922 -0.1307664504943061 0 -0.07309608220957986 -0.15646872595027331 0 -0.076323704786106922 -0.1307664504943061 0 -0.070065783814266022 -0.14489749472432939 0 -0.071866300089334284 -0.14622839743822039 0 -0.070065783814266022 -0.14489749472432939 0 -0.071866300089334284 -0.14622839743822039 0 -0.070065783814266022 -0.14489749472432939 0 -0.071866300089334284 -0.14622839743822039 0 -0.070049928550330723 -0.1585231503648474 0 -0.071866300089334284 -0.14622839743822039 0 -0.070049928550330723 -0.1585231503648474 0 -0.07309608220957986 -0.15646872595027331 0 -0.066842412457155623 -0.15200027337815561 0 -0.063792366414177321 -0.15536201491967769 0 -0.070049928550330723 -0.1585231503648474 0 -0.070065783814266022 -0.14489749472432939 0 -0.066842412457155623 -0.15200027337815561 0 -0.070049928550330723 -0.1585231503648474 0 -0.070065783814266022 -0.14489749472432939 0 -0.070049928550330723 -0.1585231503648474 0 -0.070065783814266022 -0.14489749472432939 0 -0.066842412457155623 -0.15200027337815561 0 -0.063461571049848439 -0.14921843350376801 0 -0.066842412457155623 -0.15200027337815561 0 -0.063461571049848439 -0.14921843350376801 0 -0.063792366414177321 -0.15536201491967769 0 -0.070049928550330723 -0.1585231503648474 0 -0.07309608220957986 -0.15646872595027331 0 -0.069868459633052771 -0.18217100140624071 0 -0.07309608220957986 -0.15646872595027331 0 -0.069868459633052771 -0.18217100140624071 0 -0.07309608220957986 -0.15646872595027331 0 -0.069868459633052771 -0.18217100140624071 0 -0.078743149219496239 -0.16990045562507061 0 -0.060284623518579702 -0.16166525819217459 0 -0.063792366414177321 -0.15536201491967769 0 -0.070049928550330723 -0.1585231503648474 0 -0.060284623518579702 -0.16166525819217459 0 -0.070049928550330723 -0.1585231503648474 0 -0.069868459633052771 -0.18217100140624071 0 -0.07309608220957986 -0.15646872595027331 0 -0.081749543081108003 -0.16090451312997689 0 -0.078743149219496239 -0.16990045562507061 0 -0.069868459633052771 -0.18217100140624071 0 -0.08417465532646165 -0.18137913655416751 0 -0.078743149219496239 -0.16990045562507061 0 -0.076247747743674876 -0.1933497769062141 0 -0.069868459633052771 -0.18217100140624071 0 -0.08417465532646165 -0.18137913655416751 0 -0.08417465532646165 -0.18137913655416751 0 -0.078743149219496239 -0.16990045562507061 0 -0.087536263767227798 -0.16730660133086581 0 -0.08417465532646165 -0.18137913655416751 0 -0.087536263767227798 -0.16730660133086581 0 -0.096603001350661646 -0.1723740587701213 0 -0.08417465532646165 -0.18137913655416751 0 -0.094815338805913085 -0.18620414048807599 0 -0.096603001350661646 -0.1723740587701213 0 -0.083224407427556601 -0.15173150124770429 0 -0.07309608220957986 -0.15646872595027331 0 -0.081749543081108003 -0.16090451312997689 0 -0.083224407427556601 -0.15173150124770429 0 -0.081749543081108003 -0.16090451312997689 0 -0.087562226061691201 -0.15858585750784429 0 -0.081749543081108003 -0.16090451312997689 0 -0.087536263767227798 -0.16730660133086581 0 -0.087562226061691201 -0.15858585750784429 0 -0.081749543081108003 -0.16090451312997689 0 -0.078743149219496239 -0.16990045562507061 0 -0.087536263767227798 -0.16730660133086581 0 -0.087536263767227798 -0.16730660133086581 0 -0.096385007563948105 -0.1606955863980139 0 -0.096603001350661646 -0.1723740587701213 0 -0.087536263767227798 -0.16730660133086581 0 -0.087562226061691201 -0.15858585750784429 0 -0.096385007563948105 -0.1606955863980139 0 -0.092924950544242532 -0.15121701235498961 0 -0.087562226061691201 -0.15858585750784429 0 -0.096385007563948105 -0.1606955863980139 0 -0.096385007563948105 -0.1606955863980139 0 -0.1083657004421258 -0.1621804986664151 0 -0.096603001350661646 -0.1723740587701213 0 -0.1083657004421258 -0.1621804986664151 0 -0.096603001350661646 -0.1723740587701213 0 -0.10549397247251451 -0.17730942582301359 0 -0.096385007563948105 -0.1606955863980139 0 -0.1083657004421258 -0.1621804986664151 0 -0.102510131826328 -0.14792183382799209 0 -0.1034980259212674 -0.1979823884908376 0 -0.094815338805913085 -0.18620414048807599 0 -0.10549397247251451 -0.17730942582301359 0 -0.094815338805913085 -0.18620414048807599 0 -0.096603001350661646 -0.1723740587701213 0 -0.10549397247251451 -0.17730942582301359 0 -0.1034980259212674 -0.1979823884908376 0 -0.11978142181313819 -0.173703819674702 0 -0.1034980259212674 -0.1979823884908376 0 -0.10549397247251451 -0.17730942582301359 0 -0.11978142181313819 -0.173703819674702 0 -0.1083657004421258 -0.1621804986664151 0 -0.11978142181313819 -0.173703819674702 0 -0.124501648765083 -0.15616164089980961 0 -0.1083657004421258 -0.1621804986664151 0 -0.10549397247251451 -0.17730942582301359 0 -0.11978142181313819 -0.173703819674702 0 -0.1083657004421258 -0.1621804986664151 0 -0.124501648765083 -0.15616164089980961 0 -0.11457264091903829 -0.1453928852615845 0 -0.124501648765083 -0.15616164089980961 0 -0.11457264091903829 -0.1453928852615845 0 -0.13169852190742071 -0.13899936558737391 0 -0.1083657004421258 -0.1621804986664151 0 -0.11457264091903829 -0.1453928852615845 0 -0.102510131826328 -0.14792183382799209 0 -0.11457264091903829 -0.1453928852615845 0 -0.102510131826328 -0.14792183382799209 0 -0.1030592043919601 -0.13457575288912341 0 -0.092924950544242532 -0.15121701235498961 0 -0.102510131826328 -0.14792183382799209 0 -0.09408708008550383 -0.1403758168743984 0 -0.102510131826328 -0.14792183382799209 0 -0.09408708008550383 -0.1403758168743984 0 -0.1030592043919601 -0.13457575288912341 0 -0.092924950544242532 -0.15121701235498961 0 -0.096385007563948105 -0.1606955863980139 0 -0.102510131826328 -0.14792183382799209 0 -0.099294287012125532 -0.1222744307112564 0 -0.089907479312185012 -0.13100501245156679 0 -0.1030592043919601 -0.13457575288912341 0 -0.089907479312185012 -0.13100501245156679 0 -0.09408708008550383 -0.1403758168743984 0 -0.1030592043919601 -0.13457575288912341 0 -0.099294287012125532 -0.1222744307112564 0 -0.1124658744176253 -0.1214867477078152 0 -0.1030592043919601 -0.13457575288912341 0 -0.12315706631179529 -0.1232805541161409 0 -0.1173006381813122 -0.13251821969879291 0 -0.13169852190742071 -0.13899936558737391 0 -0.11457264091903829 -0.1453928852615845 0 -0.1173006381813122 -0.13251821969879291 0 -0.13169852190742071 -0.13899936558737391 0 -0.1124658744176253 -0.1214867477078152 0 -0.1030592043919601 -0.13457575288912341 0 -0.1173006381813122 -0.13251821969879291 0 -0.11457264091903829 -0.1453928852615845 0 -0.1030592043919601 -0.13457575288912341 0 -0.1173006381813122 -0.13251821969879291 0 -0.1124658744176253 -0.1214867477078152 0 -0.12315706631179529 -0.1232805541161409 0 -0.1173006381813122 -0.13251821969879291 0 -0.12315706631179529 -0.1232805541161409 0 -0.13169852190742071 -0.13899936558737391 0 -0.13474776377345921 -0.1211802731245019 0 -0.13169852190742071 -0.13899936558737391 0 -0.14643686513102341 -0.13285697984897121 0 -0.13474776377345921 -0.1211802731245019 0 -0.13169852190742071 -0.13899936558737391 0 -0.14643686513102341 -0.13285697984897121 0 -0.15355375656144379 -0.14762921716049801 0 -0.14643686513102341 -0.13285697984897121 0 -0.15355375656144379 -0.14762921716049801 0 -0.1589850409143394 -0.12762942571774269 0 -0.14643686513102341 -0.13285697984897121 0 -0.1589850409143394 -0.12762942571774269 0 -0.1485449420297634 -0.1182143251045515 0 -0.13169852190742071 -0.13899936558737391 0 -0.15355375656144379 -0.14762921716049801 0 -0.1385835045928763 -0.1556348853407776 0 -0.15355375656144379 -0.14762921716049801 0 -0.14812247220854841 -0.1676290086032535 0 -0.16545392084653779 -0.14965777719989651 0 -0.124501648765083 -0.15616164089980961 0 -0.13169852190742071 -0.13899936558737391 0 -0.1385835045928763 -0.1556348853407776 0 -0.124501648765083 -0.15616164089980961 0 -0.1385835045928763 -0.1556348853407776 0 -0.13242734562351241 -0.16767195430322379 0 -0.1385835045928763 -0.1556348853407776 0 -0.13242734562351241 -0.16767195430322379 0 -0.14812247220854841 -0.1676290086032535 0 -0.11978142181313819 -0.173703819674702 0 -0.124501648765083 -0.15616164089980961 0 -0.13242734562351241 -0.16767195430322379 0 -0.11978142181313819 -0.173703819674702 0 -0.13114768073791599 -0.18523041699757609 0 -0.12666986159946239 -0.19716924279271089 0 -0.13114768073791599 -0.18523041699757609 0 -0.14812247220854841 -0.1676290086032535 0 -0.13114768073791599 -0.18523041699757609 0 -0.14812247220854841 -0.1676290086032535 0 -0.1405244854128849 -0.19560731749386809 0 -0.13242734562351241 -0.16767195430322379 0 -0.13114768073791599 -0.18523041699757609 0 -0.14812247220854841 -0.1676290086032535 0 -0.11978142181313819 -0.173703819674702 0 -0.13242734562351241 -0.16767195430322379 0 -0.13114768073791599 -0.18523041699757609 0 -0.14812247220854841 -0.1676290086032535 0 -0.1405244854128849 -0.19560731749386809 0 -0.14812247220854841 -0.1676290086032535 0 -0.1405244854128849 -0.19560731749386809 0 -0.15793153227325199 -0.18867307288617849 0 -0.15355375656144379 -0.14762921716049801 0 -0.14812247220854841 -0.1676290086032535 0 -0.15355375656144379 -0.14762921716049801 0 -0.1385835045928763 -0.1556348853407776 0 -0.14812247220854841 -0.1676290086032535 0 -0.14812247220854841 -0.1676290086032535 0 -0.17019500049281899 -0.1718094159559328 0 -0.16545392084653779 -0.14965777719989651 0 -0.14812247220854841 -0.1676290086032535 0 -0.16545392084653779 -0.14965777719989651 0 -0.17019500049281899 -0.1718094159559328 0 -0.15793153227325199 -0.18867307288617849 0 -0.17337071759378869 -0.18899519817272659 0 -0.14812247220854841 -0.1676290086032535 0 -0.17019500049281899 -0.1718094159559328 0 -0.15793153227325199 -0.18867307288617849 0 -0.17019500049281899 -0.1718094159559328 0 -0.17337071759378869 -0.18899519817272659 0 -0.18997153783677351 -0.1777505034199362 0 -0.17019500049281899 -0.1718094159559328 0 -0.18631982219801371 -0.1581509354536057 0 -0.16545392084653779 -0.14965777719989651 0 -0.17019500049281899 -0.1718094159559328 0 -0.18631982219801371 -0.1581509354536057 0 -0.18997153783677351 -0.1777505034199362 0 -0.18278536948452689 -0.13168654579653929 0 -0.16545392084653779 -0.14965777719989651 0 -0.18631982219801371 -0.1581509354536057 0 -0.1834157104091807 -0.14507057740848001 0 -0.16545392084653779 -0.14965777719989651 0 -0.1834157104091807 -0.14507057740848001 0 -0.18278536948452689 -0.13168654579653929 0 -0.16545392084653779 -0.14965777719989651 0 -0.1834157104091807 -0.14507057740848001 0 -0.18278536948452689 -0.13168654579653929 0 -0.19412484344278549 -0.13701799387651489 0 -0.18278536948452689 -0.13168654579653929 0 -0.1589850409143394 -0.12762942571774269 0 -0.17163869894689959 -0.1195258001307285 0 -0.18278536948452689 -0.13168654579653929 0 -0.1589850409143394 -0.12762942571774269 0 -0.16545392084653779 -0.14965777719989651 0 -0.15355375656144379 -0.14762921716049801 0 -0.1589850409143394 -0.12762942571774269 0 -0.15355375656144379 -0.14762921716049801 0 -0.1589850409143394 -0.12762942571774269 0 -0.16545392084653779 -0.14965777719989651 0 -0.15258645839546101 -0.25406646760822232 0 -0.1559582220188673 -0.24317560120592499 0 -0.1450756494442754 -0.24175051143088799 0 -0.1559582220188673 -0.24317560120592499 0 -0.1450756494442754 -0.24175051143088799 0 -0.15188481438017229 -0.232619642121736 0 -0.1224122533180121 -0.23791303009503881 0 -0.1450756494442754 -0.24175051143088799 0 -0.1224122533180121 -0.23791303009503881 0 -0.15188481438017229 -0.232619642121736 0 -0.1224122533180121 -0.23791303009503881 0 -0.1450756494442754 -0.24175051143088799 0 -0.13468299930696129 -0.24652942527312899 0 -0.1416673347082745 -0.25431095401974591 0 -0.1450756494442754 -0.24175051143088799 0 -0.13468299930696129 -0.24652942527312899 0 -0.1224122533180121 -0.23791303009503881 0 -0.1450756494442754 -0.24175051143088799 0 -0.15188481438017229 -0.232619642121736 0 -0.1224122533180121 -0.23791303009503881 0 -0.13468299930696129 -0.24652942527312899 0 -0.1255943865027532 -0.24876207797521749 0 -0.1224122533180121 -0.23791303009503881 0 -0.13013070816915659 -0.23133360694115351 0 -0.15188481438017229 -0.232619642121736 0 -0.1211459494768316 -0.2194627000630649 0 -0.13013070816915659 -0.23133360694115351 0 -0.130633799602342 -0.22150960557298871 0 -0.130633799602342 -0.22150960557298871 0 -0.1415516107280127 -0.22245427125537279 0 -0.13166680090603619 -0.2124054342632524 0 -0.13013070816915659 -0.23133360694115351 0 -0.130633799602342 -0.22150960557298871 0 -0.1415516107280127 -0.22245427125537279 0 -0.13013070816915659 -0.23133360694115351 0 -0.1415516107280127 -0.22245427125537279 0 -0.15188481438017229 -0.232619642121736 0 -0.13013070816915659 -0.23133360694115351 0 -0.15188481438017229 -0.232619642121736 0 -0.1415516107280127 -0.22245427125537279 0 -0.15188481438017229 -0.232619642121736 0 -0.15486782527724319 -0.2212306037187188 0 -0.1415516107280127 -0.22245427125537279 0 -0.15486782527724319 -0.2212306037187188 0 -0.1506393175024166 -0.21340554178544399 0 -0.1415516107280127 -0.22245427125537279 0 -0.1506393175024166 -0.21340554178544399 0 -0.1412658291686163 -0.2067326265136486 0 -0.15486782527724319 -0.2212306037187188 0 -0.1506393175024166 -0.21340554178544399 0 -0.1611795952826896 -0.21210616088021711 0 -0.1506393175024166 -0.21340554178544399 0 -0.15268775419527489 -0.20256202516387681 0 -0.1611795952826896 -0.21210616088021711 0 -0.1506393175024166 -0.21340554178544399 0 -0.1412658291686163 -0.2067326265136486 0 -0.15268775419527489 -0.20256202516387681 0 -0.1415516107280127 -0.22245427125537279 0 -0.1412658291686163 -0.2067326265136486 0 -0.13166680090603619 -0.2124054342632524 0 -0.1211459494768316 -0.2194627000630649 0 -0.130633799602342 -0.22150960557298871 0 -0.13166680090603619 -0.2124054342632524 0 -0.118804787236378 -0.20852269611509139 0 -0.13166680090603619 -0.2124054342632524 0 -0.12666986159946239 -0.19716924279271089 0 -0.1412658291686163 -0.2067326265136486 0 -0.13166680090603619 -0.2124054342632524 0 -0.12666986159946239 -0.19716924279271089 0 -0.1412658291686163 -0.2067326265136486 0 -0.1405244854128849 -0.19560731749386809 0 -0.12666986159946239 -0.19716924279271089 0 -0.13114768073791599 -0.18523041699757609 0 -0.1405244854128849 -0.19560731749386809 0 -0.12666986159946239 -0.19716924279271089 0 -0.1405244854128849 -0.19560731749386809 0 -0.15268775419527489 -0.20256202516387681 0 -0.15793153227325199 -0.18867307288617849 0 -0.1412658291686163 -0.2067326265136486 0 -0.1405244854128849 -0.19560731749386809 0 -0.15268775419527489 -0.20256202516387681 0 -0.15268775419527489 -0.20256202516387681 0 -0.15793153227325199 -0.18867307288617849 0 -0.16785032492584981 -0.2017258168666394 0 -0.15793153227325199 -0.18867307288617849 0 -0.16785032492584981 -0.2017258168666394 0 -0.17337071759378869 -0.18899519817272659 0 -0.16785032492584981 -0.2017258168666394 0 -0.18509796303313361 -0.20040234586113451 0 -0.17337071759378869 -0.18899519817272659 0 -0.18509796303313361 -0.20040234586113451 0 -0.17337071759378869 -0.18899519817272659 0 -0.18997153783677351 -0.1777505034199362 0 -0.18509796303313361 -0.20040234586113451 0 -0.1747163365542643 -0.21183726037570899 0 -0.19077973623874689 -0.21957568244697331 0 -0.1747163365542643 -0.21183726037570899 0 -0.16767624632194689 -0.22307504463872049 0 -0.19077973623874689 -0.21957568244697331 0 -0.16785032492584981 -0.2017258168666394 0 -0.18509796303313361 -0.20040234586113451 0 -0.1747163365542643 -0.21183726037570899 0 -0.1747163365542643 -0.21183726037570899 0 -0.1611795952826896 -0.21210616088021711 0 -0.16767624632194689 -0.22307504463872049 0 -0.16785032492584981 -0.2017258168666394 0 -0.1747163365542643 -0.21183726037570899 0 -0.1611795952826896 -0.21210616088021711 0 -0.15268775419527489 -0.20256202516387681 0 -0.16785032492584981 -0.2017258168666394 0 -0.1611795952826896 -0.21210616088021711 0 -0.15188481438017229 -0.232619642121736 0 -0.16767624632194689 -0.22307504463872049 0 -0.17523552786996449 -0.22842576206855081 0 -0.15188481438017229 -0.232619642121736 0 -0.15486782527724319 -0.2212306037187188 0 -0.16767624632194689 -0.22307504463872049 0 -0.15188481438017229 -0.232619642121736 0 -0.17523552786996449 -0.22842576206855081 0 -0.1754990876158869 -0.234015644598253 0 -0.15188481438017229 -0.232619642121736 0 -0.17523552786996449 -0.22842576206855081 0 -0.15188481438017229 -0.232619642121736 0 -0.1754990876158869 -0.234015644598253 0 -0.15486782527724319 -0.2212306037187188 0 -0.1611795952826896 -0.21210616088021711 0 -0.16767624632194689 -0.22307504463872049 0 -0.16767624632194689 -0.22307504463872049 0 -0.19077973623874689 -0.21957568244697331 0 -0.16767624632194689 -0.22307504463872049 0 -0.17523552786996449 -0.22842576206855081 0 -0.19077973623874689 -0.21957568244697331 0 -0.17523552786996449 -0.22842576206855081 0 -0.1754990876158869 -0.234015644598253 0 -0.19077973623874689 -0.21957568244697331 0 -0.1754990876158869 -0.234015644598253 0 -0.184994727715631 -0.24189826558160121 0 -0.17651839600625319 -0.24692319827703549 0 -0.1754990876158869 -0.234015644598253 0 -0.17651839600625319 -0.24692319827703549 0 -0.16468103918751931 -0.24112812905045189 0 -0.1754990876158869 -0.234015644598253 0 -0.184994727715631 -0.24189826558160121 0 -0.1991133608516015 -0.23541164707477061 0 -0.1754990876158869 -0.234015644598253 0 -0.1991133608516015 -0.23541164707477061 0 -0.18884806638878221 -0.25124257237634551 0 -0.184994727715631 -0.24189826558160121 0 -0.17651839600625319 -0.24692319827703549 0 -0.17651839600625319 -0.24692319827703549 0 -0.16468103918751931 -0.24112812905045189 0 -0.16354467591641669 -0.24890655904931019 0 -0.15188481438017229 -0.232619642121736 0 -0.1754990876158869 -0.234015644598253 0 -0.16468103918751931 -0.24112812905045189 0 -0.1559582220188673 -0.24317560120592499 0 -0.15188481438017229 -0.232619642121736 0 -0.16468103918751931 -0.24112812905045189 0 -0.1559582220188673 -0.24317560120592499 0 -0.16468103918751931 -0.24112812905045189 0 -0.16354467591641669 -0.24890655904931019 0 -0.15258645839546101 -0.25406646760822232 0 -0.1559582220188673 -0.24317560120592499 0 -0.16354467591641669 -0.24890655904931019 0 -0.20274089788939509 -0.25206545839448852 0 -0.21478340671061399 -0.24419724834015319 0 -0.1991133608516015 -0.23541164707477061 0 -0.21478340671061399 -0.24419724834015319 0 -0.2124410186842518 -0.23037363388994381 0 -0.2287708141557323 -0.2392652512080061 0 -0.21478340671061399 -0.24419724834015319 0 -0.1991133608516015 -0.23541164707477061 0 -0.2124410186842518 -0.23037363388994381 0 -0.18884806638878221 -0.25124257237634551 0 -0.184994727715631 -0.24189826558160121 0 -0.1991133608516015 -0.23541164707477061 0 -0.18884806638878221 -0.25124257237634551 0 -0.20274089788939509 -0.25206545839448852 0 -0.1991133608516015 -0.23541164707477061 0 -0.1754990876158869 -0.234015644598253 0 -0.1991133608516015 -0.23541164707477061 0 -0.19077973623874689 -0.21957568244697331 0 -0.1991133608516015 -0.23541164707477061 0 -0.19077973623874689 -0.21957568244697331 0 -0.2124410186842518 -0.23037363388994381 0 -0.19077973623874689 -0.21957568244697331 0 -0.2124410186842518 -0.23037363388994381 0 -0.21388322615554689 -0.21607632025522611 0 -0.2124410186842518 -0.23037363388994381 0 -0.21388322615554689 -0.21607632025522611 0 -0.22731556799326941 -0.2277156540145337 0 -0.21388322615554689 -0.21607632025522611 0 -0.20109790948912629 -0.20968171391920221 0 -0.22374665551445391 -0.20325063208571489 0 -0.18509796303313361 -0.20040234586113451 0 -0.19077973623874689 -0.21957568244697331 0 -0.20109790948912629 -0.20968171391920221 0 -0.19077973623874689 -0.21957568244697331 0 -0.21388322615554689 -0.21607632025522611 0 -0.19077973623874689 -0.21957568244697331 0 -0.21388322615554689 -0.21607632025522611 0 -0.20109790948912629 -0.20968171391920221 0 -0.18509796303313361 -0.20040234586113451 0 -0.20109790948912629 -0.20968171391920221 0 -0.2029011038596783 -0.19558327675293499 0 -0.18509796303313361 -0.20040234586113451 0 -0.2029011038596783 -0.19558327675293499 0 -0.18997153783677351 -0.1777505034199362 0 -0.2029011038596783 -0.19558327675293499 0 -0.22374665551445391 -0.20325063208571489 0 -0.2228891946736643 -0.1870935817161023 0 -0.20109790948912629 -0.20968171391920221 0 -0.2029011038596783 -0.19558327675293499 0 -0.22374665551445391 -0.20325063208571489 0 -0.23698671607234731 -0.2125769580634814 0 -0.22374665551445391 -0.20325063208571489 0 -0.2228891946736643 -0.1870935817161023 0 -0.23698671607234731 -0.2125769580634814 0 -0.2228891946736643 -0.1870935817161023 0 -0.24913551496918129 -0.19355988054944159 0 -0.23698671607234731 -0.2125769580634814 0 -0.24913551496918129 -0.19355988054944159 0 -0.23698671607234731 -0.2125769580634814 0 -0.2228891946736643 -0.1870935817161023 0 -0.24913551496918129 -0.19355988054944159 0 -0.24932943439623009 -0.21070747245755861 0 -0.23698671607234731 -0.2125769580634814 0 -0.24932943439623009 -0.21070747245755861 0 -0.23698671607234731 -0.2125769580634814 0 -0.24932943439623009 -0.21070747245755861 0 -0.24037207126483551 -0.21752935672812609 0 -0.24503774619470359 -0.22190663866710481 0 -0.24932943439623009 -0.21070747245755861 0 -0.24037207126483551 -0.21752935672812609 0 -0.23698671607234731 -0.2125769580634814 0 -0.24037207126483551 -0.21752935672812609 0 -0.23698671607234731 -0.2125769580634814 0 -0.21388322615554689 -0.21607632025522611 0 -0.23698671607234731 -0.2125769580634814 0 -0.21388322615554689 -0.21607632025522611 0 -0.23698671607234731 -0.2125769580634814 0 -0.22374665551445391 -0.20325063208571489 0 -0.2124410186842518 -0.23037363388994381 0 -0.22731556799326941 -0.2277156540145337 0 -0.2287708141557323 -0.2392652512080061 0 -0.21388322615554689 -0.21607632025522611 0 -0.23698671607234731 -0.2125769580634814 0 -0.22731556799326941 -0.2277156540145337 0 -0.22731556799326941 -0.2277156540145337 0 -0.2366223136877609 -0.22619106545651271 0 -0.2287708141557323 -0.2392652512080061 0 -0.23698671607234731 -0.2125769580634814 0 -0.22731556799326941 -0.2277156540145337 0 -0.2366223136877609 -0.22619106545651271 0 -0.23698671607234731 -0.2125769580634814 0 -0.22731556799326941 -0.2277156540145337 0 -0.24037207126483551 -0.21752935672812609 0 -0.23698671607234731 -0.2125769580634814 0 -0.2366223136877609 -0.22619106545651271 0 -0.2366223136877609 -0.22619106545651271 0 -0.24503774619470359 -0.22190663866710481 0 -0.24125096644567559 -0.23815253405782361 0 -0.24037207126483551 -0.21752935672812609 0 -0.2366223136877609 -0.22619106545651271 0 -0.24503774619470359 -0.22190663866710481 0 -0.2366223136877609 -0.22619106545651271 0 -0.24125096644567559 -0.23815253405782361 0 -0.2287708141557323 -0.2392652512080061 0 -0.25228184908365758 -0.25819388120617048 0 -0.23114956755196009 -0.25204157717235842 0 -0.24125096644567559 -0.23815253405782361 0 -0.23114956755196009 -0.25204157717235842 0 -0.24125096644567559 -0.23815253405782361 0 -0.2287708141557323 -0.2392652512080061 0 -0.23114956755196009 -0.25204157717235842 0 -0.21478340671061399 -0.24419724834015319 0 -0.2287708141557323 -0.2392652512080061 0 -0.21012810106847571 -0.1434804534759927 0 -0.21695523646548681 -0.1367544944194535 0 -0.22642476205007259 -0.14823940757001181 0 -0.21012810106847571 -0.1434804534759927 0 -0.20850701905822491 -0.16205578779630869 0 -0.22642476205007259 -0.14823940757001181 0 -0.21012810106847571 -0.1434804534759927 0 -0.19412484344278549 -0.13701799387651489 0 -0.20850701905822491 -0.16205578779630869 0 -0.21012810106847571 -0.1434804534759927 0 -0.21695523646548681 -0.1367544944194535 0 -0.20684649757806259 -0.130680790269323 0 -0.21012810106847571 -0.1434804534759927 0 -0.20684649757806259 -0.130680790269323 0 -0.19412484344278549 -0.13701799387651489 0 -0.21695523646548681 -0.1367544944194535 0 -0.20684649757806259 -0.130680790269323 0 -0.224497290589172 -0.12691358349497281 0 -0.20684649757806259 -0.130680790269323 0 -0.19596838215697279 -0.12827516108388981 0 -0.19412484344278549 -0.13701799387651489 0 -0.18278536948452689 -0.13168654579653929 0 -0.19596838215697279 -0.12827516108388981 0 -0.19412484344278549 -0.13701799387651489 0 -0.18631982219801371 -0.1581509354536057 0 -0.19412484344278549 -0.13701799387651489 0 -0.20850701905822491 -0.16205578779630869 0 -0.19412484344278549 -0.13701799387651489 0 -0.20850701905822491 -0.16205578779630869 0 -0.18631982219801371 -0.1581509354536057 0 -0.1834157104091807 -0.14507057740848001 0 -0.19412484344278549 -0.13701799387651489 0 -0.18631982219801371 -0.1581509354536057 0 -0.18997153783677351 -0.1777505034199362 0 -0.20850701905822491 -0.16205578779630869 0 -0.18997153783677351 -0.1777505034199362 0 -0.20850701905822491 -0.16205578779630869 0 -0.2228891946736643 -0.1870935817161023 0 -0.2029011038596783 -0.19558327675293499 0 -0.18997153783677351 -0.1777505034199362 0 -0.2228891946736643 -0.1870935817161023 0 -0.20850701905822491 -0.16205578779630869 0 -0.2228891946736643 -0.1870935817161023 0 -0.20850701905822491 -0.16205578779630869 0 -0.22898128303197621 -0.16697999091657079 0 -0.22642476205007259 -0.14823940757001181 0 -0.20850701905822491 -0.16205578779630869 0 -0.22898128303197621 -0.16697999091657079 0 -0.2228891946736643 -0.1870935817161023 0 -0.22898128303197621 -0.16697999091657079 0 -0.2228891946736643 -0.1870935817161023 0 -0.24208892123008149 -0.17631418515128849 0 -0.24913551496918129 -0.19355988054944159 0 -0.2228891946736643 -0.1870935817161023 0 -0.24208892123008149 -0.17631418515128849 0 -0.22898128303197621 -0.16697999091657079 0 -0.22642476205007259 -0.14823940757001181 0 -0.25129433222123271 -0.1595065784107898 0 -0.22898128303197621 -0.16697999091657079 0 -0.24208892123008149 -0.17631418515128849 0 -0.25129433222123271 -0.1595065784107898 0 -0.22642476205007259 -0.14823940757001181 0 -0.24887776305582679 -0.14011185259676801 0 -0.25129433222123271 -0.1595065784107898 0 -0.21695523646548681 -0.1367544944194535 0 -0.22642476205007259 -0.14823940757001181 0 -0.224497290589172 -0.12691358349497281 0 -0.22642476205007259 -0.14823940757001181 0 -0.224497290589172 -0.12691358349497281 0 -0.24887776305582679 -0.14011185259676801 0 -0.224497290589172 -0.12691358349497281 0 -0.24887776305582679 -0.14011185259676801 0 -0.2439234713787154 -0.12666903876454519 0 -0.224497290589172 -0.12691358349497281 0 -0.24887776305582679 -0.14011185259676801 0 -0.24887776305582679 -0.14011185259676801 0 -0.2439234713787154 -0.12666903876454519 0 -0.25578152406604232 -0.12547676444278261 0 -0.224497290589172 -0.12691358349497281 0 -0.2439234713787154 -0.12666903876454519 0 -0.23811405037892111 -0.1184628114456613 0 -0.2439234713787154 -0.12666903876454519 0 -0.23811405037892111 -0.1184628114456613 0 -0.25112875555037739 -0.1114383304408563 0 -0.23811405037892111 -0.1184628114456613 0 -0.23999464898767831 -0.1035954360414517 0 -0.22840574311810841 -0.1063446780796609 0 -0.23811405037892111 -0.1184628114456613 0 -0.23999464898767831 -0.1035954360414517 0 -0.25112875555037739 -0.1114383304408563 0 -0.23999464898767831 -0.1035954360414517 0 -0.24845281260166691 -0.090622806346035145 0 -0.25112875555037739 -0.1114383304408563 0 -0.23999464898767831 -0.1035954360414517 0 -0.24845281260166691 -0.090622806346035145 0 -0.2338718832893176 -0.091108553895044631 0 -0.22840574311810841 -0.1063446780796609 0 -0.22204778595363669 -0.097886112587155169 0 -0.2338718832893176 -0.091108553895044631 0 -0.23999464898767831 -0.1035954360414517 0 -0.22840574311810841 -0.1063446780796609 0 -0.2338718832893176 -0.091108553895044631 0 -0.22840574311810841 -0.1063446780796609 0 -0.22204778595363669 -0.097886112587155169 0 -0.2176351488138239 -0.1050983334930902 0 -0.22840574311810841 -0.1063446780796609 0 -0.219469302505341 -0.1157221317746 0 -0.2176351488138239 -0.1050983334930902 0 -0.23811405037892111 -0.1184628114456613 0 -0.22840574311810841 -0.1063446780796609 0 -0.219469302505341 -0.1157221317746 0 -0.224497290589172 -0.12691358349497281 0 -0.23811405037892111 -0.1184628114456613 0 -0.219469302505341 -0.1157221317746 0 -0.23811405037892111 -0.1184628114456613 0 -0.219469302505341 -0.1157221317746 0 -0.2401866340759411 -0.073797750810977877 0 -0.2242065632872248 -0.075288435823204963 0 -0.24244622974333679 -0.057742499675828007 0 -0.24244622974333679 -0.057742499675828007 0 -0.25447795435451143 -0.052160477800301641 0 -0.25292716567871759 -0.080825698068849511 0 -0.2401866340759411 -0.073797750810977877 0 -0.24244622974333679 -0.057742499675828007 0 -0.25292716567871759 -0.080825698068849511 0 -0.2401866340759411 -0.073797750810977877 0 -0.24845281260166691 -0.090622806346035145 0 -0.2242065632872248 -0.075288435823204963 0 -0.2401866340759411 -0.073797750810977877 0 -0.24845281260166691 -0.090622806346035145 0 -0.25292716567871759 -0.080825698068849511 0 -0.24845281260166691 -0.090622806346035145 0 -0.2242065632872248 -0.075288435823204963 0 -0.24845281260166691 -0.090622806346035145 0 -0.2338718832893176 -0.091108553895044631 0 -0.2242065632872248 -0.075288435823204963 0 -0.2338718832893176 -0.091108553895044631 0 -0.222577376244075 -0.081874185432715629 0 -0.2242065632872248 -0.075288435823204963 0 -0.2338718832893176 -0.091108553895044631 0 -0.2237643396670238 -0.090194389654007487 0 -0.222577376244075 -0.081874185432715629 0 -0.22204778595363669 -0.097886112587155169 0 -0.2237643396670238 -0.090194389654007487 0 -0.216560313181066 -0.089908706701114546 0 -0.22204778595363669 -0.097886112587155169 0 -0.2338718832893176 -0.091108553895044631 0 -0.2237643396670238 -0.090194389654007487 0 -0.2237643396670238 -0.090194389654007487 0 -0.222577376244075 -0.081874185432715629 0 -0.216560313181066 -0.089908706701114546 0 -0.222577376244075 -0.081874185432715629 0 -0.2242065632872248 -0.075288435823204963 0 -0.21134732344548471 -0.079506733564699936 0 -0.222577376244075 -0.081874185432715629 0 -0.2242065632872248 -0.075288435823204963 0 -0.2242065632872248 -0.075288435823204963 0 -0.21134732344548471 -0.079506733564699936 0 -0.20140557354879859 -0.060868109594574872 0 -0.2242065632872248 -0.075288435823204963 0 -0.20140557354879859 -0.060868109594574872 0 -0.21134732344548471 -0.079506733564699936 0 -0.1986713575223617 -0.078005621057578065 0 -0.20140557354879859 -0.060868109594574872 0 -0.21134732344548471 -0.079506733564699936 0 -0.20493909068357399 -0.08990572927642311 0 -0.1986713575223617 -0.078005621057578065 0 -0.222577376244075 -0.081874185432715629 0 -0.21134732344548471 -0.079506733564699936 0 -0.216560313181066 -0.089908706701114546 0 -0.21134732344548471 -0.079506733564699936 0 -0.216560313181066 -0.089908706701114546 0 -0.20493909068357399 -0.08990572927642311 0 -0.216560313181066 -0.089908706701114546 0 -0.20493909068357399 -0.08990572927642311 0 -0.2116654098632815 -0.098532977595368568 0 -0.20493909068357399 -0.08990572927642311 0 -0.19326487095492251 -0.086359672374957036 0 -0.19274283972018261 -0.099001463254937611 0 -0.19326487095492251 -0.086359672374957036 0 -0.19274283972018261 -0.099001463254937611 0 -0.18162553592579861 -0.087761497945214345 0 -0.19326487095492251 -0.086359672374957036 0 -0.1986713575223617 -0.078005621057578065 0 -0.1860248277352039 -0.075217836917731512 0 -0.20493909068357399 -0.08990572927642311 0 -0.19326487095492251 -0.086359672374957036 0 -0.1986713575223617 -0.078005621057578065 0 -0.1986713575223617 -0.078005621057578065 0 -0.1860248277352039 -0.075217836917731512 0 -0.20140557354879859 -0.060868109594574872 0 -0.1860248277352039 -0.075217836917731512 0 -0.18006889251107661 -0.061992372943561018 0 -0.20140557354879859 -0.060868109594574872 0 -0.20684649757806259 -0.130680790269323 0 -0.224497290589172 -0.12691358349497281 0 -0.20082455463176069 -0.11298145210353989 0 -0.219469302505341 -0.1157221317746 0 -0.20658750262875189 -0.1070057674286663 0 -0.20082455463176069 -0.11298145210353989 0 -0.224497290589172 -0.12691358349497281 0 -0.219469302505341 -0.1157221317746 0 -0.20082455463176069 -0.11298145210353989 0 -0.219469302505341 -0.1157221317746 0 -0.20082455463176069 -0.11298145210353989 0 -0.224497290589172 -0.12691358349497281 0 -0.20082455463176069 -0.11298145210353989 0 -0.20658750262875189 -0.1070057674286663 0 -0.20082455463176069 -0.11298145210353989 0 -0.2176351488138239 -0.1050983334930902 0 -0.2116654098632815 -0.098532977595368568 0 -0.20658750262875189 -0.1070057674286663 0 -0.219469302505341 -0.1157221317746 0 -0.2176351488138239 -0.1050983334930902 0 -0.20658750262875189 -0.1070057674286663 0 -0.22204778595363669 -0.097886112587155169 0 -0.2176351488138239 -0.1050983334930902 0 -0.2116654098632815 -0.098532977595368568 0 -0.22204778595363669 -0.097886112587155169 0 -0.216560313181066 -0.089908706701114546 0 -0.2116654098632815 -0.098532977595368568 0 -0.20493909068357399 -0.08990572927642311 0 -0.2116654098632815 -0.098532977595368568 0 -0.20365744266414321 -0.099751326232602244 0 -0.2116654098632815 -0.098532977595368568 0 -0.20365744266414321 -0.099751326232602244 0 -0.20658750262875189 -0.1070057674286663 0 -0.20365744266414321 -0.099751326232602244 0 -0.20658750262875189 -0.1070057674286663 0 -0.20034969373883149 -0.10636090240021601 0 -0.20365744266414321 -0.099751326232602244 0 -0.20034969373883149 -0.10636090240021601 0 -0.19274283972018261 -0.099001463254937611 0 -0.20034969373883149 -0.10636090240021601 0 -0.19274283972018261 -0.099001463254937611 0 -0.1979435884686653 -0.1125388454042862 0 -0.19274283972018261 -0.099001463254937611 0 -0.1979435884686653 -0.1125388454042862 0 -0.18117858133067599 -0.11009359757155041 0 -0.20658750262875189 -0.1070057674286663 0 -0.20034969373883149 -0.10636090240021601 0 -0.20082455463176069 -0.11298145210353989 0 -0.20493909068357399 -0.08990572927642311 0 -0.20365744266414321 -0.099751326232602244 0 -0.19274283972018261 -0.099001463254937611 0 -0.1979435884686653 -0.1125388454042862 0 -0.18117858133067599 -0.11009359757155041 0 -0.18278536948452689 -0.13168654579653929 0 -0.19596838215697279 -0.12827516108388981 0 -0.20082455463176069 -0.11298145210353989 0 -0.18278536948452689 -0.13168654579653929 0 -0.20082455463176069 -0.11298145210353989 0 -0.18278536948452689 -0.13168654579653929 0 -0.1979435884686653 -0.1125388454042862 0 -0.20082455463176069 -0.11298145210353989 0 -0.20684649757806259 -0.130680790269323 0 -0.19596838215697279 -0.12827516108388981 0 -0.20082455463176069 -0.11298145210353989 0 -0.20034969373883149 -0.10636090240021601 0 -0.1979435884686653 -0.1125388454042862 0 -0.20082455463176069 -0.11298145210353989 0 -0.1979435884686653 -0.1125388454042862 0 -0.20082455463176069 -0.11298145210353989 0 -0.18278536948452689 -0.13168654579653929 0 -0.1979435884686653 -0.1125388454042862 0 -0.18117858133067599 -0.11009359757155041 0 -0.18278536948452689 -0.13168654579653929 0 -0.18117858133067599 -0.11009359757155041 0 -0.17163869894689959 -0.1195258001307285 0 -0.18117858133067599 -0.11009359757155041 0 -0.17163869894689959 -0.1195258001307285 0 -0.16441632526723041 -0.10762963427498599 0 -0.1589850409143394 -0.12762942571774269 0 -0.17163869894689959 -0.1195258001307285 0 -0.16441632526723041 -0.10762963427498599 0 -0.1589850409143394 -0.12762942571774269 0 -0.16441632526723041 -0.10762963427498599 0 -0.1589850409143394 -0.12762942571774269 0 -0.16441632526723041 -0.10762963427498599 0 -0.1485449420297634 -0.1182143251045515 0 -0.18117858133067599 -0.11009359757155041 0 -0.165926216923481 -0.1020697121158803 0 -0.16441632526723041 -0.10762963427498599 0 -0.165926216923481 -0.1020697121158803 0 -0.16950179341953561 -0.093712037820981212 0 -0.1556448864446302 -0.097540242595405377 0 -0.165926216923481 -0.1020697121158803 0 -0.16441632526723041 -0.10762963427498599 0 -0.1556448864446302 -0.097540242595405377 0 -0.165926216923481 -0.1020697121158803 0 -0.16441632526723041 -0.10762963427498599 0 -0.165926216923481 -0.1020697121158803 0 -0.17825504758932309 -0.098588744167935644 0 -0.16950179341953561 -0.093712037820981212 0 -0.18117858133067599 -0.11009359757155041 0 -0.16441632526723041 -0.10762963427498599 0 -0.18117858133067599 -0.11009359757155041 0 -0.165926216923481 -0.1020697121158803 0 -0.17825504758932309 -0.098588744167935644 0 -0.19274283972018261 -0.099001463254937611 0 -0.18117858133067599 -0.11009359757155041 0 -0.17825504758932309 -0.098588744167935644 0 -0.19274283972018261 -0.099001463254937611 0 -0.17825504758932309 -0.098588744167935644 0 -0.18162553592579861 -0.087761497945214345 0 -0.19326487095492251 -0.086359672374957036 0 -0.18162553592579861 -0.087761497945214345 0 -0.1860248277352039 -0.075217836917731512 0 -0.18162553592579861 -0.087761497945214345 0 -0.1860248277352039 -0.075217836917731512 0 -0.17657057159092959 -0.075414173928005132 0 -0.18162553592579861 -0.087761497945214345 0 -0.17657057159092959 -0.075414173928005132 0 -0.16605728021444541 -0.082599992280470394 0 -0.17825504758932309 -0.098588744167935644 0 -0.18162553592579861 -0.087761497945214345 0 -0.16950179341953561 -0.093712037820981212 0 -0.18162553592579861 -0.087761497945214345 0 -0.16950179341953561 -0.093712037820981212 0 -0.16605728021444541 -0.082599992280470394 0 -0.1860248277352039 -0.075217836917731512 0 -0.17657057159092959 -0.075414173928005132 0 -0.18006889251107661 -0.061992372943561018 0 -0.17657057159092959 -0.075414173928005132 0 -0.17069009588865089 -0.068047243662715459 0 -0.18006889251107661 -0.061992372943561018 0 -0.1596061953904965 -0.063827936638649774 0 -0.16605728021444541 -0.082599992280470394 0 -0.15057728443745469 -0.087513216094536397 0 -0.17069009588865089 -0.068047243662715459 0 -0.1596061953904965 -0.063827936638649774 0 -0.16605728021444541 -0.082599992280470394 0 -0.17069009588865089 -0.068047243662715459 0 -0.1596061953904965 -0.063827936638649774 0 -0.17114753973630639 -0.056401742522890999 0 -0.17657057159092959 -0.075414173928005132 0 -0.17069009588865089 -0.068047243662715459 0 -0.16605728021444541 -0.082599992280470394 0 -0.16605728021444541 -0.082599992280470394 0 -0.15057728443745469 -0.087513216094536397 0 -0.1556448864446302 -0.097540242595405377 0 -0.16950179341953561 -0.093712037820981212 0 -0.16605728021444541 -0.082599992280470394 0 -0.1556448864446302 -0.097540242595405377 0 -0.15057728443745469 -0.087513216094536397 0 -0.13431184989656961 -0.070476281986945055 0 -0.1401479304141805 -0.094848140178473914 0 -0.15057728443745469 -0.087513216094536397 0 -0.1401479304141805 -0.094848140178473914 0 -0.1556448864446302 -0.097540242595405377 0 -0.1596061953904965 -0.063827936638649774 0 -0.15057728443745469 -0.087513216094536397 0 -0.13431184989656961 -0.070476281986945055 0 -0.1596061953904965 -0.063827936638649774 0 -0.15057728443745469 -0.087513216094536397 0 -0.1219171054958436 -0.067730641854529094 0 -0.13431184989656961 -0.070476281986945055 0 -0.1278399105784194 -0.092403713251026878 0 -0.1219171054958436 -0.067730641854529094 0 -0.13431184989656961 -0.070476281986945055 0 -0.12724664040926911 -0.056473905996416267 0 -0.13431184989656961 -0.070476281986945055 0 -0.1278399105784194 -0.092403713251026878 0 -0.13431184989656961 -0.070476281986945055 0 -0.1278399105784194 -0.092403713251026878 0 -0.1401479304141805 -0.094848140178473914 0 -0.1278399105784194 -0.092403713251026878 0 -0.12505372107222359 -0.1018435389172599 0 -0.1278399105784194 -0.092403713251026878 0 -0.1401479304141805 -0.094848140178473914 0 -0.1302907491368189 -0.1026133544412216 0 -0.1302907491368189 -0.1026133544412216 0 -0.14735353720202479 -0.1051214943581029 0 -0.1278399105784194 -0.092403713251026878 0 -0.1302907491368189 -0.1026133544412216 0 -0.1278399105784194 -0.092403713251026878 0 -0.1302907491368189 -0.1026133544412216 0 -0.12505372107222359 -0.1018435389172599 0 -0.1302907491368189 -0.1026133544412216 0 -0.14014895292749649 -0.1120734732236895 0 -0.14735353720202479 -0.1051214943581029 0 -0.1401479304141805 -0.094848140178473914 0 -0.1302907491368189 -0.1026133544412216 0 -0.14735353720202479 -0.1051214943581029 0 -0.1302907491368189 -0.1026133544412216 0 -0.12505372107222359 -0.1018435389172599 0 -0.1302907491368189 -0.1026133544412216 0 -0.12505372107222359 -0.1018435389172599 0 -0.12680063918169129 -0.10815788323485021 0 -0.1302907491368189 -0.1026133544412216 0 -0.12680063918169129 -0.10815788323485021 0 -0.13474776377345921 -0.1211802731245019 0 -0.1302907491368189 -0.1026133544412216 0 -0.13474776377345921 -0.1211802731245019 0 -0.14014895292749649 -0.1120734732236895 0 -0.1302907491368189 -0.1026133544412216 0 -0.13474776377345921 -0.1211802731245019 0 -0.121904997388519 -0.11251165843290729 0 -0.12680063918169129 -0.10815788323485021 0 -0.13474776377345921 -0.1211802731245019 0 -0.121904997388519 -0.11251165843290729 0 -0.12315706631179529 -0.1232805541161409 0 -0.13474776377345921 -0.1211802731245019 0 -0.14014895292749649 -0.1120734732236895 0 -0.1485449420297634 -0.1182143251045515 0 -0.14735353720202479 -0.1051214943581029 0 -0.16441632526723041 -0.10762963427498599 0 -0.1485449420297634 -0.1182143251045515 0 -0.14735353720202479 -0.1051214943581029 0 -0.13474776377345921 -0.1211802731245019 0 -0.14014895292749649 -0.1120734732236895 0 -0.1485449420297634 -0.1182143251045515 0 -0.14643686513102341 -0.13285697984897121 0 -0.13474776377345921 -0.1211802731245019 0 -0.1485449420297634 -0.1182143251045515 0 -0.16441632526723041 -0.10762963427498599 0 -0.1556448864446302 -0.097540242595405377 0 -0.14735353720202479 -0.1051214943581029 0 -0.16441632526723041 -0.10762963427498599 0 -0.14735353720202479 -0.1051214943581029 0 -0.1401479304141805 -0.094848140178473914 0 -0.1556448864446302 -0.097540242595405377 0 -0.14735353720202479 -0.1051214943581029 0 -0.14725572853284949 -0.02662141945877524 0 -0.15353313091227541 -0.0053530943981074464 0 -0.14725572853284949 -0.02662141945877524 0 -0.15353313091227541 -0.0053530943981074464 0 -0.1621981082581625 -0.0210258287002669 0 -0.14725572853284949 -0.02662141945877524 0 -0.15353313091227541 -0.0053530943981074464 0 -0.1378900389593497 -0.01154812022984094 0 -0.15353313091227541 -0.0053530943981074464 0 -0.14371312455597091 -0.0034042846132674451 0 -0.1378900389593497 -0.01154812022984094 0 -0.15353313091227541 -0.0053530943981074464 0 -0.14371312455597091 -0.0034042846132674451 0 -0.143125388196845 0.0065899612506038329 0 -0.14371312455597091 -0.0034042846132674451 0 -0.1378900389593497 -0.01154812022984094 0 -0.1264402431020083 -0.0027353081613576201 0 -0.1378900389593497 -0.01154812022984094 0 -0.1264402431020083 -0.0027353081613576201 0 -0.11744070662131 -0.0077651177187700827 0 -0.1264402431020083 -0.0027353081613576201 0 -0.13234821757708121 -0.017193268588770429 0 -0.1378900389593497 -0.01154812022984094 0 -0.1264402431020083 -0.0027353081613576201 0 -0.13234821757708121 -0.017193268588770429 0 -0.14725572853284949 -0.02662141945877524 0 -0.13234821757708121 -0.017193268588770429 0 -0.12733855241798911 -0.030034451320622591 0 -0.14725572853284949 -0.02662141945877524 0 -0.13234821757708121 -0.017193268588770429 0 -0.14725572853284949 -0.02662141945877524 0 -0.1378900389593497 -0.01154812022984094 0 -0.13234821757708121 -0.017193268588770429 0 -0.14725572853284949 -0.02662141945877524 0 -0.12733855241798911 -0.030034451320622591 0 -0.1315862105093204 -0.040374063621242212 0 -0.14725572853284949 -0.02662141945877524 0 -0.1315862105093204 -0.040374063621242212 0 -0.1407837892147201 -0.048548850722863232 0 -0.13431184989656961 -0.070476281986945055 0 -0.12724664040926911 -0.056473905996416267 0 -0.1407837892147201 -0.048548850722863232 0 -0.1315862105093204 -0.040374063621242212 0 -0.12724664040926911 -0.056473905996416267 0 -0.1407837892147201 -0.048548850722863232 0 -0.13431184989656961 -0.070476281986945055 0 -0.1407837892147201 -0.048548850722863232 0 -0.1596061953904965 -0.063827936638649774 0 -0.1407837892147201 -0.048548850722863232 0 -0.1537981637971832 -0.042631290424644357 0 -0.1596061953904965 -0.063827936638649774 0 -0.13431184989656961 -0.070476281986945055 0 -0.1407837892147201 -0.048548850722863232 0 -0.14725572853284949 -0.02662141945877524 0 -0.1407837892147201 -0.048548850722863232 0 -0.14725572853284949 -0.02662141945877524 0 -0.1407837892147201 -0.048548850722863232 0 -0.1537981637971832 -0.042631290424644357 0 -0.14725572853284949 -0.02662141945877524 0 -0.16863510634348949 -0.04014265718274463 0 -0.14725572853284949 -0.02662141945877524 0 -0.1537981637971832 -0.042631290424644357 0 -0.16863510634348949 -0.04014265718274463 0 -0.1596061953904965 -0.063827936638649774 0 -0.16863510634348949 -0.04014265718274463 0 -0.17114753973630639 -0.056401742522890999 0 -0.1596061953904965 -0.063827936638649774 0 -0.16863510634348949 -0.04014265718274463 0 -0.1596061953904965 -0.063827936638649774 0 -0.1537981637971832 -0.042631290424644357 0 -0.16863510634348949 -0.04014265718274463 0 -0.18006889251107661 -0.061992372943561018 0 -0.17860458381039979 -0.046447783365900969 0 -0.20140557354879859 -0.060868109594574872 0 -0.16863510634348949 -0.04014265718274463 0 -0.17114753973630639 -0.056401742522890999 0 -0.17860458381039979 -0.046447783365900969 0 -0.17069009588865089 -0.068047243662715459 0 -0.17114753973630639 -0.056401742522890999 0 -0.18006889251107661 -0.061992372943561018 0 -0.17114753973630639 -0.056401742522890999 0 -0.18006889251107661 -0.061992372943561018 0 -0.17860458381039979 -0.046447783365900969 0 -0.16863510634348949 -0.04014265718274463 0 -0.17860458381039979 -0.046447783365900969 0 -0.184582844368123 -0.029954678515818879 0 -0.17860458381039979 -0.046447783365900969 0 -0.184582844368123 -0.029954678515818879 0 -0.19805982684353221 -0.038862805744689588 0 -0.16863510634348949 -0.04014265718274463 0 -0.17860458381039979 -0.046447783365900969 0 -0.16863510634348949 -0.04014265718274463 0 -0.184582844368123 -0.029954678515818879 0 -0.1793684672440444 -0.011986143761426531 0 -0.16863510634348949 -0.04014265718274463 0 -0.1793684672440444 -0.011986143761426531 0 -0.16863510634348949 -0.04014265718274463 0 -0.1621981082581625 -0.0210258287002669 0 -0.1793684672440444 -0.011986143761426531 0 -0.14725572853284949 -0.02662141945877524 0 -0.16863510634348949 -0.04014265718274463 0 -0.1621981082581625 -0.0210258287002669 0 -0.15353313091227541 -0.0053530943981074464 0 -0.1793684672440444 -0.011986143761426531 0 -0.16668608277808011 0.008053470361192255 0 -0.15353313091227541 -0.0053530943981074464 0 -0.1621981082581625 -0.0210258287002669 0 -0.1793684672440444 -0.011986143761426531 0 -0.1793684672440444 -0.011986143761426531 0 -0.2024626452739689 -0.01365479595182866 0 -0.19010182814455051 0.016170369659910071 0 -0.184582844368123 -0.029954678515818879 0 -0.2024626452739689 -0.01365479595182866 0 -0.19805982684353221 -0.038862805744689588 0 -0.184582844368123 -0.029954678515818879 0 -0.1793684672440444 -0.011986143761426531 0 -0.2024626452739689 -0.01365479595182866 0 -0.2024626452739689 -0.01365479595182866 0 -0.21751506987668159 -0.031277828123521999 0 -0.22582286214317579 -0.011401113898220719 0 -0.2024626452739689 -0.01365479595182866 0 -0.19805982684353221 -0.038862805744689588 0 -0.21751506987668159 -0.031277828123521999 0 -0.2024626452739689 -0.01365479595182866 0 -0.22582286214317579 -0.011401113898220719 0 -0.21236153232170429 0.008199248724380246 0 -0.17860458381039979 -0.046447783365900969 0 -0.20140557354879859 -0.060868109594574872 0 -0.17860458381039979 -0.046447783365900969 0 -0.20140557354879859 -0.060868109594574872 0 -0.19805982684353221 -0.038862805744689588 0 -0.17860458381039979 -0.046447783365900969 0 -0.19805982684353221 -0.038862805744689588 0 -0.19805982684353221 -0.038862805744689588 0 -0.21751506987668159 -0.031277828123521999 0 -0.19805982684353221 -0.038862805744689588 0 -0.21751506987668159 -0.031277828123521999 0 -0.21435509433095751 -0.051157564489759867 0 -0.2242065632872248 -0.075288435823204963 0 -0.20140557354879859 -0.060868109594574872 0 -0.21435509433095751 -0.051157564489759867 0 -0.20140557354879859 -0.060868109594574872 0 -0.19805982684353221 -0.038862805744689588 0 -0.21435509433095751 -0.051157564489759867 0 -0.2242065632872248 -0.075288435823204963 0 -0.23058843809856311 -0.04949064316278786 0 -0.2242065632872248 -0.075288435823204963 0 -0.23058843809856311 -0.04949064316278786 0 -0.24244622974333679 -0.057742499675828007 0 -0.2242065632872248 -0.075288435823204963 0 -0.21435509433095751 -0.051157564489759867 0 -0.23058843809856311 -0.04949064316278786 0 -0.21751506987668159 -0.031277828123521999 0 -0.21435509433095751 -0.051157564489759867 0 -0.23058843809856311 -0.04949064316278786 0 -0.21751506987668159 -0.031277828123521999 0 -0.23058843809856311 -0.04949064316278786 0 -0.23697031290983059 -0.02369285050235332 0 -0.23058843809856311 -0.04949064316278786 0 -0.23697031290983059 -0.02369285050235332 0 -0.23058843809856311 -0.04949064316278786 0 -0.24442691777361469 -0.041268668614821161 0 -0.23697031290983059 -0.02369285050235332 0 -0.24442691777361469 -0.041268668614821161 0 -0.2486824970906738 -0.027655371231271118 0 -0.25537005030760102 -0.035670721719975977 0 -0.23058843809856311 -0.04949064316278786 0 -0.24442691777361469 -0.041268668614821161 0 -0.24244622974333679 -0.057742499675828007 0 -0.24442691777361469 -0.041268668614821161 0 -0.24244622974333679 -0.057742499675828007 0 -0.25447795435451143 -0.052160477800301641 0 -0.24244622974333679 -0.057742499675828007 0 -0.25447795435451143 -0.052160477800301641 0 -0.22582286214317579 -0.011401113898220719 0 -0.21236153232170429 0.008199248724380246 0 -0.23462123649885819 0.0002281277888503347 0 -0.22582286214317579 -0.011401113898220719 0 -0.24118699702915619 -0.0066475235659892986 0 -0.23462123649885819 0.0002281277888503347 0 -0.21751506987668159 -0.031277828123521999 0 -0.22582286214317579 -0.011401113898220719 0 -0.23697031290983059 -0.02369285050235332 0 -0.21751506987668159 -0.031277828123521999 0 -0.23697031290983059 -0.02369285050235332 0 -0.24442691777361469 -0.041268668614821161 0 -0.23697031290983059 -0.02369285050235332 0 -0.2486824970906738 -0.027655371231271118 0 -0.24118575169228221 -0.012771399647644489 0 -0.25626214626068961 -0.019180965639650299 0 -0.23697031290983059 -0.02369285050235332 0 -0.2486824970906738 -0.027655371231271118 0 -0.25038305820163209 -0.018463649679553738 0 -0.23697031290983059 -0.02369285050235332 0 -0.24118575169228221 -0.012771399647644489 0 -0.25038305820163209 -0.018463649679553738 0 -0.23697031290983059 -0.02369285050235332 0 -0.25038305820163209 -0.018463649679553738 0 -0.24118575169228221 -0.012771399647644489 0 -0.25038305820163209 -0.018463649679553738 0 -0.25626214626068961 -0.019180965639650299 0 -0.23697031290983059 -0.02369285050235332 0 -0.24118699702915619 -0.0066475235659892986 0 -0.22582286214317579 -0.011401113898220719 0 -0.23697031290983059 -0.02369285050235332 0 -0.24118699702915619 -0.0066475235659892986 0 -0.25688094067601208 -0.007742993146679659 0 -0.23462123649885819 0.0002281277888503347 0 -0.25688094067601208 -0.007742993146679659 0 -0.2486162619521525 0.0036775814081990411 0 -0.23462123649885819 0.0002281277888503347 0 -0.24887895891453521 -0.011585720499990919 0 -0.24118699702915619 -0.0066475235659892986 0 -0.25688094067601208 -0.007742993146679659 0 -0.24887895891453521 -0.011585720499990919 0 -0.24118575169228221 -0.012771399647644489 0 -0.25626214626068961 -0.019180965639650299 0 -0.23697031290983059 -0.02369285050235332 0 -0.24118575169228221 -0.012771399647644489 0 -0.24118699702915619 -0.0066475235659892986 0 -0.24118699702915619 -0.0066475235659892986 0 -0.25688094067601208 -0.007742993146679659 0 -0.23462123649885819 0.0002281277888503347 0 -0.24887895891453521 -0.011585720499990919 0 -0.24118575169228221 -0.012771399647644489 0 -0.24118699702915619 -0.0066475235659892986 0 -0.25688094067601208 -0.007742993146679659 0 -0.25739036423130879 0.001673337169956185 0 -0.25688094067601208 -0.007742993146679659 0 -0.25739036423130879 0.001673337169956185 0 -0.2486162619521525 0.0036775814081990411 0 -0.25688094067601208 -0.007742993146679659 0 -0.25626214626068961 -0.019180965639650299 0 -0.24887895891453521 -0.011585720499990919 0 -0.25688094067601208 -0.007742993146679659 0 -0.25626214626068961 -0.019180965639650299 0 -0.25688094067601208 -0.007742993146679659 0 -0.26218366428401652 -0.0096418796202237325 0 -0.25688094067601208 -0.007742993146679659 0 -0.26218366428401652 -0.0096418796202237325 0 -0.25626214626068961 -0.019180965639650299 0 -0.26218366428401652 -0.0096418796202237325 0 -0.26373197624483868 -0.0036612748820012771 0 -0.26989662145531301 -0.0088715067925810628 0 -0.25688094067601208 -0.007742993146679659 0 -0.26373197624483868 -0.0036612748820012771 0 -0.25739036423130879 0.001673337169956185 0 -0.25688094067601208 -0.007742993146679659 0 -0.26218366428401652 -0.0096418796202237325 0 -0.26373197624483868 -0.0036612748820012771 0 -0.25626214626068961 -0.019180965639650299 0 -0.27434359539570308 -0.026868098059547731 0 -0.26218366428401652 -0.0096418796202237325 0 -0.25626214626068961 -0.019180965639650299 0 -0.27434359539570308 -0.026868098059547731 0 -0.25784649724192449 -0.022421440241382779 0 -0.25626214626068961 -0.019180965639650299 0 -0.27434359539570308 -0.026868098059547731 0 -0.25784649724192449 -0.022421440241382779 0 -0.25626214626068961 -0.019180965639650299 0 -0.25537005030760102 -0.035670721719975977 0 -0.25626214626068961 -0.019180965639650299 0 -0.25537005030760102 -0.035670721719975977 0 -0.2486824970906738 -0.027655371231271118 0 -0.25626214626068961 -0.019180965639650299 0 -0.25537005030760102 -0.035670721719975977 0 -0.2486824970906738 -0.027655371231271118 0 -0.25038305820163209 -0.018463649679553738 0 -0.25626214626068961 -0.019180965639650299 0 -0.25784649724192449 -0.022421440241382779 0 -0.27434359539570308 -0.026868098059547731 0 -0.26802857189523938 -0.034810751636683672 0 -0.27434359539570308 -0.026868098059547731 0 -0.26989662145531301 -0.0088715067925810628 0 -0.27774582195972919 -0.01322107249081754 0 -0.27434359539570308 -0.026868098059547731 0 -0.27774582195972919 -0.01322107249081754 0 -0.28875302004467268 -0.020527935561465309 0 -0.26218366428401652 -0.0096418796202237325 0 -0.27434359539570308 -0.026868098059547731 0 -0.26989662145531301 -0.0088715067925810628 0 -0.26373197624483868 -0.0036612748820012771 0 -0.26989662145531301 -0.0088715067925810628 0 -0.27401714915440828 -0.0043927108579554621 0 -0.26373197624483868 -0.0036612748820012771 0 -0.27401714915440828 -0.0043927108579554621 0 -0.26202311766797348 0.0070081039554759708 0 -0.27774582195972919 -0.01322107249081754 0 -0.27401714915440828 -0.0043927108579554621 0 -0.28436764712604312 -0.0087144758718414733 0 -0.26989662145531301 -0.0088715067925810628 0 -0.27774582195972919 -0.01322107249081754 0 -0.27401714915440828 -0.0043927108579554621 0 -0.28613306217599022 -0.00036230248422268457 0 -0.29269112177959827 -0.0065730037713249562 0 -0.28436764712604312 -0.0087144758718414733 0 -0.28613306217599022 -0.00036230248422268457 0 -0.29269112177959827 -0.0065730037713249562 0 -0.31024300668400701 -0.0077327089239213366 0 -0.27401714915440828 -0.0043927108579554621 0 -0.28613306217599022 -0.00036230248422268457 0 -0.28436764712604312 -0.0087144758718414733 0 -0.27774582195972919 -0.01322107249081754 0 -0.28436764712604312 -0.0087144758718414733 0 -0.28875302004467268 -0.020527935561465309 0 -0.29269112177959827 -0.0065730037713249562 0 -0.28436764712604312 -0.0087144758718414733 0 -0.28875302004467268 -0.020527935561465309 0 -0.27434359539570308 -0.026868098059547731 0 -0.2924250445307166 -0.034555230479445177 0 -0.27434359539570308 -0.026868098059547731 0 -0.28875302004467268 -0.020527935561465309 0 -0.2924250445307166 -0.034555230479445177 0 -0.29269112177959827 -0.0065730037713249562 0 -0.28875302004467268 -0.020527935561465309 0 -0.314062116848696 -0.024516884780512751 0 -0.28875302004467268 -0.020527935561465309 0 -0.2924250445307166 -0.034555230479445177 0 -0.314062116848696 -0.024516884780512751 0 -0.2924250445307166 -0.034555230479445177 0 -0.314062116848696 -0.024516884780512751 0 -0.29269112177959827 -0.0065730037713249562 0 -0.314062116848696 -0.024516884780512751 0 -0.28613306217599022 -0.00036230248422268457 0 -0.31024300668400701 -0.0077327089239213366 0 -0.29269112177959827 -0.0065730037713249562 0 -0.31024300668400701 -0.0077327089239213366 0 -0.314062116848696 -0.024516884780512751 0 -0.31012150855040232 -0.042078690643920919 0 -0.29217328877778909 -0.053625613561614771 0 -0.30855643995949028 -0.063389590682509822 0 -0.31012150855040232 -0.042078690643920919 0 -0.2924250445307166 -0.034555230479445177 0 -0.31012150855040232 -0.042078690643920919 0 -0.2924250445307166 -0.034555230479445177 0 -0.314062116848696 -0.024516884780512751 0 -0.31012150855040232 -0.042078690643920919 0 -0.2924250445307166 -0.034555230479445177 0 -0.29217328877778909 -0.053625613561614771 0 -0.2924250445307166 -0.034555230479445177 0 -0.29217328877778909 -0.053625613561614771 0 -0.27744974649134879 -0.041502899575083213 0 -0.27434359539570308 -0.026868098059547731 0 -0.2924250445307166 -0.034555230479445177 0 -0.27744974649134879 -0.041502899575083213 0 -0.2924250445307166 -0.034555230479445177 0 -0.27744974649134879 -0.041502899575083213 0 -0.29217328877778909 -0.053625613561614771 0 -0.27697221701796682 -0.057804791120584197 0 -0.27744974649134879 -0.041502899575083213 0 -0.27697221701796682 -0.057804791120584197 0 -0.26247444845197992 -0.048450568670718799 0 -0.26625391159513789 -0.069707519550729041 0 -0.27697221701796682 -0.057804791120584197 0 -0.27744974649134879 -0.041502899575083213 0 -0.26247444845197992 -0.048450568670718799 0 -0.27744974649134879 -0.041502899575083213 0 -0.26247444845197992 -0.048450568670718799 0 -0.27744974649134879 -0.041502899575083213 0 -0.26802857189523938 -0.034810751636683672 0 -0.26247444845197992 -0.048450568670718799 0 -0.27434359539570308 -0.026868098059547731 0 -0.27744974649134879 -0.041502899575083213 0 -0.26802857189523938 -0.034810751636683672 0 -0.25784649724192449 -0.022421440241382779 0 -0.26247444845197992 -0.048450568670718799 0 -0.25784649724192449 -0.022421440241382779 0 -0.26802857189523938 -0.034810751636683672 0 -0.26247444845197992 -0.048450568670718799 0 -0.25537005030760102 -0.035670721719975977 0 -0.25447795435451143 -0.052160477800301641 0 -0.24442691777361469 -0.041268668614821161 0 -0.25537005030760102 -0.035670721719975977 0 -0.25447795435451143 -0.052160477800301641 0 -0.25537005030760102 -0.035670721719975977 0 -0.26247444845197992 -0.048450568670718799 0 -0.25447795435451143 -0.052160477800301641 0 -0.25784649724192449 -0.022421440241382779 0 -0.25537005030760102 -0.035670721719975977 0 -0.26247444845197992 -0.048450568670718799 0 -0.26247444845197992 -0.048450568670718799 0 -0.26625391159513789 -0.069707519550729041 0 -0.26247444845197992 -0.048450568670718799 0 -0.25447795435451143 -0.052160477800301641 0 -0.26625391159513789 -0.069707519550729041 0 -0.26247444845197992 -0.048450568670718799 0 -0.25447795435451143 -0.052160477800301641 0 -0.25447795435451143 -0.052160477800301641 0 -0.25292716567871759 -0.080825698068849511 0 -0.25447795435451143 -0.052160477800301641 0 -0.25292716567871759 -0.080825698068849511 0 -0.26625391159513789 -0.069707519550729041 0 -0.24845281260166691 -0.090622806346035145 0 -0.26045331727480042 -0.08539493395509086 0 -0.26459932176018319 -0.094854175379101305 0 -0.25292716567871759 -0.080825698068849511 0 -0.26045331727480042 -0.08539493395509086 0 -0.26625391159513789 -0.069707519550729041 0 -0.26045331727480042 -0.08539493395509086 0 -0.27003337473829592 -0.09096447043073938 0 -0.26625391159513789 -0.069707519550729041 0 -0.24845281260166691 -0.090622806346035145 0 -0.25292716567871759 -0.080825698068849511 0 -0.26045331727480042 -0.08539493395509086 0 -0.26045331727480042 -0.08539493395509086 0 -0.27003337473829592 -0.09096447043073938 0 -0.26459932176018319 -0.094854175379101305 0 -0.27003337473829592 -0.09096447043073938 0 -0.26625391159513789 -0.069707519550729041 0 -0.27003337473829592 -0.09096447043073938 0 -0.28929490734889302 -0.077177030556624462 0 -0.27003337473829592 -0.09096447043073938 0 -0.26625391159513789 -0.069707519550729041 0 -0.28929490734889302 -0.077177030556624462 0 -0.27003337473829592 -0.09096447043073938 0 -0.26459932176018319 -0.094854175379101305 0 -0.27697221701796682 -0.057804791120584197 0 -0.26625391159513789 -0.069707519550729041 0 -0.28929490734889302 -0.077177030556624462 0 -0.2600651818537727 -0.1185438750370913 0 -0.26585418121921178 -0.1128122747477418 0 -0.26749626657945941 -0.1244481305169844 0 -0.2600651818537727 -0.1185438750370913 0 -0.26749626657945941 -0.1244481305169844 0 -0.25578152406604232 -0.12547676444278261 0 -0.2600651818537727 -0.1185438750370913 0 -0.25112875555037739 -0.1114383304408563 0 -0.25578152406604232 -0.12547676444278261 0 -0.2439234713787154 -0.12666903876454519 0 -0.25112875555037739 -0.1114383304408563 0 -0.25578152406604232 -0.12547676444278261 0 -0.2600651818537727 -0.1185438750370913 0 -0.25112875555037739 -0.1114383304408563 0 -0.26585418121921178 -0.1128122747477418 0 -0.24845281260166691 -0.090622806346035145 0 -0.26459932176018319 -0.094854175379101305 0 -0.27272855106196259 -0.1060046465082197 0 -0.24845281260166691 -0.090622806346035145 0 -0.27272855106196259 -0.1060046465082197 0 -0.24845281260166691 -0.090622806346035145 0 -0.27272855106196259 -0.1060046465082197 0 -0.26585418121921178 -0.1128122747477418 0 -0.24845281260166691 -0.090622806346035145 0 -0.25112875555037739 -0.1114383304408563 0 -0.26585418121921178 -0.1128122747477418 0 -0.27003337473829592 -0.09096447043073938 0 -0.27272855106196259 -0.1060046465082197 0 -0.29171331959197389 -0.087491381468830232 0 -0.27003337473829592 -0.09096447043073938 0 -0.27272855106196259 -0.1060046465082197 0 -0.27003337473829592 -0.09096447043073938 0 -0.26459932176018319 -0.094854175379101305 0 -0.27272855106196259 -0.1060046465082197 0 -0.27272855106196259 -0.1060046465082197 0 -0.2733133039009692 -0.1094118769696947 0 -0.27272855106196259 -0.1060046465082197 0 -0.2733133039009692 -0.1094118769696947 0 -0.29577570186085428 -0.12055183613942561 0 -0.26585418121921178 -0.1128122747477418 0 -0.2733133039009692 -0.1094118769696947 0 -0.27548192559950108 -0.11825916736268639 0 -0.27272855106196259 -0.1060046465082197 0 -0.26585418121921178 -0.1128122747477418 0 -0.27272855106196259 -0.1060046465082197 0 -0.26585418121921178 -0.1128122747477418 0 -0.2733133039009692 -0.1094118769696947 0 -0.27548192559950108 -0.11825916736268639 0 -0.26749626657945941 -0.1244481305169844 0 -0.27810598553686228 -0.12655773270593471 0 -0.26585418121921178 -0.1128122747477418 0 -0.27548192559950108 -0.11825916736268639 0 -0.26749626657945941 -0.1244481305169844 0 -0.2733133039009692 -0.1094118769696947 0 -0.27548192559950108 -0.11825916736268639 0 -0.29577570186085428 -0.12055183613942561 0 -0.27272855106196259 -0.1060046465082197 0 -0.29577570186085428 -0.12055183613942561 0 -0.27272855106196259 -0.1060046465082197 0 -0.29577570186085428 -0.12055183613942561 0 -0.29138001570734862 -0.10494504886223149 0 -0.27548192559950108 -0.11825916736268639 0 -0.29577570186085428 -0.12055183613942561 0 -0.27810598553686228 -0.12655773270593471 0 -0.27272855106196259 -0.1060046465082197 0 -0.29171331959197389 -0.087491381468830232 0 -0.27272855106196259 -0.1060046465082197 0 -0.29138001570734862 -0.10494504886223149 0 -0.29171331959197389 -0.087491381468830232 0 -0.29138001570734862 -0.10494504886223149 0 -0.30524696280209951 -0.10572603278183559 0 -0.29171331959197389 -0.087491381468830232 0 -0.30524696280209951 -0.10572603278183559 0 -0.29171331959197389 -0.087491381468830232 0 -0.31471822374334391 -0.090900229424245194 0 -0.30524696280209951 -0.10572603278183559 0 -0.31471822374334391 -0.090900229424245194 0 -0.29577570186085428 -0.12055183613942561 0 -0.32040579280184561 -0.11254890005632209 0 -0.32035096735477381 -0.1360942906400287 0 -0.29577570186085428 -0.12055183613942561 0 -0.30524696280209951 -0.10572603278183559 0 -0.32040579280184561 -0.11254890005632209 0 -0.29577570186085428 -0.12055183613942561 0 -0.29138001570734862 -0.10494504886223149 0 -0.30524696280209951 -0.10572603278183559 0 -0.29577570186085428 -0.12055183613942561 0 -0.30524696280209951 -0.10572603278183559 0 -0.29217328877778909 -0.053625613561614771 0 -0.28929490734889302 -0.077177030556624462 0 -0.30855643995949028 -0.063389590682509822 0 -0.29217328877778909 -0.053625613561614771 0 -0.27697221701796682 -0.057804791120584197 0 -0.28929490734889302 -0.077177030556624462 0 -0.27003337473829592 -0.09096447043073938 0 -0.28929490734889302 -0.077177030556624462 0 -0.29171331959197389 -0.087491381468830232 0 -0.29171331959197389 -0.087491381468830232 0 -0.31066859897611732 -0.068930646790083122 0 -0.29171331959197389 -0.087491381468830232 0 -0.31066859897611732 -0.068930646790083122 0 -0.31471822374334391 -0.090900229424245194 0 -0.28929490734889302 -0.077177030556624462 0 -0.30855643995949028 -0.063389590682509822 0 -0.28929490734889302 -0.077177030556624462 0 -0.29171331959197389 -0.087491381468830232 0 -0.31066859897611732 -0.068930646790083122 0 -0.28929490734889302 -0.077177030556624462 0 -0.30855643995949028 -0.063389590682509822 0 -0.31066859897611732 -0.068930646790083122 0 -0.31066859897611732 -0.068930646790083122 0 -0.32540987067265142 -0.073405496181595253 0 -0.32962387836025991 -0.050369912111335478 0 -0.31066859897611732 -0.068930646790083122 0 -0.32540987067265142 -0.073405496181595253 0 -0.31471822374334391 -0.090900229424245194 0 -0.31471822374334391 -0.090900229424245194 0 -0.32745840557084432 -0.085729445996209949 0 -0.3311110931908926 -0.095833315545813841 0 -0.32540987067265142 -0.073405496181595253 0 -0.31471822374334391 -0.090900229424245194 0 -0.32745840557084432 -0.085729445996209949 0 -0.32540987067265142 -0.073405496181595253 0 -0.32745840557084432 -0.085729445996209949 0 -0.33859443467648948 -0.082778742833185537 0 -0.33859443467648948 -0.082778742833185537 0 -0.3311110931908926 -0.095833315545813841 0 -0.34676500465548199 -0.099677856994986339 0 -0.32745840557084432 -0.085729445996209949 0 -0.33859443467648948 -0.082778742833185537 0 -0.3311110931908926 -0.095833315545813841 0 -0.33859443467648948 -0.082778742833185537 0 -0.34005737704769762 -0.072944148425581973 0 -0.34805262779742191 -0.073956850982112937 0 -0.32540987067265142 -0.073405496181595253 0 -0.3354208400602286 -0.065283683588382893 0 -0.32962387836025991 -0.050369912111335478 0 -0.34005737704769762 -0.072944148425581973 0 -0.3354208400602286 -0.065283683588382893 0 -0.34427354025331453 -0.06492448730430192 0 -0.32540987067265142 -0.073405496181595253 0 -0.34005737704769762 -0.072944148425581973 0 -0.3354208400602286 -0.065283683588382893 0 -0.32540987067265142 -0.073405496181595253 0 -0.33859443467648948 -0.082778742833185537 0 -0.34005737704769762 -0.072944148425581973 0 -0.30524696280209951 -0.10572603278183559 0 -0.31471822374334391 -0.090900229424245194 0 -0.32040579280184561 -0.11254890005632209 0 -0.31471822374334391 -0.090900229424245194 0 -0.32040579280184561 -0.11254890005632209 0 -0.3311110931908926 -0.095833315545813841 0 -0.32040579280184561 -0.11254890005632209 0 -0.3311110931908926 -0.095833315545813841 0 -0.33786811888950657 -0.1099470537650775 0 -0.3311110931908926 -0.095833315545813841 0 -0.33786811888950657 -0.1099470537650775 0 -0.34676500465548199 -0.099677856994986339 0 -0.32040579280184561 -0.11254890005632209 0 -0.33786811888950657 -0.1099470537650775 0 -0.33974493118669558 -0.1273017082516556 0 -0.33786811888950657 -0.1099470537650775 0 -0.35509127890752917 -0.1147976932096452 0 -0.33974493118669558 -0.1273017082516556 0 -0.33786811888950657 -0.1099470537650775 0 -0.35509127890752917 -0.1147976932096452 0 -0.34676500465548199 -0.099677856994986339 0 -0.35509127890752917 -0.1147976932096452 0 -0.34676500465548199 -0.099677856994986339 0 -0.36062475500631253 -0.094731530960171936 0 -0.36062475500631253 -0.094731530960171936 0 -0.37701278226960983 -0.092932064063907194 0 -0.35509127890752917 -0.1147976932096452 0 -0.36062475500631253 -0.094731530960171936 0 -0.37272209458520628 -0.1078538876408372 0 -0.36062475500631253 -0.094731530960171936 0 -0.37272209458520628 -0.1078538876408372 0 -0.37701278226960983 -0.092932064063907194 0 -0.35509127890752917 -0.1147976932096452 0 -0.37272209458520628 -0.1078538876408372 0 -0.37226029056072002 -0.12517427745122631 0 -0.37030155443548762 -0.071737604864809942 0 -0.35347784599758891 -0.057611794561321351 0 -0.35430106873698047 -0.060861152540152917 0 -0.35867225191309382 -0.071391502302007526 0 -0.34805262779742191 -0.073956850982112937 0 -0.35194733742375001 -0.084815661249766972 0 -0.35867225191309382 -0.071391502302007526 0 -0.35132487217520258 -0.06778349828214382 0 -0.34805262779742191 -0.073956850982112937 0 -0.35867225191309382 -0.071391502302007526 0 -0.35132487217520258 -0.06778349828214382 0 -0.35430106873698047 -0.060861152540152917 0 -0.35132487217520258 -0.06778349828214382 0 -0.34427354025331453 -0.06492448730430192 0 -0.35430106873698047 -0.060861152540152917 0 -0.35132487217520258 -0.06778349828214382 0 -0.34427354025331453 -0.06492448730430192 0 -0.34805262779742191 -0.073956850982112937 0 -0.34005737704769762 -0.072944148425581973 0 -0.34427354025331453 -0.06492448730430192 0 -0.34805262779742191 -0.073956850982112937 0 -0.33859443467648948 -0.082778742833185537 0 -0.34676500465548199 -0.099677856994986339 0 -0.35194733742375001 -0.084815661249766972 0 -0.33859443467648948 -0.082778742833185537 0 -0.34805262779742191 -0.073956850982112937 0 -0.35194733742375001 -0.084815661249766972 0 -0.34676500465548199 -0.099677856994986339 0 -0.36062475500631253 -0.094731530960171936 0 -0.35194733742375001 -0.084815661249766972 0 -0.36062475500631253 -0.094731530960171936 0 -0.35194733742375001 -0.084815661249766972 0 -0.3637117362096508 -0.083121672688132711 0 -0.35867225191309382 -0.071391502302007526 0 -0.35194733742375001 -0.084815661249766972 0 -0.3637117362096508 -0.083121672688132711 0 -0.36062475500631253 -0.094731530960171936 0 -0.3637117362096508 -0.083121672688132711 0 -0.37701278226960983 -0.092932064063907194 0 -0.3637117362096508 -0.083121672688132711 0 -0.37030155443548762 -0.071737604864809942 0 -0.37701278226960983 -0.092932064063907194 0 -0.35867225191309382 -0.071391502302007526 0 -0.37030155443548762 -0.071737604864809942 0 -0.35430106873698047 -0.060861152540152917 0 -0.37030155443548762 -0.071737604864809942 0 -0.35347784599758891 -0.057611794561321351 0 -0.35867225191309382 -0.071391502302007526 0 -0.3637117362096508 -0.083121672688132711 0 -0.37030155443548762 -0.071737604864809942 0 -0.37030155443548762 -0.071737604864809942 0 -0.37477195260534218 -0.05241977557728944 0 -0.35347784599758891 -0.057611794561321351 0 -0.37477195260534218 -0.05241977557728944 0 -0.35347784599758891 -0.057611794561321351 0 -0.35948963436389608 -0.040647830816525329 0 -0.35347784599758891 -0.057611794561321351 0 -0.35948963436389608 -0.040647830816525329 0 -0.33665413755968943 -0.043485984257833718 0 -0.35347784599758891 -0.057611794561321351 0 -0.33665413755968943 -0.043485984257833718 0 -0.35347784599758891 -0.057611794561321351 0 -0.35430106873698047 -0.060861152540152917 0 -0.32962387836025991 -0.050369912111335478 0 -0.35819644605858092 -0.022392068187669679 0 -0.33665413755968943 -0.043485984257833718 0 -0.35948963436389608 -0.040647830816525329 0 -0.35819644605858092 -0.022392068187669679 0 -0.33665413755968943 -0.043485984257833718 0 -0.37477195260534218 -0.05241977557728944 0 -0.35948963436389608 -0.040647830816525329 0 -0.37434778959827908 -0.02732953149851218 0 -0.37434778959827908 -0.02732953149851218 0 -0.37182501508308119 -0.0090471710437974549 0 -0.35819644605858092 -0.022392068187669679 0 -0.37434778959827908 -0.02732953149851218 0 -0.35819644605858092 -0.022392068187669679 0 -0.35948963436389608 -0.040647830816525329 0 -0.37434778959827908 -0.02732953149851218 0 -0.35819644605858092 -0.022392068187669679 0 -0.37182501508308119 -0.0090471710437974549 0 -0.35819644605858092 -0.022392068187669679 0 -0.37182501508308119 -0.0090471710437974549 0 -0.34840726856358067 -0.0085827278423882304 0 -0.35819644605858092 -0.022392068187669679 0 -0.34840726856358067 -0.0085827278423882304 0 -0.35819644605858092 -0.022392068187669679 0 -0.3343529511920233 -0.01510311536362121 0 -0.37182501508308119 -0.0090471710437974549 0 -0.34840726856358067 -0.0085827278423882304 0 -0.35628020431264462 0.01028160076204811 0 -0.35819644605858092 -0.022392068187669679 0 -0.3343529511920233 -0.01510311536362121 0 -0.35819644605858092 -0.022392068187669679 0 -0.3343529511920233 -0.01510311536362121 0 -0.33665413755968943 -0.043485984257833718 0 -0.3343529511920233 -0.01510311536362121 0 -0.314062116848696 -0.024516884780512751 0 -0.33665413755968943 -0.043485984257833718 0 -0.34840726856358067 -0.0085827278423882304 0 -0.3377395461791704 -0.0039958975625878079 0 -0.34333991990506441 0.0050351683910539163 0 -0.34840726856358067 -0.0085827278423882304 0 -0.3343529511920233 -0.01510311536362121 0 -0.34840726856358067 -0.0085827278423882304 0 -0.3377395461791704 -0.0039958975625878079 0 -0.3343529511920233 -0.01510311536362121 0 -0.3377395461791704 -0.0039958975625878079 0 -0.32628804600930222 -0.0029082911924787282 0 -0.33226616994459118 0.0066003457349348192 0 -0.3377395461791704 -0.0039958975625878079 0 -0.3343529511920233 -0.01510311536362121 0 -0.32628804600930222 -0.0029082911924787282 0 -0.31024300668400701 -0.0077327089239213366 0 -0.3343529511920233 -0.01510311536362121 0 -0.32628804600930222 -0.0029082911924787282 0 -0.31024300668400701 -0.0077327089239213366 0 -0.32628804600930222 -0.0029082911924787282 0 -0.31894200760651797 0.0053904449626188686 0 -0.31024300668400701 -0.0077327089239213366 0 -0.3343529511920233 -0.01510311536362121 0 -0.31024300668400701 -0.0077327089239213366 0 -0.3343529511920233 -0.01510311536362121 0 -0.314062116848696 -0.024516884780512751 0 -0.3343529511920233 -0.01510311536362121 0 -0.314062116848696 -0.024516884780512751 0 -0.314062116848696 -0.024516884780512751 0 -0.32359817365910087 -0.04163997505736626 0 -0.33665413755968943 -0.043485984257833718 0 -0.31012150855040232 -0.042078690643920919 0 -0.314062116848696 -0.024516884780512751 0 -0.32359817365910087 -0.04163997505736626 0 -0.314062116848696 -0.024516884780512751 0 -0.33665413755968943 -0.043485984257833718 0 -0.31012150855040232 -0.042078690643920919 0 -0.32359817365910087 -0.04163997505736626 0 -0.32781797257008832 -0.049602150808396243 0 -0.31012150855040232 -0.042078690643920919 0 -0.32781797257008832 -0.049602150808396243 0 -0.32359817365910087 -0.04163997505736626 0 -0.32781797257008832 -0.049602150808396243 0 -0.32933513276662829 -0.048516164796165981 0 -0.30855643995949028 -0.063389590682509822 0 -0.31066859897611732 -0.068930646790083122 0 -0.32781797257008832 -0.049602150808396243 0 -0.31012150855040232 -0.042078690643920919 0 -0.30855643995949028 -0.063389590682509822 0 -0.32781797257008832 -0.049602150808396243 0 -0.31066859897611732 -0.068930646790083122 0 -0.32962387836025991 -0.050369912111335478 0 -0.30855643995949028 -0.063389590682509822 0 -0.32781797257008832 -0.049602150808396243 0 -0.31066859897611732 -0.068930646790083122 0 -0.32781797257008832 -0.049602150808396243 0 -0.32962387836025991 -0.050369912111335478 0 -0.35347784599758891 -0.057611794561321351 0 -0.32962387836025991 -0.050369912111335478 0 -0.33665413755968943 -0.043485984257833718 0 -0.32933513276662829 -0.048516164796165981 0 -0.32962387836025991 -0.050369912111335478 0 -0.33665413755968943 -0.043485984257833718 0 -0.35430106873698047 -0.060861152540152917 0 -0.32962387836025991 -0.050369912111335478 0 -0.34427354025331453 -0.06492448730430192 0 -0.35430106873698047 -0.060861152540152917 0 -0.32962387836025991 -0.050369912111335478 0 -0.32781797257008832 -0.049602150808396243 0 -0.32933513276662829 -0.048516164796165981 0 -0.32962387836025991 -0.050369912111335478 0 -0.32781797257008832 -0.049602150808396243 0 -0.32933513276662829 -0.048516164796165981 0 -0.32781797257008832 -0.049602150808396243 0 -0.32962387836025991 -0.050369912111335478 0 -0.32962387836025991 -0.050369912111335478 0 -0.33665413755968943 -0.043485984257833718 0 -0.3354208400602286 -0.065283683588382893 0 -0.34427354025331453 -0.06492448730430192 0 -0.32962387836025991 -0.050369912111335478 0 -0.32359817365910087 -0.04163997505736626 0 -0.32933513276662829 -0.048516164796165981 0 -0.33665413755968943 -0.043485984257833718 0 -0.2867107651156659 -0.26453030662781502 0 -0.2995429949084496 -0.23647219258399529 0 -0.28021228699436068 -0.23259996736528951 0 -0.31239077332818083 -0.25696679495766411 0 -0.30523810439910393 -0.2283410912591369 0 -0.31769794996788808 -0.24278874263621031 0 -0.31239077332818083 -0.25696679495766411 0 -0.2995429949084496 -0.23647219258399529 0 -0.31239077332818083 -0.25696679495766411 0 -0.2995429949084496 -0.23647219258399529 0 -0.30523810439910393 -0.2283410912591369 0 -0.31239077332818083 -0.25696679495766411 0 -0.30523810439910393 -0.2283410912591369 0 -0.2995429949084496 -0.23647219258399529 0 -0.30523810439910393 -0.2283410912591369 0 -0.28669521648871921 -0.215977590210326 0 -0.30523810439910393 -0.2283410912591369 0 -0.31018843236047389 -0.2126458339529976 0 -0.32080682381853332 -0.22166552446739729 0 -0.2995429949084496 -0.23647219258399529 0 -0.28021228699436068 -0.23259996736528951 0 -0.28669521648871921 -0.215977590210326 0 -0.2995429949084496 -0.23647219258399529 0 -0.28669521648871921 -0.215977590210326 0 -0.2867107651156659 -0.26453030662781502 0 -0.26587425565518491 -0.24321847264745999 0 -0.28021228699436068 -0.23259996736528951 0 -0.24503774619470359 -0.22190663866710481 0 -0.24125096644567559 -0.23815253405782361 0 -0.26587425565518491 -0.24321847264745999 0 -0.25228184908365758 -0.25819388120617048 0 -0.24125096644567559 -0.23815253405782361 0 -0.26587425565518491 -0.24321847264745999 0 -0.24503774619470359 -0.22190663866710481 0 -0.26587425565518491 -0.24321847264745999 0 -0.26467638335761179 -0.22106862763035989 0 -0.24503774619470359 -0.22190663866710481 0 -0.26587425565518491 -0.24321847264745999 0 -0.26587425565518491 -0.24321847264745999 0 -0.26467638335761179 -0.22106862763035989 0 -0.28021228699436068 -0.23259996736528951 0 -0.26467638335761179 -0.22106862763035989 0 -0.28021228699436068 -0.23259996736528951 0 -0.28669521648871921 -0.215977590210326 0 -0.26090936041647211 -0.2020016244344201 0 -0.27384743806898892 -0.1954829878366568 0 -0.28669521648871921 -0.215977590210326 0 -0.27384743806898892 -0.1954829878366568 0 -0.28669521648871921 -0.215977590210326 0 -0.26467638335761179 -0.22106862763035989 0 -0.26090936041647211 -0.2020016244344201 0 -0.28669521648871921 -0.215977590210326 0 -0.24932943439623009 -0.21070747245755861 0 -0.26467638335761179 -0.22106862763035989 0 -0.26090936041647211 -0.2020016244344201 0 -0.24932943439623009 -0.21070747245755861 0 -0.24503774619470359 -0.22190663866710481 0 -0.26467638335761179 -0.22106862763035989 0 -0.24913551496918129 -0.19355988054944159 0 -0.26090936041647211 -0.2020016244344201 0 -0.26099965964925959 -0.17498838546298681 0 -0.24913551496918129 -0.19355988054944159 0 -0.24932943439623009 -0.21070747245755861 0 -0.26090936041647211 -0.2020016244344201 0 -0.26090936041647211 -0.2020016244344201 0 -0.27384743806898892 -0.1954829878366568 0 -0.26099965964925959 -0.17498838546298681 0 -0.27384743806898892 -0.1954829878366568 0 -0.29808543547002619 -0.19971538756061019 0 -0.28551260524981781 -0.17645292418097461 0 -0.30523810439910393 -0.2283410912591369 0 -0.28669521648871921 -0.215977590210326 0 -0.29808543547002619 -0.19971538756061019 0 -0.27384743806898892 -0.1954829878366568 0 -0.28669521648871921 -0.215977590210326 0 -0.29808543547002619 -0.19971538756061019 0 -0.31018843236047389 -0.2126458339529976 0 -0.29808543547002619 -0.19971538756061019 0 -0.31631095395151021 -0.20209017292477691 0 -0.30523810439910393 -0.2283410912591369 0 -0.29808543547002619 -0.19971538756061019 0 -0.30523810439910393 -0.2283410912591369 0 -0.31018843236047389 -0.2126458339529976 0 -0.29808543547002619 -0.19971538756061019 0 -0.29808543547002619 -0.19971538756061019 0 -0.31844727577493442 -0.18683314981166449 0 -0.31631095395151021 -0.20209017292477691 0 -0.29808543547002619 -0.19971538756061019 0 -0.30167066274815069 -0.182666482422913 0 -0.31844727577493442 -0.18683314981166449 0 -0.30167066274815069 -0.182666482422913 0 -0.30463733449782471 -0.1676644681384028 0 -0.28551260524981781 -0.17645292418097461 0 -0.30167066274815069 -0.182666482422913 0 -0.30463733449782471 -0.1676644681384028 0 -0.31844727577493442 -0.18683314981166449 0 -0.30463733449782471 -0.1676644681384028 0 -0.30284386595199497 -0.14725374529352669 0 -0.32254585654716889 -0.1611787007468389 0 -0.30463733449782471 -0.1676644681384028 0 -0.28956964766102489 -0.15933582351585099 0 -0.30284386595199497 -0.14725374529352669 0 -0.30463733449782471 -0.1676644681384028 0 -0.28956964766102489 -0.15933582351585099 0 -0.28551260524981781 -0.17645292418097461 0 -0.28956964766102489 -0.15933582351585099 0 -0.28551260524981781 -0.17645292418097461 0 -0.27259167371979171 -0.15684286902180011 0 -0.29808543547002619 -0.19971538756061019 0 -0.30167066274815069 -0.182666482422913 0 -0.28551260524981781 -0.17645292418097461 0 -0.27384743806898892 -0.1954829878366568 0 -0.28551260524981781 -0.17645292418097461 0 -0.26099965964925959 -0.17498838546298681 0 -0.27384743806898892 -0.1954829878366568 0 -0.26099965964925959 -0.17498838546298681 0 -0.24913551496918129 -0.19355988054944159 0 -0.26099965964925959 -0.17498838546298681 0 -0.24913551496918129 -0.19355988054944159 0 -0.24208892123008149 -0.17631418515128849 0 -0.26099965964925959 -0.17498838546298681 0 -0.24208892123008149 -0.17631418515128849 0 -0.26099965964925959 -0.17498838546298681 0 -0.25129433222123271 -0.1595065784107898 0 -0.26099965964925959 -0.17498838546298681 0 -0.27259167371979171 -0.15684286902180011 0 -0.26132576227657622 -0.15436360097848209 0 -0.26099965964925959 -0.17498838546298681 0 -0.25129433222123271 -0.1595065784107898 0 -0.26132576227657622 -0.15436360097848209 0 -0.26099965964925959 -0.17498838546298681 0 -0.25129433222123271 -0.1595065784107898 0 -0.26099965964925959 -0.17498838546298681 0 -0.27259167371979171 -0.15684286902180011 0 -0.28551260524981781 -0.17645292418097461 0 -0.26099965964925959 -0.17498838546298681 0 -0.27259167371979171 -0.15684286902180011 0 -0.27259167371979171 -0.15684286902180011 0 -0.28418368779032332 -0.13869735258061311 0 -0.27259167371979171 -0.15684286902180011 0 -0.27325823552248152 -0.15331012169856331 0 -0.28418368779032332 -0.13869735258061311 0 -0.27433419466810183 -0.1415561331938959 0 -0.27325823552248152 -0.15331012169856331 0 -0.28418368779032332 -0.13869735258061311 0 -0.27433419466810183 -0.1415561331938959 0 -0.27325823552248152 -0.15331012169856331 0 -0.26547626482521552 -0.13781324092795769 0 -0.27259167371979171 -0.15684286902180011 0 -0.27325823552248152 -0.15331012169856331 0 -0.26132576227657622 -0.15436360097848209 0 -0.24887776305582679 -0.14011185259676801 0 -0.27325823552248152 -0.15331012169856331 0 -0.24887776305582679 -0.14011185259676801 0 -0.27325823552248152 -0.15331012169856331 0 -0.26547626482521552 -0.13781324092795769 0 -0.24887776305582679 -0.14011185259676801 0 -0.25129433222123271 -0.1595065784107898 0 -0.26132576227657622 -0.15436360097848209 0 -0.24887776305582679 -0.14011185259676801 0 -0.27325823552248152 -0.15331012169856331 0 -0.26132576227657622 -0.15436360097848209 0 -0.24887776305582679 -0.14011185259676801 0 -0.25578152406604232 -0.12547676444278261 0 -0.26547626482521552 -0.13781324092795769 0 -0.26749626657945941 -0.1244481305169844 0 -0.25578152406604232 -0.12547676444278261 0 -0.26547626482521552 -0.13781324092795769 0 -0.26749626657945941 -0.1244481305169844 0 -0.2736668460830764 -0.13397332805432741 0 -0.27810598553686228 -0.12655773270593471 0 -0.26749626657945941 -0.1244481305169844 0 -0.26547626482521552 -0.13781324092795769 0 -0.2736668460830764 -0.13397332805432741 0 -0.27433419466810183 -0.1415561331938959 0 -0.26547626482521552 -0.13781324092795769 0 -0.2736668460830764 -0.13397332805432741 0 -0.27433419466810183 -0.1415561331938959 0 -0.2736668460830764 -0.13397332805432741 0 -0.28418368779032332 -0.13869735258061311 0 -0.2736668460830764 -0.13397332805432741 0 -0.27810598553686228 -0.12655773270593471 0 -0.28418368779032332 -0.13869735258061311 0 -0.29577570186085428 -0.12055183613942561 0 -0.27810598553686228 -0.12655773270593471 0 -0.28418368779032332 -0.13869735258061311 0 -0.29577570186085428 -0.12055183613942561 0 -0.28418368779032332 -0.13869735258061311 0 -0.30284386595199497 -0.14725374529352669 0 -0.29577570186085428 -0.12055183613942561 0 -0.28418368779032332 -0.13869735258061311 0 -0.28956964766102489 -0.15933582351585099 0 -0.27259167371979171 -0.15684286902180011 0 -0.28418368779032332 -0.13869735258061311 0 -0.28956964766102489 -0.15933582351585099 0 -0.28418368779032332 -0.13869735258061311 0 -0.30284386595199497 -0.14725374529352669 0 -0.29577570186085428 -0.12055183613942561 0 -0.30284386595199497 -0.14725374529352669 0 -0.32035096735477381 -0.1360942906400287 0 -0.29577570186085428 -0.12055183613942561 0 -0.32035096735477381 -0.1360942906400287 0 -0.32040579280184561 -0.11254890005632209 0 -0.32035096735477381 -0.1360942906400287 0 -0.33974493118669558 -0.1273017082516556 0 -0.30284386595199497 -0.14725374529352669 0 -0.32035096735477381 -0.1360942906400287 0 -0.32254585654716889 -0.1611787007468389 0 -0.32035096735477381 -0.1360942906400287 0 -0.34492623284869361 -0.15163674514063191 0 -0.32035096735477381 -0.1360942906400287 0 -0.34492623284869361 -0.15163674514063191 0 -0.32254585654716889 -0.1611787007468389 0 -0.32035096735477381 -0.1360942906400287 0 -0.33974493118669558 -0.1273017082516556 0 -0.34492623284869361 -0.15163674514063191 0 -0.35509127890752917 -0.1147976932096452 0 -0.33974493118669558 -0.1273017082516556 0 -0.35982719631782528 -0.13878556669822831 0 -0.33974493118669558 -0.1273017082516556 0 -0.35982719631782528 -0.13878556669822831 0 -0.34492623284869361 -0.15163674514063191 0 -0.37226029056072002 -0.12517427745122631 0 -0.35982719631782528 -0.13878556669822831 0 -0.37941439547594752 -0.145135942648803 0 -0.35509127890752917 -0.1147976932096452 0 -0.37226029056072002 -0.12517427745122631 0 -0.35982719631782528 -0.13878556669822831 0 -0.35982719631782528 -0.13878556669822831 0 -0.36950149834261309 -0.16717919964123501 0 -0.37941439547594752 -0.145135942648803 0 -0.35982719631782528 -0.13878556669822831 0 -0.34492623284869361 -0.15163674514063191 0 -0.36950149834261309 -0.16717919964123501 0 -0.34492623284869361 -0.15163674514063191 0 -0.36950149834261309 -0.16717919964123501 0 -0.3439999384897624 -0.178471249736501 0 -0.34492623284869361 -0.15163674514063191 0 -0.36950149834261309 -0.16717919964123501 0 -0.36950149834261309 -0.16717919964123501 0 -0.3439999384897624 -0.178471249736501 0 -0.36264558263955182 -0.2009034858963826 0 -0.3439999384897624 -0.178471249736501 0 -0.32254585654716889 -0.1611787007468389 0 -0.31844727577493442 -0.18683314981166449 0 -0.34492623284869361 -0.15163674514063191 0 -0.3439999384897624 -0.178471249736501 0 -0.32254585654716889 -0.1611787007468389 0 -0.30463733449782471 -0.1676644681384028 0 -0.32254585654716889 -0.1611787007468389 0 -0.31844727577493442 -0.18683314981166449 0 -0.31844727577493442 -0.18683314981166449 0 -0.31631095395151021 -0.20209017292477691 0 -0.32958805544050862 -0.20705033323343269 0 -0.31631095395151021 -0.20209017292477691 0 -0.32958805544050862 -0.20705033323343269 0 -0.32080682381853332 -0.22166552446739729 0 -0.31018843236047389 -0.2126458339529976 0 -0.31631095395151021 -0.20209017292477691 0 -0.32080682381853332 -0.22166552446739729 0 -0.32958805544050862 -0.20705033323343269 0 -0.34811523156431728 -0.2130466168339718 0 -0.33621610433717619 -0.22626247494358151 0 -0.32958805544050862 -0.20705033323343269 0 -0.34297744806827107 -0.19730066106486471 0 -0.34811523156431728 -0.2130466168339718 0 -0.32958805544050862 -0.20705033323343269 0 -0.33621610433717619 -0.22626247494358151 0 -0.32080682381853332 -0.22166552446739729 0 -0.31844727577493442 -0.18683314981166449 0 -0.32958805544050862 -0.20705033323343269 0 -0.34297744806827107 -0.19730066106486471 0 -0.3439999384897624 -0.178471249736501 0 -0.31844727577493442 -0.18683314981166449 0 -0.34297744806827107 -0.19730066106486471 0 -0.3439999384897624 -0.178471249736501 0 -0.34297744806827107 -0.19730066106486471 0 -0.36264558263955182 -0.2009034858963826 0 -0.36950149834261309 -0.16717919964123501 0 -0.36264558263955182 -0.2009034858963826 0 -0.38293772417573879 -0.19889246235896119 0 -0.36264558263955182 -0.2009034858963826 0 -0.37690424680830847 -0.2236916627806261 0 -0.38293772417573879 -0.19889246235896119 0 -0.36264558263955182 -0.2009034858963826 0 -0.36052201557938129 -0.22311949652752491 0 -0.37690424680830847 -0.2236916627806261 0 -0.34297744806827107 -0.19730066106486471 0 -0.36264558263955182 -0.2009034858963826 0 -0.34811523156431728 -0.2130466168339718 0 -0.36264558263955182 -0.2009034858963826 0 -0.34811523156431728 -0.2130466168339718 0 -0.36052201557938129 -0.22311949652752491 0 -0.34811523156431728 -0.2130466168339718 0 -0.34959779394171042 -0.23246345697179671 0 -0.36052201557938129 -0.22311949652752491 0 -0.34959779394171042 -0.23246345697179671 0 -0.36052201557938129 -0.22311949652752491 0 -0.36534722294301852 -0.24549226015484699 0 -0.34811523156431728 -0.2130466168339718 0 -0.34959779394171042 -0.23246345697179671 0 -0.33621610433717619 -0.22626247494358151 0 -0.36052201557938129 -0.22311949652752491 0 -0.36534722294301852 -0.24549226015484699 0 -0.37690424680830847 -0.2236916627806261 0 -0.34959779394171042 -0.23246345697179671 0 -0.36534722294301852 -0.24549226015484699 0 -0.34288411954118519 -0.24571844432264611 0 -0.32958505460008192 -0.2526985449929372 0 -0.34288411954118519 -0.24571844432264611 0 -0.32725874561117863 -0.23823786796754151 0 -0.34959779394171042 -0.23246345697179671 0 -0.34288411954118519 -0.24571844432264611 0 -0.33621610433717619 -0.22626247494358151 0 -0.34288411954118519 -0.24571844432264611 0 -0.33621610433717619 -0.22626247494358151 0 -0.32725874561117863 -0.23823786796754151 0 -0.32080682381853332 -0.22166552446739729 0 -0.31665741714150758 -0.23294480936025169 0 -0.32725874561117863 -0.23823786796754151 0 -0.33621610433717619 -0.22626247494358151 0 -0.32080682381853332 -0.22166552446739729 0 -0.32725874561117863 -0.23823786796754151 0 -0.30523810439910393 -0.2283410912591369 0 -0.32080682381853332 -0.22166552446739729 0 -0.31665741714150758 -0.23294480936025169 0 -0.30523810439910393 -0.2283410912591369 0 -0.31665741714150758 -0.23294480936025169 0 -0.31769794996788808 -0.24278874263621031 0 -0.32958505460008192 -0.2526985449929372 0 -0.31769794996788808 -0.24278874263621031 0 -0.32725874561117863 -0.23823786796754151 0 -0.31665741714150758 -0.23294480936025169 0 -0.31769794996788808 -0.24278874263621031 0 -0.32725874561117863 -0.23823786796754151 0 -0.44166156803621048 -0.26068998837293411 0 -0.42300887284286121 -0.25113125677464299 0 -0.44176210302106728 -0.23547578586796791 0 -0.42300887284286121 -0.25113125677464299 0 -0.41999721819953573 -0.22455429403985089 0 -0.44176210302106728 -0.23547578586796791 0 -0.41999721819953573 -0.22455429403985089 0 -0.44322729482437162 -0.21380656314304419 0 -0.44176210302106728 -0.23547578586796791 0 -0.42300887284286121 -0.25113125677464299 0 -0.41999721819953573 -0.22455429403985089 0 -0.39738094931869788 -0.2432067436779054 0 -0.41999721819953573 -0.22455429403985089 0 -0.39738094931869788 -0.2432067436779054 0 -0.39832482194487762 -0.2118884876069371 0 -0.39738094931869788 -0.2432067436779054 0 -0.37690424680830847 -0.2236916627806261 0 -0.39832482194487762 -0.2118884876069371 0 -0.36534722294301852 -0.24549226015484699 0 -0.39738094931869788 -0.2432067436779054 0 -0.37690424680830847 -0.2236916627806261 0 -0.37690424680830847 -0.2236916627806261 0 -0.39832482194487762 -0.2118884876069371 0 -0.38293772417573879 -0.19889246235896119 0 -0.39832482194487762 -0.2118884876069371 0 -0.41865202933045209 -0.19826410864244121 0 -0.39407676383653262 -0.18272165414183811 0 -0.39832482194487762 -0.2118884876069371 0 -0.38293772417573879 -0.19889246235896119 0 -0.39407676383653262 -0.18272165414183811 0 -0.41865202933045209 -0.19826410864244121 0 -0.39407676383653262 -0.18272165414183811 0 -0.41999721819953573 -0.22455429403985089 0 -0.39832482194487762 -0.2118884876069371 0 -0.41865202933045209 -0.19826410864244121 0 -0.41865202933045209 -0.19826410864244121 0 -0.44322729482437162 -0.21380656314304419 0 -0.41999721819953573 -0.22455429403985089 0 -0.41865202933045209 -0.19826410864244121 0 -0.44322729482437162 -0.21380656314304419 0 -0.41865202933045209 -0.19826410864244121 0 -0.44710238095758031 -0.19677748521408059 0 -0.44322729482437162 -0.21380656314304419 0 -0.41865202933045209 -0.19826410864244121 0 -0.44091333231795388 -0.1831894749544343 0 -0.44710238095758031 -0.19677748521408059 0 -0.41865202933045209 -0.19826410864244121 0 -0.42977388592900989 -0.17262368452255861 0 -0.44091333231795388 -0.1831894749544343 0 -0.42977388592900989 -0.17262368452255861 0 -0.42587379144184973 -0.1496880857175984 0 -0.45323853729564589 -0.16283946501801599 0 -0.42977388592900989 -0.17262368452255861 0 -0.40935217737136242 -0.16796463934109021 0 -0.42587379144184973 -0.1496880857175984 0 -0.41865202933045209 -0.19826410864244121 0 -0.42977388592900989 -0.17262368452255861 0 -0.40935217737136242 -0.16796463934109021 0 -0.41865202933045209 -0.19826410864244121 0 -0.40935217737136242 -0.16796463934109021 0 -0.39407676383653262 -0.18272165414183811 0 -0.36950149834261309 -0.16717919964123501 0 -0.38293772417573879 -0.19889246235896119 0 -0.39407676383653262 -0.18272165414183811 0 -0.36950149834261309 -0.16717919964123501 0 -0.39407676383653262 -0.18272165414183811 0 -0.36950149834261309 -0.16717919964123501 0 -0.39407676383653262 -0.18272165414183811 0 -0.3903820974319836 -0.16178549001841 0 -0.36950149834261309 -0.16717919964123501 0 -0.3903820974319836 -0.16178549001841 0 -0.37941439547594752 -0.145135942648803 0 -0.40935217737136242 -0.16796463934109021 0 -0.3903820974319836 -0.16178549001841 0 -0.39956565213346268 -0.14592601431908389 0 -0.40935217737136242 -0.16796463934109021 0 -0.39407676383653262 -0.18272165414183811 0 -0.3903820974319836 -0.16178549001841 0 -0.39956565213346268 -0.14592601431908389 0 -0.37941439547594752 -0.145135942648803 0 -0.38852391951498372 -0.13171452244981061 0 -0.3903820974319836 -0.16178549001841 0 -0.39956565213346268 -0.14592601431908389 0 -0.37941439547594752 -0.145135942648803 0 -0.37226029056072002 -0.12517427745122631 0 -0.37941439547594752 -0.145135942648803 0 -0.38852391951498372 -0.13171452244981061 0 -0.39956565213346268 -0.14592601431908389 0 -0.38852391951498372 -0.13171452244981061 0 -0.40484867630803167 -0.12555324439030441 0 -0.39956565213346268 -0.14592601431908389 0 -0.40484867630803167 -0.12555324439030441 0 -0.39956565213346268 -0.14592601431908389 0 -0.40484867630803167 -0.12555324439030441 0 -0.41467671419347701 -0.1364792649431304 0 -0.40484867630803167 -0.12555324439030441 0 -0.41467671419347701 -0.1364792649431304 0 -0.4288055218527122 -0.1208597082814102 0 -0.40935217737136242 -0.16796463934109021 0 -0.39956565213346268 -0.14592601431908389 0 -0.42587379144184973 -0.1496880857175984 0 -0.39956565213346268 -0.14592601431908389 0 -0.41467671419347701 -0.1364792649431304 0 -0.42587379144184973 -0.1496880857175984 0 -0.41467671419347701 -0.1364792649431304 0 -0.42587379144184973 -0.1496880857175984 0 -0.4288055218527122 -0.1208597082814102 0 -0.42587379144184973 -0.1496880857175984 0 -0.44747934322282212 -0.13653894210129669 0 -0.4288055218527122 -0.1208597082814102 0 -0.44747934322282212 -0.13653894210129669 0 -0.446147870907322 -0.13045850485539459 0 -0.4288055218527122 -0.1208597082814102 0 -0.44747934322282212 -0.13653894210129669 0 -0.4288055218527122 -0.1208597082814102 0 -0.44747934322282212 -0.13653894210129669 0 -0.446147870907322 -0.13045850485539459 0 -0.446147870907322 -0.13045850485539459 0 -0.45862072566522161 -0.13091324304229071 0 -0.45348747409858658 -0.11960094633508279 0 -0.44747934322282212 -0.13653894210129669 0 -0.446147870907322 -0.13045850485539459 0 -0.45862072566522161 -0.13091324304229071 0 -0.42587379144184973 -0.1496880857175984 0 -0.44747934322282212 -0.13653894210129669 0 -0.45323853729564589 -0.16283946501801599 0 -0.44747934322282212 -0.13653894210129669 0 -0.45323853729564589 -0.16283946501801599 0 -0.44747934322282212 -0.13653894210129669 0 -0.46667993255523038 -0.15266046986231011 0 -0.44747934322282212 -0.13653894210129669 0 -0.46667993255523038 -0.15266046986231011 0 -0.46595184706908399 -0.1388170819524133 0 -0.44747934322282212 -0.13653894210129669 0 -0.46667993255523038 -0.15266046986231011 0 -0.45323853729564589 -0.16283946501801599 0 -0.46595184706908399 -0.1388170819524133 0 -0.45862072566522161 -0.13091324304229071 0 -0.47113626129774161 -0.12886680500631109 0 -0.44747934322282212 -0.13653894210129669 0 -0.46595184706908399 -0.1388170819524133 0 -0.45862072566522161 -0.13091324304229071 0 -0.45862072566522161 -0.13091324304229071 0 -0.47113626129774161 -0.12886680500631109 0 -0.46475831470347623 -0.11697537853936139 0 -0.46595184706908399 -0.1388170819524133 0 -0.47113626129774161 -0.12886680500631109 0 -0.48367774820968179 -0.14241579086810691 0 -0.47113626129774161 -0.12886680500631109 0 -0.48367774820968179 -0.14241579086810691 0 -0.48431967346325627 -0.1217846548418207 0 -0.5 -0.12979116472298241 0 -0.48367774820968179 -0.14241579086810691 0 -0.48431967346325627 -0.1217846548418207 0 -0.5 -0.12979116472298241 0 -0.5 -0.1549729440857599 0 -0.48367774820968179 -0.14241579086810691 0 -0.5 -0.1549729440857599 0 -0.48405955066313783 -0.15470780060987521 0 -0.48367774820968179 -0.14241579086810691 0 -0.46667993255523038 -0.15266046986231011 0 -0.48405955066313783 -0.15470780060987521 0 -0.48367774820968179 -0.14241579086810691 0 -0.46667993255523038 -0.15266046986231011 0 -0.46595184706908399 -0.1388170819524133 0 -0.48367774820968179 -0.14241579086810691 0 -0.46667993255523038 -0.15266046986231011 0 -0.48588052188763858 -0.1687819976233238 0 -0.46667993255523038 -0.15266046986231011 0 -0.48588052188763858 -0.1687819976233238 0 -0.46929463179969411 -0.17225707495942161 0 -0.46667993255523038 -0.15266046986231011 0 -0.48405955066313783 -0.15470780060987521 0 -0.48588052188763858 -0.1687819976233238 0 -0.5 -0.1549729440857599 0 -0.48405955066313783 -0.15470780060987521 0 -0.48588052188763858 -0.1687819976233238 0 -0.5 -0.1549729440857599 0 -0.48588052188763858 -0.1687819976233238 0 -0.5 -0.18015472344853761 0 -0.48588052188763858 -0.1687819976233238 0 -0.5 -0.18015472344853761 0 -0.48167643589148551 -0.18786345435872329 0 -0.48588052188763858 -0.1687819976233238 0 -0.46929463179969411 -0.17225707495942161 0 -0.48167643589148551 -0.18786345435872329 0 -0.46929463179969411 -0.17225707495942161 0 -0.45899773136847077 -0.18913998793473499 0 -0.48167643589148551 -0.18786345435872329 0 -0.45323853729564589 -0.16283946501801599 0 -0.45899773136847077 -0.18913998793473499 0 -0.45579982807708153 -0.185442631375075 0 -0.45323853729564589 -0.16283946501801599 0 -0.45899773136847077 -0.18913998793473499 0 -0.46929463179969411 -0.17225707495942161 0 -0.45323853729564589 -0.16283946501801599 0 -0.45899773136847077 -0.18913998793473499 0 -0.45579982807708153 -0.185442631375075 0 -0.45899773136847077 -0.18913998793473499 0 -0.46667993255523038 -0.15266046986231011 0 -0.46929463179969411 -0.17225707495942161 0 -0.45323853729564589 -0.16283946501801599 0 -0.45579982807708153 -0.185442631375075 0 -0.45323853729564589 -0.16283946501801599 0 -0.44091333231795388 -0.1831894749544343 0 -0.42977388592900989 -0.17262368452255861 0 -0.45323853729564589 -0.16283946501801599 0 -0.44091333231795388 -0.1831894749544343 0 -0.45579982807708153 -0.185442631375075 0 -0.44091333231795388 -0.1831894749544343 0 -0.44710238095758031 -0.19677748521408059 0 -0.44710238095758031 -0.19677748521408059 0 -0.44322729482437162 -0.21380656314304419 0 -0.46340014584339762 -0.20924450278918111 0 -0.44322729482437162 -0.21380656314304419 0 -0.46340014584339762 -0.20924450278918111 0 -0.46780256031830059 -0.22934901764363219 0 -0.44710238095758031 -0.19677748521408059 0 -0.46340014584339762 -0.20924450278918111 0 -0.45899773136847077 -0.18913998793473499 0 -0.46340014584339762 -0.20924450278918111 0 -0.45899773136847077 -0.18913998793473499 0 -0.45899773136847077 -0.18913998793473499 0 -0.47423267339480518 -0.20675434575123 0 -0.46340014584339762 -0.20924450278918111 0 -0.45899773136847077 -0.18913998793473499 0 -0.47423267339480518 -0.20675434575123 0 -0.45579982807708153 -0.185442631375075 0 -0.44710238095758031 -0.19677748521408059 0 -0.45899773136847077 -0.18913998793473499 0 -0.45899773136847077 -0.18913998793473499 0 -0.48167643589148551 -0.18786345435872329 0 -0.47423267339480518 -0.20675434575123 0 -0.48167643589148551 -0.18786345435872329 0 -0.49999999999999922 -0.2053365028113151 0 -0.47423267339480518 -0.20675434575123 0 -0.5 -0.18015472344853761 0 -0.48167643589148551 -0.18786345435872329 0 -0.49999999999999922 -0.2053365028113151 0 -0.49999999999999922 -0.2053365028113151 0 -0.47423267339480518 -0.20675434575123 0 -0.48946761542113848 -0.22436870356772609 0 -0.49999999999999922 -0.2053365028113151 0 -0.48946761542113848 -0.22436870356772609 0 -0.49999999999999922 -0.2053365028113151 0 -0.48946761542113848 -0.22436870356772609 0 -0.5 -0.22094127718356441 0 -0.47423267339480518 -0.20675434575123 0 -0.48946761542113848 -0.22436870356772609 0 -0.47423267339480518 -0.20675434575123 0 -0.47581661276248549 -0.2210619341915199 0 -0.48946761542113848 -0.22436870356772609 0 -0.46340014584339762 -0.20924450278918111 0 -0.47423267339480518 -0.20675434575123 0 -0.47581661276248549 -0.2210619341915199 0 -0.47581661276248549 -0.2210619341915199 0 -0.48180927118574829 -0.23820746380832211 0 -0.46780256031830059 -0.22934901764363219 0 -0.47581661276248549 -0.2210619341915199 0 -0.48946761542113848 -0.22436870356772609 0 -0.48180927118574829 -0.23820746380832211 0 -0.46340014584339762 -0.20924450278918111 0 -0.47581661276248549 -0.2210619341915199 0 -0.46780256031830059 -0.22934901764363219 0 -0.48180927118574829 -0.23820746380832211 0 -0.46780256031830059 -0.22934901764363219 0 -0.48946761542113848 -0.22436870356772609 0 -0.48853021378425387 -0.2386236093427444 0 -0.48180927118574829 -0.23820746380832211 0 -0.48946761542113848 -0.22436870356772609 0 -0.48180927118574829 -0.23820746380832211 0 -0.48946761542113848 -0.22436870356772609 0 -0.50000000000000033 -0.23654605155581371 0 -0.48946761542113848 -0.22436870356772609 0 -0.50000000000000033 -0.23654605155581371 0 -0.48853021378425387 -0.2386236093427444 0 -0.48946761542113848 -0.22436870356772609 0 -0.5 -0.22094127718356441 0 -0.50000000000000033 -0.23654605155581371 0 -0.48266462991948589 -0.25833475050481602 0 -0.50000000000007061 -0.24971206281257469 0 -0.48756989638148879 -0.24185073085755471 0 -0.50000000000007061 -0.24971206281257469 0 -0.48756989638148879 -0.24185073085755471 0 -0.50000000000007061 -0.24971206281257469 0 -0.50000000000000033 -0.23654605155581371 0 -0.48756989638148879 -0.24185073085755471 0 -0.50000000000000033 -0.23654605155581371 0 -0.48853021378425387 -0.2386236093427444 0 -0.48756989638148879 -0.24185073085755471 0 -0.48756989638148879 -0.24185073085755471 0 -0.48180927118574829 -0.23820746380832211 0 -0.48853021378425387 -0.2386236093427444 0 -0.48756989638148879 -0.24185073085755471 0 -0.48180927118574829 -0.23820746380832211 0 -0.48853021378425387 -0.2386236093427444 0 -0.48756989638148879 -0.24185073085755471 0 -0.4731634513857978 -0.25383060944122859 0 -0.48180927118574829 -0.23820746380832211 0 -0.46780256031830059 -0.22934901764363219 0 -0.4731634513857978 -0.25383060944122859 0 -0.48180927118574829 -0.23820746380832211 0 -0.4731634513857978 -0.25383060944122859 0 -0.48129311132275548 -0.24895476074014711 0 -0.48180927118574829 -0.23820746380832211 0 -0.4731634513857978 -0.25383060944122859 0 -0.46780256031830059 -0.22934901764363219 0 -0.48266462991948589 -0.25833475050481602 0 -0.48756989638148879 -0.24185073085755471 0 -0.48129311132275548 -0.24895476074014711 0 -0.48756989638148879 -0.24185073085755471 0 -0.48129311132275548 -0.24895476074014711 0 -0.48180927118574829 -0.23820746380832211 0 -0.4731634513857978 -0.25383060944122859 0 -0.45593915217321729 -0.24874065597167061 0 -0.46780256031830059 -0.22934901764363219 0 -0.45593915217321729 -0.24874065597167061 0 -0.46780256031830059 -0.22934901764363219 0 -0.44176210302106728 -0.23547578586796791 0 -0.46340014584339762 -0.20924450278918111 0 -0.46780256031830059 -0.22934901764363219 0 -0.44322729482437162 -0.21380656314304419 0 -0.46780256031830059 -0.22934901764363219 0 -0.44322729482437162 -0.21380656314304419 0 -0.46780256031830059 -0.22934901764363219 0 -0.44176210302106728 -0.23547578586796791 0 -0.44166156803621048 -0.26068998837293411 0 -0.44176210302106728 -0.23547578586796791 0 -0.44166156803621048 -0.26068998837293411 0 -0.45593915217321729 -0.24874065597167061 0 -0.44176210302106728 -0.23547578586796791 0 -0.41227340679539948 -0.038923387018430823 0 -0.4184068745930099 -0.059007657874435293 0 -0.40479941162150951 -0.050546331306869689 0 -0.4184068745930099 -0.059007657874435293 0 -0.40479941162150951 -0.050546331306869689 0 -0.40276606873319809 -0.072435536521366833 0 -0.41227340679539948 -0.038923387018430823 0 -0.4184068745930099 -0.059007657874435293 0 -0.43404768045282238 -0.045579779227504787 0 -0.4184068745930099 -0.059007657874435293 0 -0.43404768045282238 -0.045579779227504787 0 -0.43076374854116511 -0.063339658607796293 0 -0.43404768045282238 -0.045579779227504787 0 -0.43076374854116511 -0.063339658607796293 0 -0.44541855364562072 -0.066668149965049314 0 -0.4184068745930099 -0.059007657874435293 0 -0.43404768045282238 -0.045579779227504787 0 -0.41227340679539948 -0.038923387018430823 0 -0.43404768045282238 -0.045579779227504787 0 -0.43021298747684861 -0.026305250861173 0 -0.43404768045282238 -0.045579779227504787 0 -0.43021298747684861 -0.026305250861173 0 -0.44781457751257342 -0.033760680856227701 0 -0.41227340679539948 -0.038923387018430823 0 -0.43404768045282238 -0.045579779227504787 0 -0.43021298747684861 -0.026305250861173 0 -0.42638940675436698 -0.0056256531811543584 0 -0.41647869072608268 -0.017921373060703391 0 -0.43021298747684861 -0.026305250861173 0 -0.42638940675436698 -0.0056256531811543584 0 -0.44475516802946108 -0.014508136301211521 0 -0.42638940675436698 -0.0056256531811543584 0 -0.44475516802946108 -0.014508136301211521 0 -0.44117442088145342 0.0072486733986553099 0 -0.41647869072608268 -0.017921373060703391 0 -0.4013434947618173 -0.01351880052974593 0 -0.40815554168622692 0.002206413975669016 0 -0.42638940675436698 -0.0056256531811543584 0 -0.41647869072608268 -0.017921373060703391 0 -0.40815554168622692 0.002206413975669016 0 -0.41227340679539948 -0.038923387018430823 0 -0.43021298747684861 -0.026305250861173 0 -0.41647869072608268 -0.017921373060703391 0 -0.41227340679539948 -0.038923387018430823 0 -0.41647869072608268 -0.017921373060703391 0 -0.4013434947618173 -0.01351880052974593 0 -0.4013434947618173 -0.01351880052974593 0 -0.38728809389788649 -0.010258318245477139 0 -0.39049913313797702 -0.032266994809355368 0 -0.41227340679539948 -0.038923387018430823 0 -0.4013434947618173 -0.01351880052974593 0 -0.39049913313797702 -0.032266994809355368 0 -0.4013434947618173 -0.01351880052974593 0 -0.38728809389788649 -0.010258318245477139 0 -0.38640241976191247 0.0052268122125426614 0 -0.4013434947618173 -0.01351880052974593 0 -0.40815554168622692 0.002206413975669016 0 -0.38640241976191247 0.0052268122125426614 0 -0.37182501508308119 -0.0090471710437974549 0 -0.38640241976191247 0.0052268122125426614 0 -0.37182501508308119 -0.0090471710437974549 0 -0.38728809389788649 -0.010258318245477139 0 -0.38640241976191247 0.0052268122125426614 0 -0.37434778959827908 -0.02732953149851218 0 -0.39049913313797702 -0.032266994809355368 0 -0.37182501508308119 -0.0090471710437974549 0 -0.39049913313797702 -0.032266994809355368 0 -0.37182501508308119 -0.0090471710437974549 0 -0.38728809389788649 -0.010258318245477139 0 -0.39049913313797702 -0.032266994809355368 0 -0.37434778959827908 -0.02732953149851218 0 -0.37182501508308119 -0.0090471710437974549 0 -0.39049913313797702 -0.032266994809355368 0 -0.37477195260534218 -0.05241977557728944 0 -0.37434778959827908 -0.02732953149851218 0 -0.38549323861132262 -0.042058970777271602 0 -0.37434778959827908 -0.02732953149851218 0 -0.38549323861132262 -0.042058970777271602 0 -0.39049913313797702 -0.032266994809355368 0 -0.38549323861132262 -0.042058970777271602 0 -0.39049913313797702 -0.032266994809355368 0 -0.39638468632410662 -0.039585225707491442 0 -0.38549323861132262 -0.042058970777271602 0 -0.39638468632410662 -0.039585225707491442 0 -0.39245594026383313 -0.056647855003204642 0 -0.41227340679539948 -0.038923387018430823 0 -0.39049913313797702 -0.032266994809355368 0 -0.41227340679539948 -0.038923387018430823 0 -0.39049913313797702 -0.032266994809355368 0 -0.39638468632410662 -0.039585225707491442 0 -0.41227340679539948 -0.038923387018430823 0 -0.39638468632410662 -0.039585225707491442 0 -0.40479941162150951 -0.050546331306869689 0 -0.39049913313797702 -0.032266994809355368 0 -0.39638468632410662 -0.039585225707491442 0 -0.39638468632410662 -0.039585225707491442 0 -0.39245594026383313 -0.056647855003204642 0 -0.40479941162150951 -0.050546331306869689 0 -0.39245594026383313 -0.056647855003204642 0 -0.40479941162150951 -0.050546331306869689 0 -0.40276606873319809 -0.072435536521366833 0 -0.37477195260534218 -0.05241977557728944 0 -0.39245594026383313 -0.056647855003204642 0 -0.38549296762839319 -0.06966351792484525 0 -0.37477195260534218 -0.05241977557728944 0 -0.38549323861132262 -0.042058970777271602 0 -0.39245594026383313 -0.056647855003204642 0 -0.37030155443548762 -0.071737604864809942 0 -0.37477195260534218 -0.05241977557728944 0 -0.38549296762839319 -0.06966351792484525 0 -0.37030155443548762 -0.071737604864809942 0 -0.38549296762839319 -0.06966351792484525 0 -0.38712526287338639 -0.085863415168298388 0 -0.37701278226960983 -0.092932064063907194 0 -0.39340080953290679 -0.091132597167640217 0 -0.37030155443548762 -0.071737604864809942 0 -0.37701278226960983 -0.092932064063907194 0 -0.38712526287338639 -0.085863415168298388 0 -0.37030155443548762 -0.071737604864809942 0 -0.38712526287338639 -0.085863415168298388 0 -0.37701278226960983 -0.092932064063907194 0 -0.38712526287338639 -0.085863415168298388 0 -0.39340080953290679 -0.091132597167640217 0 -0.38712526287338639 -0.085863415168298388 0 -0.39340080953290679 -0.091132597167640217 0 -0.38712526287338639 -0.085863415168298388 0 -0.39340080953290679 -0.091132597167640217 0 -0.40276606873319809 -0.072435536521366833 0 -0.39340080953290679 -0.091132597167640217 0 -0.41437169332385021 -0.088829915425607447 0 -0.38712526287338639 -0.085863415168298388 0 -0.40276606873319809 -0.072435536521366833 0 -0.39340080953290679 -0.091132597167640217 0 -0.40276606873319809 -0.072435536521366833 0 -0.41437169332385021 -0.088829915425607447 0 -0.38549296762839319 -0.06966351792484525 0 -0.38712526287338639 -0.085863415168298388 0 -0.40276606873319809 -0.072435536521366833 0 -0.39245594026383313 -0.056647855003204642 0 -0.38549296762839319 -0.06966351792484525 0 -0.40276606873319809 -0.072435536521366833 0 -0.37226029056072002 -0.12517427745122631 0 -0.38852391951498372 -0.13171452244981061 0 -0.38662795554276791 -0.1158547909624176 0 -0.37272209458520628 -0.1078538876408372 0 -0.37226029056072002 -0.12517427745122631 0 -0.38662795554276791 -0.1158547909624176 0 -0.37701278226960983 -0.092932064063907194 0 -0.39340080953290679 -0.091132597167640217 0 -0.38549537221959451 -0.10237340516307759 0 -0.38662795554276791 -0.1158547909624176 0 -0.38549537221959451 -0.10237340516307759 0 -0.39656156463155201 -0.10689741201516249 0 -0.37272209458520628 -0.1078538876408372 0 -0.38662795554276791 -0.1158547909624176 0 -0.38549537221959451 -0.10237340516307759 0 -0.37272209458520628 -0.1078538876408372 0 -0.37701278226960983 -0.092932064063907194 0 -0.38549537221959451 -0.10237340516307759 0 -0.39340080953290679 -0.091132597167640217 0 -0.39656156463155201 -0.10689741201516249 0 -0.41013170048260128 -0.10518047446152499 0 -0.39340080953290679 -0.091132597167640217 0 -0.38549537221959451 -0.10237340516307759 0 -0.39656156463155201 -0.10689741201516249 0 -0.39340080953290679 -0.091132597167640217 0 -0.41013170048260128 -0.10518047446152499 0 -0.39340080953290679 -0.091132597167640217 0 -0.41013170048260128 -0.10518047446152499 0 -0.41437169332385021 -0.088829915425607447 0 -0.38852391951498372 -0.13171452244981061 0 -0.40484867630803167 -0.12555324439030441 0 -0.38662795554276791 -0.1158547909624176 0 -0.40484867630803167 -0.12555324439030441 0 -0.39656156463155201 -0.10689741201516249 0 -0.41013170048260128 -0.10518047446152499 0 -0.40484867630803167 -0.12555324439030441 0 -0.38662795554276791 -0.1158547909624176 0 -0.39656156463155201 -0.10689741201516249 0 -0.40484867630803167 -0.12555324439030441 0 -0.41013170048260128 -0.10518047446152499 0 -0.4288055218527122 -0.1208597082814102 0 -0.41013170048260128 -0.10518047446152499 0 -0.4288055218527122 -0.1208597082814102 0 -0.40484867630803167 -0.12555324439030441 0 -0.41013170048260128 -0.10518047446152499 0 -0.41013170048260128 -0.10518047446152499 0 -0.43235563951532918 -0.10337058594829809 0 -0.41437169332385021 -0.088829915425607447 0 -0.41013170048260128 -0.10518047446152499 0 -0.41437169332385021 -0.088829915425607447 0 -0.43235563951532918 -0.10337058594829809 0 -0.4288055218527122 -0.1208597082814102 0 -0.44324280970407709 -0.1152413475104284 0 -0.41013170048260128 -0.10518047446152499 0 -0.43235563951532918 -0.10337058594829809 0 -0.4288055218527122 -0.1208597082814102 0 -0.4184068745930099 -0.059007657874435293 0 -0.40276606873319809 -0.072435536521366833 0 -0.41938326799695791 -0.069503928183758806 0 -0.40276606873319809 -0.072435536521366833 0 -0.41938326799695791 -0.069503928183758806 0 -0.41437169332385021 -0.088829915425607447 0 -0.4184068745930099 -0.059007657874435293 0 -0.40276606873319809 -0.072435536521366833 0 -0.41938326799695791 -0.069503928183758806 0 -0.41437169332385021 -0.088829915425607447 0 -0.43057034514469839 -0.074807492893017469 0 -0.41938326799695791 -0.069503928183758806 0 -0.41437169332385021 -0.088829915425607447 0 -0.41437169332385021 -0.088829915425607447 0 -0.43057034514469839 -0.074807492893017469 0 -0.44291446221589847 -0.085695812282878564 0 -0.41437169332385021 -0.088829915425607447 0 -0.44291446221589847 -0.085695812282878564 0 -0.43235563951532918 -0.10337058594829809 0 -0.41437169332385021 -0.088829915425607447 0 -0.44291446221589847 -0.085695812282878564 0 -0.4184068745930099 -0.059007657874435293 0 -0.41938326799695791 -0.069503928183758806 0 -0.43076374854116511 -0.063339658607796293 0 -0.41938326799695791 -0.069503928183758806 0 -0.43057034514469839 -0.074807492893017469 0 -0.43076374854116511 -0.063339658607796293 0 -0.43057034514469839 -0.074807492893017469 0 -0.43076374854116511 -0.063339658607796293 0 -0.44541855364562072 -0.066668149965049314 0 -0.44541855364562072 -0.066668149965049314 0 -0.44291446221589847 -0.085695812282878564 0 -0.46028010720512702 -0.069711746482545522 0 -0.43057034514469839 -0.074807492893017469 0 -0.44541855364562072 -0.066668149965049314 0 -0.44291446221589847 -0.085695812282878564 0 -0.44291446221589847 -0.085695812282878564 0 -0.46028010720512702 -0.069711746482545522 0 -0.47145723110794718 -0.082561709140152734 0 -0.44291446221589847 -0.085695812282878564 0 -0.47145723110794718 -0.082561709140152734 0 -0.44291446221589847 -0.085695812282878564 0 -0.45466764951283578 -0.104416257727939 0 -0.47145723110794718 -0.082561709140152734 0 -0.44541855364562072 -0.066668149965049314 0 -0.46028010720512702 -0.069711746482545522 0 -0.46107352603743912 -0.053841576191369603 0 -0.446147870907322 -0.13045850485539459 0 -0.4288055218527122 -0.1208597082814102 0 -0.44324280970407709 -0.1152413475104284 0 -0.446147870907322 -0.13045850485539459 0 -0.44324280970407709 -0.1152413475104284 0 -0.45348747409858658 -0.11960094633508279 0 -0.44324280970407709 -0.1152413475104284 0 -0.45466764951283578 -0.104416257727939 0 -0.45348747409858658 -0.11960094633508279 0 -0.43235563951532918 -0.10337058594829809 0 -0.44291446221589847 -0.085695812282878564 0 -0.45466764951283578 -0.104416257727939 0 -0.43235563951532918 -0.10337058594829809 0 -0.44324280970407709 -0.1152413475104284 0 -0.45466764951283578 -0.104416257727939 0 -0.45466764951283578 -0.104416257727939 0 -0.46475831470347623 -0.11697537853936139 0 -0.47797023313265069 -0.1062819035694581 0 -0.45466764951283578 -0.104416257727939 0 -0.47797023313265069 -0.1062819035694581 0 -0.47145723110794718 -0.082561709140152734 0 -0.45466764951283578 -0.104416257727939 0 -0.46475831470347623 -0.11697537853936139 0 -0.45348747409858658 -0.11960094633508279 0 -0.45862072566522161 -0.13091324304229071 0 -0.46475831470347623 -0.11697537853936139 0 -0.45348747409858658 -0.11960094633508279 0 -0.46475831470347623 -0.11697537853936139 0 -0.48431967346325627 -0.1217846548418207 0 -0.47797023313265069 -0.1062819035694581 0 -0.47113626129774161 -0.12886680500631109 0 -0.46475831470347623 -0.11697537853936139 0 -0.48431967346325627 -0.1217846548418207 0 -0.47797023313265069 -0.1062819035694581 0 -0.47145723110794718 -0.082561709140152734 0 -0.4873568660601485 -0.093220151016810637 0 -0.47797023313265069 -0.1062819035694581 0 -0.5 -0.1046093853602048 0 -0.4873568660601485 -0.093220151016810637 0 -0.48431967346325627 -0.1217846548418207 0 -0.47797023313265069 -0.1062819035694581 0 -0.5 -0.1046093853602048 0 -0.5 -0.12979116472298241 0 -0.48431967346325627 -0.1217846548418207 0 -0.5 -0.1046093853602048 0 -0.46028010720512702 -0.069711746482545522 0 -0.47145723110794718 -0.082561709140152734 0 -0.48053676301872911 -0.059791484833279673 0 -0.47145723110794718 -0.082561709140152734 0 -0.48799849853167271 -0.071880548361512808 0 -0.48053676301872911 -0.059791484833279673 0 -0.47145723110794718 -0.082561709140152734 0 -0.4873568660601485 -0.093220151016810637 0 -0.49999999999999611 -0.079427605997427292 0 -0.5 -0.1046093853602048 0 -0.4873568660601485 -0.093220151016810637 0 -0.49999999999999611 -0.079427605997427292 0 -0.47145723110794718 -0.082561709140152734 0 -0.49999999999999611 -0.079427605997427292 0 -0.48799849853167271 -0.071880548361512808 0 -0.50000000000001688 -0.065741393475196711 0 -0.48053676301872911 -0.059791484833279673 0 -0.49999999999999611 -0.079427605997427292 0 -0.48799849853167271 -0.071880548361512808 0 -0.50000000000001688 -0.065741393475196711 0 -0.47145723110794718 -0.082561709140152734 0 -0.49999999999999611 -0.079427605997427292 0 -0.48799849853167271 -0.071880548361512808 0 -0.50000000000001688 -0.065741393475196711 0 -0.48053676301872911 -0.059791484833279673 0 -0.5 -0.043844689223133997 0 -0.48053676301872089 -0.037894780581222087 0 -0.48053676301872911 -0.059791484833279673 0 -0.50000000000001688 -0.065741393475196711 0 -0.5 -0.043844689223133997 0 -0.48053676301872911 -0.059791484833279673 0 -0.5 -0.043844689223133997 0 -0.48053676301872089 -0.037894780581222087 0 -0.50000000000000011 -0.0219479849710713 0 -0.48053676301872089 -0.037894780581222087 0 -0.46107352603743912 -0.053841576191369603 0 -0.48053676301872089 -0.037894780581222087 0 -0.46321464877687302 -0.037379504452121237 0 -0.46301178129232978 -0.02187806779797043 0 -0.48053676301872911 -0.059791484833279673 0 -0.46107352603743912 -0.053841576191369603 0 -0.48053676301872089 -0.037894780581222087 0 -0.48053676301872911 -0.059791484833279673 0 -0.46107352603743912 -0.053841576191369603 0 -0.46028010720512702 -0.069711746482545522 0 -0.48053676301872911 -0.059791484833279673 0 -0.46107352603743912 -0.053841576191369603 0 -0.44541855364562072 -0.066668149965049314 0 -0.46107352603743912 -0.053841576191369603 0 -0.48053676301872089 -0.037894780581222087 0 -0.46107352603743912 -0.053841576191369603 0 -0.46321464877687302 -0.037379504452121237 0 -0.46107352603743912 -0.053841576191369603 0 -0.46321464877687302 -0.037379504452121237 0 -0.44781457751257342 -0.033760680856227701 0 -0.43404768045282238 -0.045579779227504787 0 -0.46107352603743912 -0.053841576191369603 0 -0.44781457751257342 -0.033760680856227701 0 -0.43404768045282238 -0.045579779227504787 0 -0.44781457751257342 -0.033760680856227701 0 -0.43404768045282238 -0.045579779227504787 0 -0.44541855364562072 -0.066668149965049314 0 -0.46107352603743912 -0.053841576191369603 0 -0.43404768045282238 -0.045579779227504787 0 -0.46107352603743912 -0.053841576191369603 0 -0.44475516802946108 -0.014508136301211521 0 -0.46108224724226721 -0.0030978492570717629 0 -0.44117442088145342 0.0072486733986553099 0 -0.44781457751257342 -0.033760680856227701 0 -0.44475516802946108 -0.014508136301211521 0 -0.46301178129232978 -0.02187806779797043 0 -0.43021298747684861 -0.026305250861173 0 -0.44781457751257342 -0.033760680856227701 0 -0.44475516802946108 -0.014508136301211521 0 -0.46321464877687302 -0.037379504452121237 0 -0.44781457751257342 -0.033760680856227701 0 -0.46301178129232978 -0.02187806779797043 0 -0.44475516802946108 -0.014508136301211521 0 -0.46301178129232978 -0.02187806779797043 0 -0.46108224724226721 -0.0030978492570717629 0 -0.46301178129232978 -0.02187806779797043 0 -0.46108224724226721 -0.0030978492570717629 0 -0.48117157631119389 -0.012931689646465711 0 -0.46108224724226721 -0.0030978492570717629 0 -0.48117157631119389 -0.012931689646465711 0 -0.48139660837598802 0.0078226164390369016 0 -0.48053676301872089 -0.037894780581222087 0 -0.46301178129232978 -0.02187806779797043 0 -0.48117157631119389 -0.012931689646465711 0 -0.48053676301872089 -0.037894780581222087 0 -0.48117157631119389 -0.012931689646465711 0 -0.50000000000000011 -0.0219479849710713 0 -0.48053676301872089 -0.037894780581222087 0 -0.50000000000000011 -0.0219479849710713 0 -0.48117157631119389 -0.012931689646465711 0 -0.50000000000000011 -0.0219479849710713 0 -0.5 -0.00084881764500477352 0 -0.48117157631119389 -0.012931689646465711 0 -0.5 -0.00084881764500477352 0 -0.48139660837598802 0.0078226164390369016 0 -0.5 -0.00084881764500477352 0 -0.49999999999999778 0.020250349681061819 0 -0.48139660837598802 0.0078226164390369016 0 -0.49999999999999778 0.020250349681061819 0 -0.48840732283381888 0.026655799404248118 0 -0.5 0.0443027411010809 0 -0.49999999999999778 0.020250349681061819 0 -0.48840732283381888 0.026655799404248118 0 -0.47185240970652348 0.02475849269578206 0 -0.49999999999999778 0.020250349681061819 0 -0.47185240970652348 0.02475849269578206 0 -0.49999999999999778 0.020250349681061819 0 -0.47185240970652348 0.02475849269578206 0 -0.48139660837598802 0.0078226164390369016 0 -0.47185240970652348 0.02475849269578206 0 -0.48139660837598802 0.0078226164390369016 0 -0.45718872997864202 0.014461896520912039 0 -0.49140722651229651 0.05574417311275006 0 -0.5 0.0443027411010809 0 -0.5 0.068355132521099982 0 -0.48840732283381888 0.026655799404248118 0 -0.49140722651229651 0.05574417311275006 0 -0.47809910788719528 0.042410605396908142 0 -0.48840732283381888 0.026655799404248118 0 -0.49140722651229651 0.05574417311275006 0 -0.5 0.0443027411010809 0 -0.48840732283381888 0.026655799404248118 0 -0.49140722651229651 0.05574417311275006 0 -0.48840732283381888 0.026655799404248118 0 -0.47185240970652348 0.02475849269578206 0 -0.47809910788719528 0.042410605396908142 0 -0.47185240970652348 0.02475849269578206 0 -0.47809910788719528 0.042410605396908142 0 -0.46117056434918707 0.046952265939651239 0 -0.49140722651229651 0.05574417311275006 0 -0.47809910788719528 0.042410605396908142 0 -0.47455069709915532 0.058298533690780002 0 -0.49140722651229651 0.05574417311275006 0 -0.47455069709915532 0.058298533690780002 0 -0.47937981738269381 0.073250250094443997 0 -0.47809910788719528 0.042410605396908142 0 -0.47455069709915532 0.058298533690780002 0 -0.46117056434918707 0.046952265939651239 0 -0.47455069709915532 0.058298533690780002 0 -0.46117056434918707 0.046952265939651239 0 -0.45648213149441419 0.073847849627488138 0 -0.47185240970652348 0.02475849269578206 0 -0.46117056434918707 0.046952265939651239 0 -0.44370481941304918 0.029266635710502621 0 -0.46117056434918707 0.046952265939651239 0 -0.44370481941304918 0.029266635710502621 0 -0.43601968030699462 0.05381131417635561 0 -0.46117056434918707 0.046952265939651239 0 -0.43601968030699462 0.05381131417635561 0 -0.45648213149441419 0.073847849627488138 0 -0.46108224724226721 -0.0030978492570717629 0 -0.45718872997864202 0.014461896520912039 0 -0.44117442088145342 0.0072486733986553099 0 -0.46108224724226721 -0.0030978492570717629 0 -0.48139660837598802 0.0078226164390369016 0 -0.45718872997864202 0.014461896520912039 0 -0.47185240970652348 0.02475849269578206 0 -0.45718872997864202 0.014461896520912039 0 -0.44370481941304918 0.029266635710502621 0 -0.47185240970652348 0.02475849269578206 0 -0.44370481941304918 0.029266635710502621 0 -0.45718872997864202 0.014461896520912039 0 -0.44370481941304918 0.029266635710502621 0 -0.44117442088145342 0.0072486733986553099 0 -0.42638940675436698 -0.0056256531811543584 0 -0.44117442088145342 0.0072486733986553099 0 -0.42238705196336462 0.01485906957159271 0 -0.42238705196336462 0.01485906957159271 0 -0.40815554168622692 0.002206413975669016 0 -0.4009798244407437 0.019500795468882878 0 -0.42638940675436698 -0.0056256531811543584 0 -0.42238705196336462 0.01485906957159271 0 -0.40815554168622692 0.002206413975669016 0 -0.42238705196336462 0.01485906957159271 0 -0.41555722911957488 0.033774778725223151 0 -0.4009798244407437 0.019500795468882878 0 -0.41280783903639218 0.034215123478325421 0 -0.40490030791562709 0.025913240406891341 0 -0.41555722911957488 0.033774778725223151 0 -0.4009798244407437 0.019500795468882878 0 -0.41555722911957488 0.033774778725223151 0 -0.4009798244407437 0.019500795468882878 0 -0.40490030791562709 0.025913240406891341 0 -0.44370481941304918 0.029266635710502621 0 -0.42238705196336462 0.01485906957159271 0 -0.41555722911957488 0.033774778725223151 0 -0.44370481941304918 0.029266635710502621 0 -0.44117442088145342 0.0072486733986553099 0 -0.42238705196336462 0.01485906957159271 0 -0.44370481941304918 0.029266635710502621 0 -0.41555722911957488 0.033774778725223151 0 -0.43601968030699462 0.05381131417635561 0 -0.42875110354891649 0.050953485394127918 0 -0.41555722911957488 0.033774778725223151 0 -0.43601968030699462 0.05381131417635561 0 -0.41555722911957488 0.033774778725223151 0 -0.44370481941304918 0.029266635710502621 0 -0.43601968030699462 0.05381131417635561 0 -0.41555722911957488 0.033774778725223151 0 -0.42875110354891649 0.050953485394127918 0 -0.42912632620479763 0.061108387016319148 0 -0.44469436806143908 0.067691847309932135 0 -0.43601968030699462 0.05381131417635561 0 -0.42875110354891649 0.050953485394127918 0 -0.44469436806143908 0.067691847309932135 0 -0.42875110354891649 0.050953485394127918 0 -0.44469436806143908 0.067691847309932135 0 -0.42875110354891649 0.050953485394127918 0 -0.41965193484799579 0.058765896509634048 0 -0.41758990135111329 0.050472312459434288 0 -0.42912632620479763 0.061108387016319148 0 -0.41965193484799579 0.058765896509634048 0 -0.42448548386988022 0.066379045645341889 0 -0.42875110354891649 0.050953485394127918 0 -0.42912632620479763 0.061108387016319148 0 -0.41965193484799579 0.058765896509634048 0 -0.42875110354891649 0.050953485394127918 0 -0.41758990135111329 0.050472312459434288 0 -0.41388826877453128 0.04422630618949145 0 -0.41965193484799579 0.058765896509634048 0 -0.41758990135111329 0.050472312459434288 0 -0.40849271246710578 0.049512426839404843 0 -0.41758990135111329 0.050472312459434288 0 -0.40849271246710578 0.049512426839404843 0 -0.41388826877453128 0.04422630618949145 0 -0.41965193484799579 0.058765896509634048 0 -0.40849271246710578 0.049512426839404843 0 -0.40752472171281212 0.062888685115384937 0 -0.42875110354891649 0.050953485394127918 0 -0.41388826877453128 0.04422630618949145 0 -0.41280783903639218 0.034215123478325421 0 -0.42875110354891649 0.050953485394127918 0 -0.41555722911957488 0.033774778725223151 0 -0.41280783903639218 0.034215123478325421 0 -0.42875110354891649 0.050953485394127918 0 -0.41280783903639218 0.034215123478325421 0 -0.41555722911957488 0.033774778725223151 0 -0.41280783903639218 0.034215123478325421 0 -0.40849271246710578 0.049512426839404843 0 -0.41388826877453128 0.04422630618949145 0 -0.40179978746912848 0.03597818277616479 0 -0.41388826877453128 0.04422630618949145 0 -0.41280783903639218 0.034215123478325421 0 -0.40179978746912848 0.03597818277616479 0 -0.41280783903639218 0.034215123478325421 0 -0.40179978746912848 0.03597818277616479 0 -0.40490030791562709 0.025913240406891341 0 -0.41555722911957488 0.033774778725223151 0 -0.41280783903639218 0.034215123478325421 0 -0.40490030791562709 0.025913240406891341 0 -0.41280783903639218 0.034215123478325421 0 -0.40179978746912848 0.03597818277616479 0 -0.40849271246710578 0.049512426839404843 0 -0.40179978746912848 0.03597818277616479 0 -0.3978171030192989 0.045261680400566891 0 -0.40179978746912848 0.03597818277616479 0 -0.3978171030192989 0.045261680400566891 0 -0.3882976427691649 0.041016442403958853 0 -0.40179978746912848 0.03597818277616479 0 -0.3882976427691649 0.041016442403958853 0 -0.39411685383878192 0.028101412510695319 0 -0.40849271246710578 0.049512426839404843 0 -0.39267826937179651 0.054539669582739092 0 -0.40849271246710578 0.049512426839404843 0 -0.39267826937179651 0.054539669582739092 0 -0.40752472171281212 0.062888685115384937 0 -0.40849271246710578 0.049512426839404843 0 -0.3978171030192989 0.045261680400566891 0 -0.39267826937179651 0.054539669582739092 0 -0.3978171030192989 0.045261680400566891 0 -0.39267826937179651 0.054539669582739092 0 -0.3882976427691649 0.041016442403958853 0 -0.39267826937179651 0.054539669582739092 0 -0.37686382627648812 0.059566912326076173 0 -0.39267826937179651 0.054539669582739092 0 -0.37686382627648812 0.059566912326076173 0 -0.38228359788929811 0.049573018091151201 0 -0.37686382627648812 0.059566912326076173 0 -0.38228359788929811 0.049573018091151201 0 -0.37297853684026472 0.043570833648204729 0 -0.39267826937179651 0.054539669582739092 0 -0.38228359788929811 0.049573018091151201 0 -0.3882976427691649 0.041016442403958853 0 -0.3882976427691649 0.041016442403958853 0 -0.37662329478181072 0.02964804260140318 0 -0.39411685383878192 0.028101412510695319 0 -0.38228359788929811 0.049573018091151201 0 -0.3882976427691649 0.041016442403958853 0 -0.37297853684026472 0.043570833648204729 0 -0.3882976427691649 0.041016442403958853 0 -0.37662329478181072 0.02964804260140318 0 -0.37297853684026472 0.043570833648204729 0 -0.37662329478181072 0.02964804260140318 0 -0.3862538346008611 0.019173941868192362 0 -0.39411685383878192 0.028101412510695319 0 -0.37662329478181072 0.02964804260140318 0 -0.3862538346008611 0.019173941868192362 0 -0.37314678018105701 0.01339264654743774 0 -0.3862538346008611 0.019173941868192362 0 -0.38640241976191247 0.0052268122125426614 0 -0.37314678018105701 0.01339264654743774 0 -0.37182501508308119 -0.0090471710437974549 0 -0.38640241976191247 0.0052268122125426614 0 -0.37314678018105701 0.01339264654743774 0 -0.3862538346008611 0.019173941868192362 0 -0.38640241976191247 0.0052268122125426614 0 -0.4009798244407437 0.019500795468882878 0 -0.40815554168622692 0.002206413975669016 0 -0.38640241976191247 0.0052268122125426614 0 -0.4009798244407437 0.019500795468882878 0 -0.38640241976191247 0.0052268122125426614 0 -0.4009798244407437 0.019500795468882878 0 -0.40179978746912848 0.03597818277616479 0 -0.40490030791562709 0.025913240406891341 0 -0.39411685383878192 0.028101412510695319 0 -0.4009798244407437 0.019500795468882878 0 -0.40490030791562709 0.025913240406891341 0 -0.39411685383878192 0.028101412510695319 0 -0.3862538346008611 0.019173941868192362 0 -0.4009798244407437 0.019500795468882878 0 -0.39411685383878192 0.028101412510695319 0 -0.39787261074598818 0.1137213262119607 0 -0.38106570054033839 0.1119830452970822 0 -0.40638158203367802 0.099065596004990292 0 -0.38106570054033839 0.1119830452970822 0 -0.38942178281776818 0.1000339765491864 0 -0.40638158203367802 0.099065596004990292 0 -0.38942178281776818 0.1000339765491864 0 -0.38516485465176981 0.08576296397807226 0 -0.40638158203367802 0.099065596004990292 0 -0.38106570054033839 0.1119830452970822 0 -0.40638158203367802 0.099065596004990292 0 -0.39787261074598818 0.1137213262119607 0 -0.40638158203367802 0.099065596004990292 0 -0.41043416637809482 0.1160868993729649 0 -0.40228768999346359 0.1242337042314007 0 -0.39787261074598818 0.1137213262119607 0 -0.41043416637809482 0.1160868993729649 0 -0.40228768999346359 0.1242337042314007 0 -0.39787261074598818 0.1137213262119607 0 -0.38939663799635399 0.1208065203185853 0 -0.39787261074598818 0.1137213262119607 0 -0.38939663799635399 0.1208065203185853 0 -0.38106570054033839 0.1119830452970822 0 -0.38939663799635399 0.1208065203185853 0 -0.37544119995975239 0.12280534652695139 0 -0.38106570054033839 0.1119830452970822 0 -0.38106570054033839 0.1119830452970822 0 -0.37410200397768079 0.1057928315089053 0 -0.37245261288649129 0.1149629637646797 0 -0.38106570054033839 0.1119830452970822 0 -0.38086471747470818 0.10100029163008931 0 -0.37410200397768079 0.1057928315089053 0 -0.38106570054033839 0.1119830452970822 0 -0.38942178281776818 0.1000339765491864 0 -0.38086471747470818 0.10100029163008931 0 -0.38942178281776818 0.1000339765491864 0 -0.38086471747470818 0.10100029163008931 0 -0.38516485465176981 0.08576296397807226 0 -0.38086471747470818 0.10100029163008931 0 -0.37105562265233832 0.096987641142951414 0 -0.37410200397768079 0.1057928315089053 0 -0.38086471747470818 0.10100029163008931 0 -0.38516485465176981 0.08576296397807226 0 -0.37105562265233832 0.096987641142951414 0 -0.37686382627648812 0.059566912326076173 0 -0.38116492605519597 0.07324825447153957 0 -0.39868289602266438 0.075202809630855877 0 -0.38516485465176981 0.08576296397807226 0 -0.38116492605519597 0.07324825447153957 0 -0.3639481272698617 0.072460331951153978 0 -0.39267826937179651 0.054539669582739092 0 -0.37686382627648812 0.059566912326076173 0 -0.39868289602266438 0.075202809630855877 0 -0.37686382627648812 0.059566912326076173 0 -0.39868289602266438 0.075202809630855877 0 -0.38516485465176981 0.08576296397807226 0 -0.38116492605519597 0.07324825447153957 0 -0.39868289602266438 0.075202809630855877 0 -0.39267826937179651 0.054539669582739092 0 -0.39868289602266438 0.075202809630855877 0 -0.40752472171281212 0.062888685115384937 0 -0.39868289602266438 0.075202809630855877 0 -0.40752472171281212 0.062888685115384937 0 -0.4094411230310947 0.071354470311190923 0 -0.38516485465176981 0.08576296397807226 0 -0.40638158203367802 0.099065596004990292 0 -0.38516485465176981 0.08576296397807226 0 -0.39868289602266438 0.075202809630855877 0 -0.40638158203367802 0.099065596004990292 0 -0.4205019657688418 0.090838706935634117 0 -0.42379635264119919 0.090179695021637876 0 -0.40638158203367802 0.099065596004990292 0 -0.39868289602266438 0.075202809630855877 0 -0.4205019657688418 0.090838706935634117 0 -0.40638158203367802 0.099065596004990292 0 -0.39868289602266438 0.075202809630855877 0 -0.41474245238122942 0.078325459575814133 0 -0.4205019657688418 0.090838706935634117 0 -0.39868289602266438 0.075202809630855877 0 -0.4205019657688418 0.090838706935634117 0 -0.41474245238122942 0.078325459575814133 0 -0.42166529944997938 0.084108190922307396 0 -0.4205019657688418 0.090838706935634117 0 -0.41474245238122942 0.078325459575814133 0 -0.42166529944997938 0.084108190922307396 0 -0.42089099593525059 0.077989437190979671 0 -0.39868289602266438 0.075202809630855877 0 -0.41474245238122942 0.078325459575814133 0 -0.4094411230310947 0.071354470311190923 0 -0.40752472171281212 0.062888685115384937 0 -0.4094411230310947 0.071354470311190923 0 -0.41727243407954562 0.070459142463916866 0 -0.41474245238122942 0.078325459575814133 0 -0.4094411230310947 0.071354470311190923 0 -0.41727243407954562 0.070459142463916866 0 -0.41474245238122942 0.078325459575814133 0 -0.41727243407954562 0.070459142463916866 0 -0.42089099593525059 0.077989437190979671 0 -0.41727243407954562 0.070459142463916866 0 -0.42089099593525059 0.077989437190979671 0 -0.42636259762216511 0.074451119311960204 0 -0.41965193484799579 0.058765896509634048 0 -0.41727243407954562 0.070459142463916866 0 -0.42448548386988022 0.066379045645341889 0 -0.41965193484799579 0.058765896509634048 0 -0.40752472171281212 0.062888685115384937 0 -0.41727243407954562 0.070459142463916866 0 -0.42448548386988022 0.066379045645341889 0 -0.42636259762216511 0.074451119311960204 0 -0.43168144901974942 0.067898326887639235 0 -0.42912632620479763 0.061108387016319148 0 -0.42448548386988022 0.066379045645341889 0 -0.43168144901974942 0.067898326887639235 0 -0.41727243407954562 0.070459142463916866 0 -0.42448548386988022 0.066379045645341889 0 -0.42636259762216511 0.074451119311960204 0 -0.42089099593525059 0.077989437190979671 0 -0.42636259762216511 0.074451119311960204 0 -0.42495813600666033 0.081023419925053991 0 -0.42636259762216511 0.074451119311960204 0 -0.43492651323139758 0.074700713573256847 0 -0.43068302820491361 0.082168480318466672 0 -0.42636259762216511 0.074451119311960204 0 -0.43492651323139758 0.074700713573256847 0 -0.43168144901974942 0.067898326887639235 0 -0.42912632620479763 0.061108387016319148 0 -0.43168144901974942 0.067898326887639235 0 -0.44469436806143908 0.067691847309932135 0 -0.43492651323139758 0.074700713573256847 0 -0.43168144901974942 0.067898326887639235 0 -0.44469436806143908 0.067691847309932135 0 -0.42379635264119919 0.090179695021637876 0 -0.43068302820491361 0.082168480318466672 0 -0.4412111232487208 0.081293794038286016 0 -0.42379635264119919 0.090179695021637876 0 -0.4412111232487208 0.081293794038286016 0 -0.42379635264119919 0.090179695021637876 0 -0.43692142729370592 0.092429965794795857 0 -0.4412111232487208 0.081293794038286016 0 -0.42166529944997938 0.084108190922307396 0 -0.4205019657688418 0.090838706935634117 0 -0.42379635264119919 0.090179695021637876 0 -0.42166529944997938 0.084108190922307396 0 -0.42379635264119919 0.090179695021637876 0 -0.4252757040756881 0.08436994654686647 0 -0.42379635264119919 0.090179695021637876 0 -0.4252757040756881 0.08436994654686647 0 -0.43068302820491361 0.082168480318466672 0 -0.42166529944997938 0.084108190922307396 0 -0.4252757040756881 0.08436994654686647 0 -0.42495813600666033 0.081023419925053991 0 -0.42166529944997938 0.084108190922307396 0 -0.42089099593525059 0.077989437190979671 0 -0.42495813600666033 0.081023419925053991 0 -0.42636259762216511 0.074451119311960204 0 -0.42495813600666033 0.081023419925053991 0 -0.43068302820491361 0.082168480318466672 0 -0.4252757040756881 0.08436994654686647 0 -0.42495813600666033 0.081023419925053991 0 -0.43068302820491361 0.082168480318466672 0 -0.43492651323139758 0.074700713573256847 0 -0.43068302820491361 0.082168480318466672 0 -0.4412111232487208 0.081293794038286016 0 -0.43692142729370592 0.092429965794795857 0 -0.42709956439938201 0.099097315690809054 0 -0.44033892627706028 0.10115391150825449 0 -0.42709956439938201 0.099097315690809054 0 -0.42805953375126582 0.11265741012436679 0 -0.44033892627706028 0.10115391150825449 0 -0.42379635264119919 0.090179695021637876 0 -0.43692142729370592 0.092429965794795857 0 -0.42709956439938201 0.099097315690809054 0 -0.42379635264119919 0.090179695021637876 0 -0.40638158203367802 0.099065596004990292 0 -0.40638158203367802 0.099065596004990292 0 -0.42805953375126582 0.11265741012436679 0 -0.42709956439938201 0.099097315690809054 0 -0.40638158203367802 0.099065596004990292 0 -0.42805953375126582 0.11265741012436679 0 -0.40638158203367802 0.099065596004990292 0 -0.41043416637809482 0.1160868993729649 0 -0.42805953375126582 0.11265741012436679 0 -0.42379635264119919 0.090179695021637876 0 -0.42709956439938201 0.099097315690809054 0 -0.40638158203367802 0.099065596004990292 0 -0.41043416637809482 0.1160868993729649 0 -0.42805953375126582 0.11265741012436679 0 -0.41756941536607828 0.13075646029210591 0 -0.40228768999346359 0.1242337042314007 0 -0.41043416637809482 0.1160868993729649 0 -0.41756941536607828 0.13075646029210591 0 -0.42805953375126582 0.11265741012436679 0 -0.41756941536607828 0.13075646029210591 0 -0.4315756348082227 0.1259643725802187 0 -0.42805953375126582 0.11265741012436679 0 -0.44973748546885378 0.1262492242437431 0 -0.4315756348082227 0.1259643725802187 0 -0.44412101312167268 0.1127108702694294 0 -0.46043530323856541 0.1185621429906128 0 -0.44973748546885378 0.1262492242437431 0 -0.42805953375126582 0.11265741012436679 0 -0.44412101312167268 0.1127108702694294 0 -0.44973748546885378 0.1262492242437431 0 -0.42805953375126582 0.11265741012436679 0 -0.44973748546885378 0.1262492242437431 0 -0.42805953375126582 0.11265741012436679 0 -0.44412101312167268 0.1127108702694294 0 -0.44033892627706028 0.10115391150825449 0 -0.44412101312167268 0.1127108702694294 0 -0.44033892627706028 0.10115391150825449 0 -0.45706167467009928 0.1058282059125438 0 -0.44033892627706028 0.10115391150825449 0 -0.45706167467009928 0.1058282059125438 0 -0.4496052761039076 0.091706905109428152 0 -0.43692142729370592 0.092429965794795857 0 -0.44033892627706028 0.10115391150825449 0 -0.4496052761039076 0.091706905109428152 0 -0.45706167467009928 0.1058282059125438 0 -0.46293979469024082 0.096544882282196653 0 -0.4496052761039076 0.091706905109428152 0 -0.45706167467009928 0.1058282059125438 0 -0.46293979469024082 0.096544882282196653 0 -0.46980205786677021 0.10722280872385501 0 -0.45706167467009928 0.1058282059125438 0 -0.46043530323856541 0.1185621429906128 0 -0.46980205786677021 0.10722280872385501 0 -0.46043530323856541 0.1185621429906128 0 -0.47382541002855882 0.11991837583332331 0 -0.46980205786677021 0.10722280872385501 0 -0.46043530323856541 0.1185621429906128 0 -0.44973748546885378 0.1262492242437431 0 -0.46589260212220629 0.1296129575815573 0 -0.44412101312167268 0.1127108702694294 0 -0.45706167467009928 0.1058282059125438 0 -0.46043530323856541 0.1185621429906128 0 -0.46043530323856541 0.1185621429906128 0 -0.47382541002855882 0.11991837583332331 0 -0.46589260212220629 0.1296129575815573 0 -0.43601968030699462 0.05381131417635561 0 -0.45648213149441419 0.073847849627488138 0 -0.44469436806143908 0.067691847309932135 0 -0.44903709999700731 0.08128068892084564 0 -0.46063763257396168 0.084430209225736311 0 -0.44469436806143908 0.067691847309932135 0 -0.46063763257396168 0.084430209225736311 0 -0.43601968030699462 0.05381131417635561 0 -0.44469436806143908 0.067691847309932135 0 -0.45648213149441419 0.073847849627488138 0 -0.44469436806143908 0.067691847309932135 0 -0.44903709999700731 0.08128068892084564 0 -0.4412111232487208 0.081293794038286016 0 -0.43492651323139758 0.074700713573256847 0 -0.44469436806143908 0.067691847309932135 0 -0.4412111232487208 0.081293794038286016 0 -0.44903709999700731 0.08128068892084564 0 -0.4412111232487208 0.081293794038286016 0 -0.4496052761039076 0.091706905109428152 0 -0.44903709999700731 0.08128068892084564 0 -0.4496052761039076 0.091706905109428152 0 -0.46063763257396168 0.084430209225736311 0 -0.43692142729370592 0.092429965794795857 0 -0.4412111232487208 0.081293794038286016 0 -0.4496052761039076 0.091706905109428152 0 -0.46063763257396168 0.084430209225736311 0 -0.45648213149441419 0.073847849627488138 0 -0.47694458268183382 0.093884385078620569 0 -0.46293979469024082 0.096544882282196653 0 -0.46063763257396168 0.084430209225736311 0 -0.47694458268183382 0.093884385078620569 0 -0.45648213149441419 0.073847849627488138 0 -0.47694458268183382 0.093884385078620569 0 -0.46293979469024082 0.096544882282196653 0 -0.4496052761039076 0.091706905109428152 0 -0.46063763257396168 0.084430209225736311 0 -0.44469436806143908 0.067691847309932135 0 -0.46063763257396168 0.084430209225736311 0 -0.45648213149441419 0.073847849627488138 0 -0.47455069709915532 0.058298533690780002 0 -0.45648213149441419 0.073847849627488138 0 -0.47937981738269381 0.073250250094443997 0 -0.45648213149441419 0.073847849627488138 0 -0.47937981738269381 0.073250250094443997 0 -0.47694458268183382 0.093884385078620569 0 -0.47937981738269381 0.073250250094443997 0 -0.49440713019077409 0.084832546821251964 0 -0.47694458268183382 0.093884385078620569 0 -0.5 0.092407523941119118 0 -0.49440713019077409 0.084832546821251964 0 -0.5 0.068355132521099982 0 -0.49140722651229651 0.05574417311275006 0 -0.49440713019077409 0.084832546821251964 0 -0.49140722651229651 0.05574417311275006 0 -0.49440713019077409 0.084832546821251964 0 -0.5 0.068355132521099982 0 -0.49140722651229651 0.05574417311275006 0 -0.47937981738269381 0.073250250094443997 0 -0.49440713019077409 0.084832546821251964 0 -0.47382541002855882 0.11991837583332331 0 -0.48513948844338739 0.1233628995286106 0 -0.47623520509095968 0.1293758589508138 0 -0.48073982688135558 0.1115970478944802 0 -0.47382541002855882 0.11991837583332331 0 -0.48513948844338739 0.1233628995286106 0 -0.48073982688135558 0.1115970478944802 0 -0.47382541002855882 0.11991837583332331 0 -0.46980205786677021 0.10722280872385501 0 -0.48073982688135558 0.1115970478944802 0 -0.46980205786677021 0.10722280872385501 0 -0.47694458268183382 0.093884385078620569 0 -0.46293979469024082 0.096544882282196653 0 -0.46980205786677021 0.10722280872385501 0 -0.47694458268183382 0.093884385078620569 0 -0.48073982688135558 0.1115970478944802 0 -0.47694458268183382 0.093884385078620569 0 -0.49740703386925261 0.11392092052975381 0 -0.49440713019077409 0.084832546821251964 0 -0.47694458268183382 0.093884385078620569 0 -0.49740703386925261 0.11392092052975381 0 -0.49440713019077409 0.084832546821251964 0 -0.49740703386925261 0.11392092052975381 0 -0.47694458268183382 0.093884385078620569 0 -0.49740703386925261 0.11392092052975381 0 -0.5 0.092407523941119118 0 -0.49440713019077409 0.084832546821251964 0 -0.49740703386925261 0.11392092052975381 0 -0.5 0.092407523941119118 0 -0.50000000000000089 0.1164599153611383 0 -0.49740703386925261 0.11392092052975381 0 -0.48073982688135558 0.1115970478944802 0 -0.49740703386925261 0.11392092052975381 0 -0.48513948844338739 0.1233628995286106 0 -0.50000000000000089 0.1164599153611383 0 -0.49740703386925261 0.11392092052975381 0 -0.50000000000000044 0.11886810046701519 0 -0.50000000000000089 0.1164599153611383 0 -0.49740703386925261 0.11392092052975381 0 -0.49740703386925261 0.11392092052975381 0 -0.48513948844338739 0.1233628995286106 0 -0.49816220046441689 0.12124334500956969 0 -0.49740703386925261 0.11392092052975381 0 -0.50000000000000044 0.11886810046701519 0 -0.49816220046441689 0.12124334500956969 0 -0.49740703386925261 0.11392092052975381 0 -0.49816220046441689 0.12124334500956969 0 -0.50000000000000044 0.11886810046701519 0 -0.49816220046441689 0.12124334500956969 0 -0.49816220046441689 0.12124334500956969 0 -0.50000000000000011 0.1390634503935719 0 -0.48008331976968649 0.14460920285976431 0 -0.48513948844338739 0.1233628995286106 0 -0.49816220046441689 0.12124334500956969 0 -0.48008331976968649 0.14460920285976431 0 -0.49816220046441689 0.12124334500956969 0 -0.50000000000000011 0.1390634503935719 0 -0.49816220046441689 0.12124334500956969 0 -0.48008331976968649 0.14460920285976431 0 -0.50000000000000044 0.11886810046701519 0 -0.49816220046441689 0.12124334500956969 0 -0.50000000000000011 0.1390634503935719 0 -0.48513948844338739 0.1233628995286106 0 -0.47623520509095968 0.1293758589508138 0 -0.48008331976968649 0.14460920285976431 0 -0.47623520509095968 0.1293758589508138 0 -0.48008331976968649 0.14460920285976431 0 -0.46589260212220629 0.1296129575815573 0 -0.47382541002855882 0.11991837583332331 0 -0.47623520509095968 0.1293758589508138 0 -0.46589260212220629 0.1296129575815573 0 -0.48008331976968649 0.14460920285976431 0 -0.48661457090927801 0.15937890191077531 0 -0.46645554359679903 0.16222227781980811 0 -0.48008331976968649 0.14460920285976431 0 -0.45924535163515029 0.13999162200387871 0 -0.48008331976968649 0.14460920285976431 0 -0.46645554359679903 0.16222227781980811 0 -0.48008331976968649 0.14460920285976431 0 -0.5 0.1490226313068449 0 -0.48661457090927801 0.15937890191077531 0 -0.50000000000000011 0.1390634503935719 0 -0.48008331976968649 0.14460920285976431 0 -0.5 0.1490226313068449 0 -0.48008331976968649 0.14460920285976431 0 -0.5 0.1490226313068449 0 -0.48661457090927801 0.15937890191077531 0 -0.5 0.17346746830242729 0 -0.48216767701213659 0.1733445329851413 0 -0.5 0.1490226313068449 0 -0.48661457090927801 0.15937890191077531 0 -0.5 0.17346746830242729 0 -0.5 0.17346746830242729 0 -0.5 0.19791230529800971 0 -0.48909640268524951 0.18928686585713519 0 -0.5 0.17346746830242729 0 -0.48216767701213659 0.1733445329851413 0 -0.48909640268524951 0.18928686585713519 0 -0.48216767701213659 0.1733445329851413 0 -0.46645554359679903 0.16222227781980811 0 -0.47016295021377141 0.18762765853965449 0 -0.48216767701213659 0.1733445329851413 0 -0.48909640268524951 0.18928686585713519 0 -0.47016295021377141 0.18762765853965449 0 -0.48661457090927801 0.15937890191077531 0 -0.48216767701213659 0.1733445329851413 0 -0.46645554359679903 0.16222227781980811 0 -0.46645554359679903 0.16222227781980811 0 -0.45282776742391168 0.17983535277985199 0 -0.44119429395693888 0.16959900862362759 0 -0.46645554359679903 0.16222227781980811 0 -0.45282776742391168 0.17983535277985199 0 -0.46645554359679903 0.16222227781980811 0 -0.45282776742391168 0.17983535277985199 0 -0.47016295021377141 0.18762765853965449 0 -0.45282776742391168 0.17983535277985199 0 -0.44119429395693888 0.16959900862362759 0 -0.430171372099654 0.18048007288461021 0 -0.45282776742391168 0.17983535277985199 0 -0.43919999125102438 0.19744842773989599 0 -0.430171372099654 0.18048007288461021 0 -0.46645554359679903 0.16222227781980811 0 -0.44119429395693888 0.16959900862362759 0 -0.44640581615911679 0.15595534215638551 0 -0.44119429395693888 0.16959900862362759 0 -0.44640581615911679 0.15595534215638551 0 -0.42855997766732201 0.16118428027209911 0 -0.44640581615911679 0.15595534215638551 0 -0.43860857090708238 0.14741442363823321 0 -0.45924535163515029 0.13999162200387871 0 -0.44640581615911679 0.15595534215638551 0 -0.43860857090708238 0.14741442363823321 0 -0.42855997766732201 0.16118428027209911 0 -0.43860857090708238 0.14741442363823321 0 -0.43840738350061431 0.13537404114799231 0 -0.45924535163515029 0.13999162200387871 0 -0.43840738350061431 0.13537404114799231 0 -0.44973748546885378 0.1262492242437431 0 -0.4315756348082227 0.1259643725802187 0 -0.43840738350061431 0.13537404114799231 0 -0.44973748546885378 0.1262492242437431 0 -0.45924535163515029 0.13999162200387871 0 -0.43840738350061431 0.13537404114799231 0 -0.45924535163515029 0.13999162200387871 0 -0.44973748546885378 0.1262492242437431 0 -0.45924535163515029 0.13999162200387871 0 -0.46589260212220629 0.1296129575815573 0 -0.48008331976968649 0.14460920285976431 0 -0.45924535163515029 0.13999162200387871 0 -0.46589260212220629 0.1296129575815573 0 -0.48008331976968649 0.14460920285976431 0 -0.46645554359679903 0.16222227781980811 0 -0.45924535163515029 0.13999162200387871 0 -0.46645554359679903 0.16222227781980811 0 -0.44640581615911679 0.15595534215638551 0 -0.45924535163515029 0.13999162200387871 0 -0.47746167250442739 0.23518364319834559 0 -0.5 0.24680197928917461 0 -0.5 0.22235714229359221 0 -0.47746167250442739 0.23518364319834559 0 -0.5 0.24680197928917461 0 -0.48174742632622591 0.26267148415134839 0 -0.47746167250442739 0.23518364319834559 0 -0.5 0.22235714229359221 0 -0.48892943257712312 0.21013472379580089 0 -0.47244039951520561 0.21037297929438781 0 -0.48892943257712312 0.21013472379580089 0 -0.48909640268524951 0.18928686585713519 0 -0.47746167250442739 0.23518364319834559 0 -0.47244039951520561 0.21037297929438781 0 -0.48892943257712312 0.21013472379580089 0 -0.5 0.22235714229359221 0 -0.48892943257712312 0.21013472379580089 0 -0.5 0.19791230529800971 0 -0.48892943257712312 0.21013472379580089 0 -0.5 0.19791230529800971 0 -0.48909640268524951 0.18928686585713519 0 -0.47244039951520561 0.21037297929438781 0 -0.48909640268524951 0.18928686585713519 0 -0.47244039951520561 0.21037297929438781 0 -0.48909640268524951 0.18928686585713519 0 -0.47016295021377141 0.18762765853965449 0 -0.47244039951520561 0.21037297929438781 0 -0.47016295021377141 0.18762765853965449 0 -0.45604900478710358 0.19826981896394991 0 -0.45282776742391168 0.17983535277985199 0 -0.47016295021377141 0.18762765853965449 0 -0.45604900478710358 0.19826981896394991 0 -0.45282776742391168 0.17983535277985199 0 -0.45604900478710358 0.19826981896394991 0 -0.43919999125102438 0.19744842773989599 0 -0.45282776742391168 0.17983535277985199 0 -0.43919999125102438 0.19744842773989599 0 -0.45604900478710358 0.19826981896394991 0 -0.43919999125102438 0.19744842773989599 0 -0.44561391553160479 0.21606467646595939 0 -0.43919999125102438 0.19744842773989599 0 -0.44561391553160479 0.21606467646595939 0 -0.42924180466184791 0.2161463826522674 0 -0.47244039951520561 0.21037297929438781 0 -0.45604900478710358 0.19826981896394991 0 -0.44561391553160479 0.21606467646595939 0 -0.47244039951520561 0.21037297929438781 0 -0.44561391553160479 0.21606467646595939 0 -0.4557843963451616 0.23145909273164031 0 -0.47746167250442739 0.23518364319834559 0 -0.47244039951520561 0.21037297929438781 0 -0.4557843963451616 0.23145909273164031 0 -0.47244039951520561 0.21037297929438781 0 -0.4557843963451616 0.23145909273164031 0 -0.44561391553160479 0.21606467646595939 0 -0.4557843963451616 0.23145909273164031 0 -0.44160107691704331 0.23439908681123331 0 -0.44561391553160479 0.21606467646595939 0 -0.44160107691704331 0.23439908681123331 0 -0.43257770912693111 0.23024941769103249 0 -0.44160107691704331 0.23439908681123331 0 -0.43490097040640141 0.24167704099864171 0 -0.43912839317511759 0.25254520616889292 0 -0.4557843963451616 0.23145909273164031 0 -0.44160107691704331 0.23439908681123331 0 -0.44489417937947112 0.24524585465468321 0 -0.4557843963451616 0.23145909273164031 0 -0.44489417937947112 0.24524585465468321 0 -0.4557843963451616 0.23145909273164031 0 -0.44489417937947112 0.24524585465468321 0 -0.45846266252483753 0.24284284235735401 0 -0.44160107691704331 0.23439908681123331 0 -0.44489417937947112 0.24524585465468321 0 -0.43912839317511759 0.25254520616889292 0 -0.44489417937947112 0.24524585465468321 0 -0.43912839317511759 0.25254520616889292 0 -0.44489417937947112 0.24524585465468321 0 -0.46349485265245188 0.25409615201793989 0 -0.47746167250442739 0.23518364319834559 0 -0.4557843963451616 0.23145909273164031 0 -0.45846266252483753 0.24284284235735401 0 -0.47746167250442739 0.23518364319834559 0 -0.45846266252483753 0.24284284235735401 0 -0.46349485265245188 0.25409615201793989 0 -0.44489417937947112 0.24524585465468321 0 -0.45846266252483753 0.24284284235735401 0 -0.46349485265245188 0.25409615201793989 0 -0.41114489440404911 0.24372301241290609 0 -0.42371249402636429 0.24496430638595909 0 -0.40940973629055483 0.22844423625927501 0 -0.41114489440404911 0.24372301241290609 0 -0.39900291061306947 0.24310488196607841 0 -0.41218198152883878 0.2558061968478077 0 -0.41114489440404911 0.24372301241290609 0 -0.40940973629055483 0.22844423625927501 0 -0.39900291061306947 0.24310488196607841 0 -0.41114489440404911 0.24372301241290609 0 -0.42371249402636429 0.24496430638595909 0 -0.41218198152883878 0.2558061968478077 0 -0.42371249402636429 0.24496430638595909 0 -0.43490097040640141 0.24167704099864171 0 -0.42800235038587181 0.25570551170095418 0 -0.42371249402636429 0.24496430638595909 0 -0.43257770912693111 0.23024941769103249 0 -0.40940973629055483 0.22844423625927501 0 -0.43490097040640141 0.24167704099864171 0 -0.43912839317511759 0.25254520616889292 0 -0.42800235038587181 0.25570551170095418 0 -0.44160107691704331 0.23439908681123331 0 -0.43490097040640141 0.24167704099864171 0 -0.43257770912693111 0.23024941769103249 0 -0.42371249402636429 0.24496430638595909 0 -0.43490097040640141 0.24167704099864171 0 -0.43257770912693111 0.23024941769103249 0 -0.44561391553160479 0.21606467646595939 0 -0.43257770912693111 0.23024941769103249 0 -0.42924180466184791 0.2161463826522674 0 -0.43257770912693111 0.23024941769103249 0 -0.40940973629055483 0.22844423625927501 0 -0.42924180466184791 0.2161463826522674 0 -0.40940973629055483 0.22844423625927501 0 -0.41616675894962057 0.2083506578746977 0 -0.42924180466184791 0.2161463826522674 0 -0.40940973629055483 0.22844423625927501 0 -0.41616675894962057 0.2083506578746977 0 -0.39813896175418662 0.2133467706857641 0 -0.43919999125102438 0.19744842773989599 0 -0.41616675894962057 0.2083506578746977 0 -0.42924180466184791 0.2161463826522674 0 -0.43919999125102438 0.19744842773989599 0 -0.41359875442010952 0.19084787821988181 0 -0.430171372099654 0.18048007288461021 0 -0.43919999125102438 0.19744842773989599 0 -0.41616675894962057 0.2083506578746977 0 -0.41359875442010952 0.19084787821988181 0 -0.41616675894962057 0.2083506578746977 0 -0.41359875442010952 0.19084787821988181 0 -0.4023986175876062 0.199258198409723 0 -0.41359875442010952 0.19084787821988181 0 -0.4023986175876062 0.199258198409723 0 -0.40148803796169902 0.18736985219477459 0 -0.4023986175876062 0.199258198409723 0 -0.38686818721781813 0.1982493051122535 0 -0.40148803796169902 0.18736985219477459 0 -0.38686818721781813 0.1982493051122535 0 -0.37519645952316549 0.18261475342418451 0 -0.36653377690935213 0.20231965915462871 0 -0.38686818721781813 0.1982493051122535 0 -0.37519645952316549 0.18261475342418451 0 -0.38686818721781813 0.1982493051122535 0 -0.38343147775039887 0.2147459535441113 0 -0.38686818721781813 0.1982493051122535 0 -0.38343147775039887 0.2147459535441113 0 -0.36653377690935213 0.20231965915462871 0 -0.38686818721781813 0.1982493051122535 0 -0.38343147775039887 0.2147459535441113 0 -0.39813896175418662 0.2133467706857641 0 -0.41616675894962057 0.2083506578746977 0 -0.4023986175876062 0.199258198409723 0 -0.39813896175418662 0.2133467706857641 0 -0.4023986175876062 0.199258198409723 0 -0.38686818721781813 0.1982493051122535 0 -0.39813896175418662 0.2133467706857641 0 -0.38686818721781813 0.1982493051122535 0 -0.39813896175418662 0.2133467706857641 0 -0.40940973629055483 0.22844423625927501 0 -0.39813896175418662 0.2133467706857641 0 -0.40940973629055483 0.22844423625927501 0 -0.39813896175418662 0.2133467706857641 0 -0.39415618283355502 0.22872774646068489 0 -0.40940973629055483 0.22844423625927501 0 -0.39415618283355502 0.22872774646068489 0 -0.39900291061306947 0.24310488196607841 0 -0.38343147775039887 0.2147459535441113 0 -0.39813896175418662 0.2133467706857641 0 -0.39415618283355502 0.22872774646068489 0 -0.38343147775039887 0.2147459535441113 0 -0.3799947682829804 0.2312426019759691 0 -0.38343147775039887 0.2147459535441113 0 -0.39415618283355502 0.22872774646068489 0 -0.3799947682829804 0.2312426019759691 0 -0.38343147775039887 0.2147459535441113 0 -0.3799947682829804 0.2312426019759691 0 -0.36730757515148282 0.21850016527079161 0 -0.39415618283355502 0.22872774646068489 0 -0.3799947682829804 0.2312426019759691 0 -0.38668524471081661 0.24119035222717281 0 -0.3799947682829804 0.2312426019759691 0 -0.38668524471081661 0.24119035222717281 0 -0.37626809273720202 0.25530351328170281 0 -0.38668524471081661 0.24119035222717281 0 -0.37626809273720202 0.25530351328170281 0 -0.38315214838275752 0.25264624329807728 0 -0.38668524471081661 0.24119035222717281 0 -0.39137366264664919 0.24850516045629631 0 -0.38315214838275752 0.25264624329807728 0 -0.38668524471081661 0.24119035222717281 0 -0.39137366264664919 0.24850516045629631 0 -0.39900291061306947 0.24310488196607841 0 -0.39137366264664919 0.24850516045629631 0 -0.39900291061306947 0.24310488196607841 0 -0.39665434687995338 0.25707916433385658 0 -0.39415618283355502 0.22872774646068489 0 -0.38668524471081661 0.24119035222717281 0 -0.39900291061306947 0.24310488196607841 0 -0.42449363950862612 0.14583663576224931 0 -0.42855997766732201 0.16118428027209911 0 -0.41112755805204171 0.15790711018362599 0 -0.41198924481842608 0.14302229464370819 0 -0.42449363950862612 0.14583663576224931 0 -0.41112755805204171 0.15790711018362599 0 -0.41198924481842608 0.14302229464370819 0 -0.41112755805204171 0.15790711018362599 0 -0.3971478557349149 0.14890557119168479 0 -0.40228768999346359 0.1242337042314007 0 -0.41198924481842608 0.14302229464370819 0 -0.41756941536607828 0.13075646029210591 0 -0.41198924481842608 0.14302229464370819 0 -0.41756941536607828 0.13075646029210591 0 -0.42449363950862612 0.14583663576224931 0 -0.43840738350061431 0.13537404114799231 0 -0.41756941536607828 0.13075646029210591 0 -0.4315756348082227 0.1259643725802187 0 -0.43840738350061431 0.13537404114799231 0 -0.41756941536607828 0.13075646029210591 0 -0.42449363950862612 0.14583663576224931 0 -0.43840738350061431 0.13537404114799231 0 -0.41756941536607828 0.13075646029210591 0 -0.43860857090708238 0.14741442363823321 0 -0.43840738350061431 0.13537404114799231 0 -0.42449363950862612 0.14583663576224931 0 -0.43860857090708238 0.14741442363823321 0 -0.42449363950862612 0.14583663576224931 0 -0.42855997766732201 0.16118428027209911 0 -0.44119429395693888 0.16959900862362759 0 -0.42855997766732201 0.16118428027209911 0 -0.430171372099654 0.18048007288461021 0 -0.42855997766732201 0.16118428027209911 0 -0.430171372099654 0.18048007288461021 0 -0.41256660910659487 0.1749164410800457 0 -0.41359875442010952 0.19084787821988181 0 -0.430171372099654 0.18048007288461021 0 -0.41256660910659487 0.1749164410800457 0 -0.41359875442010952 0.19084787821988181 0 -0.41256660910659487 0.1749164410800457 0 -0.40148803796169902 0.18736985219477459 0 -0.42855997766732201 0.16118428027209911 0 -0.41256660910659487 0.1749164410800457 0 -0.41112755805204171 0.15790711018362599 0 -0.39200802147636621 0.1735774381519691 0 -0.3971478557349149 0.14890557119168479 0 -0.41256660910659487 0.1749164410800457 0 -0.41112755805204171 0.15790711018362599 0 -0.39200802147636621 0.1735774381519691 0 -0.41112755805204171 0.15790711018362599 0 -0.39200802147636621 0.1735774381519691 0 -0.3971478557349149 0.14890557119168479 0 -0.38686818721781813 0.1982493051122535 0 -0.39200802147636621 0.1735774381519691 0 -0.40148803796169902 0.18736985219477459 0 -0.41256660910659487 0.1749164410800457 0 -0.39200802147636621 0.1735774381519691 0 -0.40148803796169902 0.18736985219477459 0 -0.38686818721781813 0.1982493051122535 0 -0.39200802147636621 0.1735774381519691 0 -0.37519645952316549 0.18261475342418451 0 -0.38686818721781813 0.1982493051122535 0 -0.39200802147636621 0.1735774381519691 0 -0.39200802147636621 0.1735774381519691 0 -0.37519645952316549 0.18261475342418451 0 -0.3795479557850166 0.16050568575239441 0 -0.39200802147636621 0.1735774381519691 0 -0.3795479557850166 0.16050568575239441 0 -0.3971478557349149 0.14890557119168479 0 -0.3795479557850166 0.16050568575239441 0 -0.38101949038963628 0.14522004989582621 0 -0.36934431764941023 0.1491218389435971 0 -0.3795479557850166 0.16050568575239441 0 -0.38101949038963628 0.14522004989582621 0 -0.3971478557349149 0.14890557119168479 0 -0.38101949038963628 0.14522004989582621 0 -0.3971478557349149 0.14890557119168479 0 -0.38635704508789659 0.1319391426343596 0 -0.40228768999346359 0.1242337042314007 0 -0.3971478557349149 0.14890557119168479 0 -0.38635704508789659 0.1319391426343596 0 -0.40228768999346359 0.1242337042314007 0 -0.38939663799635399 0.1208065203185853 0 -0.38635704508789659 0.1319391426343596 0 -0.40228768999346359 0.1242337042314007 0 -0.3971478557349149 0.14890557119168479 0 -0.40228768999346359 0.1242337042314007 0 -0.41198924481842608 0.14302229464370819 0 -0.3971478557349149 0.14890557119168479 0 -0.38939663799635399 0.1208065203185853 0 -0.37544119995975239 0.12280534652695139 0 -0.38635704508789659 0.1319391426343596 0 -0.38101949038963628 0.14522004989582621 0 -0.38635704508789659 0.1319391426343596 0 -0.37270027769094338 0.1356280109570952 0 -0.37544119995975239 0.12280534652695139 0 -0.38635704508789659 0.1319391426343596 0 -0.37270027769094338 0.1356280109570952 0 -0.37544119995975239 0.12280534652695139 0 -0.37270027769094338 0.1356280109570952 0 -0.36439458543836523 0.12797540632417859 0 -0.37544119995975239 0.12280534652695139 0 -0.36439458543836523 0.12797540632417859 0 -0.35574981904699898 0.12490049458917479 0 -0.37270027769094338 0.1356280109570952 0 -0.36439458543836523 0.12797540632417859 0 -0.36190162463239828 0.1415830072120631 0 -0.34792649557810301 0.14090059091706161 0 -0.34020649342698372 0.12658783992038439 0 -0.35574981904699898 0.12490049458917479 0 -0.36439458543836523 0.12797540632417859 0 -0.34792649557810301 0.14090059091706161 0 -0.36439458543836523 0.12797540632417859 0 -0.34792649557810301 0.14090059091706161 0 -0.36190162463239828 0.1415830072120631 0 -0.36439458543836523 0.12797540632417859 0 -0.34792649557810301 0.14090059091706161 0 -0.35574981904699898 0.12490049458917479 0 -0.34792649557810301 0.14090059091706161 0 -0.35514244680516988 0.15428918891838311 0 -0.33145840571784069 0.1538257755099447 0 -0.34792649557810301 0.14090059091706161 0 -0.35514244680516988 0.15428918891838311 0 -0.36190162463239828 0.1415830072120631 0 -0.35514244680516988 0.15428918891838311 0 -0.36190162463239828 0.1415830072120631 0 -0.36934431764941023 0.1491218389435971 0 -0.38101949038963628 0.14522004989582621 0 -0.37270027769094338 0.1356280109570952 0 -0.36934431764941023 0.1491218389435971 0 -0.37270027769094338 0.1356280109570952 0 -0.36190162463239828 0.1415830072120631 0 -0.36934431764941023 0.1491218389435971 0 -0.3795479557850166 0.16050568575239441 0 -0.36934431764941023 0.1491218389435971 0 -0.36352473182851253 0.16698020173611591 0 -0.37519645952316549 0.18261475342418451 0 -0.3795479557850166 0.16050568575239441 0 -0.36352473182851253 0.16698020173611591 0 -0.35514244680516988 0.15428918891838311 0 -0.36934431764941023 0.1491218389435971 0 -0.36352473182851253 0.16698020173611591 0 -0.37519645952316549 0.18261475342418451 0 -0.36352473182851253 0.16698020173611591 0 -0.37519645952316549 0.18261475342418451 0 -0.36352473182851253 0.16698020173611591 0 -0.35418176377335903 0.18683286862381929 0 -0.36352473182851253 0.16698020173611591 0 -0.35418176377335903 0.18683286862381929 0 -0.34272552109561571 0.1693848439078687 0 -0.35514244680516988 0.15428918891838311 0 -0.36352473182851253 0.16698020173611591 0 -0.34272552109561571 0.1693848439078687 0 -0.35514244680516988 0.15428918891838311 0 -0.34272552109561571 0.1693848439078687 0 -0.33145840571784069 0.1538257755099447 0 -0.34272552109561571 0.1693848439078687 0 -0.31499031585757631 0.16675096010282511 0 -0.33145840571784069 0.1538257755099447 0 -0.34272552109561571 0.1693848439078687 0 -0.31499031585757631 0.16675096010282511 0 -0.33030976007748231 0.18888909839754481 0 -0.35418176377335903 0.18683286862381929 0 -0.34272552109561571 0.1693848439078687 0 -0.33030976007748231 0.18888909839754481 0 -0.31499031585757631 0.16675096010282511 0 -0.33030976007748231 0.18888909839754481 0 -0.31499031585757631 0.16675096010282511 0 -0.33030976007748231 0.18888909839754481 0 -0.31102812829871862 0.18158948795277241 0 -0.31499031585757631 0.16675096010282511 0 -0.33145840571784069 0.1538257755099447 0 -0.31779474654464179 0.14653247850462789 0 -0.32831698525850539 0.13713536325503539 0 -0.33145840571784069 0.1538257755099447 0 -0.31499031585757631 0.16675096010282511 0 -0.31779474654464179 0.14653247850462789 0 -0.33145840571784069 0.1538257755099447 0 -0.31779474654464179 0.14653247850462789 0 -0.31389810188275918 0.12941397687467879 0 -0.32831698525850539 0.13713536325503539 0 -0.31389810188275918 0.12941397687467879 0 -0.32831698525850539 0.13713536325503539 0 -0.32748627975897499 0.1132916369686941 0 -0.34792649557810301 0.14090059091706161 0 -0.32831698525850539 0.13713536325503539 0 -0.34020649342698372 0.12658783992038439 0 -0.32831698525850539 0.13713536325503539 0 -0.34020649342698372 0.12658783992038439 0 -0.32748627975897499 0.1132916369686941 0 -0.34792649557810301 0.14090059091706161 0 -0.32831698525850539 0.13713536325503539 0 -0.33145840571784069 0.1538257755099447 0 -0.34792649557810301 0.14090059091706161 0 -0.33145840571784069 0.1538257755099447 0 -0.3609486485172943 0.2331653749869842 0 -0.33741795611643532 0.2377670276740825 0 -0.35087949811440472 0.2651036011791425 0 -0.3799947682829804 0.2312426019759691 0 -0.3609486485172943 0.2331653749869842 0 -0.37626809273720202 0.25530351328170281 0 -0.3609486485172943 0.2331653749869842 0 -0.37626809273720202 0.25530351328170281 0 -0.3799947682829804 0.2312426019759691 0 -0.3609486485172943 0.2331653749869842 0 -0.36730757515148282 0.21850016527079161 0 -0.3609486485172943 0.2331653749869842 0 -0.34562920429738819 0.2110272366922645 0 -0.3609486485172943 0.2331653749869842 0 -0.34562920429738819 0.2110272366922645 0 -0.33741795611643532 0.2377670276740825 0 -0.3609486485172943 0.2331653749869842 0 -0.34562920429738819 0.2110272366922645 0 -0.36730757515148282 0.21850016527079161 0 -0.38343147775039887 0.2147459535441113 0 -0.36730757515148282 0.21850016527079161 0 -0.36653377690935213 0.20231965915462871 0 -0.34562920429738819 0.2110272366922645 0 -0.36730757515148282 0.21850016527079161 0 -0.36653377690935213 0.20231965915462871 0 -0.37519645952316549 0.18261475342418451 0 -0.35418176377335903 0.18683286862381929 0 -0.36653377690935213 0.20231965915462871 0 -0.35418176377335903 0.18683286862381929 0 -0.34562920429738819 0.2110272366922645 0 -0.36653377690935213 0.20231965915462871 0 -0.35418176377335903 0.18683286862381929 0 -0.34562920429738819 0.2110272366922645 0 -0.33030976007748231 0.18888909839754481 0 -0.34562920429738819 0.2110272366922645 0 -0.33030976007748231 0.18888909839754481 0 -0.34562920429738819 0.2110272366922645 0 -0.33030976007748231 0.18888909839754481 0 -0.32039436002278537 0.2064535440584318 0 -0.33030976007748231 0.18888909839754481 0 -0.32039436002278537 0.2064535440584318 0 -0.31042054308569461 0.19333868886072181 0 -0.33030976007748231 0.18888909839754481 0 -0.31042054308569461 0.19333868886072181 0 -0.31102812829871862 0.18158948795277241 0 -0.32039436002278537 0.2064535440584318 0 -0.32444428727787711 0.2218108212578071 0 -0.30859956995018217 0.22048596792472699 0 -0.34562920429738819 0.2110272366922645 0 -0.32039436002278537 0.2064535440584318 0 -0.32444428727787711 0.2218108212578071 0 -0.34562920429738819 0.2110272366922645 0 -0.32444428727787711 0.2218108212578071 0 -0.33741795611643532 0.2377670276740825 0 -0.32444428727787711 0.2218108212578071 0 -0.3133906074344161 0.23559610693538369 0 -0.33741795611643532 0.2377670276740825 0 -0.32444428727787711 0.2218108212578071 0 -0.3133906074344161 0.23559610693538369 0 -0.30859956995018217 0.22048596792472699 0 -0.3133906074344161 0.23559610693538369 0 -0.31792582087499338 0.24857333167720139 0 -0.33741795611643532 0.2377670276740825 0 -0.31792582087499338 0.24857333167720139 0 -0.33741795611643532 0.2377670276740825 0 -0.33292854464936089 0.25658691240175402 0 -0.297284705384187 0.2349060365543392 0 -0.28092461048319461 0.23718788763054041 0 -0.29467130500282201 0.2500334565241451 0 -0.28092461048319461 0.23718788763054041 0 -0.29467130500282201 0.2500334565241451 0 -0.27141678913065059 0.2514935813710889 0 -0.31792582087499338 0.24857333167720139 0 -0.29467130500282201 0.2500334565241451 0 -0.3133906074344161 0.23559610693538369 0 -0.297284705384187 0.2349060365543392 0 -0.29467130500282201 0.2500334565241451 0 -0.3133906074344161 0.23559610693538369 0 -0.31792582087499338 0.24857333167720139 0 -0.29467130500282201 0.2500334565241451 0 -0.3133906074344161 0.23559610693538369 0 -0.297284705384187 0.2349060365543392 0 -0.30859956995018217 0.22048596792472699 0 -0.297284705384187 0.2349060365543392 0 -0.30859956995018217 0.22048596792472699 0 -0.29416279714690208 0.21862715557559989 0 -0.297284705384187 0.2349060365543392 0 -0.29416279714690208 0.21862715557559989 0 -0.27107121141061491 0.22147257082401681 0 -0.297284705384187 0.2349060365543392 0 -0.27107121141061491 0.22147257082401681 0 -0.28092461048319461 0.23718788763054041 0 -0.297284705384187 0.2349060365543392 0 -0.27107121141061491 0.22147257082401681 0 -0.28434255054770158 0.21025927790820659 0 -0.29416279714690208 0.21862715557559989 0 -0.27107121141061491 0.22147257082401681 0 -0.28434255054770158 0.21025927790820659 0 -0.29232295632029442 0.2035759523550954 0 -0.28517918945636428 0.19699702921857321 0 -0.29232295632029442 0.2035759523550954 0 -0.29416279714690208 0.21862715557559989 0 -0.30383903745983137 0.20521867983401171 0 -0.28434255054770158 0.21025927790820659 0 -0.29232295632029442 0.2035759523550954 0 -0.29416279714690208 0.21862715557559989 0 -0.30859956995018217 0.22048596792472699 0 -0.29416279714690208 0.21862715557559989 0 -0.30383903745983137 0.20521867983401171 0 -0.32039436002278537 0.2064535440584318 0 -0.30859956995018217 0.22048596792472699 0 -0.30383903745983137 0.20521867983401171 0 -0.29232295632029442 0.2035759523550954 0 -0.30383903745983137 0.20521867983401171 0 -0.2976254608775924 0.1946795491235539 0 -0.30383903745983137 0.20521867983401171 0 -0.31042054308569461 0.19333868886072181 0 -0.2976254608775924 0.1946795491235539 0 -0.32039436002278537 0.2064535440584318 0 -0.30383903745983137 0.20521867983401171 0 -0.31042054308569461 0.19333868886072181 0 -0.31042054308569461 0.19333868886072181 0 -0.2976254608775924 0.1946795491235539 0 -0.30226002758475029 0.1868752232497187 0 -0.2976254608775924 0.1946795491235539 0 -0.30226002758475029 0.1868752232497187 0 -0.29317458301200677 0.18550759217251109 0 -0.2976254608775924 0.1946795491235539 0 -0.28517918945636428 0.19699702921857321 0 -0.29317458301200677 0.18550759217251109 0 -0.29232295632029442 0.2035759523550954 0 -0.2976254608775924 0.1946795491235539 0 -0.28517918945636428 0.19699702921857321 0 -0.28517918945636428 0.19699702921857321 0 -0.29317458301200677 0.18550759217251109 0 -0.2841393697091007 0.18513756732846159 0 -0.27081660544218972 0.1993544537688629 0 -0.27070082135394191 0.1892960641999834 0 -0.2841393697091007 0.18513756732846159 0 -0.28517918945636428 0.19699702921857321 0 -0.27081660544218972 0.1993544537688629 0 -0.2841393697091007 0.18513756732846159 0 -0.27081660544218972 0.1993544537688629 0 -0.2841393697091007 0.18513756732846159 0 -0.28434255054770158 0.21025927790820659 0 -0.28517918945636428 0.19699702921857321 0 -0.27081660544218972 0.1993544537688629 0 -0.27081660544218972 0.1993544537688629 0 -0.27070082135394191 0.1892960641999834 0 -0.26196842672842591 0.19995152072442551 0 -0.27070082135394191 0.1892960641999834 0 -0.26463321044370169 0.18786665040068909 0 -0.26196842672842591 0.19995152072442551 0 -0.27081660544218972 0.1993544537688629 0 -0.27070082135394191 0.1892960641999834 0 -0.26463321044370169 0.18786665040068909 0 -0.25426478411770992 0.19034730362512831 0 -0.2467948536622826 0.20903181721070349 0 -0.26463321044370169 0.18786665040068909 0 -0.2467948536622826 0.20903181721070349 0 -0.26463321044370169 0.18786665040068909 0 -0.26196842672842591 0.19995152072442551 0 -0.2467948536622826 0.20903181721070349 0 -0.27081660544218972 0.1993544537688629 0 -0.26196842672842591 0.19995152072442551 0 -0.25689664274001373 0.21420861804188829 0 -0.27081660544218972 0.1993544537688629 0 -0.25689664274001373 0.21420861804188829 0 -0.26196842672842591 0.19995152072442551 0 -0.25689664274001373 0.21420861804188829 0 -0.2467948536622826 0.20903181721070349 0 -0.25689664274001373 0.21420861804188829 0 -0.2467948536622826 0.20903181721070349 0 -0.25689664274001373 0.21420861804188829 0 -0.27107121141061491 0.22147257082401681 0 -0.27081660544218972 0.1993544537688629 0 -0.25689664274001373 0.21420861804188829 0 -0.27107121141061491 0.22147257082401681 0 -0.28434255054770158 0.21025927790820659 0 -0.27081660544218972 0.1993544537688629 0 -0.27107121141061491 0.22147257082401681 0 -0.27081660544218972 0.1993544537688629 0 -0.27107121141061491 0.22147257082401681 0 -0.25689664274001373 0.21420861804188829 0 -0.2554867252069416 0.22602834298880131 0 -0.26306165105885321 0.23035639842222369 0 -0.25689664274001373 0.21420861804188829 0 -0.27107121141061491 0.22147257082401681 0 -0.26306165105885321 0.23035639842222369 0 -0.25689664274001373 0.21420861804188829 0 -0.24468675013050051 0.227237945379763 0 -0.25689664274001373 0.21420861804188829 0 -0.2554867252069416 0.22602834298880131 0 -0.24468675013050051 0.227237945379763 0 -0.2554867252069416 0.22602834298880131 0 -0.25169198418991667 0.2332592681522434 0 -0.25802685642858669 0.23422564405037019 0 -0.2554867252069416 0.22602834298880131 0 -0.25169198418991667 0.2332592681522434 0 -0.24468675013050051 0.227237945379763 0 -0.2554867252069416 0.22602834298880131 0 -0.25802685642858669 0.23422564405037019 0 -0.26306165105885321 0.23035639842222369 0 -0.25802685642858669 0.23422564405037019 0 -0.26306165105885321 0.23035639842222369 0 -0.26156171772490378 0.24096353427985009 0 -0.26306165105885321 0.23035639842222369 0 -0.26156171772490378 0.24096353427985009 0 -0.27141678913065059 0.2514935813710889 0 -0.25802685642858669 0.23422564405037019 0 -0.26156171772490378 0.24096353427985009 0 -0.25527911817801069 0.24177167171157041 0 -0.25169198418991667 0.2332592681522434 0 -0.25527911817801069 0.24177167171157041 0 -0.24635563063374369 0.2397952331105222 0 -0.25169198418991667 0.2332592681522434 0 -0.25802685642858669 0.23422564405037019 0 -0.25527911817801069 0.24177167171157041 0 -0.25527911817801069 0.24177167171157041 0 -0.2491247137749866 0.24705707552965961 0 -0.24635563063374369 0.2397952331105222 0 -0.25558382702726778 0.2474861388067077 0 -0.2555769544987711 0.25248814673828979 0 -0.2491247137749866 0.24705707552965961 0 -0.25527911817801069 0.24177167171157041 0 -0.25558382702726778 0.2474861388067077 0 -0.2491247137749866 0.24705707552965961 0 -0.25527911817801069 0.24177167171157041 0 -0.25558382702726778 0.2474861388067077 0 -0.26002417382841791 0.24697037584399731 0 -0.25558382702726778 0.2474861388067077 0 -0.26002417382841791 0.24697037584399731 0 -0.2555769544987711 0.25248814673828979 0 -0.26156171772490378 0.24096353427985009 0 -0.26002417382841791 0.24697037584399731 0 -0.27141678913065059 0.2514935813710889 0 -0.26156171772490378 0.24096353427985009 0 -0.25527911817801069 0.24177167171157041 0 -0.26002417382841791 0.24697037584399731 0 -0.27107121141061491 0.22147257082401681 0 -0.26306165105885321 0.23035639842222369 0 -0.27141678913065059 0.2514935813710889 0 -0.27107121141061491 0.22147257082401681 0 -0.27141678913065059 0.2514935813710889 0 -0.27107121141061491 0.22147257082401681 0 -0.28092461048319461 0.23718788763054041 0 -0.27141678913065059 0.2514935813710889 0 -0.30030992400653089 0.1455363167806529 0 -0.28247156722512201 0.1667014835906758 0 -0.30030992400653089 0.1455363167806529 0 -0.28247156722512201 0.1667014835906758 0 -0.27871411412224772 0.14521155747645409 0 -0.28850012903600541 0.12846997478177341 0 -0.30030992400653089 0.1455363167806529 0 -0.27871411412224772 0.14521155747645409 0 -0.28850012903600541 0.12846997478177341 0 -0.30030992400653089 0.1455363167806529 0 -0.31779474654464179 0.14653247850462789 0 -0.31389810188275918 0.12941397687467879 0 -0.30030992400653089 0.1455363167806529 0 -0.31389810188275918 0.12941397687467879 0 -0.30030992400653089 0.1455363167806529 0 -0.31389810188275918 0.12941397687467879 0 -0.28850012903600541 0.12846997478177341 0 -0.30030992400653089 0.1455363167806529 0 -0.31499031585757631 0.16675096010282511 0 -0.31779474654464179 0.14653247850462789 0 -0.30030992400653089 0.1455363167806529 0 -0.31499031585757631 0.16675096010282511 0 -0.30030992400653089 0.1455363167806529 0 -0.31499031585757631 0.16675096010282511 0 -0.30030992400653089 0.1455363167806529 0 -0.29746213397601162 0.17092068088806009 0 -0.31499031585757631 0.16675096010282511 0 -0.29905142264973922 0.17926079813903401 0 -0.31499031585757631 0.16675096010282511 0 -0.29746213397601162 0.17092068088806009 0 -0.29905142264973922 0.17926079813903401 0 -0.31499031585757631 0.16675096010282511 0 -0.31102812829871862 0.18158948795277241 0 -0.29905142264973922 0.17926079813903401 0 -0.31042054308569461 0.19333868886072181 0 -0.31102812829871862 0.18158948795277241 0 -0.30226002758475029 0.1868752232497187 0 -0.31102812829871862 0.18158948795277241 0 -0.29905142264973922 0.17926079813903401 0 -0.30226002758475029 0.1868752232497187 0 -0.29905142264973922 0.17926079813903401 0 -0.30226002758475029 0.1868752232497187 0 -0.29317458301200677 0.18550759217251109 0 -0.29746213397601162 0.17092068088806009 0 -0.2841393697091007 0.18513756732846159 0 -0.28247156722512201 0.1667014835906758 0 -0.29746213397601162 0.17092068088806009 0 -0.29317458301200677 0.18550759217251109 0 -0.2841393697091007 0.18513756732846159 0 -0.29746213397601162 0.17092068088806009 0 -0.29905142264973922 0.17926079813903401 0 -0.29317458301200677 0.18550759217251109 0 -0.29746213397601162 0.17092068088806009 0 -0.2841393697091007 0.18513756732846159 0 -0.30030992400653089 0.1455363167806529 0 -0.29746213397601162 0.17092068088806009 0 -0.28247156722512201 0.1667014835906758 0 -0.28247156722512201 0.1667014835906758 0 -0.26958563258702239 0.1574203786527936 0 -0.27871411412224772 0.14521155747645409 0 -0.28247156722512201 0.1667014835906758 0 -0.26899228579108991 0.17048495809956099 0 -0.26958563258702239 0.1574203786527936 0 -0.26899228579108991 0.17048495809956099 0 -0.26958563258702239 0.1574203786527936 0 -0.26015011028757301 0.1659884023525208 0 -0.27070082135394191 0.1892960641999834 0 -0.26463321044370169 0.18786665040068909 0 -0.28247156722512201 0.1667014835906758 0 -0.26463321044370169 0.18786665040068909 0 -0.28247156722512201 0.1667014835906758 0 -0.26463321044370169 0.18786665040068909 0 -0.28247156722512201 0.1667014835906758 0 -0.26899228579108991 0.17048495809956099 0 -0.27070082135394191 0.1892960641999834 0 -0.2841393697091007 0.18513756732846159 0 -0.28247156722512201 0.1667014835906758 0 -0.26463321044370169 0.18786665040068909 0 -0.26899228579108991 0.17048495809956099 0 -0.2620487744343315 0.1772360276838077 0 -0.26463321044370169 0.18786665040068909 0 -0.25426478411770992 0.19034730362512831 0 -0.25898200354599549 0.18370767997518431 0 -0.26463321044370169 0.18786665040068909 0 -0.25898200354599549 0.18370767997518431 0 -0.2620487744343315 0.1772360276838077 0 -0.25898200354599549 0.18370767997518431 0 -0.2620487744343315 0.1772360276838077 0 -0.25356511165812928 0.1797694995012781 0 -0.2620487744343315 0.1772360276838077 0 -0.25356511165812928 0.1797694995012781 0 -0.26015011028757301 0.1659884023525208 0 -0.25426478411770992 0.19034730362512831 0 -0.25898200354599549 0.18370767997518431 0 -0.25356511165812928 0.1797694995012781 0 -0.25426478411770992 0.19034730362512831 0 -0.25356511165812928 0.1797694995012781 0 -0.24646365782212221 0.19160384685664031 0 -0.26958563258702239 0.1574203786527936 0 -0.26015011028757301 0.1659884023525208 0 -0.2531894630615053 0.1541487088224906 0 -0.26899228579108991 0.17048495809956099 0 -0.2620487744343315 0.1772360276838077 0 -0.26015011028757301 0.1659884023525208 0 -0.25356511165812928 0.1797694995012781 0 -0.26015011028757301 0.1659884023525208 0 -0.24621570974082679 0.16593578283094709 0 -0.26015011028757301 0.1659884023525208 0 -0.2531894630615053 0.1541487088224906 0 -0.24621570974082679 0.16593578283094709 0 -0.2531894630615053 0.1541487088224906 0 -0.25955882074951758 0.1378087094577885 0 -0.24341254924341379 0.14304060987227959 0 -0.26958563258702239 0.1574203786527936 0 -0.2531894630615053 0.1541487088224906 0 -0.25955882074951758 0.1378087094577885 0 -0.26958563258702239 0.1574203786527936 0 -0.27871411412224772 0.14521155747645409 0 -0.25955882074951758 0.1378087094577885 0 -0.28850012903600541 0.12846997478177341 0 -0.27871411412224772 0.14521155747645409 0 -0.27211045944935858 0.12719219622894659 0 -0.27871411412224772 0.14521155747645409 0 -0.27211045944935858 0.12719219622894659 0 -0.25955882074951758 0.1378087094577885 0 -0.27211045944935858 0.12719219622894659 0 -0.25955882074951758 0.1378087094577885 0 -0.25255600415874591 0.11050659828016619 0 -0.25955882074951758 0.1378087094577885 0 -0.25255600415874591 0.11050659828016619 0 -0.23828138865505699 0.1275459490147807 0 -0.25255600415874591 0.11050659828016619 0 -0.27669033406548399 0.1114036327828911 0 -0.25255600415874591 0.11050659828016619 0 -0.26100533942655407 0.088737237352087037 0 -0.23928548338024519 0.090408763442209064 0 -0.25255600415874591 0.11050659828016619 0 -0.27669033406548399 0.1114036327828911 0 -0.26100533942655407 0.088737237352087037 0 -0.27669033406548399 0.1114036327828911 0 -0.28134531987548239 0.090215553955431543 0 -0.26100533942655407 0.088737237352087037 0 -0.27669033406548399 0.1114036327828911 0 -0.26100533942655407 0.088737237352087037 0 -0.27211045944935858 0.12719219622894659 0 -0.25255600415874591 0.11050659828016619 0 -0.27669033406548399 0.1114036327828911 0 -0.28850012903600541 0.12846997478177341 0 -0.27211045944935858 0.12719219622894659 0 -0.27669033406548399 0.1114036327828911 0 -0.28850012903600541 0.12846997478177341 0 -0.27669033406548399 0.1114036327828911 0 -0.30208830691222971 0.11234763487579109 0 -0.27669033406548399 0.1114036327828911 0 -0.30208830691222971 0.11234763487579109 0 -0.28850012903600541 0.12846997478177341 0 -0.27669033406548399 0.1114036327828911 0 -0.30208830691222971 0.11234763487579109 0 -0.30270848731079131 0.085403169262032314 0 -0.28134531987548239 0.090215553955431543 0 -0.27669033406548399 0.1114036327828911 0 -0.30208830691222971 0.11234763487579109 0 -0.28134531987548239 0.090215553955431543 0 -0.30208830691222971 0.11234763487579109 0 -0.30270848731079131 0.085403169262032314 0 -0.32056430313367312 0.095568127947716797 0 -0.31389810188275918 0.12941397687467879 0 -0.28850012903600541 0.12846997478177341 0 -0.30208830691222971 0.11234763487579109 0 -0.30498649539915851 0.065931941760573029 0 -0.30270848731079131 0.085403169262032314 0 -0.31872424807335648 0.078048863973734992 0 -0.30498649539915851 0.065931941760573029 0 -0.30270848731079131 0.085403169262032314 0 -0.28770921252449189 0.071752570729333817 0 -0.30270848731079131 0.085403169262032314 0 -0.28134531987548239 0.090215553955431543 0 -0.28770921252449189 0.071752570729333817 0 -0.30498649539915851 0.065931941760573029 0 -0.28770921252449189 0.071752570729333817 0 -0.28980057970888667 0.054267205020089353 0 -0.28770921252449189 0.071752570729333817 0 -0.26873342492873709 0.074652176854861918 0 -0.26828690802953242 0.05648468031617495 0 -0.28134531987548239 0.090215553955431543 0 -0.28770921252449189 0.071752570729333817 0 -0.26873342492873709 0.074652176854861918 0 -0.28134531987548239 0.090215553955431543 0 -0.26873342492873709 0.074652176854861918 0 -0.26100533942655407 0.088737237352087037 0 -0.26100533942655407 0.088737237352087037 0 -0.2453203447876251 0.066070841921282292 0 -0.26873342492873709 0.074652176854861918 0 -0.26100533942655407 0.088737237352087037 0 -0.2453203447876251 0.066070841921282292 0 -0.26873342492873709 0.074652176854861918 0 -0.26828690802953242 0.05648468031617495 0 -0.2453203447876251 0.066070841921282292 0 -0.26828690802953242 0.05648468031617495 0 -0.24453486225658161 0.039806531121919272 0 -0.2453203447876251 0.066070841921282292 0 -0.26828690802953242 0.05648468031617495 0 -0.26335129755996572 0.0297425305460302 0 -0.24453486225658161 0.039806531121919272 0 -0.2801468422484189 0.039539096393033588 0 -0.26828690802953242 0.05648468031617495 0 -0.26335129755996572 0.0297425305460302 0 -0.2801468422484189 0.039539096393033588 0 -0.26828690802953242 0.05648468031617495 0 -0.28980057970888667 0.054267205020089353 0 -0.26373197624483868 -0.0036612748820012771 0 -0.26202311766797348 0.0070081039554759708 0 -0.25739036423130879 0.001673337169956185 0 -0.26202311766797348 0.0070081039554759708 0 -0.25739036423130879 0.001673337169956185 0 -0.2486162619521525 0.0036775814081990411 0 -0.26202311766797348 0.0070081039554759708 0 -0.26335129755996572 0.0297425305460302 0 -0.23791317315995669 0.014378510395174619 0 -0.2801468422484189 0.039539096393033588 0 -0.26335129755996572 0.0297425305460302 0 -0.28720288199733152 0.021238261094402831 0 -0.26202311766797348 0.0070081039554759708 0 -0.26335129755996572 0.0297425305460302 0 -0.28720288199733152 0.021238261094402831 0 -0.27401714915440828 -0.0043927108579554621 0 -0.28613306217599022 -0.00036230248422268457 0 -0.26202311766797348 0.0070081039554759708 0 -0.28613306217599022 -0.00036230248422268457 0 -0.26202311766797348 0.0070081039554759708 0 -0.28613306217599022 -0.00036230248422268457 0 -0.26202311766797348 0.0070081039554759708 0 -0.28720288199733152 0.021238261094402831 0 -0.28613306217599022 -0.00036230248422268457 0 -0.28720288199733152 0.021238261094402831 0 -0.30757160788256122 0.015739676657500729 0 -0.30757160788256122 0.015739676657500729 0 -0.30487604623458869 0.045165439272805613 0 -0.31831827125163159 0.030086882392036881 0 -0.28720288199733152 0.021238261094402831 0 -0.30757160788256122 0.015739676657500729 0 -0.30487604623458869 0.045165439272805613 0 -0.31024300668400701 -0.0077327089239213366 0 -0.30757160788256122 0.015739676657500729 0 -0.31894200760651797 0.0053904449626188686 0 -0.28613306217599022 -0.00036230248422268457 0 -0.31024300668400701 -0.0077327089239213366 0 -0.30757160788256122 0.015739676657500729 0 -0.28770921252449189 0.071752570729333817 0 -0.26828690802953242 0.05648468031617495 0 -0.28980057970888667 0.054267205020089353 0 -0.2801468422484189 0.039539096393033588 0 -0.28980057970888667 0.054267205020089353 0 -0.30487604623458869 0.045165439272805613 0 -0.2801468422484189 0.039539096393033588 0 -0.28720288199733152 0.021238261094402831 0 -0.30487604623458869 0.045165439272805613 0 -0.2801468422484189 0.039539096393033588 0 -0.30487604623458869 0.045165439272805613 0 -0.30498649539915851 0.065931941760573029 0 -0.28980057970888667 0.054267205020089353 0 -0.30487604623458869 0.045165439272805613 0 -0.30498649539915851 0.065931941760573029 0 -0.30487604623458869 0.045165439272805613 0 -0.31925922948045238 0.062365248116841153 0 -0.30487604623458869 0.045165439272805613 0 -0.31925922948045238 0.062365248116841153 0 -0.32960525022075848 0.050791782152577639 0 -0.30487604623458869 0.045165439272805613 0 -0.32960525022075848 0.050791782152577639 0 -0.30487604623458869 0.045165439272805613 0 -0.32523122909392438 0.039593894000001947 0 -0.32960525022075848 0.050791782152577639 0 -0.30487604623458869 0.045165439272805613 0 -0.32523122909392438 0.039593894000001947 0 -0.31831827125163159 0.030086882392036881 0 -0.32523122909392438 0.039593894000001947 0 -0.31831827125163159 0.030086882392036881 0 -0.33313294736165039 0.02822865915055572 0 -0.33313294736165039 0.02822865915055572 0 -0.34073539354220811 0.029610372567893652 0 -0.35499838681906859 0.043897785738316618 0 -0.34022363040099263 0.043696707032033891 0 -0.33313294736165039 0.02822865915055572 0 -0.35499838681906859 0.043897785738316618 0 -0.32523122909392438 0.039593894000001947 0 -0.34022363040099263 0.043696707032033891 0 -0.32960525022075848 0.050791782152577639 0 -0.32523122909392438 0.039593894000001947 0 -0.34022363040099263 0.043696707032033891 0 -0.33313294736165039 0.02822865915055572 0 -0.31925922948045238 0.062365248116841153 0 -0.32960525022075848 0.050791782152577639 0 -0.33810410747440012 0.071888213424514458 0 -0.32960525022075848 0.050791782152577639 0 -0.35433445420692811 0.056418125032349623 0 -0.33810410747440012 0.071888213424514458 0 -0.34022363040099263 0.043696707032033891 0 -0.32960525022075848 0.050791782152577639 0 -0.35433445420692811 0.056418125032349623 0 -0.32960525022075848 0.050791782152577639 0 -0.35433445420692811 0.056418125032349623 0 -0.30757160788256122 0.015739676657500729 0 -0.31894200760651797 0.0053904449626188686 0 -0.32660077780175728 0.01810825823445994 0 -0.32628804600930222 -0.0029082911924787282 0 -0.31894200760651797 0.0053904449626188686 0 -0.33226616994459118 0.0066003457349348192 0 -0.31894200760651797 0.0053904449626188686 0 -0.32660077780175728 0.01810825823445994 0 -0.33226616994459118 0.0066003457349348192 0 -0.30757160788256122 0.015739676657500729 0 -0.32660077780175728 0.01810825823445994 0 -0.31831827125163159 0.030086882392036881 0 -0.32660077780175728 0.01810825823445994 0 -0.31831827125163159 0.030086882392036881 0 -0.33313294736165039 0.02822865915055572 0 -0.34073539354220811 0.029610372567893652 0 -0.33634696583764889 0.02351936439212669 0 -0.33904507051823651 0.01730494807312417 0 -0.33313294736165039 0.02822865915055572 0 -0.34073539354220811 0.029610372567893652 0 -0.33634696583764889 0.02351936439212669 0 -0.32660077780175728 0.01810825823445994 0 -0.33313294736165039 0.02822865915055572 0 -0.33634696583764889 0.02351936439212669 0 -0.32660077780175728 0.01810825823445994 0 -0.33634696583764889 0.02351936439212669 0 -0.33904507051823651 0.01730494807312417 0 -0.32660077780175728 0.01810825823445994 0 -0.33904507051823651 0.01730494807312417 0 -0.33226616994459118 0.0066003457349348192 0 -0.33904507051823651 0.01730494807312417 0 -0.34333991990506441 0.0050351683910539163 0 -0.33226616994459118 0.0066003457349348192 0 -0.3377395461791704 -0.0039958975625878079 0 -0.34333991990506441 0.0050351683910539163 0 -0.33226616994459118 0.0066003457349348192 0 -0.34840726856358067 -0.0085827278423882304 0 -0.34333991990506441 0.0050351683910539163 0 -0.35628020431264462 0.01028160076204811 0 -0.33904507051823651 0.01730494807312417 0 -0.34333991990506441 0.0050351683910539163 0 -0.35628020431264462 0.01028160076204811 0 -0.34073539354220811 0.029610372567893652 0 -0.33904507051823651 0.01730494807312417 0 -0.35628020431264462 0.01028160076204811 0 -0.34073539354220811 0.029610372567893652 0 -0.35628020431264462 0.01028160076204811 0 -0.34073539354220811 0.029610372567893652 0 -0.35628020431264462 0.01028160076204811 0 -0.35865366434166068 0.027190075071199409 0 -0.35628020431264462 0.01028160076204811 0 -0.35865366434166068 0.027190075071199409 0 -0.37314678018105701 0.01339264654743774 0 -0.37662329478181072 0.02964804260140318 0 -0.35865366434166068 0.027190075071199409 0 -0.37314678018105701 0.01339264654743774 0 -0.37662329478181072 0.02964804260140318 0 -0.35865366434166068 0.027190075071199409 0 -0.36457974227710083 0.036320271297138537 0 -0.37182501508308119 -0.0090471710437974549 0 -0.35628020431264462 0.01028160076204811 0 -0.37182501508308119 -0.0090471710437974549 0 -0.35628020431264462 0.01028160076204811 0 -0.37314678018105701 0.01339264654743774 0 -0.34022363040099263 0.043696707032033891 0 -0.35433445420692811 0.056418125032349623 0 -0.35499838681906859 0.043897785738316618 0 -0.34073539354220811 0.029610372567893652 0 -0.35865366434166068 0.027190075071199409 0 -0.35499838681906859 0.043897785738316618 0 -0.33313294736165039 0.02822865915055572 0 -0.35499838681906859 0.043897785738316618 0 -0.35499838681906859 0.043897785738316618 0 -0.36457974227710083 0.036320271297138537 0 -0.37297853684026472 0.043570833648204729 0 -0.35865366434166068 0.027190075071199409 0 -0.35499838681906859 0.043897785738316618 0 -0.36457974227710083 0.036320271297138537 0 -0.37662329478181072 0.02964804260140318 0 -0.36457974227710083 0.036320271297138537 0 -0.37297853684026472 0.043570833648204729 0 -0.37686382627648812 0.059566912326076173 0 -0.35433445420692811 0.056418125032349623 0 -0.35748396687544359 0.06572756287529391 0 -0.37686382627648812 0.059566912326076173 0 -0.35499838681906859 0.043897785738316618 0 -0.37297853684026472 0.043570833648204729 0 -0.37686382627648812 0.059566912326076173 0 -0.35433445420692811 0.056418125032349623 0 -0.35499838681906859 0.043897785738316618 0 -0.37686382627648812 0.059566912326076173 0 -0.35499838681906859 0.043897785738316618 0 -0.37686382627648812 0.059566912326076173 0 -0.38116492605519597 0.07324825447153957 0 -0.3639481272698617 0.072460331951153978 0 -0.37686382627648812 0.059566912326076173 0 -0.3639481272698617 0.072460331951153978 0 -0.35748396687544359 0.06572756287529391 0 -0.37686382627648812 0.059566912326076173 0 -0.35748396687544359 0.06572756287529391 0 -0.3639481272698617 0.072460331951153978 0 -0.35506157525720089 0.075372993320434345 0 -0.36511561298178741 0.085415474792531476 0 -0.35506157525720089 0.075372993320434345 0 -0.35218693620208541 0.083984368348540603 0 -0.33810410747440012 0.071888213424514458 0 -0.35748396687544359 0.06572756287529391 0 -0.35506157525720089 0.075372993320434345 0 -0.33810410747440012 0.071888213424514458 0 -0.35748396687544359 0.06572756287529391 0 -0.33810410747440012 0.071888213424514458 0 -0.35433445420692811 0.056418125032349623 0 -0.35748396687544359 0.06572756287529391 0 -0.33810410747440012 0.071888213424514458 0 -0.3639481272698617 0.072460331951153978 0 -0.35748396687544359 0.06572756287529391 0 -0.35506157525720089 0.075372993320434345 0 -0.35218693620208541 0.083984368348540603 0 -0.35749891175581461 0.095110416683400326 0 -0.33983660798053078 0.098638002658617857 0 -0.35218693620208541 0.083984368348540603 0 -0.33983660798053078 0.098638002658617857 0 -0.35506157525720089 0.075372993320434345 0 -0.35218693620208541 0.083984368348540603 0 -0.36511561298178741 0.085415474792531476 0 -0.35218693620208541 0.083984368348540603 0 -0.36511561298178741 0.085415474792531476 0 -0.35749891175581461 0.095110416683400326 0 -0.38516485465176981 0.08576296397807226 0 -0.3639481272698617 0.072460331951153978 0 -0.36511561298178741 0.085415474792531476 0 -0.38516485465176981 0.08576296397807226 0 -0.3639481272698617 0.072460331951153978 0 -0.36511561298178741 0.085415474792531476 0 -0.37105562265233832 0.096987641142951414 0 -0.35749891175581461 0.095110416683400326 0 -0.38516485465176981 0.08576296397807226 0 -0.36511561298178741 0.085415474792531476 0 -0.37105562265233832 0.096987641142951414 0 -0.37410200397768079 0.1057928315089053 0 -0.36275217514400671 0.105114911363877 0 -0.37245261288649129 0.1149629637646797 0 -0.37105562265233832 0.096987641142951414 0 -0.37410200397768079 0.1057928315089053 0 -0.36275217514400671 0.105114911363877 0 -0.37105562265233832 0.096987641142951414 0 -0.36275217514400671 0.105114911363877 0 -0.35749891175581461 0.095110416683400326 0 -0.36275217514400671 0.105114911363877 0 -0.37245261288649129 0.1149629637646797 0 -0.34996944632273308 0.1141273003666864 0 -0.37245261288649129 0.1149629637646797 0 -0.35574981904699898 0.12490049458917479 0 -0.34996944632273308 0.1141273003666864 0 -0.38106570054033839 0.1119830452970822 0 -0.37245261288649129 0.1149629637646797 0 -0.35574981904699898 0.12490049458917479 0 -0.37245261288649129 0.1149629637646797 0 -0.34996944632273308 0.1141273003666864 0 -0.37544119995975239 0.12280534652695139 0 -0.38106570054033839 0.1119830452970822 0 -0.35574981904699898 0.12490049458917479 0 -0.38106570054033839 0.1119830452970822 0 -0.35574981904699898 0.12490049458917479 0 -0.34020649342698372 0.12658783992038439 0 -0.35574981904699898 0.12490049458917479 0 -0.34996944632273308 0.1141273003666864 0 -0.35749891175581461 0.095110416683400326 0 -0.35171554240678649 0.10358840193329499 0 -0.33983660798053078 0.098638002658617857 0 -0.36275217514400671 0.105114911363877 0 -0.35749891175581461 0.095110416683400326 0 -0.35171554240678649 0.10358840193329499 0 -0.36275217514400671 0.105114911363877 0 -0.34996944632273308 0.1141273003666864 0 -0.35171554240678649 0.10358840193329499 0 -0.34996944632273308 0.1141273003666864 0 -0.35171554240678649 0.10358840193329499 0 -0.33983660798053078 0.098638002658617857 0 -0.34996944632273308 0.1141273003666864 0 -0.33983660798053078 0.098638002658617857 0 -0.32748627975897499 0.1132916369686941 0 -0.33983660798053078 0.098638002658617857 0 -0.32748627975897499 0.1132916369686941 0 -0.32056430313367312 0.095568127947716797 0 -0.33983660798053078 0.098638002658617857 0 -0.32748627975897499 0.1132916369686941 0 -0.34020649342698372 0.12658783992038439 0 -0.34996944632273308 0.1141273003666864 0 -0.32748627975897499 0.1132916369686941 0 -0.34996944632273308 0.1141273003666864 0 -0.32748627975897499 0.1132916369686941 0 -0.31389810188275918 0.12941397687467879 0 -0.30208830691222971 0.11234763487579109 0 -0.32748627975897499 0.1132916369686941 0 -0.31389810188275918 0.12941397687467879 0 -0.32748627975897499 0.1132916369686941 0 -0.30208830691222971 0.11234763487579109 0 -0.32748627975897499 0.1132916369686941 0 -0.30208830691222971 0.11234763487579109 0 -0.32748627975897499 0.1132916369686941 0 -0.32056430313367312 0.095568127947716797 0 -0.30270848731079131 0.085403169262032314 0 -0.32056430313367312 0.095568127947716797 0 -0.31872424807335648 0.078048863973734992 0 -0.32056430313367312 0.095568127947716797 0 -0.31872424807335648 0.078048863973734992 0 -0.33254188876615592 0.085679459947431452 0 -0.31925922948045238 0.062365248116841153 0 -0.31872424807335648 0.078048863973734992 0 -0.33810410747440012 0.071888213424514458 0 -0.30498649539915851 0.065931941760573029 0 -0.31925922948045238 0.062365248116841153 0 -0.31872424807335648 0.078048863973734992 0 -0.31872424807335648 0.078048863973734992 0 -0.33810410747440012 0.071888213424514458 0 -0.33983660798053078 0.098638002658617857 0 -0.32056430313367312 0.095568127947716797 0 -0.33254188876615592 0.085679459947431452 0 -0.31872424807335648 0.078048863973734992 0 -0.33810410747440012 0.071888213424514458 0 -0.33254188876615592 0.085679459947431452 0 -0.35218693620208541 0.083984368348540603 0 -0.33983660798053078 0.098638002658617857 0 -0.33254188876615592 0.085679459947431452 0 -0.35218693620208541 0.083984368348540603 0 -0.33810410747440012 0.071888213424514458 0 -0.33254188876615592 0.085679459947431452 0 -0.39635802861986452 0.47574942638695122 0 -0.40042161171824547 0.50000000000000022 0 -0.4161049301521087 0.47890209377116971 0 -0.39635802861986452 0.47574942638695122 0 -0.40042161171824547 0.50000000000000022 0 -0.37431124364099388 0.48752276825418861 0 -0.40042161171824547 0.50000000000000022 0 -0.37431124364099388 0.48752276825418861 0 -0.40042161171824547 0.50000000000000022 0 -0.37568398234958678 0.5 0 -0.37431124364099388 0.48752276825418861 0 -0.39635802861986452 0.47574942638695122 0 -0.37372448057167651 0.4677372576733706 0 -0.37431124364099388 0.48752276825418861 0 -0.39635802861986452 0.47574942638695122 0 -0.37431124364099388 0.48752276825418861 0 -0.39635802861986452 0.47574942638695122 0 -0.38691191737313019 0.45443137443027692 0 -0.37372448057167651 0.4677372576733706 0 -0.38691191737313019 0.45443137443027692 0 -0.37367702988880969 0.44292066756856707 0 -0.37372448057167651 0.4677372576733706 0 -0.38691191737313019 0.45443137443027692 0 -0.3983459991207976 0.43889657305396662 0 -0.37367702988880969 0.44292066756856707 0 -0.38691191737313019 0.45443137443027692 0 -0.40459622409839657 0.44726421634813213 0 -0.41489605999257573 0.45602728427041828 0 -0.38691191737313019 0.45443137443027692 0 -0.40459622409839657 0.44726421634813213 0 -0.3983459991207976 0.43889657305396662 0 -0.38691191737313019 0.45443137443027692 0 -0.41489605999257573 0.45602728427041828 0 -0.39635802861986452 0.47574942638695122 0 -0.38691191737313019 0.45443137443027692 0 -0.41489605999257573 0.45602728427041828 0 -0.39635802861986452 0.47574942638695122 0 -0.41489605999257573 0.45602728427041828 0 -0.41840481359873571 0.46397608451971523 0 -0.40459622409839657 0.44726421634813213 0 -0.3983459991207976 0.43889657305396662 0 -0.41823091990708278 0.43970163363786668 0 -0.40459622409839657 0.44726421634813213 0 -0.41489605999257573 0.45602728427041828 0 -0.41823091990708278 0.43970163363786668 0 -0.41489605999257573 0.45602728427041828 0 -0.41823091990708278 0.43970163363786668 0 -0.43374152343665101 0.44428044710797071 0 -0.41823091990708278 0.43970163363786668 0 -0.43374152343665101 0.44428044710797071 0 -0.43654227591617689 0.43015956122511728 0 -0.41489605999257573 0.45602728427041828 0 -0.43374152343665101 0.44428044710797071 0 -0.44288020261202132 0.45762319411055968 0 -0.41489605999257573 0.45602728427041828 0 -0.44288020261202132 0.45762319411055968 0 -0.41840481359873571 0.46397608451971523 0 -0.43263419746315951 0.47145209736357979 0 -0.44288020261202132 0.45762319411055968 0 -0.41489605999257573 0.45602728427041828 0 -0.41840481359873571 0.46397608451971523 0 -0.44288020261202132 0.45762319411055968 0 -0.40042161171824547 0.50000000000000022 0 -0.4161049301521087 0.47890209377116971 0 -0.43255362756128501 0.48572502646670962 0 -0.41840481359873571 0.46397608451971523 0 -0.43263419746315951 0.47145209736357979 0 -0.4161049301521087 0.47890209377116971 0 -0.43263419746315951 0.47145209736357979 0 -0.4161049301521087 0.47890209377116971 0 -0.43255362756128501 0.48572502646670962 0 -0.40042161171824547 0.50000000000000022 0 -0.43255362756128501 0.48572502646670962 0 -0.45816115846683481 0.5 0 -0.39635802861986452 0.47574942638695122 0 -0.41840481359873571 0.46397608451971523 0 -0.39635802861986452 0.47574942638695122 0 -0.41840481359873571 0.46397608451971523 0 -0.4161049301521087 0.47890209377116971 0 -0.43255362756128501 0.48572502646670962 0 -0.45292266979314039 0.47581841971196021 0 -0.45816115846683481 0.5 0 -0.43263419746315951 0.47145209736357979 0 -0.43255362756128501 0.48572502646670962 0 -0.45292266979314039 0.47581841971196021 0 -0.45292266979314039 0.47581841971196021 0 -0.47638963469828838 0.47950215282521319 0 -0.47086434523146681 0.45921910395070109 0 -0.45292266979314039 0.47581841971196021 0 -0.45816115846683481 0.5 0 -0.47638963469828838 0.47950215282521319 0 -0.45816115846683481 0.5 0 -0.5 0.5 0 -0.47638963469828838 0.47950215282521319 0 -0.5 0.5 0 -0.47638963469828838 0.47950215282521319 0 -0.5 0.46247324046340488 0 -0.5 0.46247324046340488 0 -0.47689003271835001 0.43656214575625718 0 -0.50000000000000777 0.43410856881330911 0 -0.47638963469828838 0.47950215282521319 0 -0.5 0.46247324046340488 0 -0.47086434523146681 0.45921910395070109 0 -0.5 0.46247324046340488 0 -0.47086434523146681 0.45921910395070109 0 -0.47689003271835001 0.43656214575625718 0 -0.47086434523146681 0.45921910395070109 0 -0.453318865652244 0.44087093843671432 0 -0.44288020261202132 0.45762319411055968 0 -0.47086434523146681 0.45921910395070109 0 -0.453318865652244 0.44087093843671432 0 -0.47689003271835001 0.43656214575625718 0 -0.45292266979314039 0.47581841971196021 0 -0.47086434523146681 0.45921910395070109 0 -0.44288020261202132 0.45762319411055968 0 -0.47086434523146681 0.45921910395070109 0 -0.44288020261202132 0.45762319411055968 0 -0.43263419746315951 0.47145209736357979 0 -0.45292266979314039 0.47581841971196021 0 -0.44288020261202132 0.45762319411055968 0 -0.43374152343665101 0.44428044710797071 0 -0.453318865652244 0.44087093843671432 0 -0.43654227591617689 0.43015956122511728 0 -0.43374152343665101 0.44428044710797071 0 -0.453318865652244 0.44087093843671432 0 -0.44288020261202132 0.45762319411055968 0 -0.453318865652244 0.44087093843671432 0 -0.45899481399879832 0.41738117846968048 0 -0.43654227591617689 0.43015956122511728 0 -0.45899481399879832 0.41738117846968048 0 -0.44480231653268182 0.39334523432477908 0 -0.43530166436593049 0.41241883763981929 0 -0.45899481399879832 0.41738117846968048 0 -0.43530166436593049 0.41241883763981929 0 -0.43654227591617689 0.43015956122511728 0 -0.453318865652244 0.44087093843671432 0 -0.45899481399879832 0.41738117846968048 0 -0.47689003271835001 0.43656214575625718 0 -0.45899481399879832 0.41738117846968048 0 -0.47689003271835001 0.43656214575625718 0 -0.48643357546909582 0.4145037203528068 0 -0.45899481399879832 0.41738117846968048 0 -0.48643357546909582 0.4145037203528068 0 -0.47286715093817622 0.39489887189230988 0 -0.48643357546909582 0.4145037203528068 0 -0.5 0.41525474230803988 0 -0.50000000000000022 0.3964009158027707 0 -0.48643357546909582 0.4145037203528068 0 -0.5 0.41525474230803988 0 -0.50000000000000777 0.43410856881330911 0 -0.48643357546909582 0.4145037203528068 0 -0.50000000000000777 0.43410856881330911 0 -0.47689003271835001 0.43656214575625718 0 -0.48643357546909582 0.4145037203528068 0 -0.50000000000000777 0.43410856881330911 0 -0.50000000000000022 0.3964009158027707 0 -0.48005992122754682 0.37529935498870182 0 -0.5 0.36747178573013062 0 -0.48643357546909582 0.4145037203528068 0 -0.50000000000000022 0.3964009158027707 0 -0.47286715093817622 0.39489887189230988 0 -0.50000000000000022 0.3964009158027707 0 -0.47286715093817622 0.39489887189230988 0 -0.48643357546909582 0.4145037203528068 0 -0.47286715093817622 0.39489887189230988 0 -0.47286715093817622 0.39489887189230988 0 -0.48005992122754682 0.37529935498870182 0 -0.45804851353760567 0.3734844498412187 0 -0.50000000000000022 0.3964009158027707 0 -0.47286715093817622 0.39489887189230988 0 -0.48005992122754682 0.37529935498870182 0 -0.47286715093817622 0.39489887189230988 0 -0.45804851353760567 0.3734844498412187 0 -0.47286715093817622 0.39489887189230988 0 -0.44480231653268182 0.39334523432477908 0 -0.45804851353760567 0.3734844498412187 0 -0.47286715093817622 0.39489887189230988 0 -0.44480231653268182 0.39334523432477908 0 -0.45899481399879832 0.41738117846968048 0 -0.47286715093817622 0.39489887189230988 0 -0.44480231653268182 0.39334523432477908 0 -0.44480231653268182 0.39334523432477908 0 -0.43836616875893308 0.37470494701044088 0 -0.45804851353760567 0.3734844498412187 0 -0.41884026175038652 0.37742115844403601 0 -0.42295771124141451 0.39662881645819381 0 -0.43836616875893308 0.37470494701044088 0 -0.44480231653268182 0.39334523432477908 0 -0.42295771124141451 0.39662881645819381 0 -0.43836616875893308 0.37470494701044088 0 -0.41884026175038652 0.37742115844403601 0 -0.40773180980570822 0.38744790075013602 0 -0.40343465057908479 0.36858025815622991 0 -0.41884026175038652 0.37742115844403601 0 -0.40773180980570822 0.38744790075013602 0 -0.42295771124141451 0.39662881645819381 0 -0.40773180980570822 0.38744790075013602 0 -0.42295771124141451 0.39662881645819381 0 -0.4002029652238388 0.40381193133105109 0 -0.44480231653268182 0.39334523432477908 0 -0.42295771124141451 0.39662881645819381 0 -0.43530166436593049 0.41241883763981929 0 -0.42295771124141451 0.39662881645819381 0 -0.43530166436593049 0.41241883763981929 0 -0.41390806241870398 0.42260005083566782 0 -0.43530166436593049 0.41241883763981929 0 -0.43654227591617689 0.43015956122511728 0 -0.41390806241870398 0.42260005083566782 0 -0.41823091990708278 0.43970163363786668 0 -0.43654227591617689 0.43015956122511728 0 -0.41390806241870398 0.42260005083566782 0 -0.3983459991207976 0.43889657305396662 0 -0.41823091990708278 0.43970163363786668 0 -0.41390806241870398 0.42260005083566782 0 -0.42295771124141451 0.39662881645819381 0 -0.41390806241870398 0.42260005083566782 0 -0.4002029652238388 0.40381193133105109 0 -0.41390806241870398 0.42260005083566782 0 -0.38804131296897509 0.42350421990885673 0 -0.4002029652238388 0.40381193133105109 0 -0.3983459991207976 0.43889657305396662 0 -0.41390806241870398 0.42260005083566782 0 -0.38804131296897509 0.42350421990885673 0 -0.38804131296897509 0.42350421990885673 0 -0.36667907265947169 0.42428756698413178 0 -0.37367702988880969 0.44292066756856707 0 -0.3983459991207976 0.43889657305396662 0 -0.38804131296897509 0.42350421990885673 0 -0.37367702988880969 0.44292066756856707 0 -0.38804131296897509 0.42350421990885673 0 -0.37601452094921628 0.40619323521117479 0 -0.36667907265947169 0.42428756698413178 0 -0.38804131296897509 0.42350421990885673 0 -0.37601452094921628 0.40619323521117479 0 -0.4002029652238388 0.40381193133105109 0 -0.37601452094921628 0.40619323521117479 0 -0.38810728179362253 0.38730624080423592 0 -0.4002029652238388 0.40381193133105109 0 -0.38810728179362253 0.38730624080423592 0 -0.38298429536172041 0.37030070206726973 0 -0.35960082118597642 0.38672984938688909 0 -0.38810728179362253 0.38730624080423592 0 -0.40343465057908479 0.36858025815622991 0 -0.38298429536172041 0.37030070206726973 0 -0.40773180980570822 0.38744790075013602 0 -0.38810728179362253 0.38730624080423592 0 -0.40343465057908479 0.36858025815622991 0 -0.40773180980570822 0.38744790075013602 0 -0.38810728179362253 0.38730624080423592 0 -0.4002029652238388 0.40381193133105109 0 -0.39225114158756902 0.35589649250054389 0 -0.41033119016201358 0.34327604911979093 0 -0.39225114158756902 0.35589649250054389 0 -0.40343465057908479 0.36858025815622991 0 -0.41033119016201358 0.34327604911979093 0 -0.39225114158756902 0.35589649250054389 0 -0.40343465057908479 0.36858025815622991 0 -0.38298429536172041 0.37030070206726973 0 -0.39225114158756902 0.35589649250054389 0 -0.38298429536172041 0.37030070206726973 0 -0.36816244632423872 0.36171766744507522 0 -0.39225114158756902 0.35589649250054389 0 -0.37672407146250098 0.33670548550326118 0 -0.36816244632423872 0.36171766744507522 0 -0.39225114158756902 0.35589649250054389 0 -0.37672407146250098 0.33670548550326118 0 -0.40027368285516618 0.32552971206262821 0 -0.37672407146250098 0.33670548550326118 0 -0.40027368285516618 0.32552971206262821 0 -0.38528569660076328 0.3116933035614472 0 -0.37672407146250098 0.33670548550326118 0 -0.38528569660076328 0.3116933035614472 0 -0.40027368285516618 0.32552971206262821 0 -0.4153754522366449 0.31181758262470588 0 -0.38528569660076328 0.3116933035614472 0 -0.39225114158756902 0.35589649250054389 0 -0.40027368285516618 0.32552971206262821 0 -0.41033119016201358 0.34327604911979093 0 -0.40027368285516618 0.32552971206262821 0 -0.41033119016201358 0.34327604911979093 0 -0.42841123873645959 0.33065560573903979 0 -0.41033119016201358 0.34327604911979093 0 -0.42841123873645959 0.33065560573903979 0 -0.40027368285516618 0.32552971206262821 0 -0.42841123873645959 0.33065560573903979 0 -0.4153754522366449 0.31181758262470588 0 -0.42841123873645959 0.33065560573903979 0 -0.43403113970961588 0.30413286281168861 0 -0.4153754522366449 0.31181758262470588 0 -0.42841123873645959 0.33065560573903979 0 -0.4153754522366449 0.31181758262470588 0 -0.42841123873645959 0.33065560573903979 0 -0.44322987613703269 0.3520700277901293 0 -0.42841123873645959 0.33065560573903979 0 -0.42343648220460928 0.35816754982673138 0 -0.44322987613703269 0.3520700277901293 0 -0.41033119016201358 0.34327604911979093 0 -0.42841123873645959 0.33065560573903979 0 -0.42343648220460928 0.35816754982673138 0 -0.40343465057908479 0.36858025815622991 0 -0.41033119016201358 0.34327604911979093 0 -0.42343648220460928 0.35816754982673138 0 -0.41884026175038652 0.37742115844403601 0 -0.40343465057908479 0.36858025815622991 0 -0.42343648220460928 0.35816754982673138 0 -0.42343648220460928 0.35816754982673138 0 -0.43836616875893308 0.37470494701044088 0 -0.44322987613703269 0.3520700277901293 0 -0.41884026175038652 0.37742115844403601 0 -0.42343648220460928 0.35816754982673138 0 -0.43836616875893308 0.37470494701044088 0 -0.44322987613703269 0.3520700277901293 0 -0.45804851353760567 0.3734844498412187 0 -0.43836616875893308 0.37470494701044088 0 -0.44322987613703269 0.3520700277901293 0 -0.45804851353760567 0.3734844498412187 0 -0.44322987613703269 0.3520700277901293 0 -0.47349657200923212 0.35196559283302398 0 -0.45552692351462393 0.33488129231644309 0 -0.44322987613703269 0.3520700277901293 0 -0.45804851353760567 0.3734844498412187 0 -0.47349657200923212 0.35196559283302398 0 -0.48005992122754682 0.37529935498870182 0 -0.45804851353760567 0.3734844498412187 0 -0.47349657200923212 0.35196559283302398 0 -0.47349657200923212 0.35196559283302398 0 -0.5 0.36747178573013062 0 -0.5 0.33854265565749059 0 -0.48005992122754682 0.37529935498870182 0 -0.47349657200923212 0.35196559283302398 0 -0.5 0.36747178573013062 0 -0.5 0.33854265565749059 0 -0.47623912237671939 0.32439051127384277 0 -0.5 0.30961352558485039 0 -0.47349657200923212 0.35196559283302398 0 -0.5 0.33854265565749059 0 -0.47623912237671939 0.32439051127384277 0 -0.47623912237671939 0.32439051127384277 0 -0.45552692351462393 0.33488129231644309 0 -0.45227415915763969 0.31399853566342889 0 -0.47349657200923212 0.35196559283302398 0 -0.47623912237671939 0.32439051127384277 0 -0.45552692351462393 0.33488129231644309 0 -0.42841123873645959 0.33065560573903979 0 -0.44322987613703269 0.3520700277901293 0 -0.45552692351462393 0.33488129231644309 0 -0.42841123873645959 0.33065560573903979 0 -0.45552692351462393 0.33488129231644309 0 -0.45227415915763969 0.31399853566342889 0 -0.42841123873645959 0.33065560573903979 0 -0.45227415915763969 0.31399853566342889 0 -0.42841123873645959 0.33065560573903979 0 -0.45227415915763969 0.31399853566342889 0 -0.43403113970961588 0.30413286281168861 0 -0.45227415915763969 0.31399853566342889 0 -0.45315601142519318 0.29132598235765139 0 -0.43403113970961588 0.30413286281168861 0 -0.45315601142519318 0.29132598235765139 0 -0.43524576794897413 0.28212054866432928 0 -0.43403113970961588 0.30413286281168861 0 -0.45315601142519318 0.29132598235765139 0 -0.45208662001458821 0.27140102172457031 0 -0.43524576794897413 0.28212054866432928 0 -0.45315601142519318 0.29132598235765139 0 -0.47613707957882118 0.29734146558781999 0 -0.46888433077061059 0.27621054273593387 0 -0.47623912237671939 0.32439051127384277 0 -0.45227415915763969 0.31399853566342889 0 -0.47613707957882118 0.29734146558781999 0 -0.45227415915763969 0.31399853566342889 0 -0.47613707957882118 0.29734146558781999 0 -0.45227415915763969 0.31399853566342889 0 -0.45315601142519318 0.29132598235765139 0 -0.47613707957882118 0.29734146558781999 0 -0.47623912237671939 0.32439051127384277 0 -0.47613707957882118 0.29734146558781999 0 -0.5 0.30961352558485039 0 -0.47613707957882118 0.29734146558781999 0 -0.48535376733513208 0.27763094085441409 0 -0.46888433077061059 0.27621054273593387 0 -0.47613707957882118 0.29734146558781999 0 -0.5 0.30961352558485039 0 -0.500000000000002 0.28068439551221031 0 -0.47613707957882118 0.29734146558781999 0 -0.500000000000002 0.28068439551221031 0 -0.47613707957882118 0.29734146558781999 0 -0.500000000000002 0.28068439551221031 0 -0.48535376733513208 0.27763094085441409 0 -0.5 0.24680197928917461 0 -0.5 0.271246816284757 0 -0.48174742632622591 0.26267148415134839 0 -0.5 0.271246816284757 0 -0.48535376733513208 0.27763094085441409 0 -0.48174742632622591 0.26267148415134839 0 -0.5 0.271246816284757 0 -0.48174742632622591 0.26267148415134839 0 -0.5 0.271246816284757 0 -0.500000000000002 0.28068439551221031 0 -0.48535376733513208 0.27763094085441409 0 -0.48535376733513208 0.27763094085441409 0 -0.46888433077061059 0.27621054273593387 0 -0.48174742632622591 0.26267148415134839 0 -0.46888433077061059 0.27621054273593387 0 -0.48174742632622591 0.26267148415134839 0 -0.46349485265245188 0.25409615201793989 0 -0.48174742632622591 0.26267148415134839 0 -0.46349485265245188 0.25409615201793989 0 -0.47746167250442739 0.23518364319834559 0 -0.48174742632622591 0.26267148415134839 0 -0.46349485265245188 0.25409615201793989 0 -0.46349485265245188 0.25409615201793989 0 -0.45208662001458821 0.27140102172457031 0 -0.4478024750127787 0.25772918423946789 0 -0.45315601142519318 0.29132598235765139 0 -0.46888433077061059 0.27621054273593387 0 -0.45208662001458821 0.27140102172457031 0 -0.46888433077061059 0.27621054273593387 0 -0.46349485265245188 0.25409615201793989 0 -0.45208662001458821 0.27140102172457031 0 -0.45208662001458821 0.27140102172457031 0 -0.4386592445683708 0.26490597336615218 0 -0.43524576794897413 0.28212054866432928 0 -0.44489417937947112 0.24524585465468321 0 -0.46349485265245188 0.25409615201793989 0 -0.4478024750127787 0.25772918423946789 0 -0.45208662001458821 0.27140102172457031 0 -0.4478024750127787 0.25772918423946789 0 -0.4386592445683708 0.26490597336615218 0 -0.4478024750127787 0.25772918423946789 0 -0.4386592445683708 0.26490597336615218 0 -0.43912839317511759 0.25254520616889292 0 -0.44489417937947112 0.24524585465468321 0 -0.4478024750127787 0.25772918423946789 0 -0.43912839317511759 0.25254520616889292 0 -0.42800235038587181 0.25570551170095418 0 -0.41218198152883878 0.2558061968478077 0 -0.42549394677297009 0.26808487625780941 0 -0.4386592445683708 0.26490597336615218 0 -0.43912839317511759 0.25254520616889292 0 -0.42800235038587181 0.25570551170095418 0 -0.4386592445683708 0.26490597336615218 0 -0.42800235038587181 0.25570551170095418 0 -0.42549394677297009 0.26808487625780941 0 -0.42371249402636429 0.24496430638595909 0 -0.42800235038587181 0.25570551170095418 0 -0.41218198152883878 0.2558061968478077 0 -0.41218198152883878 0.2558061968478077 0 -0.40949258904583558 0.27533723916229957 0 -0.42549394677297009 0.26808487625780941 0 -0.40949258904583558 0.27533723916229957 0 -0.42249252688028349 0.27960959404036911 0 -0.42549394677297009 0.26808487625780941 0 -0.4386592445683708 0.26490597336615218 0 -0.42549394677297009 0.26808487625780941 0 -0.43524576794897413 0.28212054866432928 0 -0.42249252688028349 0.27960959404036911 0 -0.42549394677297009 0.26808487625780941 0 -0.43524576794897413 0.28212054866432928 0 -0.43524576794897413 0.28212054866432928 0 -0.43403113970961588 0.30413286281168861 0 -0.41973780375335429 0.29289571207703807 0 -0.42249252688028349 0.27960959404036911 0 -0.43524576794897413 0.28212054866432928 0 -0.41973780375335429 0.29289571207703807 0 -0.43403113970961588 0.30413286281168861 0 -0.4153754522366449 0.31181758262470588 0 -0.41973780375335429 0.29289571207703807 0 -0.4153754522366449 0.31181758262470588 0 -0.41973780375335429 0.29289571207703807 0 -0.40233966573683011 0.29297955951037191 0 -0.4153754522366449 0.31181758262470588 0 -0.40233966573683011 0.29297955951037191 0 -0.40949258904583558 0.27533723916229957 0 -0.42249252688028349 0.27960959404036911 0 -0.41973780375335429 0.29289571207703807 0 -0.40949258904583558 0.27533723916229957 0 -0.41973780375335429 0.29289571207703807 0 -0.40233966573683011 0.29297955951037191 0 -0.40233966573683011 0.29297955951037191 0 -0.3893038792370152 0.27414153639603789 0 -0.4153754522366449 0.31181758262470588 0 -0.40233966573683011 0.29297955951037191 0 -0.38528569660076328 0.3116933035614472 0 -0.38528569660076328 0.3116933035614472 0 -0.37950994532569909 0.2920844120620677 0 -0.36278700682255272 0.31415110468506541 0 -0.40233966573683011 0.29297955951037191 0 -0.38528569660076328 0.3116933035614472 0 -0.37950994532569909 0.2920844120620677 0 -0.40233966573683011 0.29297955951037191 0 -0.37950994532569909 0.2920844120620677 0 -0.3893038792370152 0.27414153639603789 0 -0.37950994532569909 0.2920844120620677 0 -0.3893038792370152 0.27414153639603789 0 -0.36900042127698768 0.27426204378148028 0 -0.3893038792370152 0.27414153639603789 0 -0.37626809273720202 0.25530351328170281 0 -0.36900042127698768 0.27426204378148028 0 -0.3893038792370152 0.27414153639603789 0 -0.38315214838275752 0.25264624329807728 0 -0.39665434687995338 0.25707916433385658 0 -0.3893038792370152 0.27414153639603789 0 -0.37626809273720202 0.25530351328170281 0 -0.38315214838275752 0.25264624329807728 0 -0.3893038792370152 0.27414153639603789 0 -0.37626809273720202 0.25530351328170281 0 -0.37626809273720202 0.25530351328170281 0 -0.38315214838275752 0.25264624329807728 0 -0.39137366264664919 0.24850516045629631 0 -0.38315214838275752 0.25264624329807728 0 -0.39665434687995338 0.25707916433385658 0 -0.41218198152883878 0.2558061968478077 0 -0.40949258904583558 0.27533723916229957 0 -0.39665434687995338 0.25707916433385658 0 -0.39900291061306947 0.24310488196607841 0 -0.41218198152883878 0.2558061968478077 0 -0.39665434687995338 0.25707916433385658 0 -0.40949258904583558 0.27533723916229957 0 -0.3893038792370152 0.27414153639603789 0 -0.39665434687995338 0.25707916433385658 0 -0.40949258904583558 0.27533723916229957 0 -0.40233966573683011 0.29297955951037191 0 -0.3893038792370152 0.27414153639603789 0 -0.3609486485172943 0.2331653749869842 0 -0.37626809273720202 0.25530351328170281 0 -0.35087949811440472 0.2651036011791425 0 -0.37626809273720202 0.25530351328170281 0 -0.35087949811440472 0.2651036011791425 0 -0.37626809273720202 0.25530351328170281 0 -0.35087949811440472 0.2651036011791425 0 -0.36900042127698768 0.27426204378148028 0 -0.35087949811440472 0.2651036011791425 0 -0.36900042127698768 0.27426204378148028 0 -0.36002772152878271 0.29112125451080922 0 -0.37950994532569909 0.2920844120620677 0 -0.36900042127698768 0.27426204378148028 0 -0.36002772152878271 0.29112125451080922 0 -0.35087949811440472 0.2651036011791425 0 -0.36002772152878271 0.29112125451080922 0 -0.33893090796684922 0.29905774224410903 0 -0.37950994532569909 0.2920844120620677 0 -0.36002772152878271 0.29112125451080922 0 -0.36278700682255272 0.31415110468506541 0 -0.36002772152878271 0.29112125451080922 0 -0.33893090796684922 0.29905774224410903 0 -0.36278700682255272 0.31415110468506541 0 -0.33893090796684922 0.29905774224410903 0 -0.34075052522490878 0.31972995026523748 0 -0.36278700682255272 0.31415110468506541 0 -0.33893090796684922 0.29905774224410903 0 -0.3227939957676097 0.31516977167193638 0 -0.34075052522490878 0.31972995026523748 0 -0.31771861471801621 0.29736786079788502 0 -0.30127495749519562 0.3130043240227523 0 -0.3227939957676097 0.31516977167193638 0 -0.33893090796684922 0.29905774224410903 0 -0.31771861471801621 0.29736786079788502 0 -0.3227939957676097 0.31516977167193638 0 -0.31771861471801621 0.29736786079788502 0 -0.32549090349161042 0.27490368907658991 0 -0.30010230886881611 0.28470377697403743 0 -0.33893090796684922 0.29905774224410903 0 -0.31771861471801621 0.29736786079788502 0 -0.32549090349161042 0.27490368907658991 0 -0.32549090349161042 0.27490368907658991 0 -0.30010230886881611 0.28470377697403743 0 -0.35087949811440472 0.2651036011791425 0 -0.33893090796684922 0.29905774224410903 0 -0.32549090349161042 0.27490368907658991 0 -0.35087949811440472 0.2651036011791425 0 -0.32549090349161042 0.27490368907658991 0 -0.35087949811440472 0.2651036011791425 0 -0.32549090349161042 0.27490368907658991 0 -0.33292854464936089 0.25658691240175402 0 -0.33741795611643532 0.2377670276740825 0 -0.35087949811440472 0.2651036011791425 0 -0.33292854464936089 0.25658691240175402 0 -0.31792582087499338 0.24857333167720139 0 -0.32549090349161042 0.27490368907658991 0 -0.30702716763936538 0.2614413675103659 0 -0.31792582087499338 0.24857333167720139 0 -0.32549090349161042 0.27490368907658991 0 -0.33292854464936089 0.25658691240175402 0 -0.31792582087499338 0.24857333167720139 0 -0.30702716763936538 0.2614413675103659 0 -0.29467130500282201 0.2500334565241451 0 -0.30702716763936538 0.2614413675103659 0 -0.29467130500282201 0.2500334565241451 0 -0.29539266672060782 0.26242677950454518 0 -0.30702716763936538 0.2614413675103659 0 -0.30048896765255639 0.27194039737749442 0 -0.29539266672060782 0.26242677950454518 0 -0.32549090349161042 0.27490368907658991 0 -0.30048896765255639 0.27194039737749442 0 -0.30010230886881611 0.28470377697403743 0 -0.32549090349161042 0.27490368907658991 0 -0.30702716763936538 0.2614413675103659 0 -0.30048896765255639 0.27194039737749442 0 -0.30048896765255639 0.27194039737749442 0 -0.28618892042884703 0.27971332910736979 0 -0.30010230886881611 0.28470377697403743 0 -0.30048896765255639 0.27194039737749442 0 -0.2887318387660916 0.26845344209205813 0 -0.28618892042884703 0.27971332910736979 0 -0.30048896765255639 0.27194039737749442 0 -0.2887318387660916 0.26845344209205813 0 -0.29539266672060782 0.26242677950454518 0 -0.28158910246398972 0.27243095264389627 0 -0.2887318387660916 0.26845344209205813 0 -0.27973383006575719 0.26530221875498228 0 -0.28158910246398972 0.27243095264389627 0 -0.2887318387660916 0.26845344209205813 0 -0.28618892042884703 0.27971332910736979 0 -0.29467130500282201 0.2500334565241451 0 -0.27141678913065059 0.2514935813710889 0 -0.29467130500282201 0.2500334565241451 0 -0.28626713739949072 0.25919335690500261 0 -0.27141678913065059 0.2514935813710889 0 -0.29467130500282201 0.2500334565241451 0 -0.29539266672060782 0.26242677950454518 0 -0.28626713739949072 0.25919335690500261 0 -0.2887318387660916 0.26845344209205813 0 -0.29539266672060782 0.26242677950454518 0 -0.28626713739949072 0.25919335690500261 0 -0.2887318387660916 0.26845344209205813 0 -0.28626713739949072 0.25919335690500261 0 -0.27973383006575719 0.26530221875498228 0 -0.27141678913065059 0.2514935813710889 0 -0.27973383006575719 0.26530221875498228 0 -0.27170182059526271 0.27625482062117512 0 -0.27141678913065059 0.2514935813710889 0 -0.27170182059526271 0.27625482062117512 0 -0.26306017213471361 0.25848216940221058 0 -0.27141678913065059 0.2514935813710889 0 -0.27170182059526271 0.27625482062117512 0 -0.28626713739949072 0.25919335690500261 0 -0.27141678913065059 0.2514935813710889 0 -0.27973383006575719 0.26530221875498228 0 -0.28158910246398972 0.27243095264389627 0 -0.27973383006575719 0.26530221875498228 0 -0.27170182059526271 0.27625482062117512 0 -0.27170182059526271 0.27625482062117512 0 -0.26993348285586471 0.27405736913034973 0 -0.26306017213471361 0.25848216940221058 0 -0.28158910246398972 0.27243095264389627 0 -0.28618892042884703 0.27971332910736979 0 -0.27170182059526271 0.27625482062117512 0 -0.27171844429369468 0.27769895372638742 0 -0.26926105973339259 0.27730840134216522 0 -0.26820493481523577 0.27935240001577538 0 -0.27170182059526271 0.27625482062117512 0 -0.26993348285586471 0.27405736913034973 0 -0.26926105973339259 0.27730840134216522 0 -0.27171844429369468 0.27769895372638742 0 -0.27170182059526271 0.27625482062117512 0 -0.26926105973339259 0.27730840134216522 0 -0.27171844429369468 0.27769895372638742 0 -0.27170182059526271 0.27625482062117512 0 -0.27170182059526271 0.27625482062117512 0 -0.26993348285586471 0.27405736913034973 0 -0.26993348285586471 0.27405736913034973 0 -0.26756121834606622 0.27373780112753537 0 -0.26690002104272931 0.27736767743032092 0 -0.26756121834606622 0.27373780112753537 0 -0.26690002104272931 0.27736767743032092 0 -0.26413895776401891 0.27649288119364479 0 -0.26993348285586471 0.27405736913034973 0 -0.26926105973339259 0.27730840134216522 0 -0.26690002104272931 0.27736767743032092 0 -0.27171844429369468 0.27769895372638742 0 -0.26820493481523577 0.27935240001577538 0 -0.26866166657738771 0.28180903236920518 0 -0.26926105973339259 0.27730840134216522 0 -0.26690002104272931 0.27736767743032092 0 -0.26820493481523577 0.27935240001577538 0 -0.26690002104272931 0.27736767743032092 0 -0.26820493481523577 0.27935240001577538 0 -0.26503826821396181 0.28045151301448212 0 -0.26820493481523577 0.27935240001577538 0 -0.26503826821396181 0.28045151301448212 0 -0.26866166657738771 0.28180903236920518 0 -0.26993348285586471 0.27405736913034973 0 -0.26605677956712548 0.27218878202608282 0 -0.26426320854223451 0.2692175262549244 0 -0.26993348285586471 0.27405736913034973 0 -0.26756121834606622 0.27373780112753537 0 -0.26605677956712548 0.27218878202608282 0 -0.26756121834606622 0.27373780112753537 0 -0.26605677956712548 0.27218878202608282 0 -0.2643358650630282 0.27334990377690771 0 -0.26993348285586471 0.27405736913034973 0 -0.26426320854223451 0.2692175262549244 0 -0.25354512431417009 0.25369212887828879 0 -0.26426320854223451 0.2692175262549244 0 -0.26215897613502731 0.2695923559661067 0 -0.25893626151305887 0.26677521525757308 0 -0.26605677956712548 0.27218878202608282 0 -0.26426320854223451 0.2692175262549244 0 -0.26386955479139462 0.27124849043065591 0 -0.26605677956712548 0.27218878202608282 0 -0.26386955479139462 0.27124849043065591 0 -0.2643358650630282 0.27334990377690771 0 -0.2643358650630282 0.27334990377690771 0 -0.26156687969342118 0.27112819192127341 0 -0.26125385660647299 0.27443876535667361 0 -0.26386955479139462 0.27124849043065591 0 -0.2643358650630282 0.27334990377690771 0 -0.26156687969342118 0.27112819192127341 0 -0.26386955479139462 0.27124849043065591 0 -0.26215897613502731 0.2695923559661067 0 -0.26156687969342118 0.27112819192127341 0 -0.26426320854223451 0.2692175262549244 0 -0.26386955479139462 0.27124849043065591 0 -0.26215897613502731 0.2695923559661067 0 -0.26156687969342118 0.27112819192127341 0 -0.25850979039204303 0.27177432638434312 0 -0.25893626151305887 0.26677521525757308 0 -0.26156687969342118 0.27112819192127341 0 -0.25850979039204303 0.27177432638434312 0 -0.26125385660647299 0.27443876535667361 0 -0.26215897613502731 0.2695923559661067 0 -0.26156687969342118 0.27112819192127341 0 -0.25893626151305887 0.26677521525757308 0 -0.26690002104272931 0.27736767743032092 0 -0.26503826821396181 0.28045151301448212 0 -0.26413895776401891 0.27649288119364479 0 -0.26503826821396181 0.28045151301448212 0 -0.26108316140202248 0.27867299641359022 0 -0.26094882039079531 0.283971669253888 0 -0.26503826821396181 0.28045151301448212 0 -0.26413895776401891 0.27649288119364479 0 -0.26108316140202248 0.27867299641359022 0 -0.26413895776401891 0.27649288119364479 0 -0.26125385660647299 0.27443876535667361 0 -0.26108316140202248 0.27867299641359022 0 -0.26756121834606622 0.27373780112753537 0 -0.2643358650630282 0.27334990377690771 0 -0.26413895776401891 0.27649288119364479 0 -0.2643358650630282 0.27334990377690771 0 -0.26413895776401891 0.27649288119364479 0 -0.26125385660647299 0.27443876535667361 0 -0.26125385660647299 0.27443876535667361 0 -0.26108316140202248 0.27867299641359022 0 -0.25698020484392942 0.27579961501998662 0 -0.25850979039204303 0.27177432638434312 0 -0.26125385660647299 0.27443876535667361 0 -0.25698020484392942 0.27579961501998662 0 -0.26108316140202248 0.27867299641359022 0 -0.25645104898928878 0.28020806198083581 0 -0.26094882039079531 0.283971669253888 0 -0.26108316140202248 0.27867299641359022 0 -0.25645104898928878 0.28020806198083581 0 -0.25698020484392942 0.27579961501998662 0 -0.25645104898928878 0.28020806198083581 0 -0.25698020484392942 0.27579961501998662 0 -0.25142666797647523 0.27818388326537868 0 -0.25698020484392942 0.27579961501998662 0 -0.25142666797647523 0.27818388326537868 0 -0.25286427725476701 0.27170773340453702 0 -0.25142666797647523 0.27818388326537868 0 -0.25286427725476701 0.27170773340453702 0 -0.24691514604202869 0.27394223381649768 0 -0.25645104898928878 0.28020806198083581 0 -0.25142666797647523 0.27818388326537868 0 -0.25279907975393401 0.28438630547018651 0 -0.25893626151305887 0.26677521525757308 0 -0.25542964662487277 0.26780519913652878 0 -0.25514513091205498 0.26323208355833178 0 -0.25850979039204303 0.27177432638434312 0 -0.25893626151305887 0.26677521525757308 0 -0.25542964662487277 0.26780519913652878 0 -0.25850979039204303 0.27177432638434312 0 -0.25542964662487277 0.26780519913652878 0 -0.25286427725476701 0.27170773340453702 0 -0.25850979039204303 0.27177432638434312 0 -0.25698020484392942 0.27579961501998662 0 -0.25286427725476701 0.27170773340453702 0 -0.25542964662487277 0.26780519913652878 0 -0.25286427725476701 0.27170773340453702 0 -0.25169277305244048 0.26553663707785907 0 -0.25169277305244048 0.26553663707785907 0 -0.25514513091205498 0.26323208355833178 0 -0.25176371623632388 0.26074465136843561 0 -0.27141678913065059 0.2514935813710889 0 -0.2555769544987711 0.25248814673828979 0 -0.26002417382841791 0.24697037584399731 0 -0.27141678913065059 0.2514935813710889 0 -0.2555769544987711 0.25248814673828979 0 -0.25893626151305887 0.26677521525757308 0 -0.25514513091205498 0.26323208355833178 0 -0.25354512431417009 0.25369212887828879 0 -0.25514513091205498 0.26323208355833178 0 -0.25176371623632388 0.26074465136843561 0 -0.25354512431417009 0.25369212887828879 0 -0.27141678913065059 0.2514935813710889 0 -0.2555769544987711 0.25248814673828979 0 -0.26306017213471361 0.25848216940221058 0 -0.26993348285586471 0.27405736913034973 0 -0.25354512431417009 0.25369212887828879 0 -0.25169277305244048 0.26553663707785907 0 -0.25176371623632388 0.26074465136843561 0 -0.24661511049817561 0.26078263704719179 0 -0.26993348285586471 0.27405736913034973 0 -0.25354512431417009 0.25369212887828879 0 -0.26306017213471361 0.25848216940221058 0 -0.25542964662487277 0.26780519913652878 0 -0.25169277305244048 0.26553663707785907 0 -0.25514513091205498 0.26323208355833178 0 -0.25176371623632388 0.26074465136843561 0 -0.25354512431417009 0.25369212887828879 0 -0.24661511049817561 0.26078263704719179 0 -0.25354512431417009 0.25369212887828879 0 -0.2555769544987711 0.25248814673828979 0 -0.26306017213471361 0.25848216940221058 0 -0.26426320854223451 0.2692175262549244 0 -0.25893626151305887 0.26677521525757308 0 -0.25354512431417009 0.25369212887828879 0 -0.26179675936174501 0.30303978647397201 0 -0.25373144496157152 0.29958706605180369 0 -0.26273053182295292 0.296221516147746 0 -0.26179675936174501 0.30303978647397201 0 -0.26273053182295292 0.296221516147746 0 -0.27130262233790942 0.29798370828640652 0 -0.26179675936174501 0.30303978647397201 0 -0.26650323775834073 0.31003691745873102 0 -0.25612179728037759 0.31311606614427101 0 -0.25373144496157152 0.29958706605180369 0 -0.25612179728037759 0.31311606614427101 0 -0.24604838758343209 0.30680642126253022 0 -0.26179675936174501 0.30303978647397201 0 -0.25373144496157152 0.29958706605180369 0 -0.25612179728037759 0.31311606614427101 0 -0.25373144496157152 0.29958706605180369 0 -0.25897783379931211 0.29062390635655849 0 -0.2489506134594146 0.29091509925038472 0 -0.25279907975393401 0.28438630547018651 0 -0.25897783379931211 0.29062390635655849 0 -0.2489506134594146 0.29091509925038472 0 -0.25279907975393401 0.28438630547018651 0 -0.26094882039079531 0.283971669253888 0 -0.25897783379931211 0.29062390635655849 0 -0.25645104898928878 0.28020806198083581 0 -0.25279907975393401 0.28438630547018651 0 -0.26094882039079531 0.283971669253888 0 -0.26094882039079531 0.283971669253888 0 -0.26505608598271191 0.28594864984554658 0 -0.25897783379931211 0.29062390635655849 0 -0.26503826821396181 0.28045151301448212 0 -0.26094882039079531 0.283971669253888 0 -0.26505608598271191 0.28594864984554658 0 -0.25373144496157152 0.29958706605180369 0 -0.25897783379931211 0.29062390635655849 0 -0.26273053182295292 0.296221516147746 0 -0.26505608598271191 0.28594864984554658 0 -0.25897783379931211 0.29062390635655849 0 -0.26605691251919439 0.29109296047782057 0 -0.25897783379931211 0.29062390635655849 0 -0.26273053182295292 0.296221516147746 0 -0.26605691251919439 0.29109296047782057 0 -0.26605691251919439 0.29109296047782057 0 -0.27065301439562028 0.28774281760132497 0 -0.27130262233790942 0.29798370828640652 0 -0.27171844429369468 0.27769895372638742 0 -0.27170182059526271 0.27625482062117512 0 -0.28648838904522889 0.29462957232196391 0 -0.27171844429369468 0.27769895372638742 0 -0.27615937619834108 0.29001748326162158 0 -0.28648838904522889 0.29462957232196391 0 -0.26273053182295292 0.296221516147746 0 -0.26605691251919439 0.29109296047782057 0 -0.27130262233790942 0.29798370828640652 0 -0.27065301439562028 0.28774281760132497 0 -0.27615937619834108 0.29001748326162158 0 -0.27130262233790942 0.29798370828640652 0 -0.27170182059526271 0.27625482062117512 0 -0.28648838904522889 0.29462957232196391 0 -0.27171844429369468 0.27769895372638742 0 -0.27065301439562028 0.28774281760132497 0 -0.27615937619834108 0.29001748326162158 0 -0.27171844429369468 0.27769895372638742 0 -0.26866166657738771 0.28180903236920518 0 -0.27065301439562028 0.28774281760132497 0 -0.26503826821396181 0.28045151301448212 0 -0.26505608598271191 0.28594864984554658 0 -0.26866166657738771 0.28180903236920518 0 -0.26505608598271191 0.28594864984554658 0 -0.26605691251919439 0.29109296047782057 0 -0.27065301439562028 0.28774281760132497 0 -0.26505608598271191 0.28594864984554658 0 -0.26866166657738771 0.28180903236920518 0 -0.27065301439562028 0.28774281760132497 0 -0.27615937619834108 0.29001748326162158 0 -0.27130262233790942 0.29798370828640652 0 -0.28648838904522889 0.29462957232196391 0 -0.27130262233790942 0.29798370828640652 0 -0.27827509267077111 0.31039432901440789 0 -0.28648838904522889 0.29462957232196391 0 -0.26179675936174501 0.30303978647397201 0 -0.27130262233790942 0.29798370828640652 0 -0.26650323775834073 0.31003691745873102 0 -0.27130262233790942 0.29798370828640652 0 -0.26650323775834073 0.31003691745873102 0 -0.27827509267077111 0.31039432901440789 0 -0.28648838904522889 0.29462957232196391 0 -0.30127495749519562 0.3130043240227523 0 -0.28648838904522889 0.29462957232196391 0 -0.30010230886881611 0.28470377697403743 0 -0.30127495749519562 0.3130043240227523 0 -0.27827509267077111 0.31039432901440789 0 -0.28648838904522889 0.29462957232196391 0 -0.30127495749519562 0.3130043240227523 0 -0.28618892042884703 0.27971332910736979 0 -0.27170182059526271 0.27625482062117512 0 -0.28648838904522889 0.29462957232196391 0 -0.28618892042884703 0.27971332910736979 0 -0.28648838904522889 0.29462957232196391 0 -0.30010230886881611 0.28470377697403743 0 -0.31771861471801621 0.29736786079788502 0 -0.30010230886881611 0.28470377697403743 0 -0.30127495749519562 0.3130043240227523 0 -0.30127495749519562 0.3130043240227523 0 -0.31606152594516229 0.33137907572354058 0 -0.30127495749519562 0.3130043240227523 0 -0.29898164561657181 0.32975049596824407 0 -0.31606152594516229 0.33137907572354058 0 -0.29765589163406642 0.34529045093737748 0 -0.31606152594516229 0.33137907572354058 0 -0.31920320842948757 0.33251020060130748 0 -0.29765589163406642 0.34529045093737748 0 -0.31920320842948757 0.33251020060130748 0 -0.29765589163406642 0.34529045093737748 0 -0.31368169636282178 0.35236578583188199 0 -0.31920320842948757 0.33251020060130748 0 -0.29898164561657181 0.32975049596824407 0 -0.29765589163406642 0.34529045093737748 0 -0.31606152594516229 0.33137907572354058 0 -0.29898164561657181 0.32975049596824407 0 -0.28518912289092252 0.33999332601252508 0 -0.28087914568910383 0.32687252232698039 0 -0.29898164561657181 0.32975049596824407 0 -0.28518912289092252 0.33999332601252508 0 -0.29765589163406642 0.34529045093737748 0 -0.30127495749519562 0.3130043240227523 0 -0.29898164561657181 0.32975049596824407 0 -0.28087914568910383 0.32687252232698039 0 -0.27827509267077111 0.31039432901440789 0 -0.30127495749519562 0.3130043240227523 0 -0.28087914568910383 0.32687252232698039 0 -0.28087914568910383 0.32687252232698039 0 -0.26591520189606549 0.33242852209927781 0 -0.26495147049579942 0.32124624928163809 0 -0.27827509267077111 0.31039432901440789 0 -0.28087914568910383 0.32687252232698039 0 -0.26495147049579942 0.32124624928163809 0 -0.26650323775834073 0.31003691745873102 0 -0.27827509267077111 0.31039432901440789 0 -0.26495147049579942 0.32124624928163809 0 -0.28518912289092252 0.33999332601252508 0 -0.28087914568910383 0.32687252232698039 0 -0.27171395804741111 0.34137165391426599 0 -0.28087914568910383 0.32687252232698039 0 -0.27171395804741111 0.34137165391426599 0 -0.26591520189606549 0.33242852209927781 0 -0.26591520189606549 0.33242852209927781 0 -0.25392913169149423 0.33158443771352331 0 -0.26495147049579942 0.32124624928163809 0 -0.26591520189606549 0.33242852209927781 0 -0.25791222283471549 0.3400565115273706 0 -0.25392913169149423 0.33158443771352331 0 -0.27171395804741111 0.34137165391426599 0 -0.26591520189606549 0.33242852209927781 0 -0.25791222283471549 0.3400565115273706 0 -0.25791222283471549 0.3400565115273706 0 -0.2486118495014257 0.34522464576693779 0 -0.2455574926976945 0.33633391906758942 0 -0.25791222283471549 0.3400565115273706 0 -0.25392913169149423 0.33158443771352331 0 -0.2455574926976945 0.33633391906758942 0 -0.25392913169149423 0.33158443771352331 0 -0.25503281813843659 0.32178998419055871 0 -0.2451288730860752 0.32121318362280238 0 -0.25503281813843659 0.32178998419055871 0 -0.25612179728037759 0.31311606614427101 0 -0.2451288730860752 0.32121318362280238 0 -0.26650323775834073 0.31003691745873102 0 -0.25612179728037759 0.31311606614427101 0 -0.26495147049579942 0.32124624928163809 0 -0.25503281813843659 0.32178998419055871 0 -0.25612179728037759 0.31311606614427101 0 -0.26495147049579942 0.32124624928163809 0 -0.25392913169149423 0.33158443771352331 0 -0.25503281813843659 0.32178998419055871 0 -0.26495147049579942 0.32124624928163809 0 -0.2617096905599926 0.36757428454422819 0 -0.26613202128167351 0.36966750770334528 0 -0.26265069090490178 0.37570665609624537 0 -0.26339384838892549 0.36561212225522821 0 -0.2617096905599926 0.36757428454422819 0 -0.26613202128167351 0.36966750770334528 0 -0.2617096905599926 0.36757428454422819 0 -0.25097458760403463 0.37624850575467522 0 -0.26265069090490178 0.37570665609624537 0 -0.2617096905599926 0.36757428454422819 0 -0.25097458760403463 0.37624850575467522 0 -0.24816130001791381 0.36257650825373727 0 -0.26339384838892549 0.36561212225522821 0 -0.2617096905599926 0.36757428454422819 0 -0.24816130001791381 0.36257650825373727 0 -0.26339384838892549 0.36561212225522821 0 -0.26100395445446922 0.35101405036391953 0 -0.24816130001791381 0.36257650825373727 0 -0.2617096905599926 0.36757428454422819 0 -0.24816130001791381 0.36257650825373727 0 -0.26100395445446922 0.35101405036391953 0 -0.24816130001791381 0.36257650825373727 0 -0.26100395445446922 0.35101405036391953 0 -0.24438937985277329 0.35190031101692948 0 -0.24816130001791381 0.36257650825373727 0 -0.26100395445446922 0.35101405036391953 0 -0.2486118495014257 0.34522464576693779 0 -0.24438937985277329 0.35190031101692948 0 -0.25791222283471549 0.3400565115273706 0 -0.26100395445446922 0.35101405036391953 0 -0.2486118495014257 0.34522464576693779 0 -0.26100395445446922 0.35101405036391953 0 -0.2486118495014257 0.34522464576693779 0 -0.27171395804741111 0.34137165391426599 0 -0.25791222283471549 0.3400565115273706 0 -0.26100395445446922 0.35101405036391953 0 -0.27171395804741111 0.34137165391426599 0 -0.26100395445446922 0.35101405036391953 0 -0.27610857483864432 0.35807070127344609 0 -0.26100395445446922 0.35101405036391953 0 -0.27610857483864432 0.35807070127344609 0 -0.28518912289092252 0.33999332601252508 0 -0.27171395804741111 0.34137165391426599 0 -0.27610857483864432 0.35807070127344609 0 -0.26339384838892549 0.36561212225522821 0 -0.26100395445446922 0.35101405036391953 0 -0.27610857483864432 0.35807070127344609 0 -0.27171395804741111 0.34137165391426599 0 -0.26100395445446922 0.35101405036391953 0 -0.27610857483864432 0.35807070127344609 0 -0.27212851764189822 0.36640067757041189 0 -0.28024389362008151 0.36855817643425087 0 -0.26339384838892549 0.36561212225522821 0 -0.27610857483864432 0.35807070127344609 0 -0.27212851764189822 0.36640067757041189 0 -0.26339384838892549 0.36561212225522821 0 -0.27610857483864432 0.35807070127344609 0 -0.26339384838892549 0.36561212225522821 0 -0.27212851764189822 0.36640067757041189 0 -0.26613202128167351 0.36966750770334528 0 -0.26613202128167351 0.36966750770334528 0 -0.27089762140743889 0.3735178976115337 0 -0.26265069090490178 0.37570665609624537 0 -0.27212851764189822 0.36640067757041189 0 -0.26613202128167351 0.36966750770334528 0 -0.27089762140743889 0.3735178976115337 0 -0.27089762140743889 0.3735178976115337 0 -0.28024389362008151 0.36855817643425087 0 -0.27788717393610118 0.38005443030324598 0 -0.27212851764189822 0.36640067757041189 0 -0.27089762140743889 0.3735178976115337 0 -0.28024389362008151 0.36855817643425087 0 -0.28024389362008151 0.36855817643425087 0 -0.29082143151443429 0.36494432608507188 0 -0.28942463876147823 0.37769351221147829 0 -0.29082143151443429 0.36494432608507188 0 -0.3055342881902231 0.37181795089670028 0 -0.28942463876147823 0.37769351221147829 0 -0.27610857483864432 0.35807070127344609 0 -0.28024389362008151 0.36855817643425087 0 -0.29082143151443429 0.36494432608507188 0 -0.27610857483864432 0.35807070127344609 0 -0.29082143151443429 0.36494432608507188 0 -0.27610857483864432 0.35807070127344609 0 -0.29082143151443429 0.36494432608507188 0 -0.29765589163406642 0.34529045093737748 0 -0.28518912289092252 0.33999332601252508 0 -0.27610857483864432 0.35807070127344609 0 -0.29765589163406642 0.34529045093737748 0 -0.27610857483864432 0.35807070127344609 0 -0.29765589163406642 0.34529045093737748 0 -0.29082143151443429 0.36494432608507188 0 -0.29765589163406642 0.34529045093737748 0 -0.30208975963668327 0.35875107184562571 0 -0.29765589163406642 0.34529045093737748 0 -0.30208975963668327 0.35875107184562571 0 -0.31368169636282178 0.35236578583188199 0 -0.30208975963668327 0.35875107184562571 0 -0.3055342881902231 0.37181795089670028 0 -0.31368169636282178 0.35236578583188199 0 -0.3055342881902231 0.37181795089670028 0 -0.31735175460718018 0.36653884333221909 0 -0.31368169636282178 0.35236578583188199 0 -0.3055342881902231 0.37181795089670028 0 -0.31368169636282178 0.35236578583188199 0 -0.29082143151443429 0.36494432608507188 0 -0.3055342881902231 0.37181795089670028 0 -0.29082143151443429 0.36494432608507188 0 -0.30208975963668327 0.35875107184562571 0 -0.3055342881902231 0.37181795089670028 0 -0.3055342881902231 0.37181795089670028 0 -0.31735175460718018 0.36653884333221909 0 -0.32173924315723618 0.37938866153346462 0 -0.31735175460718018 0.36653884333221909 0 -0.32845179071843988 0.36258297506682963 0 -0.32173924315723618 0.37938866153346462 0 -0.31735175460718018 0.36653884333221909 0 -0.32845179071843988 0.36258297506682963 0 -0.31368169636282178 0.35236578583188199 0 -0.32845179071843988 0.36258297506682963 0 -0.34576549926085109 0.37204035217488601 0 -0.32173924315723618 0.37938866153346462 0 -0.32845179071843988 0.36258297506682963 0 -0.34167454594855162 0.35265807610652011 0 -0.34576549926085109 0.37204035217488601 0 -0.34167454594855162 0.35265807610652011 0 -0.32861327037952259 0.34728593543003949 0 -0.33767980735031422 0.33730023591665159 0 -0.32845179071843988 0.36258297506682963 0 -0.34167454594855162 0.35265807610652011 0 -0.32861327037952259 0.34728593543003949 0 -0.32861327037952259 0.34728593543003949 0 -0.31368169636282178 0.35236578583188199 0 -0.32182910453541819 0.33291362076706271 0 -0.32845179071843988 0.36258297506682963 0 -0.32861327037952259 0.34728593543003949 0 -0.31368169636282178 0.35236578583188199 0 -0.31920320842948757 0.33251020060130748 0 -0.32182910453541819 0.33291362076706271 0 -0.34075052522490878 0.31972995026523748 0 -0.31368169636282178 0.35236578583188199 0 -0.31920320842948757 0.33251020060130748 0 -0.32182910453541819 0.33291362076706271 0 -0.31368169636282178 0.35236578583188199 0 -0.32182910453541819 0.33291362076706271 0 -0.31920320842948757 0.33251020060130748 0 -0.3227939957676097 0.31516977167193638 0 -0.34075052522490878 0.31972995026523748 0 -0.31606152594516229 0.33137907572354058 0 -0.31920320842948757 0.33251020060130748 0 -0.3227939957676097 0.31516977167193638 0 -0.30127495749519562 0.3130043240227523 0 -0.31606152594516229 0.33137907572354058 0 -0.3227939957676097 0.31516977167193638 0 -0.31920320842948757 0.33251020060130748 0 -0.34075052522490878 0.31972995026523748 0 -0.32182910453541819 0.33291362076706271 0 -0.34075052522490878 0.31972995026523748 0 -0.33767980735031422 0.33730023591665159 0 -0.32861327037952259 0.34728593543003949 0 -0.32182910453541819 0.33291362076706271 0 -0.33767980735031422 0.33730023591665159 0 -0.34167454594855162 0.35265807610652011 0 -0.33767980735031422 0.33730023591665159 0 -0.35671947504310408 0.33923332447682158 0 -0.34075052522490878 0.31972995026523748 0 -0.33767980735031422 0.33730023591665159 0 -0.35671947504310408 0.33923332447682158 0 -0.34075052522490878 0.31972995026523748 0 -0.35671947504310408 0.33923332447682158 0 -0.36278700682255272 0.31415110468506541 0 -0.37672407146250098 0.33670548550326118 0 -0.38528569660076328 0.3116933035614472 0 -0.36278700682255272 0.31415110468506541 0 -0.37672407146250098 0.33670548550326118 0 -0.35671947504310408 0.33923332447682158 0 -0.36278700682255272 0.31415110468506541 0 -0.37672407146250098 0.33670548550326118 0 -0.36816244632423872 0.36171766744507522 0 -0.37672407146250098 0.33670548550326118 0 -0.35671947504310408 0.33923332447682158 0 -0.36816244632423872 0.36171766744507522 0 -0.36816244632423872 0.36171766744507522 0 -0.35960082118597642 0.38672984938688909 0 -0.38298429536172041 0.37030070206726973 0 -0.36816244632423872 0.36171766744507522 0 -0.35960082118597642 0.38672984938688909 0 -0.36816244632423872 0.36171766744507522 0 -0.34576549926085109 0.37204035217488601 0 -0.35960082118597642 0.38672984938688909 0 -0.34167454594855162 0.35265807610652011 0 -0.36816244632423872 0.36171766744507522 0 -0.34576549926085109 0.37204035217488601 0 -0.34167454594855162 0.35265807610652011 0 -0.35671947504310408 0.33923332447682158 0 -0.36816244632423872 0.36171766744507522 0 -0.35960082118597642 0.38672984938688909 0 -0.35103919604771422 0.41174203132870291 0 -0.33578685787880408 0.39555447343068478 0 -0.35960082118597642 0.38672984938688909 0 -0.35103919604771422 0.41174203132870291 0 -0.34576549926085109 0.37204035217488601 0 -0.35960082118597642 0.38672984938688909 0 -0.33578685787880408 0.39555447343068478 0 -0.37601452094921628 0.40619323521117479 0 -0.38810728179362253 0.38730624080423592 0 -0.35960082118597642 0.38672984938688909 0 -0.37601452094921628 0.40619323521117479 0 -0.35960082118597642 0.38672984938688909 0 -0.35103919604771422 0.41174203132870291 0 -0.37601452094921628 0.40619323521117479 0 -0.36667907265947169 0.42428756698413178 0 -0.35103919604771422 0.41174203132870291 0 -0.36667907265947169 0.42428756698413178 0 -0.3424775709094518 0.43675421327051689 0 -0.37367702988880969 0.44292066756856707 0 -0.35103919604771422 0.41174203132870291 0 -0.3424775709094518 0.43675421327051689 0 -0.36667907265947169 0.42428756698413178 0 -0.35103919604771422 0.41174203132870291 0 -0.3424775709094518 0.43675421327051689 0 -0.3348372123895525 0.41598541265749178 0 -0.32185392191977691 0.40822810700833101 0 -0.33578685787880408 0.39555447343068478 0 -0.35103919604771422 0.41174203132870291 0 -0.3348372123895525 0.41598541265749178 0 -0.33578685787880408 0.39555447343068478 0 -0.35103919604771422 0.41174203132870291 0 -0.3348372123895525 0.41598541265749178 0 -0.3424775709094518 0.43675421327051689 0 -0.3348372123895525 0.41598541265749178 0 -0.3424775709094518 0.43675421327051689 0 -0.32302851519201542 0.4276482382492236 0 -0.3424775709094518 0.43675421327051689 0 -0.32302851519201542 0.4276482382492236 0 -0.32311552007261468 0.44659467950832082 0 -0.32302851519201542 0.4276482382492236 0 -0.30833859890672971 0.43795609015900983 0 -0.32311552007261468 0.44659467950832082 0 -0.3348372123895525 0.41598541265749178 0 -0.32302851519201542 0.4276482382492236 0 -0.32185392191977691 0.40822810700833101 0 -0.32302851519201542 0.4276482382492236 0 -0.32185392191977691 0.40822810700833101 0 -0.30320514220030009 0.42322527049921238 0 -0.32185392191977691 0.40822810700833101 0 -0.31366932342658599 0.3933661368673913 0 -0.33578685787880408 0.39555447343068478 0 -0.32185392191977691 0.40822810700833101 0 -0.31366932342658599 0.3933661368673913 0 -0.30448886175200562 0.40667311675302142 0 -0.34576549926085109 0.37204035217488601 0 -0.33578685787880408 0.39555447343068478 0 -0.32173924315723618 0.37938866153346462 0 -0.3055342881902231 0.37181795089670028 0 -0.31366932342658599 0.3933661368673913 0 -0.32173924315723618 0.37938866153346462 0 -0.3055342881902231 0.37181795089670028 0 -0.32173924315723618 0.37938866153346462 0 -0.31366932342658599 0.3933661368673913 0 -0.33578685787880408 0.39555447343068478 0 -0.32173924315723618 0.37938866153346462 0 -0.3055342881902231 0.37181795089670028 0 -0.31366932342658599 0.3933661368673913 0 -0.2965418999584673 0.39328752950446533 0 -0.3055342881902231 0.37181795089670028 0 -0.2965418999584673 0.39328752950446533 0 -0.3055342881902231 0.37181795089670028 0 -0.2965418999584673 0.39328752950446533 0 -0.28942463876147823 0.37769351221147829 0 -0.31366932342658599 0.3933661368673913 0 -0.2965418999584673 0.39328752950446533 0 -0.30448886175200562 0.40667311675302142 0 -0.2965418999584673 0.39328752950446533 0 -0.28754951172670568 0.41475710811222782 0 -0.30448886175200562 0.40667311675302142 0 -0.2965418999584673 0.39328752950446533 0 -0.28582258891110862 0.38687887980247571 0 -0.28060186626472622 0.3941000910588997 0 -0.2965418999584673 0.39328752950446533 0 -0.28060186626472622 0.3941000910588997 0 -0.28754951172670568 0.41475710811222782 0 -0.2965418999584673 0.39328752950446533 0 -0.28754951172670568 0.41475710811222782 0 -0.2965418999584673 0.39328752950446533 0 -0.28942463876147823 0.37769351221147829 0 -0.28582258891110862 0.38687887980247571 0 -0.28582258891110862 0.38687887980247571 0 -0.27788717393610118 0.38005443030324598 0 -0.28060186626472622 0.3941000910588997 0 -0.28024389362008151 0.36855817643425087 0 -0.28942463876147823 0.37769351221147829 0 -0.27788717393610118 0.38005443030324598 0 -0.28942463876147823 0.37769351221147829 0 -0.28582258891110862 0.38687887980247571 0 -0.27788717393610118 0.38005443030324598 0 -0.27089762140743889 0.3735178976115337 0 -0.27788717393610118 0.38005443030324598 0 -0.268834406044556 0.38521003856148861 0 -0.27089762140743889 0.3735178976115337 0 -0.268834406044556 0.38521003856148861 0 -0.26265069090490178 0.37570665609624537 0 -0.27788717393610118 0.38005443030324598 0 -0.268834406044556 0.38521003856148861 0 -0.28060186626472622 0.3941000910588997 0 -0.26727906057296552 0.40379277982683448 0 -0.28060186626472622 0.3941000910588997 0 -0.28754951172670568 0.41475710811222782 0 -0.268834406044556 0.38521003856148861 0 -0.26727906057296552 0.40379277982683448 0 -0.28060186626472622 0.3941000910588997 0 -0.26727906057296552 0.40379277982683448 0 -0.2485631847717617 0.41894387122422722 0 -0.24700860941922539 0.39282845154144092 0 -0.26727906057296552 0.40379277982683448 0 -0.24700860941922539 0.39282845154144092 0 -0.268834406044556 0.38521003856148861 0 -0.26727906057296552 0.40379277982683448 0 -0.25888746257265388 0.38533484915374561 0 -0.26727906057296552 0.40379277982683448 0 -0.25888746257265388 0.38533484915374561 0 -0.24700860941922539 0.39282845154144092 0 -0.25097458760403463 0.37624850575467522 0 -0.25888746257265388 0.38533484915374561 0 -0.24700860941922539 0.39282845154144092 0 -0.25097458760403463 0.37624850575467522 0 -0.26265069090490178 0.37570665609624537 0 -0.25888746257265388 0.38533484915374561 0 -0.268834406044556 0.38521003856148861 0 -0.26265069090490178 0.37570665609624537 0 -0.25888746257265388 0.38533484915374561 0 -0.2600944684035657 0.43211179366562352 0 -0.24691134310915669 0.43757653072659008 0 -0.2485631847717617 0.41894387122422722 0 -0.2600944684035657 0.43211179366562352 0 -0.27233923538612698 0.42162265254045772 0 -0.2485631847717617 0.41894387122422722 0 -0.26727906057296552 0.40379277982683448 0 -0.27233923538612698 0.42162265254045772 0 -0.2485631847717617 0.41894387122422722 0 -0.26727906057296552 0.40379277982683448 0 -0.27233923538612698 0.42162265254045772 0 -0.28754951172670568 0.41475710811222782 0 -0.26727906057296552 0.40379277982683448 0 -0.28754951172670568 0.41475710811222782 0 -0.27233923538612698 0.42162265254045772 0 -0.28127816303175479 0.42730632792757328 0 -0.28636553198865122 0.41758389287742248 0 -0.27233923538612698 0.42162265254045772 0 -0.27445216814548251 0.43691618642840879 0 -0.28127816303175479 0.42730632792757328 0 -0.2600944684035657 0.43211179366562352 0 -0.27233923538612698 0.42162265254045772 0 -0.27445216814548251 0.43691618642840879 0 -0.27445216814548251 0.43691618642840879 0 -0.28127816303175479 0.42730632792757328 0 -0.29203105842434002 0.43277186725724992 0 -0.28127816303175479 0.42730632792757328 0 -0.29008588147435033 0.42312889333473719 0 -0.29203105842434002 0.43277186725724992 0 -0.28127816303175479 0.42730632792757328 0 -0.29008588147435033 0.42312889333473719 0 -0.28636553198865122 0.41758389287742248 0 -0.29008588147435033 0.42312889333473719 0 -0.29203105842434002 0.43277186725724992 0 -0.30320514220030009 0.42322527049921238 0 -0.29008588147435033 0.42312889333473719 0 -0.28754951172670568 0.41475710811222782 0 -0.30320514220030009 0.42322527049921238 0 -0.28754951172670568 0.41475710811222782 0 -0.30320514220030009 0.42322527049921238 0 -0.27233923538612698 0.42162265254045772 0 -0.28754951172670568 0.41475710811222782 0 -0.28636553198865122 0.41758389287742248 0 -0.29008588147435033 0.42312889333473719 0 -0.28754951172670568 0.41475710811222782 0 -0.28636553198865122 0.41758389287742248 0 -0.28754951172670568 0.41475710811222782 0 -0.28636553198865122 0.41758389287742248 0 -0.32185392191977691 0.40822810700833101 0 -0.30448886175200562 0.40667311675302142 0 -0.30320514220030009 0.42322527049921238 0 -0.28754951172670568 0.41475710811222782 0 -0.30448886175200562 0.40667311675302142 0 -0.30320514220030009 0.42322527049921238 0 -0.32302851519201542 0.4276482382492236 0 -0.30320514220030009 0.42322527049921238 0 -0.30833859890672971 0.43795609015900983 0 -0.29203105842434002 0.43277186725724992 0 -0.30320514220030009 0.42322527049921238 0 -0.30833859890672971 0.43795609015900983 0 -0.30833859890672971 0.43795609015900983 0 -0.30784172867280651 0.45378558483684178 0 -0.29256555600044187 0.44648126186522791 0 -0.29203105842434002 0.43277186725724992 0 -0.30833859890672971 0.43795609015900983 0 -0.29256555600044187 0.44648126186522791 0 -0.30784172867280651 0.45378558483684178 0 -0.29648934831134488 0.4615877998071734 0 -0.30906447682409183 0.47304188671938441 0 -0.30784172867280651 0.45378558483684178 0 -0.30906447682409183 0.47304188671938441 0 -0.32011691868522951 0.46418201563756772 0 -0.30784172867280651 0.45378558483684178 0 -0.29648934831134488 0.4615877998071734 0 -0.29256555600044187 0.44648126186522791 0 -0.29648934831134488 0.4615877998071734 0 -0.29256555600044187 0.44648126186522791 0 -0.2762404335419481 0.45587004270268389 0 -0.29648934831134488 0.4615877998071734 0 -0.2762404335419481 0.45587004270268389 0 -0.29583246924410028 0.47793502135134092 0 -0.2762404335419481 0.45587004270268389 0 -0.29583246924410028 0.47793502135134092 0 -0.27445216814548251 0.43691618642840879 0 -0.29203105842434002 0.43277186725724992 0 -0.29256555600044187 0.44648126186522791 0 -0.27445216814548251 0.43691618642840879 0 -0.2582064106053007 0.44549972740843341 0 -0.27445216814548251 0.43691618642840879 0 -0.29256555600044187 0.44648126186522791 0 -0.2762404335419481 0.45587004270268389 0 -0.27445216814548251 0.43691618642840879 0 -0.2762404335419481 0.45587004270268389 0 -0.2582064106053007 0.44549972740843341 0 -0.2762404335419481 0.45587004270268389 0 -0.26806052945323638 0.46322785803712341 0 -0.27520494094851389 0.47248111223813077 0 -0.2762404335419481 0.45587004270268389 0 -0.26806052945323638 0.46322785803712341 0 -0.2582471064145932 0.45825342282688569 0 -0.2762404335419481 0.45587004270268389 0 -0.2582471064145932 0.45825342282688569 0 -0.2582064106053007 0.44549972740843341 0 -0.26806052945323638 0.46322785803712341 0 -0.2582471064145932 0.45825342282688569 0 -0.25765380007774319 0.46572850960651302 0 -0.26806052945323638 0.46322785803712341 0 -0.25765380007774319 0.46572850960651302 0 -0.26168059152784812 0.47219137684752521 0 -0.2582471064145932 0.45825342282688569 0 -0.25765380007774319 0.46572850960651302 0 -0.25151189815232261 0.46295775537057637 0 -0.25765380007774319 0.46572850960651302 0 -0.25151189815232261 0.46295775537057637 0 -0.25041725139033588 0.46931720576244429 0 -0.2582471064145932 0.45825342282688569 0 -0.25151189815232261 0.46295775537057637 0 -0.245518354398894 0.45745512770703578 0 -0.2582471064145932 0.45825342282688569 0 -0.2582064106053007 0.44549972740843341 0 -0.245518354398894 0.45745512770703578 0 -0.2582064106053007 0.44549972740843341 0 -0.24196065306511849 0.45408326838845692 0 -0.2600944684035657 0.43211179366562352 0 -0.27445216814548251 0.43691618642840879 0 -0.2582064106053007 0.44549972740843341 0 -0.2600944684035657 0.43211179366562352 0 -0.2582064106053007 0.44549972740843341 0 -0.24691134310915669 0.43757653072659008 0 -0.25821619206840379 0.5 0 -0.25456965072195448 0.49287493235904672 0 -0.27952726581442933 0.48574986471809423 0 -0.25456965072195448 0.49287493235904672 0 -0.25407953312604259 0.47986167212577391 0 -0.2650123964277577 0.48063179165771419 0 -0.25407953312604259 0.47986167212577391 0 -0.25041725139033588 0.46931720576244429 0 -0.26168059152784812 0.47219137684752521 0 -0.25765380007774319 0.46572850960651302 0 -0.25041725139033588 0.46931720576244429 0 -0.26168059152784812 0.47219137684752521 0 -0.25407953312604259 0.47986167212577391 0 -0.26168059152784812 0.47219137684752521 0 -0.2650123964277577 0.48063179165771419 0 -0.2650123964277577 0.48063179165771419 0 -0.27520494094851389 0.47248111223813077 0 -0.27952726581442933 0.48574986471809423 0 -0.26168059152784812 0.47219137684752521 0 -0.2650123964277577 0.48063179165771419 0 -0.27520494094851389 0.47248111223813077 0 -0.26806052945323638 0.46322785803712341 0 -0.26168059152784812 0.47219137684752521 0 -0.27520494094851389 0.47248111223813077 0 -0.25821619206840379 0.5 0 -0.27952726581442933 0.48574986471809423 0 -0.28682034850732779 0.5 0 -0.25456965072195448 0.49287493235904672 0 -0.2650123964277577 0.48063179165771419 0 -0.27952726581442933 0.48574986471809423 0 -0.25456965072195448 0.49287493235904672 0 -0.27952726581442933 0.48574986471809423 0 -0.27952726581442933 0.48574986471809423 0 -0.29226391267645729 0.48960474943887933 0 -0.29583246924410028 0.47793502135134092 0 -0.27952726581442933 0.48574986471809423 0 -0.28682034850732779 0.5 0 -0.29226391267645729 0.48960474943887933 0 -0.2762404335419481 0.45587004270268389 0 -0.27520494094851389 0.47248111223813077 0 -0.29583246924410028 0.47793502135134092 0 -0.27520494094851389 0.47248111223813077 0 -0.27952726581442933 0.48574986471809423 0 -0.29583246924410028 0.47793502135134092 0 -0.29583246924410028 0.47793502135134092 0 -0.30906447682409183 0.47304188671938441 0 -0.31542450494625179 0.4999999999999985 0 -0.29648934831134488 0.4615877998071734 0 -0.29583246924410028 0.47793502135134092 0 -0.30906447682409183 0.47304188671938441 0 -0.29583246924410028 0.47793502135134092 0 -0.31542450494625179 0.4999999999999985 0 -0.28682034850732779 0.5 0 -0.29226391267645729 0.48960474943887933 0 -0.31542450494625179 0.4999999999999985 0 -0.29226391267645729 0.48960474943887933 0 -0.29583246924410028 0.47793502135134092 0 -0.31542450494625179 0.4999999999999985 0 -0.31542450494625179 0.4999999999999985 0 -0.32607225880684609 0.49106157246532067 0 -0.32100481602984932 0.47911044559702548 0 -0.31542450494625179 0.4999999999999985 0 -0.32607225880684609 0.49106157246532067 0 -0.33318542896358999 0.5 0 -0.32607225880684609 0.49106157246532067 0 -0.33467428528769327 0.48513584426425738 0 -0.32100481602984932 0.47911044559702548 0 -0.33318542896358999 0.5 0 -0.33467428528769327 0.48513584426425738 0 -0.35094635298092819 0.50000000000000122 0 -0.32607225880684609 0.49106157246532067 0 -0.33318542896358999 0.5 0 -0.33467428528769327 0.48513584426425738 0 -0.33467428528769327 0.48513584426425738 0 -0.3413419886300928 0.47176791431875081 0 -0.34629682411731882 0.48258613996579153 0 -0.33467428528769327 0.48513584426425738 0 -0.33006903817154448 0.47238033776134219 0 -0.32100481602984932 0.47911044559702548 0 -0.33467428528769327 0.48513584426425738 0 -0.3413419886300928 0.47176791431875081 0 -0.33006903817154448 0.47238033776134219 0 -0.33006903817154448 0.47238033776134219 0 -0.32100481602984932 0.47911044559702548 0 -0.32011691868522951 0.46418201563756772 0 -0.30906447682409183 0.47304188671938441 0 -0.31542450494625179 0.4999999999999985 0 -0.32100481602984932 0.47911044559702548 0 -0.30906447682409183 0.47304188671938441 0 -0.32100481602984932 0.47911044559702548 0 -0.32011691868522951 0.46418201563756772 0 -0.30784172867280651 0.45378558483684178 0 -0.32011691868522951 0.46418201563756772 0 -0.32311552007261468 0.44659467950832082 0 -0.32011691868522951 0.46418201563756772 0 -0.32311552007261468 0.44659467950832082 0 -0.33391594577118938 0.46176639521233109 0 -0.33006903817154448 0.47238033776134219 0 -0.32011691868522951 0.46418201563756772 0 -0.33391594577118938 0.46176639521233109 0 -0.30833859890672971 0.43795609015900983 0 -0.30784172867280651 0.45378558483684178 0 -0.32311552007261468 0.44659467950832082 0 -0.3424775709094518 0.43675421327051689 0 -0.33391594577118938 0.46176639521233109 0 -0.3424775709094518 0.43675421327051689 0 -0.33391594577118938 0.46176639521233109 0 -0.34712114544495593 0.45971929316405807 0 -0.3424775709094518 0.43675421327051689 0 -0.32311552007261468 0.44659467950832082 0 -0.33391594577118938 0.46176639521233109 0 -0.3413419886300928 0.47176791431875081 0 -0.33006903817154448 0.47238033776134219 0 -0.33391594577118938 0.46176639521233109 0 -0.3413419886300928 0.47176791431875081 0 -0.33391594577118938 0.46176639521233109 0 -0.34712114544495593 0.45971929316405807 0 -0.34712114544495593 0.45971929316405807 0 -0.35955885561816558 0.45483346765884969 0 -0.35782661613554279 0.47964534128647079 0 -0.3424775709094518 0.43675421327051689 0 -0.34712114544495593 0.45971929316405807 0 -0.35955885561816558 0.45483346765884969 0 -0.3424775709094518 0.43675421327051689 0 -0.37367702988880969 0.44292066756856707 0 -0.35955885561816558 0.45483346765884969 0 -0.37372448057167651 0.4677372576733706 0 -0.35955885561816558 0.45483346765884969 0 -0.35782661613554279 0.47964534128647079 0 -0.37367702988880969 0.44292066756856707 0 -0.37372448057167651 0.4677372576733706 0 -0.35955885561816558 0.45483346765884969 0 -0.37431124364099388 0.48752276825418861 0 -0.35782661613554279 0.47964534128647079 0 -0.37372448057167651 0.4677372576733706 0 -0.37431124364099388 0.48752276825418861 0 -0.35782661613554279 0.47964534128647079 0 -0.37431124364099388 0.48752276825418861 0 -0.35094635298092819 0.50000000000000122 0 -0.35782661613554279 0.47964534128647079 0 -0.37431124364099388 0.48752276825418861 0 -0.35094635298092819 0.50000000000000122 0 -0.37568398234958678 0.5 0 -0.37431124364099388 0.48752276825418861 0 -0.35094635298092819 0.50000000000000122 0 -0.35094635298092819 0.50000000000000122 0 -0.35782661613554279 0.47964534128647079 0 -0.34629682411731882 0.48258613996579153 0 -0.33467428528769327 0.48513584426425738 0 -0.35094635298092819 0.50000000000000122 0 -0.34629682411731882 0.48258613996579153 0 -0.3413419886300928 0.47176791431875081 0 -0.35782661613554279 0.47964534128647079 0 -0.3413419886300928 0.47176791431875081 0 -0.34712114544495593 0.45971929316405807 0 -0.35782661613554279 0.47964534128647079 0 -0.3413419886300928 0.47176791431875081 0 -0.35782661613554279 0.47964534128647079 0 -0.34629682411731882 0.48258613996579153 0 -0.14954237136792151 0.48419947961806981 0 -0.1523244884257495 0.46839895923613423 0 -0.13337397586540731 0.47610292192951209 0 -0.1523244884257495 0.46839895923613423 0 -0.14954237136792151 0.48419947961806981 0 -0.1394678848576677 0.48744692777189902 0 -0.13337397586540731 0.47610292192951209 0 -0.14954237136792151 0.48419947961806981 0 -0.1523244884257495 0.46839895923613423 0 -0.1638622408351651 0.47921423044513001 0 -0.14954237136792151 0.48419947961806981 0 -0.13337397586540731 0.47610292192951209 0 -0.1523244884257495 0.46839895923613423 0 -0.14954237136792151 0.48419947961806981 0 -0.1550557159844157 0.49999999999999889 0 -0.1467602543100944 0.50000000000000555 0 -0.14954237136792151 0.48419947961806981 0 -0.1467602543100944 0.50000000000000555 0 -0.14954237136792151 0.48419947961806981 0 -0.1550557159844157 0.49999999999999889 0 -0.1638622408351651 0.47921423044513001 0 -0.14954237136792151 0.48419947961806981 0 -0.1467602543100944 0.50000000000000555 0 -0.1394678848576677 0.48744692777189902 0 -0.1467602543100944 0.50000000000000555 0 -0.1394678848576677 0.48744692777189902 0 -0.1281949378872467 0.48948530954000868 0 -0.1467602543100944 0.50000000000000555 0 -0.1281949378872467 0.48948530954000868 0 -0.1167301567664801 0.5 0 -0.1281949378872467 0.48948530954000868 0 -0.13337397586540731 0.47610292192951209 0 -0.1144234633050646 0.48380688462288912 0 -0.13337397586540731 0.47610292192951209 0 -0.1360516315515391 0.46677974667678762 0 -0.1523244884257495 0.46839895923613423 0 -0.1394678848576677 0.48744692777189902 0 -0.1281949378872467 0.48948530954000868 0 -0.13337397586540731 0.47610292192951209 0 -0.13337397586540731 0.47610292192951209 0 -0.12566662042961069 0.47155411412865622 0 -0.1236146211995896 0.47912800901244068 0 -0.13337397586540731 0.47610292192951209 0 -0.12566662042961069 0.47155411412865622 0 -0.1360516315515391 0.46677974667678762 0 -0.12566662042961069 0.47155411412865622 0 -0.1360516315515391 0.46677974667678762 0 -0.12462596874134869 0.46198335048338313 0 -0.1418494169615403 0.4460280746834534 0 -0.12462596874134869 0.46198335048338313 0 -0.1360516315515391 0.46677974667678762 0 -0.1435870242395369 0.45672648838586799 0 -0.12462596874134869 0.46198335048338313 0 -0.1418494169615403 0.4460280746834534 0 -0.1435870242395369 0.45672648838586799 0 -0.12462596874134869 0.46198335048338313 0 -0.1418494169615403 0.4460280746834534 0 -0.1187382711826898 0.44769297959660509 0 -0.12462596874134869 0.46198335048338313 0 -0.1418494169615403 0.4460280746834534 0 -0.1268816043586323 0.43541326028754929 0 -0.1187382711826898 0.44769297959660509 0 -0.1418494169615403 0.4460280746834534 0 -0.1564129928245159 0.4451790530489943 0 -0.15907286518173369 0.43007279888352562 0 -0.1418494169615403 0.4460280746834534 0 -0.15907286518173369 0.43007279888352562 0 -0.1418494169615403 0.4460280746834534 0 -0.1435870242395369 0.45672648838586799 0 -0.1564129928245159 0.4451790530489943 0 -0.1435870242395369 0.45672648838586799 0 -0.1564129928245159 0.4451790530489943 0 -0.1523244884257495 0.46839895923613423 0 -0.1435870242395369 0.45672648838586799 0 -0.1564129928245159 0.4451790530489943 0 -0.1360516315515391 0.46677974667678762 0 -0.1523244884257495 0.46839895923613423 0 -0.1435870242395369 0.45672648838586799 0 -0.1523244884257495 0.46839895923613423 0 -0.1564129928245159 0.4451790530489943 0 -0.1523244884257495 0.46839895923613423 0 -0.17153238724262601 0.46059036116090191 0 -0.1564129928245159 0.4451790530489943 0 -0.1523244884257495 0.46839895923613423 0 -0.17153238724262601 0.46059036116090191 0 -0.1564129928245159 0.4451790530489943 0 -0.17619793347448651 0.44473874519498491 0 -0.17593993966432159 0.42759861423338108 0 -0.17153238724262601 0.46059036116090191 0 -0.1564129928245159 0.4451790530489943 0 -0.17619793347448651 0.44473874519498491 0 -0.1564129928245159 0.4451790530489943 0 -0.15907286518173369 0.43007279888352562 0 -0.17153238724262601 0.46059036116090191 0 -0.17619793347448651 0.44473874519498491 0 -0.19074028605950211 0.45278176308566881 0 -0.17619793347448651 0.44473874519498491 0 -0.18636406158146701 0.43754393444597878 0 -0.19074028605950211 0.45278176308566881 0 -0.17153238724262601 0.46059036116090191 0 -0.19042826962719281 0.46625522742883441 0 -0.19074028605950211 0.45278176308566881 0 -0.17153238724262601 0.46059036116090191 0 -0.17793653173568921 0.47357576555856362 0 -0.19042826962719281 0.46625522742883441 0 -0.17153238724262601 0.46059036116090191 0 -0.19074028605950211 0.45278176308566881 0 -0.17793653173568921 0.47357576555856362 0 -0.17678195025459109 0.48852081709711298 0 -0.19850818452476701 0.47704163419422813 0 -0.17793653173568921 0.47357576555856362 0 -0.1638622408351651 0.47921423044513001 0 -0.17678195025459109 0.48852081709711298 0 -0.17153238724262601 0.46059036116090191 0 -0.17793653173568921 0.47357576555856362 0 -0.1638622408351651 0.47921423044513001 0 -0.1523244884257495 0.46839895923613423 0 -0.17153238724262601 0.46059036116090191 0 -0.1638622408351651 0.47921423044513001 0 -0.1550557159844157 0.49999999999999889 0 -0.17678195025459109 0.48852081709711298 0 -0.1550557159844157 0.49999999999999889 0 -0.1638622408351651 0.47921423044513001 0 -0.17678195025459109 0.48852081709711298 0 -0.1550557159844157 0.49999999999999889 0 -0.17678195025459109 0.48852081709711298 0 -0.17990782253277041 0.5 0 -0.17678195025459109 0.48852081709711298 0 -0.17990782253277041 0.5 0 -0.1917775324570023 0.49060259280442631 0 -0.17678195025459109 0.48852081709711298 0 -0.1917775324570023 0.49060259280442631 0 -0.19850818452476701 0.47704163419422813 0 -0.1917775324570023 0.49060259280442631 0 -0.19850818452476701 0.47704163419422813 0 -0.20475992908112511 0.5 0 -0.17990782253277041 0.5 0 -0.1917775324570023 0.49060259280442631 0 -0.20475992908112511 0.5 0 -0.17678195025459109 0.48852081709711298 0 -0.19850818452476701 0.47704163419422813 0 -0.17793653173568921 0.47357576555856362 0 -0.19850818452476701 0.47704163419422813 0 -0.19042826962719281 0.46625522742883441 0 -0.19850818452476701 0.47704163419422813 0 -0.22023441879494299 0.46556245129134299 0 -0.19850818452476701 0.47704163419422813 0 -0.22531794765848701 0.48208145620577553 0 -0.22023441879494299 0.46556245129134299 0 -0.19850818452476701 0.47704163419422813 0 -0.20475992908112511 0.5 0 -0.22531794765848701 0.48208145620577553 0 -0.22961203562947979 0.49999999999999961 0 -0.22531794765848701 0.48208145620577553 0 -0.24130414186424651 0.48652530751023082 0 -0.20475992908112511 0.5 0 -0.22961203562947979 0.49999999999999961 0 -0.22531794765848701 0.48208145620577553 0 -0.22531794765848701 0.48208145620577553 0 -0.2396998605744626 0.46661128515514172 0 -0.22023441879494299 0.46556245129134299 0 -0.22531794765848701 0.48208145620577553 0 -0.24284958609909221 0.47724123328893148 0 -0.2396998605744626 0.46661128515514172 0 -0.22531794765848701 0.48208145620577553 0 -0.24284958609909221 0.47724123328893148 0 -0.24130414186424651 0.48652530751023082 0 -0.25041725139033588 0.46931720576244429 0 -0.24284958609909221 0.47724123328893148 0 -0.2396998605744626 0.46661128515514172 0 -0.25407953312604259 0.47986167212577391 0 -0.25041725139033588 0.46931720576244429 0 -0.24284958609909221 0.47724123328893148 0 -0.25407953312604259 0.47986167212577391 0 -0.24284958609909221 0.47724123328893148 0 -0.24130414186424651 0.48652530751023082 0 -0.25456965072195448 0.49287493235904672 0 -0.25407953312604259 0.47986167212577391 0 -0.24130414186424651 0.48652530751023082 0 -0.25456965072195448 0.49287493235904672 0 -0.22961203562947979 0.49999999999999961 0 -0.24130414186424651 0.48652530751023082 0 -0.25821619206840379 0.5 0 -0.25456965072195448 0.49287493235904672 0 -0.22961203562947979 0.49999999999999961 0 -0.25456965072195448 0.49287493235904672 0 -0.22961203562947979 0.49999999999999961 0 -0.2582064106053007 0.44549972740843341 0 -0.24691134310915669 0.43757653072659008 0 -0.24196065306511849 0.45408326838845692 0 -0.2582064106053007 0.44549972740843341 0 -0.245518354398894 0.45745512770703578 0 -0.24196065306511849 0.45408326838845692 0 -0.24691134310915669 0.43757653072659008 0 -0.24196065306511849 0.45408326838845692 0 -0.2244134395610724 0.43745266063982158 0 -0.245518354398894 0.45745512770703578 0 -0.2396998605744626 0.46661128515514172 0 -0.24196065306511849 0.45408326838845692 0 -0.245518354398894 0.45745512770703578 0 -0.24196065306511849 0.45408326838845692 0 -0.245518354398894 0.45745512770703578 0 -0.24632259044068469 0.46396754295959303 0 -0.2396998605744626 0.46661128515514172 0 -0.25041725139033588 0.46931720576244429 0 -0.24632259044068469 0.46396754295959303 0 -0.2396998605744626 0.46661128515514172 0 -0.25151189815232261 0.46295775537057637 0 -0.25041725139033588 0.46931720576244429 0 -0.24632259044068469 0.46396754295959303 0 -0.25151189815232261 0.46295775537057637 0 -0.245518354398894 0.45745512770703578 0 -0.24632259044068469 0.46396754295959303 0 -0.24196065306511849 0.45408326838845692 0 -0.22023441879494299 0.46556245129134299 0 -0.2211197064625213 0.45119437153439801 0 -0.24196065306511849 0.45408326838845692 0 -0.22023441879494299 0.46556245129134299 0 -0.2396998605744626 0.46661128515514172 0 -0.24196065306511849 0.45408326838845692 0 -0.22023441879494299 0.46556245129134299 0 -0.24196065306511849 0.45408326838845692 0 -0.2211197064625213 0.45119437153439801 0 -0.2244134395610724 0.43745266063982158 0 -0.24196065306511849 0.45408326838845692 0 -0.2244134395610724 0.43745266063982158 0 -0.2211197064625213 0.45119437153439801 0 -0.20969191189862901 0.44087910302542482 0 -0.21251759774023291 0.46093615315966108 0 -0.20969191189862901 0.44087910302542482 0 -0.20262185494280879 0.46051518624332088 0 -0.20098039362506581 0.43710157259050347 0 -0.2211197064625213 0.45119437153439801 0 -0.20969191189862901 0.44087910302542482 0 -0.2244134395610724 0.43745266063982158 0 -0.20969191189862901 0.44087910302542482 0 -0.21251759774023291 0.46093615315966108 0 -0.20969191189862901 0.44087910302542482 0 -0.21251759774023291 0.46093615315966108 0 -0.20262185494280879 0.46051518624332088 0 -0.19850818452476701 0.47704163419422813 0 -0.21251759774023291 0.46093615315966108 0 -0.20262185494280879 0.46051518624332088 0 -0.19850818452476701 0.47704163419422813 0 -0.22023441879494299 0.46556245129134299 0 -0.21251759774023291 0.46093615315966108 0 -0.22023441879494299 0.46556245129134299 0 -0.2211197064625213 0.45119437153439801 0 -0.21251759774023291 0.46093615315966108 0 -0.19850818452476701 0.47704163419422813 0 -0.20262185494280879 0.46051518624332088 0 -0.19042826962719281 0.46625522742883441 0 -0.20262185494280879 0.46051518624332088 0 -0.19042826962719281 0.46625522742883441 0 -0.19074028605950211 0.45278176308566881 0 -0.20262185494280879 0.46051518624332088 0 -0.19074028605950211 0.45278176308566881 0 -0.20098039362506581 0.43710157259050347 0 -0.20262185494280879 0.46051518624332088 0 -0.20098039362506581 0.43710157259050347 0 -0.18636406158146701 0.43754393444597878 0 -0.19074028605950211 0.45278176308566881 0 -0.20098039362506581 0.43710157259050347 0 -0.18636406158146701 0.43754393444597878 0 -0.19182022651821051 0.42556130779228379 0 -0.20098039362506581 0.43710157259050347 0 -0.20098039362506581 0.43710157259050347 0 -0.1993389323073218 0.41368795893768601 0 -0.19182022651821051 0.42556130779228379 0 -0.20098039362506581 0.43710157259050347 0 -0.1993389323073218 0.41368795893768601 0 -0.20098039362506581 0.43710157259050347 0 -0.1993389323073218 0.41368795893768601 0 -0.2068662260570244 0.42082205289118829 0 -0.19182022651821051 0.42556130779228379 0 -0.195466886504127 0.41001817541776742 0 -0.17593993966432159 0.42759861423338108 0 -0.19182022651821051 0.42556130779228379 0 -0.1993389323073218 0.41368795893768601 0 -0.195466886504127 0.41001817541776742 0 -0.1993389323073218 0.41368795893768601 0 -0.2068662260570244 0.42082205289118829 0 -0.1993389323073218 0.41368795893768601 0 -0.19886704119730769 0.40695695893382727 0 -0.20423234874868951 0.40212648226443898 0 -0.1993389323073218 0.41368795893768601 0 -0.19886704119730769 0.40695695893382727 0 -0.1993389323073218 0.41368795893768601 0 -0.19886704119730769 0.40695695893382727 0 -0.195466886504127 0.41001817541776742 0 -0.1993389323073218 0.41368795893768601 0 -0.195466886504127 0.41001817541776742 0 -0.19886704119730769 0.40695695893382727 0 -0.195466886504127 0.41001817541776742 0 -0.2068662260570244 0.42082205289118829 0 -0.2265906399771922 0.40850991082247962 0 -0.20423234874868951 0.40212648226443898 0 -0.1993389323073218 0.41368795893768601 0 -0.2068662260570244 0.42082205289118829 0 -0.20423234874868951 0.40212648226443898 0 -0.2068662260570244 0.42082205289118829 0 -0.20423234874868951 0.40212648226443898 0 -0.2068662260570244 0.42082205289118829 0 -0.2244134395610724 0.43745266063982158 0 -0.20969191189862901 0.44087910302542482 0 -0.2068662260570244 0.42082205289118829 0 -0.20969191189862901 0.44087910302542482 0 -0.20098039362506581 0.43710157259050347 0 -0.2068662260570244 0.42082205289118829 0 -0.20969191189862901 0.44087910302542482 0 -0.2068662260570244 0.42082205289118829 0 -0.2244134395610724 0.43745266063982158 0 -0.2068662260570244 0.42082205289118829 0 -0.2244134395610724 0.43745266063982158 0 -0.2265906399771922 0.40850991082247962 0 -0.2244134395610724 0.43745266063982158 0 -0.2265906399771922 0.40850991082247962 0 -0.2485631847717617 0.41894387122422722 0 -0.2265906399771922 0.40850991082247962 0 -0.2485631847717617 0.41894387122422722 0 -0.24700860941922539 0.39282845154144092 0 -0.24691134310915669 0.43757653072659008 0 -0.2244134395610724 0.43745266063982158 0 -0.2485631847717617 0.41894387122422722 0 -0.25097458760403463 0.37624850575467522 0 -0.24700860941922539 0.39282845154144092 0 -0.22673815826548521 0.38186412325604752 0 -0.24700860941922539 0.39282845154144092 0 -0.22673815826548521 0.38186412325604752 0 -0.2265906399771922 0.40850991082247962 0 -0.24700860941922539 0.39282845154144092 0 -0.22673815826548521 0.38186412325604752 0 -0.2265906399771922 0.40850991082247962 0 -0.22673815826548521 0.38186412325604752 0 -0.20423234874868951 0.40212648226443898 0 -0.22673815826548521 0.38186412325604752 0 -0.2074961434202641 0.37145607826310229 0 -0.22673815826548521 0.38186412325604752 0 -0.20423234874868951 0.40212648226443898 0 -0.20072992012679591 0.37726583235546018 0 -0.22673815826548521 0.38186412325604752 0 -0.20072992012679591 0.37726583235546018 0 -0.2074961434202641 0.37145607826310229 0 -0.22673815826548521 0.38186412325604752 0 -0.20423234874868951 0.40212648226443898 0 -0.19886704119730769 0.40695695893382727 0 -0.20423234874868951 0.40212648226443898 0 -0.19700944241658999 0.38046038560397999 0 -0.19886704119730769 0.40695695893382727 0 -0.19700944241658999 0.38046038560397999 0 -0.195466886504127 0.41001817541776742 0 -0.17983733319763781 0.39520505592921878 0 -0.19886704119730769 0.40695695893382727 0 -0.19700944241658999 0.38046038560397999 0 -0.17983733319763781 0.39520505592921878 0 -0.19886704119730769 0.40695695893382727 0 -0.195466886504127 0.41001817541776742 0 -0.17983733319763781 0.39520505592921878 0 -0.19886704119730769 0.40695695893382727 0 -0.20423234874868951 0.40212648226443898 0 -0.19700944241658999 0.38046038560397999 0 -0.17983733319763781 0.39520505592921878 0 -0.20423234874868951 0.40212648226443898 0 -0.20072992012679591 0.37726583235546018 0 -0.20423234874868951 0.40212648226443898 0 -0.19700944241658999 0.38046038560397999 0 -0.20072992012679591 0.37726583235546018 0 -0.19700944241658999 0.38046038560397999 0 -0.20072992012679591 0.37726583235546018 0 -0.19700944241658999 0.38046038560397999 0 -0.18140333907531139 0.37798212833521011 0 -0.19057053646053951 0.37324677225886799 0 -0.18140333907531139 0.37798212833521011 0 -0.16730387431052129 0.38332630159382181 0 -0.17983733319763781 0.39520505592921878 0 -0.18140333907531139 0.37798212833521011 0 -0.16730387431052129 0.38332630159382181 0 -0.17032764217006299 0.36615337008092752 0 -0.19700944241658999 0.38046038560397999 0 -0.18140333907531139 0.37798212833521011 0 -0.17983733319763781 0.39520505592921878 0 -0.16730387431052129 0.38332630159382181 0 -0.17983733319763781 0.39520505592921878 0 -0.16730387431052129 0.38332630159382181 0 -0.14993627532235981 0.38752388896423717 0 -0.15411592659699949 0.37082724666510752 0 -0.16730387431052129 0.38332630159382181 0 -0.15411592659699949 0.37082724666510752 0 -0.16730387431052129 0.38332630159382181 0 -0.1684423567311307 0.40498924546704701 0 -0.17983733319763781 0.39520505592921878 0 -0.16730387431052129 0.38332630159382181 0 -0.1684423567311307 0.40498924546704701 0 -0.1631883697461296 0.40669955023867399 0 -0.16730387431052129 0.38332630159382181 0 -0.1631883697461296 0.40669955023867399 0 -0.16730387431052129 0.38332630159382181 0 -0.1631883697461296 0.40669955023867399 0 -0.14993627532235981 0.38752388896423717 0 -0.1771066624898476 0.4035524001853158 0 -0.18568926338649819 0.40541618142059638 0 -0.1735659414736957 0.40897674049268901 0 -0.195466886504127 0.41001817541776742 0 -0.17983733319763781 0.39520505592921878 0 -0.18568926338649819 0.40541618142059638 0 -0.1684423567311307 0.40498924546704701 0 -0.17983733319763781 0.39520505592921878 0 -0.1684423567311307 0.40498924546704701 0 -0.1771066624898476 0.4035524001853158 0 -0.1735659414736957 0.40897674049268901 0 -0.1684423567311307 0.40498924546704701 0 -0.1771066624898476 0.4035524001853158 0 -0.17983733319763781 0.39520505592921878 0 -0.1771066624898476 0.4035524001853158 0 -0.17983733319763781 0.39520505592921878 0 -0.18568926338649819 0.40541618142059638 0 -0.195466886504127 0.41001817541776742 0 -0.18568926338649819 0.40541618142059638 0 -0.17238106428411509 0.41774449015206 0 -0.195466886504127 0.41001817541776742 0 -0.17593993966432159 0.42759861423338108 0 -0.195466886504127 0.41001817541776742 0 -0.17238106428411509 0.41774449015206 0 -0.17593993966432159 0.42759861423338108 0 -0.18568926338649819 0.40541618142059638 0 -0.17238106428411509 0.41774449015206 0 -0.18568926338649819 0.40541618142059638 0 -0.17238106428411509 0.41774449015206 0 -0.1735659414736957 0.40897674049268901 0 -0.17619793347448651 0.44473874519498491 0 -0.18636406158146701 0.43754393444597878 0 -0.17593993966432159 0.42759861423338108 0 -0.18636406158146701 0.43754393444597878 0 -0.19182022651821051 0.42556130779228379 0 -0.17593993966432159 0.42759861423338108 0 -0.1564129928245159 0.4451790530489943 0 -0.17593993966432159 0.42759861423338108 0 -0.15907286518173369 0.43007279888352562 0 -0.17238106428411509 0.41774449015206 0 -0.17593993966432159 0.42759861423338108 0 -0.15907286518173369 0.43007279888352562 0 -0.1564129928245159 0.4451790530489943 0 -0.17593993966432159 0.42759861423338108 0 -0.17238106428411509 0.41774449015206 0 -0.15907286518173369 0.43007279888352562 0 -0.15907286518173369 0.43007279888352562 0 -0.1631883697461296 0.40669955023867399 0 -0.17238106428411509 0.41774449015206 0 -0.15907286518173369 0.43007279888352562 0 -0.1631883697461296 0.40669955023867399 0 -0.1684423567311307 0.40498924546704701 0 -0.1735659414736957 0.40897674049268901 0 -0.1631883697461296 0.40669955023867399 0 -0.17238106428411509 0.41774449015206 0 -0.1735659414736957 0.40897674049268901 0 -0.1631883697461296 0.40669955023867399 0 -0.1631883697461296 0.40669955023867399 0 -0.13819275062163991 0.42119481350254101 0 -0.1397575339287688 0.402195077315667 0 -0.15907286518173369 0.43007279888352562 0 -0.1631883697461296 0.40669955023867399 0 -0.13819275062163991 0.42119481350254101 0 -0.1418494169615403 0.4460280746834534 0 -0.15907286518173369 0.43007279888352562 0 -0.13819275062163991 0.42119481350254101 0 -0.1268816043586323 0.43541326028754929 0 -0.13819275062163991 0.42119481350254101 0 -0.1206125387506044 0.42601398695849457 0 -0.1418494169615403 0.4460280746834534 0 -0.1268816043586323 0.43541326028754929 0 -0.13819275062163991 0.42119481350254101 0 -0.13819275062163991 0.42119481350254101 0 -0.1397575339287688 0.402195077315667 0 -0.1151096477893887 0.40718756961793279 0 -0.1397575339287688 0.402195077315667 0 -0.1316354930737598 0.38978516679258152 0 -0.1151096477893887 0.40718756961793279 0 -0.1397575339287688 0.402195077315667 0 -0.1316354930737598 0.38978516679258152 0 -0.14993627532235981 0.38752388896423717 0 -0.1367380812940599 0.37583732125461439 0 -0.1193602359911196 0.38084739584411931 0 -0.1367380812940599 0.37583732125461439 0 -0.1316354930737598 0.38978516679258152 0 -0.1193602359911196 0.38084739584411931 0 -0.1367380812940599 0.37583732125461439 0 -0.1316354930737598 0.38978516679258152 0 -0.14993627532235981 0.38752388896423717 0 -0.1367380812940599 0.37583732125461439 0 -0.14993627532235981 0.38752388896423717 0 -0.15411592659699949 0.37082724666510752 0 -0.1631883697461296 0.40669955023867399 0 -0.1397575339287688 0.402195077315667 0 -0.14993627532235981 0.38752388896423717 0 -0.1460594465433746 0.34642544934723651 0 -0.13631083461421761 0.35395223111773089 0 -0.15666416854702819 0.35394170848165463 0 -0.1460594465433746 0.34642544934723651 0 -0.15404216869107859 0.3465342446542492 0 -0.15666416854702819 0.35394170848165463 0 -0.15411592659699949 0.37082724666510752 0 -0.13631083461421761 0.35395223111773089 0 -0.15666416854702819 0.35394170848165463 0 -0.15411592659699949 0.37082724666510752 0 -0.13631083461421761 0.35395223111773089 0 -0.1367380812940599 0.37583732125461439 0 -0.15411592659699949 0.37082724666510752 0 -0.13631083461421761 0.35395223111773089 0 -0.1367380812940599 0.37583732125461439 0 -0.15411592659699949 0.37082724666510752 0 -0.1367380812940599 0.37583732125461439 0 -0.1220261782868407 0.3643270038400892 0 -0.1193602359911196 0.38084739584411931 0 -0.1367380812940599 0.37583732125461439 0 -0.13631083461421761 0.35395223111773089 0 -0.1220261782868407 0.3643270038400892 0 -0.1460594465433746 0.34642544934723651 0 -0.13631083461421761 0.35395223111773089 0 -0.1362233482523855 0.33807684149620149 0 -0.13631083461421761 0.35395223111773089 0 -0.1246921205825629 0.34780661183605938 0 -0.1220261782868407 0.3643270038400892 0 -0.13631083461421761 0.35395223111773089 0 -0.1185057426314361 0.33707721557035392 0 -0.1246921205825629 0.34780661183605938 0 -0.13631083461421761 0.35395223111773089 0 -0.1185057426314361 0.33707721557035392 0 -0.12759662296237551 0.32875542424887721 0 -0.1362233482523855 0.33807684149620149 0 -0.1185057426314361 0.33707721557035392 0 -0.12759662296237551 0.32875542424887721 0 -0.1362233482523855 0.33807684149620149 0 -0.1463996193811315 0.3250383140905822 0 -0.13631083461421761 0.35395223111773089 0 -0.1362233482523855 0.33807684149620149 0 -0.1185057426314361 0.33707721557035392 0 -0.12759662296237551 0.32875542424887721 0 -0.12848255266651171 0.31496788417384092 0 -0.1463996193811315 0.3250383140905822 0 -0.12848255266651171 0.31496788417384092 0 -0.1463996193811315 0.3250383140905822 0 -0.14412983141615371 0.30694284214670642 0 -0.1463996193811315 0.3250383140905822 0 -0.161032888729256 0.33043628415745158 0 -0.16116834780291231 0.31386937529710912 0 -0.1463996193811315 0.3250383140905822 0 -0.16116834780291231 0.31386937529710912 0 -0.14412983141615371 0.30694284214670642 0 -0.1463996193811315 0.3250383140905822 0 -0.161032888729256 0.33043628415745158 0 -0.1460594465433746 0.34642544934723651 0 -0.1362233482523855 0.33807684149620149 0 -0.15109228878116121 0.33820278984990487 0 -0.1362233482523855 0.33807684149620149 0 -0.1463996193811315 0.3250383140905822 0 -0.15109228878116121 0.33820278984990487 0 -0.1463996193811315 0.3250383140905822 0 -0.15109228878116121 0.33820278984990487 0 -0.161032888729256 0.33043628415745158 0 -0.1460594465433746 0.34642544934723651 0 -0.15404216869107859 0.3465342446542492 0 -0.15109228878116121 0.33820278984990487 0 -0.15404216869107859 0.3465342446542492 0 -0.15109228878116121 0.33820278984990487 0 -0.1619157621582715 0.34265718225336661 0 -0.15109228878116121 0.33820278984990487 0 -0.1619157621582715 0.34265718225336661 0 -0.161032888729256 0.33043628415745158 0 -0.161032888729256 0.33043628415745158 0 -0.17566615807738181 0.33583425422431729 0 -0.1619157621582715 0.34265718225336661 0 -0.161032888729256 0.33043628415745158 0 -0.17566615807738181 0.33583425422431729 0 -0.1619157621582715 0.34265718225336661 0 -0.17566615807738181 0.33583425422431729 0 -0.1729969001237229 0.35099381215262249 0 -0.161032888729256 0.33043628415745158 0 -0.16116834780291231 0.31386937529710912 0 -0.1791798248017559 0.31587903252089589 0 -0.161032888729256 0.33043628415745158 0 -0.1791798248017559 0.31587903252089589 0 -0.17566615807738181 0.33583425422431729 0 -0.1791798248017559 0.31587903252089589 0 -0.17566615807738181 0.33583425422431729 0 -0.1791798248017559 0.31587903252089589 0 -0.18617959482500179 0.32726319351743482 0 -0.17566615807738181 0.33583425422431729 0 -0.1791798248017559 0.31587903252089589 0 -0.18617959482500179 0.32726319351743482 0 -0.1903614792491656 0.31846663214564691 0 -0.1791798248017559 0.31587903252089589 0 -0.1903614792491656 0.31846663214564691 0 -0.19184273878855809 0.3095970590937735 0 -0.17566615807738181 0.33583425422431729 0 -0.18477656720628791 0.34806526054465348 0 -0.19594691332606001 0.34331548805945922 0 -0.17566615807738181 0.33583425422431729 0 -0.19594691332606001 0.34331548805945922 0 -0.18617959482500179 0.32726319351743482 0 -0.17566615807738181 0.33583425422431729 0 -0.19497270685063711 0.33640045602335739 0 -0.17566615807738181 0.33583425422431729 0 -0.1729969001237229 0.35099381215262249 0 -0.18477656720628791 0.34806526054465348 0 -0.1729969001237229 0.35099381215262249 0 -0.19096620820173629 0.36020322186423859 0 -0.1729969001237229 0.35099381215262249 0 -0.17032764217006299 0.36615337008092752 0 -0.19096620820173629 0.36020322186423859 0 -0.17566615807738181 0.33583425422431729 0 -0.18477656720628791 0.34806526054465348 0 -0.1729969001237229 0.35099381215262249 0 -0.1619157621582715 0.34265718225336661 0 -0.1729969001237229 0.35099381215262249 0 -0.15666416854702819 0.35394170848165463 0 -0.1729969001237229 0.35099381215262249 0 -0.15666416854702819 0.35394170848165463 0 -0.17032764217006299 0.36615337008092752 0 -0.1729969001237229 0.35099381215262249 0 -0.17032764217006299 0.36615337008092752 0 -0.15404216869107859 0.3465342446542492 0 -0.1619157621582715 0.34265718225336661 0 -0.15666416854702819 0.35394170848165463 0 -0.16730387431052129 0.38332630159382181 0 -0.17032764217006299 0.36615337008092752 0 -0.15411592659699949 0.37082724666510752 0 -0.17032764217006299 0.36615337008092752 0 -0.16730387431052129 0.38332630159382181 0 -0.15411592659699949 0.37082724666510752 0 -0.17032764217006299 0.36615337008092752 0 -0.15411592659699949 0.37082724666510752 0 -0.15666416854702819 0.35394170848165463 0 -0.17032764217006299 0.36615337008092752 0 -0.17032764217006299 0.36615337008092752 0 -0.1836696722431459 0.36972026160628368 0 -0.18904523176529159 0.3636985172879163 0 -0.18140333907531139 0.37798212833521011 0 -0.17032764217006299 0.36615337008092752 0 -0.1836696722431459 0.36972026160628368 0 -0.17032764217006299 0.36615337008092752 0 -0.19096620820173629 0.36020322186423859 0 -0.17032764217006299 0.36615337008092752 0 -0.18904523176529159 0.3636985172879163 0 -0.19096620820173629 0.36020322186423859 0 -0.1836696722431459 0.36972026160628368 0 -0.18807792570250359 0.36813487166542408 0 -0.18904523176529159 0.3636985172879163 0 -0.18140333907531139 0.37798212833521011 0 -0.1836696722431459 0.36972026160628368 0 -0.19057053646053951 0.37324677225886799 0 -0.1836696722431459 0.36972026160628368 0 -0.19057053646053951 0.37324677225886799 0 -0.18807792570250359 0.36813487166542408 0 -0.19700944241658999 0.38046038560397999 0 -0.19057053646053951 0.37324677225886799 0 -0.19593995289831981 0.36520531128953088 0 -0.19057053646053951 0.37324677225886799 0 -0.1908670863975479 0.36654822980590168 0 -0.19593995289831981 0.36520531128953088 0 -0.19057053646053951 0.37324677225886799 0 -0.18807792570250359 0.36813487166542408 0 -0.1908670863975479 0.36654822980590168 0 -0.1908670863975479 0.36654822980590168 0 -0.18904523176529159 0.3636985172879163 0 -0.19118116642580191 0.36263127400101619 0 -0.18807792570250359 0.36813487166542408 0 -0.1908670863975479 0.36654822980590168 0 -0.18904523176529159 0.3636985172879163 0 -0.18904523176529159 0.3636985172879163 0 -0.19118116642580191 0.36263127400101619 0 -0.19096620820173629 0.36020322186423859 0 -0.18904523176529159 0.3636985172879163 0 -0.19096620820173629 0.36020322186423859 0 -0.19096620820173629 0.36020322186423859 0 -0.19546986182649201 0.35890480769424421 0 -0.19118116642580191 0.36263127400101619 0 -0.19593995289831981 0.36520531128953088 0 -0.19546986182649201 0.35890480769424421 0 -0.19118116642580191 0.36263127400101619 0 -0.19096620820173629 0.36020322186423859 0 -0.19546986182649201 0.35890480769424421 0 -0.19118116642580191 0.36263127400101619 0 -0.19593995289831981 0.36520531128953088 0 -0.1908670863975479 0.36654822980590168 0 -0.19118116642580191 0.36263127400101619 0 -0.19593995289831981 0.36520531128953088 0 -0.19593995289831981 0.36520531128953088 0 -0.19928576778993251 0.36701506937412492 0 -0.19803883129584959 0.35816416761860381 0 -0.19928576778993251 0.36701506937412492 0 -0.19803883129584959 0.35816416761860381 0 -0.21012736965994791 0.36000575414995201 0 -0.19928576778993251 0.36701506937412492 0 -0.19803883129584959 0.35816416761860381 0 -0.19593995289831981 0.36520531128953088 0 -0.19928576778993251 0.36701506937412492 0 -0.19593995289831981 0.36520531128953088 0 -0.19546986182649201 0.35890480769424421 0 -0.19803883129584959 0.35816416761860381 0 -0.19593995289831981 0.36520531128953088 0 -0.19546986182649201 0.35890480769424421 0 -0.20072992012679591 0.37726583235546018 0 -0.19928576778993251 0.36701506937412492 0 -0.19700944241658999 0.38046038560397999 0 -0.19593995289831981 0.36520531128953088 0 -0.20072992012679591 0.37726583235546018 0 -0.19928576778993251 0.36701506937412492 0 -0.2074961434202641 0.37145607826310229 0 -0.19700944241658999 0.38046038560397999 0 -0.20072992012679591 0.37726583235546018 0 -0.19593995289831981 0.36520531128953088 0 -0.20072992012679591 0.37726583235546018 0 -0.19593995289831981 0.36520531128953088 0 -0.19928576778993251 0.36701506937412492 0 -0.19123205173404489 0.35156266381701479 0 -0.19682440112219379 0.34954399954508558 0 -0.19594691332606001 0.34331548805945922 0 -0.18477656720628791 0.34806526054465348 0 -0.19123205173404489 0.35156266381701479 0 -0.19594691332606001 0.34331548805945922 0 -0.19096620820173629 0.36020322186423859 0 -0.19546986182649201 0.35890480769424421 0 -0.19682440112219379 0.34954399954508558 0 -0.19096620820173629 0.36020322186423859 0 -0.19682440112219379 0.34954399954508558 0 -0.18477656720628791 0.34806526054465348 0 -0.19096620820173629 0.36020322186423859 0 -0.19123205173404489 0.35156266381701479 0 -0.19096620820173629 0.36020322186423859 0 -0.19123205173404489 0.35156266381701479 0 -0.19682440112219379 0.34954399954508558 0 -0.19803883129584959 0.35816416761860381 0 -0.19682440112219379 0.34954399954508558 0 -0.19546986182649201 0.35890480769424421 0 -0.19803883129584959 0.35816416761860381 0 -0.19682440112219379 0.34954399954508558 0 -0.19546986182649201 0.35890480769424421 0 -0.19803883129584959 0.35816416761860381 0 -0.19803883129584959 0.35816416761860381 0 -0.19682440112219379 0.34954399954508558 0 -0.19952260754485601 0.34463450227987369 0 -0.19682440112219379 0.34954399954508558 0 -0.19952260754485601 0.34463450227987369 0 -0.19594691332606001 0.34331548805945922 0 -0.19682440112219379 0.34954399954508558 0 -0.19952260754485601 0.34463450227987369 0 -0.19682440112219379 0.34954399954508558 0 -0.19594691332606001 0.34331548805945922 0 -0.19952260754485601 0.34463450227987369 0 -0.19594691332606001 0.34331548805945922 0 -0.19952260754485601 0.34463450227987369 0 -0.21945896207016799 0.35198869240717501 0 -0.21082467025225241 0.34031813365570701 0 -0.19952260754485601 0.34463450227987369 0 -0.21945896207016799 0.35198869240717501 0 -0.19803883129584959 0.35816416761860381 0 -0.21945896207016799 0.35198869240717501 0 -0.19803883129584959 0.35816416761860381 0 -0.21012736965994791 0.36000575414995201 0 -0.21945896207016799 0.35198869240717501 0 -0.19803883129584959 0.35816416761860381 0 -0.19952260754485601 0.34463450227987369 0 -0.21945896207016799 0.35198869240717501 0 -0.21945896207016799 0.35198869240717501 0 -0.2181710801239857 0.34251916085720341 0 -0.21082467025225241 0.34031813365570701 0 -0.2074961434202641 0.37145607826310229 0 -0.22695015892791029 0.35475207053144231 0 -0.2074961434202641 0.37145607826310229 0 -0.21012736965994791 0.36000575414995201 0 -0.22695015892791029 0.35475207053144231 0 -0.19928576778993251 0.36701506937412492 0 -0.2074961434202641 0.37145607826310229 0 -0.20072992012679591 0.37726583235546018 0 -0.2074961434202641 0.37145607826310229 0 -0.19928576778993251 0.36701506937412492 0 -0.2074961434202641 0.37145607826310229 0 -0.21012736965994791 0.36000575414995201 0 -0.22673815826548521 0.38186412325604752 0 -0.22695015892791029 0.35475207053144231 0 -0.24816130001791381 0.36257650825373727 0 -0.22673815826548521 0.38186412325604752 0 -0.2074961434202641 0.37145607826310229 0 -0.22695015892791029 0.35475207053144231 0 -0.21012736965994791 0.36000575414995201 0 -0.21945896207016799 0.35198869240717501 0 -0.22695015892791029 0.35475207053144231 0 -0.21945896207016799 0.35198869240717501 0 -0.2243510896082376 0.35005430005683258 0 -0.22695015892791029 0.35475207053144231 0 -0.21945896207016799 0.35198869240717501 0 -0.22695015892791029 0.35475207053144231 0 -0.2243510896082376 0.35005430005683258 0 -0.22735602160281199 0.34483577680610561 0 -0.22695015892791029 0.35475207053144231 0 -0.21945896207016799 0.35198869240717501 0 -0.22202066978243201 0.34830254239852071 0 -0.2181710801239857 0.34251916085720341 0 -0.22202066978243201 0.34830254239852071 0 -0.22735602160281199 0.34483577680610561 0 -0.2181710801239857 0.34251916085720341 0 -0.21945896207016799 0.35198869240717501 0 -0.22202066978243201 0.34830254239852071 0 -0.2243510896082376 0.35005430005683258 0 -0.22202066978243201 0.34830254239852071 0 -0.2243510896082376 0.35005430005683258 0 -0.22735602160281199 0.34483577680610561 0 -0.22735602160281199 0.34483577680610561 0 -0.22695015892791029 0.35475207053144231 0 -0.2372196363621483 0.3459342801686105 0 -0.22695015892791029 0.35475207053144231 0 -0.2372196363621483 0.3459342801686105 0 -0.22695015892791029 0.35475207053144231 0 -0.24438937985277329 0.35190031101692948 0 -0.24816130001791381 0.36257650825373727 0 -0.22695015892791029 0.35475207053144231 0 -0.2372196363621483 0.3459342801686105 0 -0.24438937985277329 0.35190031101692948 0 -0.22695015892791029 0.35475207053144231 0 -0.24816130001791381 0.36257650825373727 0 -0.2372196363621483 0.3459342801686105 0 -0.2486118495014257 0.34522464576693779 0 -0.24438937985277329 0.35190031101692948 0 -0.25097458760403463 0.37624850575467522 0 -0.22673815826548521 0.38186412325604752 0 -0.24816130001791381 0.36257650825373727 0 -0.22673815826548521 0.38186412325604752 0 -0.24816130001791381 0.36257650825373727 0 -0.2451288730860752 0.32121318362280238 0 -0.2374228266862127 0.3322125702094384 0 -0.23231621760550339 0.32399886311717901 0 -0.2451288730860752 0.32121318362280238 0 -0.23231621760550339 0.32399886311717901 0 -0.23635316362951159 0.31169145880488319 0 -0.2451288730860752 0.32121318362280238 0 -0.24604838758343209 0.30680642126253022 0 -0.23635316362951159 0.31169145880488319 0 -0.25612179728037759 0.31311606614427101 0 -0.2451288730860752 0.32121318362280238 0 -0.24604838758343209 0.30680642126253022 0 -0.2451288730860752 0.32121318362280238 0 -0.2455574926976945 0.33633391906758942 0 -0.2374228266862127 0.3322125702094384 0 -0.25392913169149423 0.33158443771352331 0 -0.2451288730860752 0.32121318362280238 0 -0.2455574926976945 0.33633391906758942 0 -0.2372196363621483 0.3459342801686105 0 -0.2486118495014257 0.34522464576693779 0 -0.2455574926976945 0.33633391906758942 0 -0.2372196363621483 0.3459342801686105 0 -0.2455574926976945 0.33633391906758942 0 -0.23299787735634539 0.33900940519902151 0 -0.2455574926976945 0.33633391906758942 0 -0.2374228266862127 0.3322125702094384 0 -0.23299787735634539 0.33900940519902151 0 -0.2266587993680847 0.33445330218369362 0 -0.2231065258288171 0.32667029806950532 0 -0.23231621760550339 0.32399886311717901 0 -0.2374228266862127 0.3322125702094384 0 -0.2266587993680847 0.33445330218369362 0 -0.23299787735634539 0.33900940519902151 0 -0.2374228266862127 0.3322125702094384 0 -0.2266587993680847 0.33445330218369362 0 -0.23231621760550339 0.32399886311717901 0 -0.22735602160281199 0.34483577680610561 0 -0.2266587993680847 0.33445330218369362 0 -0.23299787735634539 0.33900940519902151 0 -0.22735602160281199 0.34483577680610561 0 -0.2372196363621483 0.3459342801686105 0 -0.23299787735634539 0.33900940519902151 0 -0.2266587993680847 0.33445330218369362 0 -0.2181710801239857 0.34251916085720341 0 -0.21693833338021029 0.3336480870746823 0 -0.22735602160281199 0.34483577680610561 0 -0.2266587993680847 0.33445330218369362 0 -0.2181710801239857 0.34251916085720341 0 -0.2266587993680847 0.33445330218369362 0 -0.2231065258288171 0.32667029806950532 0 -0.21693833338021029 0.3336480870746823 0 -0.22522711703431919 0.31775236581275129 0 -0.21077408816543949 0.3241619717601707 0 -0.22202556878602361 0.30368944124046787 0 -0.2231065258288171 0.32667029806950532 0 -0.22522711703431919 0.31775236581275129 0 -0.21077408816543949 0.3241619717601707 0 -0.2231065258288171 0.32667029806950532 0 -0.23231621760550339 0.32399886311717901 0 -0.22522711703431919 0.31775236581275129 0 -0.23231621760550339 0.32399886311717901 0 -0.22522711703431919 0.31775236581275129 0 -0.23635316362951159 0.31169145880488319 0 -0.21077408816543949 0.3241619717601707 0 -0.22202556878602361 0.30368944124046787 0 -0.21077408816543949 0.3241619717601707 0 -0.2058686083477885 0.31126838549676072 0 -0.22202556878602361 0.30368944124046787 0 -0.21077408816543949 0.3241619717601707 0 -0.1986020698938579 0.31567106941597223 0 -0.2058686083477885 0.31126838549676072 0 -0.19952260754485601 0.34463450227987369 0 -0.21077408816543949 0.3241619717601707 0 -0.21082467025225241 0.34031813365570701 0 -0.21077408816543949 0.3241619717601707 0 -0.21693833338021029 0.3336480870746823 0 -0.21082467025225241 0.34031813365570701 0 -0.19952260754485601 0.34463450227987369 0 -0.21077408816543949 0.3241619717601707 0 -0.2181710801239857 0.34251916085720341 0 -0.21693833338021029 0.3336480870746823 0 -0.21082467025225241 0.34031813365570701 0 -0.2231065258288171 0.32667029806950532 0 -0.21077408816543949 0.3241619717601707 0 -0.21693833338021029 0.3336480870746823 0 -0.21077408816543949 0.3241619717601707 0 -0.19497270685063711 0.33640045602335739 0 -0.19600316793665429 0.3239228061801579 0 -0.17566615807738181 0.33583425422431729 0 -0.19594691332606001 0.34331548805945922 0 -0.19497270685063711 0.33640045602335739 0 -0.19952260754485601 0.34463450227987369 0 -0.21077408816543949 0.3241619717601707 0 -0.19497270685063711 0.33640045602335739 0 -0.19952260754485601 0.34463450227987369 0 -0.19594691332606001 0.34331548805945922 0 -0.19497270685063711 0.33640045602335739 0 -0.19594691332606001 0.34331548805945922 0 -0.19497270685063711 0.33640045602335739 0 -0.18617959482500179 0.32726319351743482 0 -0.19497270685063711 0.33640045602335739 0 -0.19600316793665429 0.3239228061801579 0 -0.21077408816543949 0.3241619717601707 0 -0.1986020698938579 0.31567106941597223 0 -0.19600316793665429 0.3239228061801579 0 -0.18617959482500179 0.32726319351743482 0 -0.19600316793665429 0.3239228061801579 0 -0.1903614792491656 0.31846663214564691 0 -0.1986020698938579 0.31567106941597223 0 -0.19600316793665429 0.3239228061801579 0 -0.1903614792491656 0.31846663214564691 0 -0.1986020698938579 0.31567106941597223 0 -0.1903614792491656 0.31846663214564691 0 -0.19184273878855809 0.3095970590937735 0 -0.19452587187409839 0.29805839809470869 0 -0.2058686083477885 0.31126838549676072 0 -0.18464561037295071 0.29669395759511341 0 -0.19184273878855809 0.3095970590937735 0 -0.2058686083477885 0.31126838549676072 0 -0.18464561037295071 0.29669395759511341 0 -0.2058686083477885 0.31126838549676072 0 -0.18464561037295071 0.29669395759511341 0 -0.19452587187409839 0.29805839809470869 0 -0.20087349137070579 0.29872540568091888 0 -0.2058686083477885 0.31126838549676072 0 -0.19452587187409839 0.29805839809470869 0 -0.20087349137070579 0.29872540568091888 0 -0.19611008086932979 0.29392508190272448 0 -0.1986020698938579 0.31567106941597223 0 -0.19184273878855809 0.3095970590937735 0 -0.2058686083477885 0.31126838549676072 0 -0.19046561033890949 0.28293232926175171 0 -0.1930595655415315 0.28880978279176261 0 -0.19765837266855041 0.28306183306806221 0 -0.19046561033890949 0.28293232926175171 0 -0.1930595655415315 0.28880978279176261 0 -0.18835274062187471 0.289654338951428 0 -0.19452587187409839 0.29805839809470869 0 -0.18888348103399 0.29411174822299552 0 -0.18464561037295071 0.29669395759511341 0 -0.1930595655415315 0.28880978279176261 0 -0.1921606849729105 0.2929642803956769 0 -0.19611008086932979 0.29392508190272448 0 -0.1921606849729105 0.2929642803956769 0 -0.18835274062187471 0.289654338951428 0 -0.18888348103399 0.29411174822299552 0 -0.1930595655415315 0.28880978279176261 0 -0.1921606849729105 0.2929642803956769 0 -0.18835274062187471 0.289654338951428 0 -0.18835274062187471 0.289654338951428 0 -0.18888348103399 0.29411174822299552 0 -0.18592435041014341 0.29153156857358081 0 -0.19452587187409839 0.29805839809470869 0 -0.1921606849729105 0.2929642803956769 0 -0.18888348103399 0.29411174822299552 0 -0.19452587187409839 0.29805839809470869 0 -0.1921606849729105 0.2929642803956769 0 -0.19611008086932979 0.29392508190272448 0 -0.20087349137070579 0.29872540568091888 0 -0.19611008086932979 0.29392508190272448 0 -0.2001874207399463 0.29054343852102499 0 -0.1930595655415315 0.28880978279176261 0 -0.19611008086932979 0.29392508190272448 0 -0.2001874207399463 0.29054343852102499 0 -0.1930595655415315 0.28880978279176261 0 -0.2001874207399463 0.29054343852102499 0 -0.19765837266855041 0.28306183306806221 0 -0.2001874207399463 0.29054343852102499 0 -0.19765837266855041 0.28306183306806221 0 -0.2043221238453338 0.28554543313443381 0 -0.19765837266855041 0.28306183306806221 0 -0.2043221238453338 0.28554543313443381 0 -0.20510937234709101 0.27790981234373502 0 -0.2092292052204987 0.29293104253348351 0 -0.22202556878602361 0.30368944124046787 0 -0.219220264608051 0.28723158854231579 0 -0.2043221238453338 0.28554543313443381 0 -0.21214523729962251 0.28090388787882281 0 -0.20510937234709101 0.27790981234373502 0 -0.2043221238453338 0.28554543313443381 0 -0.2092292052204987 0.29293104253348351 0 -0.21214523729962251 0.28090388787882281 0 -0.2001874207399463 0.29054343852102499 0 -0.2043221238453338 0.28554543313443381 0 -0.2092292052204987 0.29293104253348351 0 -0.20087349137070579 0.29872540568091888 0 -0.2001874207399463 0.29054343852102499 0 -0.2092292052204987 0.29293104253348351 0 -0.2092292052204987 0.29293104253348351 0 -0.219220264608051 0.28723158854231579 0 -0.21214523729962251 0.28090388787882281 0 -0.2058686083477885 0.31126838549676072 0 -0.2085341037831823 0.30200854954368539 0 -0.22202556878602361 0.30368944124046787 0 -0.20087349137070579 0.29872540568091888 0 -0.2092292052204987 0.29293104253348351 0 -0.2085341037831823 0.30200854954368539 0 -0.20087349137070579 0.29872540568091888 0 -0.2058686083477885 0.31126838549676072 0 -0.2085341037831823 0.30200854954368539 0 -0.2092292052204987 0.29293104253348351 0 -0.2085341037831823 0.30200854954368539 0 -0.22202556878602361 0.30368944124046787 0 -0.22202556878602361 0.30368944124046787 0 -0.23635316362951159 0.31169145880488319 0 -0.2406006483562502 0.29699659018107938 0 -0.22522711703431919 0.31775236581275129 0 -0.22202556878602361 0.30368944124046787 0 -0.23635316362951159 0.31169145880488319 0 -0.22202556878602361 0.30368944124046787 0 -0.2332770494066076 0.28321691072076521 0 -0.2406006483562502 0.29699659018107938 0 -0.22202556878602361 0.30368944124046787 0 -0.2332770494066076 0.28321691072076521 0 -0.22202556878602361 0.30368944124046787 0 -0.219220264608051 0.28723158854231579 0 -0.2332770494066076 0.28321691072076521 0 -0.2332770494066076 0.28321691072076521 0 -0.24407849786524929 0.28290424100003059 0 -0.2406006483562502 0.29699659018107938 0 -0.25142666797647523 0.27818388326537868 0 -0.25279907975393401 0.28438630547018651 0 -0.24407849786524929 0.28290424100003059 0 -0.25279907975393401 0.28438630547018651 0 -0.24407849786524929 0.28290424100003059 0 -0.2489506134594146 0.29091509925038472 0 -0.24407849786524929 0.28290424100003059 0 -0.2489506134594146 0.29091509925038472 0 -0.2406006483562502 0.29699659018107938 0 -0.25373144496157152 0.29958706605180369 0 -0.2489506134594146 0.29091509925038472 0 -0.2406006483562502 0.29699659018107938 0 -0.25373144496157152 0.29958706605180369 0 -0.24604838758343209 0.30680642126253022 0 -0.2406006483562502 0.29699659018107938 0 -0.24604838758343209 0.30680642126253022 0 -0.23635316362951159 0.31169145880488319 0 -0.2406006483562502 0.29699659018107938 0 -0.25354512431417009 0.25369212887828879 0 -0.2555769544987711 0.25248814673828979 0 -0.23973711986689161 0.25348271210549078 0 -0.2555769544987711 0.25248814673828979 0 -0.23973711986689161 0.25348271210549078 0 -0.2491247137749866 0.24705707552965961 0 -0.2555769544987711 0.25248814673828979 0 -0.23973711986689161 0.25348271210549078 0 -0.2351781006273648 0.26404686755995238 0 -0.23973711986689161 0.25348271210549078 0 -0.24661511049817561 0.26078263704719179 0 -0.2351781006273648 0.26404686755995238 0 -0.23973711986689161 0.25348271210549078 0 -0.23183983380136211 0.25056461824329479 0 -0.23973711986689161 0.25348271210549078 0 -0.23183983380136211 0.25056461824329479 0 -0.2399068311195944 0.24623338234132119 0 -0.25354512431417009 0.25369212887828879 0 -0.23973711986689161 0.25348271210549078 0 -0.24661511049817561 0.26078263704719179 0 -0.2351781006273648 0.26404686755995238 0 -0.24661511049817561 0.26078263704719179 0 -0.2454398818741238 0.26837759658726829 0 -0.25169277305244048 0.26553663707785907 0 -0.24661511049817561 0.26078263704719179 0 -0.2454398818741238 0.26837759658726829 0 -0.25286427725476701 0.27170773340453702 0 -0.25169277305244048 0.26553663707785907 0 -0.2454398818741238 0.26837759658726829 0 -0.25286427725476701 0.27170773340453702 0 -0.2454398818741238 0.26837759658726829 0 -0.24691514604202869 0.27394223381649768 0 -0.2454398818741238 0.26837759658726829 0 -0.24691514604202869 0.27394223381649768 0 -0.23937388376996641 0.27424947061757232 0 -0.24407849786524929 0.28290424100003059 0 -0.24691514604202869 0.27394223381649768 0 -0.23937388376996641 0.27424947061757232 0 -0.25142666797647523 0.27818388326537868 0 -0.24407849786524929 0.28290424100003059 0 -0.24691514604202869 0.27394223381649768 0 -0.2332770494066076 0.28321691072076521 0 -0.24407849786524929 0.28290424100003059 0 -0.23937388376996641 0.27424947061757232 0 -0.2351781006273648 0.26404686755995238 0 -0.2454398818741238 0.26837759658726829 0 -0.23937388376996641 0.27424947061757232 0 -0.2351781006273648 0.26404686755995238 0 -0.23937388376996641 0.27424947061757232 0 -0.22260637023302651 0.27277489746063738 0 -0.2332770494066076 0.28321691072076521 0 -0.23937388376996641 0.27424947061757232 0 -0.22260637023302651 0.27277489746063738 0 -0.219220264608051 0.28723158854231579 0 -0.2332770494066076 0.28321691072076521 0 -0.22260637023302651 0.27277489746063738 0 -0.2351781006273648 0.26404686755995238 0 -0.22260637023302651 0.27277489746063738 0 -0.22133253847368489 0.25713703150517231 0 -0.2351781006273648 0.26404686755995238 0 -0.23183983380136211 0.25056461824329479 0 -0.22133253847368489 0.25713703150517231 0 -0.22260637023302651 0.27277489746063738 0 -0.22133253847368489 0.25713703150517231 0 -0.20565862565085891 0.25783985140717908 0 -0.22133253847368489 0.25713703150517231 0 -0.20565862565085891 0.25783985140717908 0 -0.21937070165466629 0.24157050667502011 0 -0.22260637023302651 0.27277489746063738 0 -0.20565862565085891 0.25783985140717908 0 -0.20565862565085891 0.25783985140717908 0 -0.20966858703539429 0.27149663812023578 0 -0.2011088162686806 0.26323818914128361 0 -0.20565862565085891 0.25783985140717908 0 -0.2011088162686806 0.26323818914128361 0 -0.22260637023302651 0.27277489746063738 0 -0.20565862565085891 0.25783985140717908 0 -0.20966858703539429 0.27149663812023578 0 -0.219220264608051 0.28723158854231579 0 -0.22260637023302651 0.27277489746063738 0 -0.21214523729962251 0.28090388787882281 0 -0.22260637023302651 0.27277489746063738 0 -0.21214523729962251 0.28090388787882281 0 -0.20966858703539429 0.27149663812023578 0 -0.20966858703539429 0.27149663812023578 0 -0.20104765002875219 0.27105080168498441 0 -0.2011088162686806 0.26323818914128361 0 -0.20966858703539429 0.27149663812023578 0 -0.20510937234709101 0.27790981234373502 0 -0.20104765002875219 0.27105080168498441 0 -0.21214523729962251 0.28090388787882281 0 -0.20966858703539429 0.27149663812023578 0 -0.20510937234709101 0.27790981234373502 0 -0.20510937234709101 0.27790981234373502 0 -0.19624128643082481 0.27555987744661081 0 -0.20104765002875219 0.27105080168498441 0 -0.19765837266855041 0.28306183306806221 0 -0.20510937234709101 0.27790981234373502 0 -0.19624128643082481 0.27555987744661081 0 -0.20104765002875219 0.27105080168498441 0 -0.1931101880617703 0.26704949137305661 0 -0.2011088162686806 0.26323818914128361 0 -0.19624128643082481 0.27555987744661081 0 -0.20104765002875219 0.27105080168498441 0 -0.1931101880617703 0.26704949137305661 0 -0.19624128643082481 0.27555987744661081 0 -0.1931101880617703 0.26704949137305661 0 -0.1856661271589177 0.2748419137878606 0 -0.19046561033890949 0.28293232926175171 0 -0.19624128643082481 0.27555987744661081 0 -0.1856661271589177 0.2748419137878606 0 -0.19046561033890949 0.28293232926175171 0 -0.19765837266855041 0.28306183306806221 0 -0.19624128643082481 0.27555987744661081 0 -0.19360100112858369 0.25824733211657308 0 -0.1818871170700887 0.26025986896675862 0 -0.1901464659728403 0.2441699015175888 0 -0.20565862565085891 0.25783985140717908 0 -0.1901464659728403 0.2441699015175888 0 -0.20565862565085891 0.25783985140717908 0 -0.19360100112858369 0.25824733211657308 0 -0.1901464659728403 0.2441699015175888 0 -0.1931101880617703 0.26704949137305661 0 -0.2011088162686806 0.26323818914128361 0 -0.19360100112858369 0.25824733211657308 0 -0.20565862565085891 0.25783985140717908 0 -0.2011088162686806 0.26323818914128361 0 -0.19360100112858369 0.25824733211657308 0 -0.1931101880617703 0.26704949137305661 0 -0.19360100112858369 0.25824733211657308 0 -0.1818871170700887 0.26025986896675862 0 -0.1818871170700887 0.26025986896675862 0 -0.1640201567826006 0.26116143934213482 0 -0.172875933239933 0.24772063928143781 0 -0.1818871170700887 0.26025986896675862 0 -0.1901464659728403 0.2441699015175888 0 -0.172875933239933 0.24772063928143781 0 -0.1818871170700887 0.26025986896675862 0 -0.1640201567826006 0.26116143934213482 0 -0.17467437830198301 0.26909725925901062 0 -0.1640201567826006 0.26116143934213482 0 -0.172875933239933 0.24772063928143781 0 -0.15369162007931389 0.24251203495270859 0 -0.1640201567826006 0.26116143934213482 0 -0.17467437830198301 0.26909725925901062 0 -0.16342261239811301 0.28211952969346621 0 -0.1640201567826006 0.26116143934213482 0 -0.16342261239811301 0.28211952969346621 0 -0.14219961442327519 0.26754510179181878 0 -0.17639467186769289 0.27793123306628092 0 -0.17467437830198301 0.26909725925901062 0 -0.16342261239811301 0.28211952969346621 0 -0.17639467186769289 0.27793123306628092 0 -0.17467437830198301 0.26909725925901062 0 -0.1856661271589177 0.2748419137878606 0 -0.1931101880617703 0.26704949137305661 0 -0.1818871170700887 0.26025986896675862 0 -0.1856661271589177 0.2748419137878606 0 -0.1818871170700887 0.26025986896675862 0 -0.17467437830198301 0.26909725925901062 0 -0.1856661271589177 0.2748419137878606 0 -0.17639467186769289 0.27793123306628092 0 -0.1856661271589177 0.2748419137878606 0 -0.18181556961175821 0.28566622952478632 0 -0.19046561033890949 0.28293232926175171 0 -0.1856661271589177 0.2748419137878606 0 -0.18181556961175821 0.28566622952478632 0 -0.18295968486302841 0.29553618526619718 0 -0.16342261239811301 0.28211952969346621 0 -0.17639467186769289 0.27793123306628092 0 -0.18181556961175821 0.28566622952478632 0 -0.16342261239811301 0.28211952969346621 0 -0.19046561033890949 0.28293232926175171 0 -0.18835274062187471 0.289654338951428 0 -0.18181556961175821 0.28566622952478632 0 -0.18181556961175821 0.28566622952478632 0 -0.18295968486302841 0.29553618526619718 0 -0.16342261239811301 0.28211952969346621 0 -0.18835274062187471 0.289654338951428 0 -0.18181556961175821 0.28566622952478632 0 -0.18592435041014341 0.29153156857358081 0 -0.18181556961175821 0.28566622952478632 0 -0.18464561037295071 0.29669395759511341 0 -0.18295968486302841 0.29553618526619718 0 -0.18181556961175821 0.28566622952478632 0 -0.18592435041014341 0.29153156857358081 0 -0.18464561037295071 0.29669395759511341 0 -0.18888348103399 0.29411174822299552 0 -0.18592435041014341 0.29153156857358081 0 -0.18464561037295071 0.29669395759511341 0 -0.18464561037295071 0.29669395759511341 0 -0.18295968486302841 0.29553618526619718 0 -0.18295968486302841 0.29553618526619718 0 -0.17350346410490269 0.30541933225290607 0 -0.16139100893572331 0.30008534223626288 0 -0.1791798248017559 0.31587903252089589 0 -0.19184273878855809 0.3095970590937735 0 -0.18464561037295071 0.29669395759511341 0 -0.1791798248017559 0.31587903252089589 0 -0.18464561037295071 0.29669395759511341 0 -0.18295968486302841 0.29553618526619718 0 -0.1791798248017559 0.31587903252089589 0 -0.18295968486302841 0.29553618526619718 0 -0.17350346410490269 0.30541933225290607 0 -0.1791798248017559 0.31587903252089589 0 -0.18295968486302841 0.29553618526619718 0 -0.16116834780291231 0.31386937529710912 0 -0.1791798248017559 0.31587903252089589 0 -0.17350346410490269 0.30541933225290607 0 -0.16116834780291231 0.31386937529710912 0 -0.17350346410490269 0.30541933225290607 0 -0.16139100893572331 0.30008534223626288 0 -0.18295968486302841 0.29553618526619718 0 -0.16139100893572331 0.30008534223626288 0 -0.16342261239811301 0.28211952969346621 0 -0.16139100893572331 0.30008534223626288 0 -0.16342261239811301 0.28211952969346621 0 -0.14379686632349789 0.28817688525938651 0 -0.16116834780291231 0.31386937529710912 0 -0.16139100893572331 0.30008534223626288 0 -0.14412983141615371 0.30694284214670642 0 -0.16139100893572331 0.30008534223626288 0 -0.14379686632349789 0.28817688525938651 0 -0.14412983141615371 0.30694284214670642 0 -0.14379686632349789 0.28817688525938651 0 -0.14412983141615371 0.30694284214670642 0 -0.12713393682836771 0.29779293731533057 0 -0.12848255266651171 0.31496788417384092 0 -0.14412983141615371 0.30694284214670642 0 -0.12713393682836771 0.29779293731533057 0 -0.14379686632349789 0.28817688525938651 0 -0.12713393682836771 0.29779293731533057 0 -0.12875076049110429 0.27706375763178709 0 -0.14379686632349789 0.28817688525938651 0 -0.12875076049110429 0.27706375763178709 0 -0.14219961442327519 0.26754510179181878 0 -0.12875076049110429 0.27706375763178709 0 -0.1327489338638061 0.25452411827741839 0 -0.14219961442327519 0.26754510179181878 0 -0.1327489338638061 0.25452411827741839 0 -0.14219961442327519 0.26754510179181878 0 -0.15369162007931389 0.24251203495270859 0 -0.1640201567826006 0.26116143934213482 0 -0.14219961442327519 0.26754510179181878 0 -0.15369162007931389 0.24251203495270859 0 -0.16342261239811301 0.28211952969346621 0 -0.14219961442327519 0.26754510179181878 0 -0.16342261239811301 0.28211952969346621 0 -0.14379686632349789 0.28817688525938651 0 -0.14219961442327519 0.26754510179181878 0 -0.1118062476482982 0.26653620160212821 0 -0.1148189638593809 0.2878073015446404 0 -0.090863561432790368 0.27854828492683797 0 -0.094485732920906729 0.26232006691205051 0 -0.1118062476482982 0.26653620160212821 0 -0.090863561432790368 0.27854828492683797 0 -0.1118062476482982 0.26653620160212821 0 -0.090863561432790368 0.27854828492683797 0 -0.094485732920906729 0.26232006691205051 0 -0.1118062476482982 0.26653620160212821 0 -0.098557922793196806 0.2461988865623114 0 -0.1327489338638061 0.25452411827741839 0 -0.117855447687145 0.25091031525324797 0 -0.1118062476482982 0.26653620160212821 0 -0.1327489338638061 0.25452411827741839 0 -0.1118062476482982 0.26653620160212821 0 -0.117855447687145 0.25091031525324797 0 -0.1118062476482982 0.26653620160212821 0 -0.098557922793196806 0.2461988865623114 0 -0.12875076049110429 0.27706375763178709 0 -0.1118062476482982 0.26653620160212821 0 -0.1148189638593809 0.2878073015446404 0 -0.12875076049110429 0.27706375763178709 0 -0.1327489338638061 0.25452411827741839 0 -0.1118062476482982 0.26653620160212821 0 -0.12713393682836771 0.29779293731533057 0 -0.12875076049110429 0.27706375763178709 0 -0.1148189638593809 0.2878073015446404 0 -0.1148189638593809 0.2878073015446404 0 -0.11478315744022 0.30833749030476337 0 -0.102375986357179 0.29812474092425539 0 -0.12713393682836771 0.29779293731533057 0 -0.1148189638593809 0.2878073015446404 0 -0.11478315744022 0.30833749030476337 0 -0.12848255266651171 0.31496788417384092 0 -0.12713393682836771 0.29779293731533057 0 -0.11478315744022 0.30833749030476337 0 -0.102375986357179 0.29812474092425539 0 -0.085762932061522371 0.29836986988586012 0 -0.1007006506486547 0.32020220002297689 0 -0.11478315744022 0.30833749030476337 0 -0.102375986357179 0.29812474092425539 0 -0.1007006506486547 0.32020220002297689 0 -0.1148189638593809 0.2878073015446404 0 -0.102375986357179 0.29812474092425539 0 -0.090863561432790368 0.27854828492683797 0 -0.102375986357179 0.29812474092425539 0 -0.085762932061522371 0.29836986988586012 0 -0.090863561432790368 0.27854828492683797 0 -0.069920875217282338 0.29056036825154752 0 -0.090863561432790368 0.27854828492683797 0 -0.085762932061522371 0.29836986988586012 0 -0.069920875217282338 0.29056036825154752 0 -0.090863561432790368 0.27854828492683797 0 -0.085762932061522371 0.29836986988586012 0 -0.069920875217282338 0.29056036825154752 0 -0.079664073246363043 0.31494584653838992 0 -0.085762932061522371 0.29836986988586012 0 -0.079664073246363043 0.31494584653838992 0 -0.1007006506486547 0.32020220002297689 0 -0.069920875217282338 0.29056036825154752 0 -0.079664073246363043 0.31494584653838992 0 -0.062951066618421259 0.3104466639243012 0 -0.069920875217282338 0.29056036825154752 0 -0.079664073246363043 0.31494584653838992 0 -0.062951066618421259 0.3104466639243012 0 -0.069920875217282338 0.29056036825154752 0 -0.057927257405054541 0.29743954005609519 0 -0.069920875217282338 0.29056036825154752 0 -0.057927257405054541 0.29743954005609519 0 -0.069920875217282338 0.29056036825154752 0 -0.059845935944767101 0.26534460109401442 0 -0.069920875217282338 0.29056036825154752 0 -0.07603944745598526 0.27281809518095829 0 -0.059845935944767101 0.26534460109401442 0 -0.069920875217282338 0.29056036825154752 0 -0.07603944745598526 0.27281809518095829 0 -0.090863561432790368 0.27854828492683797 0 -0.094485732920906729 0.26232006691205051 0 -0.07603944745598526 0.27281809518095829 0 -0.090863561432790368 0.27854828492683797 0 -0.094485732920906729 0.26232006691205051 0 -0.079201929368981946 0.25577174382816292 0 -0.098557922793196806 0.2461988865623114 0 -0.079201929368981946 0.25577174382816292 0 -0.098557922793196806 0.2461988865623114 0 -0.094485732920906729 0.26232006691205051 0 -0.07603944745598526 0.27281809518095829 0 -0.079201929368981946 0.25577174382816292 0 -0.07603944745598526 0.27281809518095829 0 -0.079201929368981946 0.25577174382816292 0 -0.059845935944767101 0.26534460109401442 0 -0.079201929368981946 0.25577174382816292 0 -0.06302630062105663 0.2523963721254382 0 -0.059845935944767101 0.26534460109401442 0 -0.079201929368981946 0.25577174382816292 0 -0.059845935944767101 0.26534460109401442 0 -0.06302630062105663 0.2523963721254382 0 -0.056837047259726832 0.25781389203138882 0 -0.052636366582661492 0.2444569440242709 0 -0.06302630062105663 0.2523963721254382 0 -0.059845935944767101 0.26534460109401442 0 -0.056837047259726832 0.25781389203138882 0 -0.059845935944767101 0.26534460109401442 0 -0.056837047259726832 0.25781389203138882 0 -0.059845935944767101 0.26534460109401442 0 -0.056837047259726832 0.25781389203138882 0 -0.044474170284383573 0.25816239822125531 0 -0.056837047259726832 0.25781389203138882 0 -0.044474170284383573 0.25816239822125531 0 -0.052636366582661492 0.2444569440242709 0 -0.059845935944767101 0.26534460109401442 0 -0.039203341965356527 0.27555376997679609 0 -0.059845935944767101 0.26534460109401442 0 -0.039203341965356527 0.27555376997679609 0 -0.054173833947319922 0.28386496848460457 0 -0.069920875217282338 0.29056036825154752 0 -0.059845935944767101 0.26534460109401442 0 -0.054173833947319922 0.28386496848460457 0 -0.059845935944767101 0.26534460109401442 0 -0.039203341965356527 0.27555376997679609 0 -0.044474170284383573 0.25816239822125531 0 -0.044474170284383573 0.25816239822125531 0 -0.021470734496680289 0.26148420300119268 0 -0.036851595457109171 0.24432097919986909 0 -0.039203341965356527 0.27555376997679609 0 -0.044474170284383573 0.25816239822125531 0 -0.021470734496680289 0.26148420300119268 0 -0.039203341965356527 0.27555376997679609 0 -0.021470734496680289 0.26148420300119268 0 -0.024225849060889339 0.28668958038186548 0 -0.021470734496680289 0.26148420300119268 0 -0.0088363917774369177 0.27866318994737949 0 -0.024225849060889339 0.28668958038186548 0 -0.0088363917774369177 0.27866318994737949 0 0.0063012544652409751 0.28371321895731111 0 0.0014496916668720551 0.26498492915082089 0 -0.021470734496680289 0.26148420300119268 0 -0.0088363917774369177 0.27866318994737949 0 0.0014496916668720551 0.26498492915082089 0 -0.021470734496680289 0.26148420300119268 0 -0.0003013679469350591 0.24135250151140319 0 0.0014496916668720551 0.26498492915082089 0 -0.006236321461727993 0.29644401824570721 0 -0.0069884718554110627 0.31473297142096729 0 0.010089838326201431 0.30651691163275119 0 -0.006236321461727993 0.29644401824570721 0 -0.018689314657374358 0.30374340427117358 0 -0.0069884718554110627 0.31473297142096729 0 -0.0088363917774369177 0.27866318994737949 0 -0.006236321461727993 0.29644401824570721 0 -0.024225849060889339 0.28668958038186548 0 -0.0088363917774369177 0.27866318994737949 0 -0.006236321461727993 0.29644401824570721 0 0.0063012544652409751 0.28371321895731111 0 -0.006236321461727993 0.29644401824570721 0 -0.024225849060889339 0.28668958038186548 0 -0.018689314657374358 0.30374340427117358 0 -0.018689314657374358 0.30374340427117358 0 -0.031920842916035412 0.30253768672199438 0 -0.024075087992807959 0.31831276458533359 0 -0.018689314657374358 0.30374340427117358 0 -0.024075087992807959 0.31831276458533359 0 -0.0069884718554110627 0.31473297142096729 0 -0.024225849060889339 0.28668958038186548 0 -0.018689314657374358 0.30374340427117358 0 -0.031920842916035412 0.30253768672199438 0 -0.031920842916035412 0.30253768672199438 0 -0.037526780231807062 0.31468374418521883 0 -0.024075087992807959 0.31831276458533359 0 -0.031920842916035412 0.30253768672199438 0 -0.046450350599994243 0.30392023611835278 0 -0.037526780231807062 0.31468374418521883 0 -0.031920842916035412 0.30253768672199438 0 -0.046450350599994243 0.30392023611835278 0 -0.042675993953916712 0.29130008187495271 0 -0.046450350599994243 0.30392023611835278 0 -0.049379704285535883 0.31705323189842288 0 -0.037526780231807062 0.31468374418521883 0 -0.024225849060889339 0.28668958038186548 0 -0.031920842916035412 0.30253768672199438 0 -0.042675993953916712 0.29130008187495271 0 -0.039203341965356527 0.27555376997679609 0 -0.024225849060889339 0.28668958038186548 0 -0.042675993953916712 0.29130008187495271 0 -0.039203341965356527 0.27555376997679609 0 -0.042675993953916712 0.29130008187495271 0 -0.054173833947319922 0.28386496848460457 0 -0.069920875217282338 0.29056036825154752 0 -0.054173833947319922 0.28386496848460457 0 -0.057927257405054541 0.29743954005609519 0 -0.042675993953916712 0.29130008187495271 0 -0.054173833947319922 0.28386496848460457 0 -0.057927257405054541 0.29743954005609519 0 -0.062951066618421259 0.3104466639243012 0 -0.046450350599994243 0.30392023611835278 0 -0.049379704285535883 0.31705323189842288 0 -0.062951066618421259 0.3104466639243012 0 -0.046450350599994243 0.30392023611835278 0 -0.057927257405054541 0.29743954005609519 0 -0.046450350599994243 0.30392023611835278 0 -0.042675993953916712 0.29130008187495271 0 -0.057927257405054541 0.29743954005609519 0 -0.062951066618421259 0.3104466639243012 0 -0.062412867959498797 0.32372038263838993 0 -0.049379704285535883 0.31705323189842288 0 -0.062412867959498797 0.32372038263838993 0 -0.049379704285535883 0.31705323189842288 0 -0.052236011477009771 0.33691555680692242 0 -0.062412867959498797 0.32372038263838993 0 -0.052236011477009771 0.33691555680692242 0 -0.071437193006412353 0.33609872828699988 0 -0.052236011477009771 0.33691555680692242 0 -0.033605421858874808 0.34084431155552641 0 -0.042381699486154688 0.35068025978212602 0 -0.052236011477009771 0.33691555680692242 0 -0.033605421858874808 0.34084431155552641 0 -0.036772077514528899 0.32645997209573491 0 -0.033605421858874808 0.34084431155552641 0 -0.036772077514528899 0.32645997209573491 0 -0.02592134243078232 0.33255743400610849 0 -0.049379704285535883 0.31705323189842288 0 -0.052236011477009771 0.33691555680692242 0 -0.036772077514528899 0.32645997209573491 0 -0.049379704285535883 0.31705323189842288 0 -0.036772077514528899 0.32645997209573491 0 -0.037526780231807062 0.31468374418521883 0 -0.036772077514528899 0.32645997209573491 0 -0.037526780231807062 0.31468374418521883 0 -0.024075087992807959 0.31831276458533359 0 -0.024075087992807959 0.31831276458533359 0 -0.02592134243078232 0.33255743400610849 0 -0.01153871918753315 0.33202382810274289 0 -0.036772077514528899 0.32645997209573491 0 -0.024075087992807959 0.31831276458533359 0 -0.02592134243078232 0.33255743400610849 0 -0.033605421858874808 0.34084431155552641 0 -0.02592134243078232 0.33255743400610849 0 -0.022072061197128422 0.34337436131764271 0 -0.02592134243078232 0.33255743400610849 0 -0.022072061197128422 0.34337436131764271 0 -0.01153871918753315 0.33202382810274289 0 -0.01153871918753315 0.33202382810274289 0 -0.010041742547556239 0.34779893797993799 0 0.0020417400016898781 0.33756888359644582 0 -0.01153871918753315 0.33202382810274289 0 0.0066225498951972732 0.32363736202486892 0 0.0020417400016898781 0.33756888359644582 0 -0.022072061197128422 0.34337436131764271 0 -0.01153871918753315 0.33202382810274289 0 -0.010041742547556239 0.34779893797993799 0 -0.01153871918753315 0.33202382810274289 0 -0.0069884718554110627 0.31473297142096729 0 0.0066225498951972732 0.32363736202486892 0 -0.024075087992807959 0.31831276458533359 0 -0.01153871918753315 0.33202382810274289 0 -0.0069884718554110627 0.31473297142096729 0 -0.0059007814909059139 0.36388833541651999 0 -0.019744405879421039 0.35544778746791073 0 -0.0176352528070725 0.36661386953082958 0 -0.01068346957432161 0.3712634348004708 0 -0.0059007814909059139 0.36388833541651999 0 -0.0176352528070725 0.36661386953082958 0 -0.01068346957432161 0.3712634348004708 0 -0.0176352528070725 0.36661386953082958 0 -0.014737885066651029 0.3753037437163651 0 -0.01068346957432161 0.3712634348004708 0 -0.0099676318568552337 0.37707590939138402 0 -0.014737885066651029 0.3753037437163651 0 -0.01068346957432161 0.3712634348004708 0 -0.0048853591466102861 0.37581854773372309 0 -0.0099676318568552337 0.37707590939138402 0 -0.01068346957432161 0.3712634348004708 0 -0.0059007814909059139 0.36388833541651999 0 -0.0048853591466102861 0.37581854773372309 0 -0.0059007814909059139 0.36388833541651999 0 -0.010041742547556239 0.34779893797993799 0 0.0064715985585646453 0.35227443944674941 0 -0.010041742547556239 0.34779893797993799 0 0.0064715985585646453 0.35227443944674941 0 0.0020417400016898781 0.33756888359644582 0 -0.0059007814909059139 0.36388833541651999 0 -0.010041742547556239 0.34779893797993799 0 -0.019744405879421039 0.35544778746791073 0 -0.022072061197128422 0.34337436131764271 0 -0.010041742547556239 0.34779893797993799 0 -0.019744405879421039 0.35544778746791073 0 -0.033605421858874808 0.34084431155552641 0 -0.022072061197128422 0.34337436131764271 0 -0.030922386276172002 0.35270889993136723 0 -0.022072061197128422 0.34337436131764271 0 -0.019744405879421039 0.35544778746791073 0 -0.030922386276172002 0.35270889993136723 0 -0.019744405879421039 0.35544778746791073 0 -0.030922386276172002 0.35270889993136723 0 -0.028102120703688688 0.36484009998453298 0 -0.028102120703688688 0.36484009998453298 0 -0.0176352528070725 0.36661386953082958 0 -0.023566699380563771 0.36986220613272208 0 -0.019744405879421039 0.35544778746791073 0 -0.028102120703688688 0.36484009998453298 0 -0.0176352528070725 0.36661386953082958 0 -0.0176352528070725 0.36661386953082958 0 -0.02055283896181509 0.37492044275649761 0 -0.014737885066651029 0.3753037437163651 0 -0.0176352528070725 0.36661386953082958 0 -0.02055283896181509 0.37492044275649761 0 -0.023566699380563771 0.36986220613272208 0 -0.028102120703688688 0.36484009998453298 0 -0.02812188561886882 0.37305977922707828 0 -0.034073617611658939 0.36782324847440179 0 -0.028102120703688688 0.36484009998453298 0 -0.023566699380563771 0.36986220613272208 0 -0.02812188561886882 0.37305977922707828 0 -0.02055283896181509 0.37492044275649761 0 -0.023566699380563771 0.36986220613272208 0 -0.02812188561886882 0.37305977922707828 0 -0.034073617611658939 0.36782324847440179 0 -0.043591662855230001 0.36390888793988879 0 -0.035852754840195608 0.37670516051124842 0 -0.02812188561886882 0.37305977922707828 0 -0.034073617611658939 0.36782324847440179 0 -0.035852754840195608 0.37670516051124842 0 -0.043591662855230001 0.36390888793988879 0 -0.058544288767344563 0.3636759344722863 0 -0.035852754840195608 0.37670516051124842 0 -0.028102120703688688 0.36484009998453298 0 -0.034073617611658939 0.36782324847440179 0 -0.035268354523102043 0.36029107211395611 0 -0.034073617611658939 0.36782324847440179 0 -0.035268354523102043 0.36029107211395611 0 -0.043591662855230001 0.36390888793988879 0 -0.033605421858874808 0.34084431155552641 0 -0.030922386276172002 0.35270889993136723 0 -0.042381699486154688 0.35068025978212602 0 -0.030922386276172002 0.35270889993136723 0 -0.028102120703688688 0.36484009998453298 0 -0.035268354523102043 0.36029107211395611 0 -0.030922386276172002 0.35270889993136723 0 -0.035268354523102043 0.36029107211395611 0 -0.042381699486154688 0.35068025978212602 0 -0.043591662855230001 0.36390888793988879 0 -0.042381699486154688 0.35068025978212602 0 -0.053832602034153257 0.35293181290979642 0 -0.035268354523102043 0.36029107211395611 0 -0.043591662855230001 0.36390888793988879 0 -0.042381699486154688 0.35068025978212602 0 -0.052236011477009771 0.33691555680692242 0 -0.042381699486154688 0.35068025978212602 0 -0.053832602034153257 0.35293181290979642 0 -0.052236011477009771 0.33691555680692242 0 -0.053832602034153257 0.35293181290979642 0 -0.064167010251185666 0.34847247393645919 0 -0.053832602034153257 0.35293181290979642 0 -0.058544288767344563 0.3636759344722863 0 -0.064167010251185666 0.34847247393645919 0 -0.058544288767344563 0.3636759344722863 0 -0.048819755760288887 0.3752698330016685 0 -0.035852754840195608 0.37670516051124842 0 -0.058544288767344563 0.3636759344722863 0 -0.035852754840195608 0.37670516051124842 0 -0.043591662855230001 0.36390888793988879 0 -0.053832602034153257 0.35293181290979642 0 -0.058544288767344563 0.3636759344722863 0 -0.058544288767344563 0.3636759344722863 0 -0.062916115281271751 0.3762935565940233 0 -0.048819755760288887 0.3752698330016685 0 -0.058544288767344563 0.3636759344722863 0 -0.074421318621642057 0.36400507541585458 0 -0.062916115281271751 0.3762935565940233 0 -0.074421318621642057 0.36400507541585458 0 -0.08786636641019982 0.36818243275893042 0 -0.062916115281271751 0.3762935565940233 0 -0.058544288767344563 0.3636759344722863 0 -0.074421318621642057 0.36400507541585458 0 -0.081235822694493462 0.35064670843332429 0 -0.08786636641019982 0.36818243275893042 0 -0.062916115281271751 0.3762935565940233 0 -0.074421318621642057 0.36400507541585458 0 -0.082470480996801834 0.3602531805555888 0 -0.08786636641019982 0.36818243275893042 0 -0.082470480996801834 0.3602531805555888 0 -0.08786636641019982 0.36818243275893042 0 -0.087840785927913889 0.35662080279005348 0 -0.08786636641019982 0.36818243275893042 0 -0.087840785927913889 0.35662080279005348 0 -0.09915046930452931 0.36371680311207261 0 -0.08786636641019982 0.36818243275893042 0 -0.09915046930452931 0.36371680311207261 0 -0.093496644702398587 0.37685989946498399 0 -0.087840785927913889 0.35662080279005348 0 -0.081235822694493462 0.35064670843332429 0 -0.089407271275446162 0.33933132482523121 0 -0.087840785927913889 0.35662080279005348 0 -0.089407271275446162 0.33933132482523121 0 -0.09915046930452931 0.36371680311207261 0 -0.082470480996801834 0.3602531805555888 0 -0.087840785927913889 0.35662080279005348 0 -0.081235822694493462 0.35064670843332429 0 -0.074421318621642057 0.36400507541585458 0 -0.082470480996801834 0.3602531805555888 0 -0.081235822694493462 0.35064670843332429 0 -0.081235822694493462 0.35064670843332429 0 -0.064167010251185666 0.34847247393645919 0 -0.071437193006412353 0.33609872828699988 0 -0.058544288767344563 0.3636759344722863 0 -0.081235822694493462 0.35064670843332429 0 -0.064167010251185666 0.34847247393645919 0 -0.058544288767344563 0.3636759344722863 0 -0.081235822694493462 0.35064670843332429 0 -0.052236011477009771 0.33691555680692242 0 -0.064167010251185666 0.34847247393645919 0 -0.071437193006412353 0.33609872828699988 0 -0.062412867959498797 0.32372038263838993 0 -0.071437193006412353 0.33609872828699988 0 -0.079664073246363043 0.31494584653838992 0 -0.062951066618421259 0.3104466639243012 0 -0.062412867959498797 0.32372038263838993 0 -0.079664073246363043 0.31494584653838992 0 -0.079664073246363043 0.31494584653838992 0 -0.089407271275446162 0.33933132482523121 0 -0.079664073246363043 0.31494584653838992 0 -0.089407271275446162 0.33933132482523121 0 -0.1007006506486547 0.32020220002297689 0 -0.081235822694493462 0.35064670843332429 0 -0.071437193006412353 0.33609872828699988 0 -0.089407271275446162 0.33933132482523121 0 -0.071437193006412353 0.33609872828699988 0 -0.079664073246363043 0.31494584653838992 0 -0.089407271275446162 0.33933132482523121 0 -0.089407271275446162 0.33933132482523121 0 -0.10327391424854331 0.33545027654795367 0 -0.1039209770943971 0.34788431046958168 0 -0.10327391424854331 0.33545027654795367 0 -0.1007006506486547 0.32020220002297689 0 -0.1185057426314361 0.33707721557035392 0 -0.089407271275446162 0.33933132482523121 0 -0.10327391424854331 0.33545027654795367 0 -0.1007006506486547 0.32020220002297689 0 -0.10327391424854331 0.33545027654795367 0 -0.1124962816236062 0.34491622987321963 0 -0.1039209770943971 0.34788431046958168 0 -0.1007006506486547 0.32020220002297689 0 -0.1180137452698396 0.32186804286416237 0 -0.1185057426314361 0.33707721557035392 0 -0.11478315744022 0.30833749030476337 0 -0.1007006506486547 0.32020220002297689 0 -0.1180137452698396 0.32186804286416237 0 -0.12759662296237551 0.32875542424887721 0 -0.12848255266651171 0.31496788417384092 0 -0.1180137452698396 0.32186804286416237 0 -0.12848255266651171 0.31496788417384092 0 -0.11478315744022 0.30833749030476337 0 -0.1180137452698396 0.32186804286416237 0 -0.1007006506486547 0.32020220002297689 0 -0.1185057426314361 0.33707721557035392 0 -0.10327391424854331 0.33545027654795367 0 -0.1185057426314361 0.33707721557035392 0 -0.1124962816236062 0.34491622987321963 0 -0.12759662296237551 0.32875542424887721 0 -0.1180137452698396 0.32186804286416237 0 -0.1185057426314361 0.33707721557035392 0 -0.1185057426314361 0.33707721557035392 0 -0.1246921205825629 0.34780661183605938 0 -0.1124962816236062 0.34491622987321963 0 -0.1246921205825629 0.34780661183605938 0 -0.1120886535610917 0.35636273494214971 0 -0.1220261782868407 0.3643270038400892 0 -0.1246921205825629 0.34780661183605938 0 -0.1220261782868407 0.3643270038400892 0 -0.1246921205825629 0.34780661183605938 0 -0.1124962816236062 0.34491622987321963 0 -0.1120886535610917 0.35636273494214971 0 -0.1124962816236062 0.34491622987321963 0 -0.1120886535610917 0.35636273494214971 0 -0.1039209770943971 0.34788431046958168 0 -0.1220261782868407 0.3643270038400892 0 -0.11122073288745769 0.36827168972897528 0 -0.1193602359911196 0.38084739584411931 0 -0.1220261782868407 0.3643270038400892 0 -0.1193602359911196 0.38084739584411931 0 -0.1120886535610917 0.35636273494214971 0 -0.1220261782868407 0.3643270038400892 0 -0.11122073288745769 0.36827168972897528 0 -0.1120886535610917 0.35636273494214971 0 -0.11122073288745769 0.36827168972897528 0 -0.09915046930452931 0.36371680311207261 0 -0.11122073288745769 0.36827168972897528 0 -0.09915046930452931 0.36371680311207261 0 -0.10347812729370839 0.37610451090644592 0 -0.09915046930452931 0.36371680311207261 0 -0.10347812729370839 0.37610451090644592 0 -0.093496644702398587 0.37685989946498399 0 -0.1120886535610917 0.35636273494214971 0 -0.09915046930452931 0.36371680311207261 0 -0.1039209770943971 0.34788431046958168 0 -0.089407271275446162 0.33933132482523121 0 -0.09915046930452931 0.36371680311207261 0 -0.1039209770943971 0.34788431046958168 0 -0.089407271275446162 0.33933132482523121 0 -0.09915046930452931 0.36371680311207261 0 -0.10080573119639109 0.40190399006664479 0 -0.094534486518703442 0.38800471911573509 0 -0.08592458802987453 0.39775076640052037 0 -0.094534486518703442 0.38800471911573509 0 -0.10347812729370839 0.37610451090644592 0 -0.1193602359911196 0.38084739584411931 0 -0.10080573119639109 0.40190399006664479 0 -0.094534486518703442 0.38800471911573509 0 -0.1193602359911196 0.38084739584411931 0 -0.094534486518703442 0.38800471911573509 0 -0.1193602359911196 0.38084739584411931 0 -0.094534486518703442 0.38800471911573509 0 -0.10347812729370839 0.37610451090644592 0 -0.093496644702398587 0.37685989946498399 0 -0.11122073288745769 0.36827168972897528 0 -0.10347812729370839 0.37610451090644592 0 -0.1193602359911196 0.38084739584411931 0 -0.1193602359911196 0.38084739584411931 0 -0.1151096477893887 0.40718756961793279 0 -0.10080573119639109 0.40190399006664479 0 -0.1193602359911196 0.38084739584411931 0 -0.1151096477893887 0.40718756961793279 0 -0.1316354930737598 0.38978516679258152 0 -0.1193602359911196 0.38084739584411931 0 -0.1151096477893887 0.40718756961793279 0 -0.1151096477893887 0.40718756961793279 0 -0.110859059587659 0.43352774339174649 0 -0.13819275062163991 0.42119481350254101 0 -0.1151096477893887 0.40718756961793279 0 -0.1206125387506044 0.42601398695849457 0 -0.1151096477893887 0.40718756961793279 0 -0.1206125387506044 0.42601398695849457 0 -0.110859059587659 0.43352774339174649 0 -0.1268816043586323 0.43541326028754929 0 -0.1196061605589952 0.43335583579199838 0 -0.1186792473340889 0.43833159671550942 0 -0.1268816043586323 0.43541326028754929 0 -0.1196061605589952 0.43335583579199838 0 -0.1206125387506044 0.42601398695849457 0 -0.1196061605589952 0.43335583579199838 0 -0.110859059587659 0.43352774339174649 0 -0.1186792473340889 0.43833159671550942 0 -0.1196061605589952 0.43335583579199838 0 -0.1206125387506044 0.42601398695849457 0 -0.110859059587659 0.43352774339174649 0 -0.110859059587659 0.43352774339174649 0 -0.090590668590473655 0.4320971767878084 0 -0.110859059587659 0.43352774339174649 0 -0.090590668590473655 0.4320971767878084 0 -0.099592532318260374 0.44295569719917482 0 -0.110859059587659 0.43352774339174649 0 -0.1004168018045528 0.4175340558781393 0 -0.090590668590473655 0.4320971767878084 0 -0.10080573119639109 0.40190399006664479 0 -0.1004168018045528 0.4175340558781393 0 -0.085092884471747204 0.41355094476447662 0 -0.10080573119639109 0.40190399006664479 0 -0.1151096477893887 0.40718756961793279 0 -0.1004168018045528 0.4175340558781393 0 -0.1151096477893887 0.40718756961793279 0 -0.110859059587659 0.43352774339174649 0 -0.1004168018045528 0.4175340558781393 0 -0.1004168018045528 0.4175340558781393 0 -0.085092884471747204 0.41355094476447662 0 -0.090590668590473655 0.4320971767878084 0 -0.085092884471747204 0.41355094476447662 0 -0.090590668590473655 0.4320971767878084 0 -0.069574312367497351 0.42947231970804289 0 -0.090590668590473655 0.4320971767878084 0 -0.069574312367497351 0.42947231970804289 0 -0.090590668590473655 0.4320971767878084 0 -0.069574312367497351 0.42947231970804289 0 -0.079339282754482876 0.43858153576348491 0 -0.069574312367497351 0.42947231970804289 0 -0.070156680772871627 0.44139215205486482 0 -0.079339282754482876 0.43858153576348491 0 -0.069574312367497351 0.42947231970804289 0 -0.062515683424174365 0.4379218241968782 0 -0.070156680772871627 0.44139215205486482 0 -0.085092884471747204 0.41355094476447662 0 -0.069574312367497351 0.42947231970804289 0 -0.065692310776898577 0.40390755653644678 0 -0.065692310776898577 0.40390755653644678 0 -0.083497527185632331 0.38138662151929859 0 -0.065692310776898577 0.40390755653644678 0 -0.08592458802987453 0.39775076640052037 0 -0.083497527185632331 0.38138662151929859 0 -0.10080573119639109 0.40190399006664479 0 -0.085092884471747204 0.41355094476447662 0 -0.08592458802987453 0.39775076640052037 0 -0.085092884471747204 0.41355094476447662 0 -0.065692310776898577 0.40390755653644678 0 -0.08592458802987453 0.39775076640052037 0 -0.094534486518703442 0.38800471911573509 0 -0.08592458802987453 0.39775076640052037 0 -0.083497527185632331 0.38138662151929859 0 -0.08786636641019982 0.36818243275893042 0 -0.093496644702398587 0.37685989946498399 0 -0.083497527185632331 0.38138662151929859 0 -0.094534486518703442 0.38800471911573509 0 -0.093496644702398587 0.37685989946498399 0 -0.083497527185632331 0.38138662151929859 0 -0.065692310776898577 0.40390755653644678 0 -0.083497527185632331 0.38138662151929859 0 -0.062916115281271751 0.3762935565940233 0 -0.08786636641019982 0.36818243275893042 0 -0.083497527185632331 0.38138662151929859 0 -0.062916115281271751 0.3762935565940233 0 -0.062916115281271751 0.3762935565940233 0 -0.048819755760288887 0.3752698330016685 0 -0.037965864152343667 0.38440468042911619 0 -0.062916115281271751 0.3762935565940233 0 -0.052664538888477372 0.39262972357605269 0 -0.037965864152343667 0.38440468042911619 0 -0.062916115281271751 0.3762935565940233 0 -0.037965864152343667 0.38440468042911619 0 -0.065692310776898577 0.40390755653644678 0 -0.062916115281271751 0.3762935565940233 0 -0.052664538888477372 0.39262972357605269 0 -0.065692310776898577 0.40390755653644678 0 -0.052664538888477372 0.39262972357605269 0 -0.05264562786287949 0.40324766856446248 0 -0.052664538888477372 0.39262972357605269 0 -0.05264562786287949 0.40324766856446248 0 -0.041520982491436487 0.39900859613602402 0 -0.05264562786287949 0.40324766856446248 0 -0.041520982491436487 0.39900859613602402 0 -0.043126264604568101 0.40953922604074577 0 -0.052664538888477372 0.39262972357605269 0 -0.041520982491436487 0.39900859613602402 0 -0.037965864152343667 0.38440468042911619 0 -0.041520982491436487 0.39900859613602402 0 -0.037965864152343667 0.38440468042911619 0 -0.030741406784455739 0.39616602238564841 0 -0.041520982491436487 0.39900859613602402 0 -0.030741406784455739 0.39616602238564841 0 -0.0304513536957907 0.40947214790890218 0 -0.041520982491436487 0.39900859613602402 0 -0.0304513536957907 0.40947214790890218 0 -0.043126264604568101 0.40953922604074577 0 -0.048819755760288887 0.3752698330016685 0 -0.037965864152343667 0.38440468042911619 0 -0.035852754840195608 0.37670516051124842 0 -0.02812188561886882 0.37305977922707828 0 -0.035852754840195608 0.37670516051124842 0 -0.0242682792376912 0.38017764522891578 0 -0.037965864152343667 0.38440468042911619 0 -0.01301561302341578 0.39251580426420968 0 -0.013161220913046629 0.38973438655021048 0 -0.037965864152343667 0.38440468042911619 0 -0.01301561302341578 0.39251580426420968 0 -0.035852754840195608 0.37670516051124842 0 -0.013161220913046629 0.38973438655021048 0 -0.037965864152343667 0.38440468042911619 0 -0.035852754840195608 0.37670516051124842 0 -0.013161220913046629 0.38973438655021048 0 -0.035852754840195608 0.37670516051124842 0 -0.0242682792376912 0.38017764522891578 0 -0.013161220913046629 0.38973438655021048 0 -0.02055283896181509 0.37492044275649761 0 -0.02812188561886882 0.37305977922707828 0 -0.0242682792376912 0.38017764522891578 0 -0.02055283896181509 0.37492044275649761 0 -0.0242682792376912 0.38017764522891578 0 -0.019942661479638971 0.37958922282418872 0 -0.0242682792376912 0.38017764522891578 0 -0.019942661479638971 0.37958922282418872 0 -0.01788205970386068 0.38363042693049809 0 -0.019942661479638971 0.37958922282418872 0 -0.017067468015188929 0.37962837638084351 0 -0.01788205970386068 0.38363042693049809 0 -0.017067468015188929 0.37962837638084351 0 -0.01788205970386068 0.38363042693049809 0 -0.014600340512489171 0.38322856441961178 0 -0.02055283896181509 0.37492044275649761 0 -0.017067468015188929 0.37962837638084351 0 -0.014737885066651029 0.3753037437163651 0 -0.02055283896181509 0.37492044275649761 0 -0.019942661479638971 0.37958922282418872 0 -0.017067468015188929 0.37962837638084351 0 -0.0242682792376912 0.38017764522891578 0 -0.01549195591332185 0.386237550618373 0 -0.013161220913046629 0.38973438655021048 0 -0.0242682792376912 0.38017764522891578 0 -0.01788205970386068 0.38363042693049809 0 -0.01549195591332185 0.386237550618373 0 -0.01788205970386068 0.38363042693049809 0 -0.014600340512489171 0.38322856441961178 0 -0.01549195591332185 0.386237550618373 0 -0.01301561302341578 0.39251580426420968 0 -0.0304513536957907 0.40947214790890218 0 -0.030741406784455739 0.39616602238564841 0 -0.01301561302341578 0.39251580426420968 0 -0.0304513536957907 0.40947214790890218 0 -0.037965864152343667 0.38440468042911619 0 -0.030741406784455739 0.39616602238564841 0 -0.01301561302341578 0.39251580426420968 0 -0.01301561302341578 0.39251580426420968 0 -0.01251678639331621 0.40806669456069411 0 -0.0304513536957907 0.40947214790890218 0 -0.01301561302341578 0.39251580426420968 0 -0.0110093299717641 0.39316803057632532 0 -0.01251678639331621 0.40806669456069411 0 -0.0110093299717641 0.39316803057632532 0 -0.0018221813426865989 0.39903357532254907 0 -0.0034644782862507249 0.38322727870953011 0 -0.01301561302341578 0.39251580426420968 0 -0.0110093299717641 0.39316803057632532 0 -0.0110093299717641 0.39316803057632532 0 -0.0018221813426865989 0.39903357532254907 0 -0.01251678639331621 0.40806669456069411 0 -0.0048853591466102861 0.37581854773372309 0 -0.0070872361149648452 0.37867329972718922 0 -0.0099676318568552337 0.37707590939138402 0 -0.0048853591466102861 0.37581854773372309 0 -0.0070872361149648452 0.37867329972718922 0 -0.0050948319945524623 0.38167799554356252 0 -0.0034644782862507249 0.38322727870953011 0 -0.0050948319945524623 0.38167799554356252 0 -0.0093391334031838226 0.38148876234127022 0 -0.0034644782862507249 0.38322727870953011 0 -0.0048853591466102861 0.37581854773372309 0 -0.0050948319945524623 0.38167799554356252 0 -0.0070872361149648452 0.37867329972718922 0 -0.0050948319945524623 0.38167799554356252 0 -0.0093391334031838226 0.38148876234127022 0 -0.0034644782862507249 0.38322727870953011 0 -0.0050948319945524623 0.38167799554356252 0 -0.0070872361149648452 0.37867329972718922 0 -0.0093391334031838226 0.38148876234127022 0 -0.0099676318568552337 0.37707590939138402 0 -0.0093391334031838226 0.38148876234127022 0 -0.0099676318568552337 0.37707590939138402 0 -0.013072707835399809 0.37990766802928599 0 -0.0093391334031838226 0.38148876234127022 0 -0.01206979962105356 0.38230042273437581 0 -0.013072707835399809 0.37990766802928599 0 -0.0093391334031838226 0.38148876234127022 0 -0.01206979962105356 0.38230042273437581 0 -0.011267016733141439 0.38457669614733531 0 -0.0099676318568552337 0.37707590939138402 0 -0.014737885066651029 0.3753037437163651 0 -0.013072707835399809 0.37990766802928599 0 -0.017067468015188929 0.37962837638084351 0 -0.014737885066651029 0.3753037437163651 0 -0.013072707835399809 0.37990766802928599 0 -0.017067468015188929 0.37962837638084351 0 -0.013072707835399809 0.37990766802928599 0 -0.014600340512489171 0.38322856441961178 0 -0.01206979962105356 0.38230042273437581 0 -0.013072707835399809 0.37990766802928599 0 -0.014600340512489171 0.38322856441961178 0 -0.0034644782862507249 0.38322727870953011 0 -0.013161220913046629 0.38973438655021048 0 -0.011267016733141439 0.38457669614733531 0 -0.014600340512489171 0.38322856441961178 0 -0.01549195591332185 0.386237550618373 0 -0.011267016733141439 0.38457669614733531 0 -0.01301561302341578 0.39251580426420968 0 -0.0034644782862507249 0.38322727870953011 0 -0.01301561302341578 0.39251580426420968 0 -0.0110093299717641 0.39316803057632532 0 -0.0034644782862507249 0.38322727870953011 0 -0.01301561302341578 0.39251580426420968 0 -0.0034644782862507249 0.38322727870953011 0 -0.013161220913046629 0.38973438655021048 0 -0.01206979962105356 0.38230042273437581 0 -0.014600340512489171 0.38322856441961178 0 -0.011267016733141439 0.38457669614733531 0 -0.01549195591332185 0.386237550618373 0 -0.013161220913046629 0.38973438655021048 0 -0.011267016733141439 0.38457669614733531 0 -0.0034644782862507249 0.38322727870953011 0 -0.0093391334031838226 0.38148876234127022 0 -0.011267016733141439 0.38457669614733531 0 -0.014512879208565839 0.42406360450141328 0 -0.0081375013823759036 0.43695378700822279 0 -0.0014354322474061461 0.42225834543601892 0 -0.014512879208565839 0.42406360450141328 0 -0.0081375013823759036 0.43695378700822279 0 -0.02145124688270417 0.43574786356033279 0 -0.0018221813426865989 0.39903357532254907 0 -0.01251678639331621 0.40806669456069411 0 0.0048761788785234338 0.41291022029683971 0 -0.0014354322474061461 0.42225834543601892 0 -0.01251678639331621 0.40806669456069411 0 0.0048761788785234338 0.41291022029683971 0 -0.0014354322474061461 0.42225834543601892 0 -0.01251678639331621 0.40806669456069411 0 -0.014512879208565839 0.42406360450141328 0 -0.0014354322474061461 0.42225834543601892 0 -0.01251678639331621 0.40806669456069411 0 -0.014512879208565839 0.42406360450141328 0 -0.01251678639331621 0.40806669456069411 0 -0.022086481674067241 0.41681808007429949 0 -0.01251678639331621 0.40806669456069411 0 -0.022086481674067241 0.41681808007429949 0 -0.0304513536957907 0.40947214790890218 0 -0.022086481674067241 0.41681808007429949 0 -0.0304513536957907 0.40947214790890218 0 -0.030864907398596209 0.42566987332618877 0 -0.014512879208565839 0.42406360450141328 0 -0.022086481674067241 0.41681808007429949 0 -0.030864907398596209 0.42566987332618877 0 -0.030864907398596209 0.42566987332618877 0 -0.02145124688270417 0.43574786356033279 0 -0.035390047601166902 0.44223538609983443 0 -0.014512879208565839 0.42406360450141328 0 -0.030864907398596209 0.42566987332618877 0 -0.014512879208565839 0.42406360450141328 0 -0.030864907398596209 0.42566987332618877 0 -0.02145124688270417 0.43574786356033279 0 -0.044769737850301423 0.43710704845321863 0 -0.047887094368164802 0.42642849155359541 0 -0.035390047601166902 0.44223538609983443 0 -0.030864907398596209 0.42566987332618877 0 -0.047887094368164802 0.42642849155359541 0 -0.035390047601166902 0.44223538609983443 0 -0.030864907398596209 0.42566987332618877 0 -0.047887094368164802 0.42642849155359541 0 -0.047887094368164802 0.42642849155359541 0 -0.035390047601166902 0.44223538609983443 0 -0.0304513536957907 0.40947214790890218 0 -0.047887094368164802 0.42642849155359541 0 -0.0304513536957907 0.40947214790890218 0 -0.030864907398596209 0.42566987332618877 0 -0.047887094368164802 0.42642849155359541 0 -0.0304513536957907 0.40947214790890218 0 -0.043126264604568101 0.40953922604074577 0 -0.047887094368164802 0.42642849155359541 0 -0.065692310776898577 0.40390755653644678 0 -0.047887094368164802 0.42642849155359541 0 -0.065692310776898577 0.40390755653644678 0 -0.05264562786287949 0.40324766856446248 0 -0.047887094368164802 0.42642849155359541 0 -0.069574312367497351 0.42947231970804289 0 -0.065692310776898577 0.40390755653644678 0 -0.047887094368164802 0.42642849155359541 0 -0.05264562786287949 0.40324766856446248 0 -0.043126264604568101 0.40953922604074577 0 -0.047887094368164802 0.42642849155359541 0 -0.069574312367497351 0.42947231970804289 0 -0.053382736955101588 0.43177303102590558 0 -0.047887094368164802 0.42642849155359541 0 -0.069574312367497351 0.42947231970804289 0 -0.047887094368164802 0.42642849155359541 0 -0.069574312367497351 0.42947231970804289 0 -0.053382736955101588 0.43177303102590558 0 -0.062515683424174365 0.4379218241968782 0 -0.044769737850301423 0.43710704845321863 0 -0.048070892644279377 0.43256579497930708 0 -0.053290310877120113 0.43899845747600419 0 -0.044769737850301423 0.43710704845321863 0 -0.048070892644279377 0.43256579497930708 0 -0.047887094368164802 0.42642849155359541 0 -0.053382736955101588 0.43177303102590558 0 -0.048070892644279377 0.43256579497930708 0 -0.053290310877120113 0.43899845747600419 0 -0.053382736955101588 0.43177303102590558 0 -0.048070892644279377 0.43256579497930708 0 -0.047887094368164802 0.42642849155359541 0 -0.053382736955101588 0.43177303102590558 0 -0.047887094368164802 0.42642849155359541 0 -0.053382736955101588 0.43177303102590558 0 -0.053290310877120113 0.43899845747600419 0 -0.062515683424174365 0.4379218241968782 0 -0.053290310877120113 0.43899845747600419 0 -0.062515683424174365 0.4379218241968782 0 -0.062536289462105682 0.44718659730320032 0 -0.048975899702037702 0.44742028279924312 0 -0.053290310877120113 0.43899845747600419 0 -0.062536289462105682 0.44718659730320032 0 -0.048975899702037702 0.44742028279924312 0 -0.056943011856452258 0.45755633382146471 0 -0.062536289462105682 0.44718659730320032 0 -0.044769737850301423 0.43710704845321863 0 -0.048975899702037702 0.44742028279924312 0 -0.053290310877120113 0.43899845747600419 0 -0.056943011856452258 0.45755633382146471 0 -0.042786569180490758 0.45926921889055139 0 -0.055423932630516898 0.47412527501268431 0 -0.056943011856452258 0.45755633382146471 0 -0.055423932630516898 0.47412527501268431 0 -0.066959783235560968 0.46437807560356259 0 -0.056943011856452258 0.45755633382146471 0 -0.067021074748837714 0.45542427710343769 0 -0.062536289462105682 0.44718659730320032 0 -0.048975899702037702 0.44742028279924312 0 -0.056943011856452258 0.45755633382146471 0 -0.042786569180490758 0.45926921889055139 0 -0.042786569180490758 0.45926921889055139 0 -0.025621125416835831 0.46169769657051229 0 -0.034365397875935011 0.47258033903956992 0 -0.042786569180490758 0.45926921889055139 0 -0.034365397875935011 0.47258033903956992 0 -0.055423932630516898 0.47412527501268431 0 -0.042786569180490758 0.45926921889055139 0 -0.035390047601166902 0.44223538609983443 0 -0.025621125416835831 0.46169769657051229 0 -0.048975899702037702 0.44742028279924312 0 -0.042786569180490758 0.45926921889055139 0 -0.035390047601166902 0.44223538609983443 0 -0.044769737850301423 0.43710704845321863 0 -0.048975899702037702 0.44742028279924312 0 -0.035390047601166902 0.44223538609983443 0 -0.02145124688270417 0.43574786356033279 0 -0.035390047601166902 0.44223538609983443 0 -0.018350898822816011 0.44981666686600452 0 -0.035390047601166902 0.44223538609983443 0 -0.018350898822816011 0.44981666686600452 0 -0.025621125416835831 0.46169769657051229 0 -0.0081375013823759036 0.43695378700822279 0 -0.02145124688270417 0.43574786356033279 0 -0.018350898822816011 0.44981666686600452 0 -0.025621125416835831 0.46169769657051229 0 -0.013306863121353381 0.4710354030664522 0 -0.034365397875935011 0.47258033903956992 0 -0.018350898822816011 0.44981666686600452 0 -0.025621125416835831 0.46169769657051229 0 -0.013306863121353381 0.4710354030664522 0 -0.001830470611425295 0.45374269968889591 0 -0.013306863121353381 0.4710354030664522 0 0.010318891920573101 0.46930212583317987 0 -0.001830470611425295 0.45374269968889591 0 -0.013306863121353381 0.4710354030664522 0 -0.018350898822816011 0.44981666686600452 0 -0.001830470611425295 0.45374269968889591 0 -0.013306863121353381 0.4710354030664522 0 -0.0081375013823759036 0.43695378700822279 0 -0.001830470611425295 0.45374269968889591 0 0.0096459218985064377 0.4364499963113419 0 -0.0081375013823759036 0.43695378700822279 0 -0.018350898822816011 0.44981666686600452 0 -0.001830470611425295 0.45374269968889591 0 -0.0053053827799041109 0.5 0 -0.0045487042265510104 0.48250265938135573 0 0.0084679486474796006 0.48665806647391902 0 -0.0053053827799041109 0.5 0 -0.0045487042265510104 0.48250265938135573 0 -0.022918115799550519 0.48551770153322399 0 -0.013306863121353381 0.4710354030664522 0 0.010318891920573101 0.46930212583317987 0 -0.0045487042265510104 0.48250265938135573 0 -0.013306863121353381 0.4710354030664522 0 0.010318891920573101 0.46930212583317987 0 -0.0045487042265510104 0.48250265938135573 0 -0.013306863121353381 0.4710354030664522 0 -0.022918115799550519 0.48551770153322399 0 -0.013306863121353381 0.4710354030664522 0 -0.022918115799550519 0.48551770153322399 0 -0.034365397875935011 0.47258033903956992 0 -0.013306863121353381 0.4710354030664522 0 -0.034365397875935011 0.47258033903956992 0 -0.013306863121353381 0.4710354030664522 0 -0.022918115799550519 0.48551770153322399 0 -0.0053053827799041109 0.5 0 -0.022918115799550519 0.48551770153322399 0 -0.032529368477742793 0.49999999999999911 0 -0.022918115799550519 0.48551770153322399 0 -0.032529368477742793 0.49999999999999911 0 -0.022918115799550519 0.48551770153322399 0 -0.042564994138845638 0.48675383592867411 0 -0.032529368477742793 0.49999999999999911 0 -0.042564994138845638 0.48675383592867411 0 -0.032529368477742793 0.49999999999999911 0 -0.050567133715279773 0.5 0 -0.034365397875935011 0.47258033903956992 0 -0.055423932630516898 0.47412527501268431 0 -0.022918115799550519 0.48551770153322399 0 -0.042564994138845638 0.48675383592867411 0 -0.034365397875935011 0.47258033903956992 0 -0.042564994138845638 0.48675383592867411 0 -0.034365397875935011 0.47258033903956992 0 -0.055423932630516898 0.47412527501268431 0 -0.042564994138845638 0.48675383592867411 0 -0.055423932630516898 0.47412527501268431 0 -0.058973637070093551 0.48759267455718469 0 -0.058973637070093551 0.48759267455718469 0 -0.050567133715279773 0.5 0 -0.068604898952816767 0.50000000000000022 0 -0.042564994138845638 0.48675383592867411 0 -0.058973637070093551 0.48759267455718469 0 -0.050567133715279773 0.5 0 -0.068604898952816767 0.50000000000000022 0 -0.077752961425332667 0.49318420351933961 0 -0.076482467385098826 0.4756702109857982 0 -0.058973637070093551 0.48759267455718469 0 -0.068604898952816767 0.50000000000000022 0 -0.076482467385098826 0.4756702109857982 0 -0.068604898952816767 0.50000000000000022 0 -0.076482467385098826 0.4756702109857982 0 -0.068604898952816767 0.50000000000000022 0 -0.077752961425332667 0.49318420351933961 0 -0.083587643696691694 0.50000000000000122 0 -0.08133033599894228 0.48618324523103812 0 -0.086711573575887158 0.49710608687848828 0 -0.086793853110970903 0.47642669432740881 0 -0.077752961425332667 0.49318420351933961 0 -0.08133033599894228 0.48618324523103812 0 -0.076482467385098826 0.4756702109857982 0 -0.077752961425332667 0.49318420351933961 0 -0.083587643696691694 0.50000000000000122 0 -0.086711573575887158 0.49710608687848828 0 -0.086711573575887158 0.49710608687848828 0 -0.086793853110970903 0.47642669432740881 0 -0.083587643696691694 0.50000000000000122 0 -0.086711573575887158 0.49710608687848828 0 -0.083587643696691694 0.50000000000000122 0 -0.086700059222865694 0.50000000000000178 0 -0.086711573575887158 0.49710608687848828 0 -0.077752961425332667 0.49318420351933961 0 -0.08133033599894228 0.48618324523103812 0 -0.086711573575887158 0.49710608687848828 0 -0.086700059222865694 0.50000000000000178 0 -0.086711573575887158 0.49710608687848828 0 -0.1016832447459485 0.4935236726733358 0 -0.086700059222865694 0.50000000000000178 0 -0.086711573575887158 0.49710608687848828 0 -0.086711573575887158 0.49710608687848828 0 -0.086793853110970903 0.47642669432740881 0 -0.10740252052115649 0.47793862628331218 0 -0.08133033599894228 0.48618324523103812 0 -0.086793853110970903 0.47642669432740881 0 -0.076482467385098826 0.4756702109857982 0 -0.086793853110970903 0.47642669432740881 0 -0.076482467385098826 0.4756702109857982 0 -0.055423932630516898 0.47412527501268431 0 -0.058973637070093551 0.48759267455718469 0 -0.076482467385098826 0.4756702109857982 0 -0.055423932630516898 0.47412527501268431 0 -0.076482467385098826 0.4756702109857982 0 -0.055423932630516898 0.47412527501268431 0 -0.076482467385098826 0.4756702109857982 0 -0.066959783235560968 0.46437807560356259 0 -0.076482467385098826 0.4756702109857982 0 -0.066959783235560968 0.46437807560356259 0 -0.074076253422359975 0.45943579496016212 0 -0.076482467385098826 0.4756702109857982 0 -0.074076253422359975 0.45943579496016212 0 -0.083536567987785262 0.453883693886803 0 -0.056943011856452258 0.45755633382146471 0 -0.066959783235560968 0.46437807560356259 0 -0.067021074748837714 0.45542427710343769 0 -0.066959783235560968 0.46437807560356259 0 -0.067021074748837714 0.45542427710343769 0 -0.074076253422359975 0.45943579496016212 0 -0.074076253422359975 0.45943579496016212 0 -0.07459003576770977 0.44856458382879899 0 -0.083536567987785262 0.453883693886803 0 -0.067021074748837714 0.45542427710343769 0 -0.074076253422359975 0.45943579496016212 0 -0.07459003576770977 0.44856458382879899 0 -0.062515683424174365 0.4379218241968782 0 -0.070156680772871627 0.44139215205486482 0 -0.062536289462105682 0.44718659730320032 0 -0.067021074748837714 0.45542427710343769 0 -0.062536289462105682 0.44718659730320032 0 -0.07459003576770977 0.44856458382879899 0 -0.070156680772871627 0.44139215205486482 0 -0.062536289462105682 0.44718659730320032 0 -0.07459003576770977 0.44856458382879899 0 -0.070156680772871627 0.44139215205486482 0 -0.07459003576770977 0.44856458382879899 0 -0.079339282754482876 0.43858153576348491 0 -0.090590668590473655 0.4320971767878084 0 -0.086910174712768656 0.4471914772901433 0 -0.083536567987785262 0.453883693886803 0 -0.090590668590473655 0.4320971767878084 0 -0.082014138775112877 0.44328174756672378 0 -0.083536567987785262 0.453883693886803 0 -0.090590668590473655 0.4320971767878084 0 -0.083536567987785262 0.453883693886803 0 -0.07459003576770977 0.44856458382879899 0 -0.079339282754482876 0.43858153576348491 0 -0.082014138775112877 0.44328174756672378 0 -0.090590668590473655 0.4320971767878084 0 -0.079339282754482876 0.43858153576348491 0 -0.082014138775112877 0.44328174756672378 0 -0.07459003576770977 0.44856458382879899 0 -0.082014138775112877 0.44328174756672378 0 -0.083536567987785262 0.453883693886803 0 -0.090590668590473655 0.4320971767878084 0 -0.086910174712768656 0.4471914772901433 0 -0.099592532318260374 0.44295569719917482 0 -0.086793853110970903 0.47642669432740881 0 -0.076482467385098826 0.4756702109857982 0 -0.083536567987785262 0.453883693886803 0 -0.086793853110970903 0.47642669432740881 0 -0.086910174712768656 0.4471914772901433 0 -0.083536567987785262 0.453883693886803 0 -0.076482467385098826 0.4756702109857982 0 -0.083536567987785262 0.453883693886803 0 -0.086793853110970903 0.47642669432740881 0 -0.086910174712768656 0.4471914772901433 0 -0.086793853110970903 0.47642669432740881 0 -0.086910174712768656 0.4471914772901433 0 -0.095466663782634423 0.46215516541373769 0 -0.086910174712768656 0.4471914772901433 0 -0.095466663782634423 0.46215516541373769 0 -0.097231968980571945 0.45250028937219139 0 -0.095466663782634423 0.46215516541373769 0 -0.1069585051086243 0.45769881758570979 0 -0.10740252052115649 0.47793862628331218 0 -0.095466663782634423 0.46215516541373769 0 -0.1069585051086243 0.45769881758570979 0 -0.097231968980571945 0.45250028937219139 0 -0.110859059587659 0.43352774339174649 0 -0.1069585051086243 0.45769881758570979 0 -0.110859059587659 0.43352774339174649 0 -0.1069585051086243 0.45769881758570979 0 -0.099592532318260374 0.44295569719917482 0 -0.086910174712768656 0.4471914772901433 0 -0.099592532318260374 0.44295569719917482 0 -0.097231968980571945 0.45250028937219139 0 -0.1069585051086243 0.45769881758570979 0 -0.099592532318260374 0.44295569719917482 0 -0.097231968980571945 0.45250028937219139 0 -0.110859059587659 0.43352774339174649 0 -0.1069585051086243 0.45769881758570979 0 -0.1187382711826898 0.44769297959660509 0 -0.110859059587659 0.43352774339174649 0 -0.1187382711826898 0.44769297959660509 0 -0.1186792473340889 0.43833159671550942 0 -0.1268816043586323 0.43541326028754929 0 -0.1187382711826898 0.44769297959660509 0 -0.1186792473340889 0.43833159671550942 0 -0.1069585051086243 0.45769881758570979 0 -0.12462596874134869 0.46198335048338313 0 -0.10740252052115649 0.47793862628331218 0 -0.1069585051086243 0.45769881758570979 0 -0.1187382711826898 0.44769297959660509 0 -0.12462596874134869 0.46198335048338313 0 -0.12566662042961069 0.47155411412865622 0 -0.12462596874134869 0.46198335048338313 0 -0.10740252052115649 0.47793862628331218 0 -0.12462596874134869 0.46198335048338313 0 -0.10740252052115649 0.47793862628331218 0 -0.1144234633050646 0.48380688462288912 0 -0.1236146211995896 0.47912800901244068 0 -0.10740252052115649 0.47793862628331218 0 -0.12566662042961069 0.47155411412865622 0 -0.1236146211995896 0.47912800901244068 0 -0.10740252052115649 0.47793862628331218 0 -0.13337397586540731 0.47610292192951209 0 -0.1144234633050646 0.48380688462288912 0 -0.1236146211995896 0.47912800901244068 0 -0.10740252052115649 0.47793862628331218 0 -0.13337397586540731 0.47610292192951209 0 -0.1144234633050646 0.48380688462288912 0 -0.1236146211995896 0.47912800901244068 0 -0.1144234633050646 0.48380688462288912 0 -0.1112561759740531 0.49135816397966459 0 -0.10740252052115649 0.47793862628331218 0 -0.1281949378872467 0.48948530954000868 0 -0.1144234633050646 0.48380688462288912 0 -0.11893904501758749 0.49098506860816232 0 -0.1281949378872467 0.48948530954000868 0 -0.11893904501758749 0.49098506860816232 0 -0.1167301567664801 0.5 0 -0.1167301567664801 0.5 0 -0.1112561759740531 0.49135816397966459 0 -0.1016832447459485 0.4935236726733358 0 -0.11893904501758749 0.49098506860816232 0 -0.1167301567664801 0.5 0 -0.1112561759740531 0.49135816397966459 0 -0.1144234633050646 0.48380688462288912 0 -0.11893904501758749 0.49098506860816232 0 -0.1112561759740531 0.49135816397966459 0 -0.086711573575887158 0.49710608687848828 0 -0.1016832447459485 0.4935236726733358 0 -0.10740252052115649 0.47793862628331218 0 -0.1112561759740531 0.49135816397966459 0 -0.1016832447459485 0.4935236726733358 0 -0.10740252052115649 0.47793862628331218 0 -0.086711573575887158 0.49710608687848828 0 -0.10740252052115649 0.47793862628331218 0 -0.086700059222865694 0.50000000000000178 0 -0.1167301567664801 0.5 0 -0.1016832447459485 0.4935236726733358 0 -0.086793853110970903 0.47642669432740881 0 -0.095466663782634423 0.46215516541373769 0 -0.10740252052115649 0.47793862628331218 0 -0.086793853110970903 0.47642669432740881 0 -0.10740252052115649 0.47793862628331218 0 -0.1680259147802238 0.086556505596405736 0 -0.15670043796576319 0.066702773394072087 0 -0.15082004394041221 0.084268334295350925 0 -0.1680259147802238 0.086556505596405736 0 -0.1567872092416453 0.097620115775005137 0 -0.15082004394041221 0.084268334295350925 0 -0.1680259147802238 0.086556505596405736 0 -0.1742499620024679 0.097467354542500828 0 -0.1680259147802238 0.086556505596405736 0 -0.1567872092416453 0.097620115775005137 0 -0.1680259147802238 0.086556505596405736 0 -0.15670043796576319 0.066702773394072087 0 -0.15670043796576319 0.066702773394072087 0 -0.1778159545837511 0.076918991414068355 0 -0.17183714652334839 0.056662327013967888 0 -0.1680259147802238 0.086556505596405736 0 -0.15670043796576319 0.066702773394072087 0 -0.1778159545837511 0.076918991414068355 0 -0.18002340939471251 0.084398019145391967 0 -0.1900167744143246 0.075404050054600602 0 -0.19105966258411039 0.063881616056904178 0 -0.18002340939471251 0.084398019145391967 0 -0.19105966258411039 0.063881616056904178 0 -0.1778159545837511 0.076918991414068355 0 -0.17183714652334839 0.056662327013967888 0 -0.19105966258411039 0.063881616056904178 0 -0.1778159545837511 0.076918991414068355 0 -0.18002340939471251 0.084398019145391967 0 -0.19105966258411039 0.063881616056904178 0 -0.1778159545837511 0.076918991414068355 0 -0.17183714652334839 0.056662327013967888 0 -0.1778159545837511 0.076918991414068355 0 -0.19105966258411039 0.063881616056904178 0 -0.1810657761328848 0.087929638321611672 0 -0.1900167744143246 0.075404050054600602 0 -0.1810657761328848 0.087929638321611672 0 -0.18860605515412371 0.088341042084296051 0 -0.1900167744143246 0.075404050054600602 0 -0.18002340939471251 0.084398019145391967 0 -0.1810657761328848 0.087929638321611672 0 -0.1900167744143246 0.075404050054600602 0 -0.1778159545837511 0.076918991414068355 0 -0.18002340939471251 0.084398019145391967 0 -0.1680259147802238 0.086556505596405736 0 -0.1778159545837511 0.076918991414068355 0 -0.1680259147802238 0.086556505596405736 0 -0.1778159545837511 0.076918991414068355 0 -0.18002340939471251 0.084398019145391967 0 -0.18002340939471251 0.084398019145391967 0 -0.1810657761328848 0.087929638321611672 0 -0.1742499620024679 0.097467354542500828 0 -0.1810657761328848 0.087929638321611672 0 -0.18290927477296409 0.094175554379938922 0 -0.1742499620024679 0.097467354542500828 0 -0.18002340939471251 0.084398019145391967 0 -0.1742499620024679 0.097467354542500828 0 -0.1810657761328848 0.087929638321611672 0 -0.1742499620024679 0.097467354542500828 0 -0.1680259147802238 0.086556505596405736 0 -0.18002340939471251 0.084398019145391967 0 -0.1742499620024679 0.097467354542500828 0 -0.1810657761328848 0.087929638321611672 0 -0.18290927477296409 0.094175554379938922 0 -0.18002340939471251 0.084398019145391967 0 -0.1810657761328848 0.087929638321611672 0 -0.1810657761328848 0.087929638321611672 0 -0.18290927477296409 0.094175554379938922 0 -0.18860605515412371 0.088341042084296051 0 -0.18290927477296409 0.094175554379938922 0 -0.18015301443853099 0.1078154947719995 0 -0.1931825365537708 0.097413996531258235 0 -0.18015301443853099 0.1078154947719995 0 -0.17334092139550389 0.1075623001517631 0 -0.1742499620024679 0.097467354542500828 0 -0.17334092139550389 0.1075623001517631 0 -0.1742499620024679 0.097467354542500828 0 -0.16916676080102441 0.1045805371536165 0 -0.18015301443853099 0.1078154947719995 0 -0.1742499620024679 0.097467354542500828 0 -0.18015301443853099 0.1078154947719995 0 -0.17334092139550389 0.1075623001517631 0 -0.18290927477296409 0.094175554379938922 0 -0.18015301443853099 0.1078154947719995 0 -0.1742499620024679 0.097467354542500828 0 -0.18015301443853099 0.1078154947719995 0 -0.1931272776556214 0.13055957448313821 0 -0.18015301443853099 0.1078154947719995 0 -0.17813185897200379 0.1177971608720678 0 -0.1931272776556214 0.13055957448313821 0 -0.17813185897200379 0.1177971608720678 0 -0.1931272776556214 0.13055957448313821 0 -0.1754542172429458 0.12629081773085479 0 -0.17334092139550389 0.1075623001517631 0 -0.17813185897200379 0.1177971608720678 0 -0.16858386412741749 0.1167576172225831 0 -0.18015301443853099 0.1078154947719995 0 -0.17334092139550389 0.1075623001517631 0 -0.17813185897200379 0.1177971608720678 0 -0.17813185897200379 0.1177971608720678 0 -0.16858386412741749 0.1167576172225831 0 -0.1754542172429458 0.12629081773085479 0 -0.15972999926012271 0.1221234840487774 0 -0.16006055000702821 0.1173233222030456 0 -0.16916676080102441 0.1045805371536165 0 -0.16858386412741749 0.1167576172225831 0 -0.15972999926012271 0.1221234840487774 0 -0.16916676080102441 0.1045805371536165 0 -0.15972999926012271 0.1221234840487774 0 -0.16916676080102441 0.1045805371536165 0 -0.16858386412741749 0.1167576172225831 0 -0.1667697280983457 0.12548339430533709 0 -0.1754542172429458 0.12629081773085479 0 -0.16858386412741749 0.1167576172225831 0 -0.15972999926012271 0.1221234840487774 0 -0.1667697280983457 0.12548339430533709 0 -0.16006055000702821 0.1173233222030456 0 -0.16916676080102441 0.1045805371536165 0 -0.17334092139550389 0.1075623001517631 0 -0.16858386412741749 0.1167576172225831 0 -0.16916676080102441 0.1045805371536165 0 -0.16006055000702821 0.1173233222030456 0 -0.16916676080102441 0.1045805371536165 0 -0.15694518841531441 0.1073520043626482 0 -0.15972999926012271 0.1221234840487774 0 -0.16006055000702821 0.1173233222030456 0 -0.15095433921303289 0.13006610725247519 0 -0.1680259147802238 0.086556505596405736 0 -0.1742499620024679 0.097467354542500828 0 -0.16490563373605679 0.098488510112634944 0 -0.1742499620024679 0.097467354542500828 0 -0.16490563373605679 0.098488510112634944 0 -0.16916676080102441 0.1045805371536165 0 -0.1742499620024679 0.097467354542500828 0 -0.16916676080102441 0.1045805371536165 0 -0.16490563373605679 0.098488510112634944 0 -0.16916676080102441 0.1045805371536165 0 -0.15694518841531441 0.1073520043626482 0 -0.16490563373605679 0.098488510112634944 0 -0.15694518841531441 0.1073520043626482 0 -0.1567872092416453 0.097620115775005137 0 -0.1680259147802238 0.086556505596405736 0 -0.16490563373605679 0.098488510112634944 0 -0.1567872092416453 0.097620115775005137 0 -0.1567872092416453 0.097620115775005137 0 -0.14554850370306499 0.10868372595360271 0 -0.1458676313392808 0.097443748468392544 0 -0.1567872092416453 0.097620115775005137 0 -0.14554850370306499 0.10868372595360271 0 -0.15694518841531441 0.1073520043626482 0 -0.1567872092416453 0.097620115775005137 0 -0.14554850370306499 0.10868372595360271 0 -0.1411113513924073 0.10709809877546669 0 -0.14554850370306499 0.10868372595360271 0 -0.1458676313392808 0.097443748468392544 0 -0.1411113513924073 0.10709809877546669 0 -0.1341720994283348 0.1236650503361988 0 -0.15095433921303289 0.13006610725247519 0 -0.1411113513924073 0.10709809877546669 0 -0.15125230875275339 0.1156108057526016 0 -0.15095433921303289 0.13006610725247519 0 -0.1411113513924073 0.10709809877546669 0 -0.15095433921303289 0.13006610725247519 0 -0.16006055000702821 0.1173233222030456 0 -0.15095433921303289 0.13006610725247519 0 -0.16006055000702821 0.1173233222030456 0 -0.15125230875275339 0.1156108057526016 0 -0.15095433921303289 0.13006610725247519 0 -0.15694518841531441 0.1073520043626482 0 -0.14554850370306499 0.10868372595360271 0 -0.15125230875275339 0.1156108057526016 0 -0.16006055000702821 0.1173233222030456 0 -0.15694518841531441 0.1073520043626482 0 -0.15125230875275339 0.1156108057526016 0 -0.1411113513924073 0.10709809877546669 0 -0.14554850370306499 0.10868372595360271 0 -0.15125230875275339 0.1156108057526016 0 -0.1411113513924073 0.10709809877546669 0 -0.1341720994283348 0.1236650503361988 0 -0.12604809599703989 0.1149092058150737 0 -0.1341720994283348 0.1236650503361988 0 -0.12604809599703989 0.1149092058150737 0 -0.117214529128708 0.1289626219323971 0 -0.1411113513924073 0.10709809877546669 0 -0.12604809599703989 0.1149092058150737 0 -0.12529981912541141 0.1035046169385182 0 -0.1411113513924073 0.10709809877546669 0 -0.1312683635717812 0.084130090298458304 0 -0.1411113513924073 0.10709809877546669 0 -0.12529981912541141 0.1035046169385182 0 -0.1312683635717812 0.084130090298458304 0 -0.1411113513924073 0.10709809877546669 0 -0.1458676313392808 0.097443748468392544 0 -0.1312683635717812 0.084130090298458304 0 -0.12529981912541141 0.1035046169385182 0 -0.1312683635717812 0.084130090298458304 0 -0.1233625974382829 0.082333349379984169 0 -0.1458676313392808 0.097443748468392544 0 -0.1312683635717812 0.084130090298458304 0 -0.15082004394041221 0.084268334295350925 0 -0.1312683635717812 0.084130090298458304 0 -0.15082004394041221 0.084268334295350925 0 -0.14443227677299661 0.074516139942067502 0 -0.1567872092416453 0.097620115775005137 0 -0.1458676313392808 0.097443748468392544 0 -0.15082004394041221 0.084268334295350925 0 -0.15670043796576319 0.066702773394072087 0 -0.15082004394041221 0.084268334295350925 0 -0.14443227677299661 0.074516139942067502 0 -0.15670043796576319 0.066702773394072087 0 -0.14443227677299661 0.074516139942067502 0 -0.13894026161402981 0.062963361780388721 0 -0.1312683635717812 0.084130090298458304 0 -0.1233625974382829 0.082333349379984169 0 -0.12142537575115479 0.061162081821450019 0 -0.1312683635717812 0.084130090298458304 0 -0.13894026161402981 0.062963361780388721 0 -0.12142537575115479 0.061162081821450019 0 -0.1312683635717812 0.084130090298458304 0 -0.14443227677299661 0.074516139942067502 0 -0.13894026161402981 0.062963361780388721 0 -0.1312683635717812 0.084130090298458304 0 -0.12142537575115479 0.061162081821450019 0 -0.13894026161402981 0.062963361780388721 0 -0.13681571299780429 0.053076724711065608 0 -0.1453749611513033 0.046849041191738057 0 -0.13894026161402981 0.062963361780388721 0 -0.13681571299780429 0.053076724711065608 0 -0.12142537575115479 0.061162081821450019 0 -0.13681571299780429 0.053076724711065608 0 -0.12991691172345729 0.047392951406861117 0 -0.1453749611513033 0.046849041191738057 0 -0.13681571299780429 0.053076724711065608 0 -0.12991691172345729 0.047392951406861117 0 -0.12142537575115479 0.061162081821450019 0 -0.12991691172345729 0.047392951406861117 0 -0.13831620275193621 0.035863063424948959 0 -0.1296065959992781 0.03034459411561858 0 -0.12991691172345729 0.047392951406861117 0 -0.13831620275193621 0.035863063424948959 0 -0.1478876250932018 0.041899307010363138 0 -0.12991691172345729 0.047392951406861117 0 -0.1296065959992781 0.03034459411561858 0 -0.1191007422344383 0.035756916018829417 0 -0.12991691172345729 0.047392951406861117 0 -0.1478876250932018 0.041899307010363138 0 -0.1478876250932018 0.041899307010363138 0 -0.15467331476358459 0.048347100824061247 0 -0.16585833846294681 0.036405662613867018 0 -0.12991691172345729 0.047392951406861117 0 -0.1478876250932018 0.041899307010363138 0 -0.1453749611513033 0.046849041191738057 0 -0.1478876250932018 0.041899307010363138 0 -0.1526821740007436 0.034819341382596271 0 -0.16585833846294681 0.036405662613867018 0 -0.13831620275193621 0.035863063424948959 0 -0.1455155119756123 0.033427643136331453 0 -0.13935203462008169 0.026294454882027932 0 -0.13831620275193621 0.035863063424948959 0 -0.1478876250932018 0.041899307010363138 0 -0.1455155119756123 0.033427643136331453 0 -0.1478876250932018 0.041899307010363138 0 -0.1455155119756123 0.033427643136331453 0 -0.1526821740007436 0.034819341382596271 0 -0.1455155119756123 0.033427643136331453 0 -0.1526821740007436 0.034819341382596271 0 -0.15146722047121361 0.027544752769823488 0 -0.1478876250932018 0.041899307010363138 0 -0.1453749611513033 0.046849041191738057 0 -0.15467331476358459 0.048347100824061247 0 -0.15670043796576319 0.066702773394072087 0 -0.1453749611513033 0.046849041191738057 0 -0.15467331476358459 0.048347100824061247 0 -0.15670043796576319 0.066702773394072087 0 -0.13894026161402981 0.062963361780388721 0 -0.1453749611513033 0.046849041191738057 0 -0.15670043796576319 0.066702773394072087 0 -0.1453749611513033 0.046849041191738057 0 -0.1264402431020083 -0.0027353081613576201 0 -0.12854490351264561 0.0084471490874170573 0 -0.143125388196845 0.0065899612506038329 0 -0.1264402431020083 -0.0027353081613576201 0 -0.143125388196845 0.0065899612506038329 0 -0.14371312455597091 -0.0034042846132674451 0 -0.1264402431020083 -0.0027353081613576201 0 -0.143125388196845 0.0065899612506038329 0 -0.12854490351264561 0.0084471490874170573 0 -0.13461502443443879 0.018035527423807009 0 -0.12541856848650651 0.020378175403592779 0 -0.12854490351264561 0.0084471490874170573 0 -0.13461502443443879 0.018035527423807009 0 -0.143125388196845 0.0065899612506038329 0 -0.13461502443443879 0.018035527423807009 0 -0.13935203462008169 0.026294454882027932 0 -0.14536393370965381 0.018666973428982402 0 -0.13461502443443879 0.018035527423807009 0 -0.12541856848650651 0.020378175403592779 0 -0.1296065959992781 0.03034459411561858 0 -0.13461502443443879 0.018035527423807009 0 -0.1296065959992781 0.03034459411561858 0 -0.13935203462008169 0.026294454882027932 0 -0.13831620275193621 0.035863063424948959 0 -0.1296065959992781 0.03034459411561858 0 -0.13935203462008169 0.026294454882027932 0 -0.1455155119756123 0.033427643136331453 0 -0.13935203462008169 0.026294454882027932 0 -0.15146722047121361 0.027544752769823488 0 -0.13935203462008169 0.026294454882027932 0 -0.15146722047121361 0.027544752769823488 0 -0.14536393370965381 0.018666973428982402 0 -0.15146722047121361 0.027544752769823488 0 -0.14536393370965381 0.018666973428982402 0 -0.15981053329168121 0.01591523066256631 0 -0.14536393370965381 0.018666973428982402 0 -0.143125388196845 0.0065899612506038329 0 -0.15981053329168121 0.01591523066256631 0 -0.15353313091227541 -0.0053530943981074464 0 -0.143125388196845 0.0065899612506038329 0 -0.15981053329168121 0.01591523066256631 0 -0.143125388196845 0.0065899612506038329 0 -0.15981053329168121 0.01591523066256631 0 -0.13461502443443879 0.018035527423807009 0 -0.14536393370965381 0.018666973428982402 0 -0.143125388196845 0.0065899612506038329 0 -0.15353313091227541 -0.0053530943981074464 0 -0.16668608277808011 0.008053470361192255 0 -0.15981053329168121 0.01591523066256631 0 -0.15353313091227541 -0.0053530943981074464 0 -0.15981053329168121 0.01591523066256631 0 -0.16668608277808011 0.008053470361192255 0 -0.16367757942373279 0.01807650926127587 0 -0.15981053329168121 0.01591523066256631 0 -0.16668608277808011 0.008053470361192255 0 -0.16367757942373279 0.01807650926127587 0 -0.17351143500303329 0.014511930583425699 0 -0.16367757942373279 0.01807650926127587 0 -0.15981053329168121 0.01591523066256631 0 -0.16585833846294681 0.036405662613867018 0 -0.15146722047121361 0.027544752769823488 0 -0.15981053329168121 0.01591523066256631 0 -0.16585833846294681 0.036405662613867018 0 -0.15981053329168121 0.01591523066256631 0 -0.16585833846294681 0.036405662613867018 0 -0.17029710119518709 0.02326237197728815 0 -0.16367757942373279 0.01807650926127587 0 -0.16585833846294681 0.036405662613867018 0 -0.17029710119518709 0.02326237197728815 0 -0.16367757942373279 0.01807650926127587 0 -0.17351143500303329 0.014511930583425699 0 -0.16367757942373279 0.01807650926127587 0 -0.15981053329168121 0.01591523066256631 0 -0.17029710119518709 0.02326237197728815 0 -0.19010182814455051 0.016170369659910071 0 -0.19448017904659951 0.027655970216866801 0 -0.17029710119518709 0.02326237197728815 0 -0.19010182814455051 0.016170369659910071 0 -0.17029710119518709 0.02326237197728815 0 -0.16585833846294681 0.036405662613867018 0 -0.19448017904659951 0.027655970216866801 0 -0.17029710119518709 0.02326237197728815 0 -0.17351143500303329 0.014511930583425699 0 -0.19010182814455051 0.016170369659910071 0 -0.1793684672440444 -0.011986143761426531 0 -0.19010182814455051 0.016170369659910071 0 -0.1793684672440444 -0.011986143761426531 0 -0.16668608277808011 0.008053470361192255 0 -0.1767945834736161 0.0069969316574621139 0 -0.1793684672440444 -0.011986143761426531 0 -0.1767945834736161 0.0069969316574621139 0 -0.19010182814455051 0.016170369659910071 0 -0.17351143500303329 0.014511930583425699 0 -0.1767945834736161 0.0069969316574621139 0 -0.19010182814455051 0.016170369659910071 0 -0.16668608277808011 0.008053470361192255 0 -0.17351143500303329 0.014511930583425699 0 -0.1767945834736161 0.0069969316574621139 0 -0.17183714652334839 0.056662327013967888 0 -0.16174263184177709 0.051790494178022478 0 -0.16585833846294681 0.036405662613867018 0 -0.15670043796576319 0.066702773394072087 0 -0.15467331476358459 0.048347100824061247 0 -0.16174263184177709 0.051790494178022478 0 -0.15670043796576319 0.066702773394072087 0 -0.17183714652334839 0.056662327013967888 0 -0.16174263184177709 0.051790494178022478 0 -0.15467331476358459 0.048347100824061247 0 -0.16174263184177709 0.051790494178022478 0 -0.16585833846294681 0.036405662613867018 0 -0.1478876250932018 0.041899307010363138 0 -0.16585833846294681 0.036405662613867018 0 -0.17183714652334839 0.056662327013967888 0 -0.16585833846294681 0.036405662613867018 0 -0.1526821740007436 0.034819341382596271 0 -0.15146722047121361 0.027544752769823488 0 -0.16585833846294681 0.036405662613867018 0 -0.16585833846294681 0.036405662613867018 0 -0.18487576926677479 0.0459482587730018 0 -0.19448017904659951 0.027655970216866801 0 -0.16585833846294681 0.036405662613867018 0 -0.19448017904659951 0.027655970216866801 0 -0.17183714652334839 0.056662327013967888 0 -0.16585833846294681 0.036405662613867018 0 -0.18487576926677479 0.0459482587730018 0 -0.17183714652334839 0.056662327013967888 0 -0.18487576926677479 0.0459482587730018 0 -0.19105966258411039 0.063881616056904178 0 -0.20114351971686981 0.045135717963403169 0 -0.20358805933518229 0.051548407633495053 0 -0.19105966258411039 0.063881616056904178 0 -0.18487576926677479 0.0459482587730018 0 -0.20114351971686981 0.045135717963403169 0 -0.19105966258411039 0.063881616056904178 0 -0.20358805933518229 0.051548407633495053 0 -0.210949630667597 0.070859803564798013 0 -0.19105966258411039 0.063881616056904178 0 -0.20114351971686981 0.045135717963403169 0 -0.19105966258411039 0.063881616056904178 0 -0.20358805933518229 0.051548407633495053 0 -0.19105966258411039 0.063881616056904178 0 -0.20114351971686981 0.045135717963403169 0 -0.20358805933518229 0.051548407633495053 0 -0.20114351971686981 0.045135717963403169 0 -0.19448017904659951 0.027655970216866801 0 -0.18487576926677479 0.0459482587730018 0 -0.20114351971686981 0.045135717963403169 0 -0.19448017904659951 0.027655970216866801 0 -0.20114351971686981 0.045135717963403169 0 -0.21841418253963851 0.03695327058404535 0 -0.2137744563019304 0.021654797227254559 0 -0.20114351971686981 0.045135717963403169 0 -0.21841418253963851 0.03695327058404535 0 -0.20358805933518229 0.051548407633495053 0 -0.20114351971686981 0.045135717963403169 0 -0.2137744563019304 0.021654797227254559 0 -0.20114351971686981 0.045135717963403169 0 -0.19448017904659951 0.027655970216866801 0 -0.2137744563019304 0.021654797227254559 0 -0.21841418253963851 0.03695327058404535 0 -0.20358805933518229 0.051548407633495053 0 -0.21841418253963851 0.03695327058404535 0 -0.20358805933518229 0.051548407633495053 0 -0.22530921063711551 0.056709708843000958 0 -0.20358805933518229 0.051548407633495053 0 -0.210949630667597 0.070859803564798013 0 -0.20358805933518229 0.051548407633495053 0 -0.22530921063711551 0.056709708843000958 0 -0.210949630667597 0.070859803564798013 0 -0.2024626452739689 -0.01365479595182866 0 -0.19010182814455051 0.016170369659910071 0 -0.21236153232170429 0.008199248724380246 0 -0.2026866920411986 0.018443626359007589 0 -0.19010182814455051 0.016170369659910071 0 -0.21236153232170429 0.008199248724380246 0 -0.19010182814455051 0.016170369659910071 0 -0.21236153232170429 0.008199248724380246 0 -0.2026866920411986 0.018443626359007589 0 -0.19010182814455051 0.016170369659910071 0 -0.19448017904659951 0.027655970216866801 0 -0.19010182814455051 0.016170369659910071 0 -0.19448017904659951 0.027655970216866801 0 -0.2026866920411986 0.018443626359007589 0 -0.19448017904659951 0.027655970216866801 0 -0.2137744563019304 0.021654797227254559 0 -0.19448017904659951 0.027655970216866801 0 -0.2137744563019304 0.021654797227254559 0 -0.2026866920411986 0.018443626359007589 0 -0.2137744563019304 0.021654797227254559 0 -0.21236153232170429 0.008199248724380246 0 -0.2137744563019304 0.021654797227254559 0 -0.21236153232170429 0.008199248724380246 0 -0.22490918350973099 0.01075887812479567 0 -0.21236153232170429 0.008199248724380246 0 -0.22490918350973099 0.01075887812479567 0 -0.23462123649885819 0.0002281277888503347 0 -0.2137744563019304 0.021654797227254559 0 -0.22490918350973099 0.01075887812479567 0 -0.23791317315995669 0.014378510395174619 0 -0.21236153232170429 0.008199248724380246 0 -0.23462123649885819 0.0002281277888503347 0 -0.22490918350973099 0.01075887812479567 0 -0.23791317315995669 0.014378510395174619 0 -0.23462123649885819 0.0002281277888503347 0 -0.2137744563019304 0.021654797227254559 0 -0.23791317315995669 0.014378510395174619 0 -0.2137744563019304 0.021654797227254559 0 -0.23245813590459799 0.02937523653046795 0 -0.23791317315995669 0.014378510395174619 0 -0.21841418253963851 0.03695327058404535 0 -0.2137744563019304 0.021654797227254559 0 -0.23245813590459799 0.02937523653046795 0 -0.26335129755996572 0.0297425305460302 0 -0.23791317315995669 0.014378510395174619 0 -0.24453486225658161 0.039806531121919272 0 -0.23245813590459799 0.02937523653046795 0 -0.23791317315995669 0.014378510395174619 0 -0.24453486225658161 0.039806531121919272 0 -0.26202311766797348 0.0070081039554759708 0 -0.23791317315995669 0.014378510395174619 0 -0.2486162619521525 0.0036775814081990411 0 -0.26202311766797348 0.0070081039554759708 0 -0.23791317315995669 0.014378510395174619 0 -0.23791317315995669 0.014378510395174619 0 -0.2486162619521525 0.0036775814081990411 0 -0.23462123649885819 0.0002281277888503347 0 -0.21841418253963851 0.03695327058404535 0 -0.23245813590459799 0.02937523653046795 0 -0.24453486225658161 0.039806531121919272 0 -0.21841418253963851 0.03695327058404535 0 -0.22530921063711551 0.056709708843000958 0 -0.24453486225658161 0.039806531121919272 0 -0.22530921063711551 0.056709708843000958 0 -0.24453486225658161 0.039806531121919272 0 -0.2453203447876251 0.066070841921282292 0 -0.2453203447876251 0.066070841921282292 0 -0.23928548338024519 0.090408763442209064 0 -0.22783517429451869 0.074844063453478299 0 -0.26100533942655407 0.088737237352087037 0 -0.2453203447876251 0.066070841921282292 0 -0.23928548338024519 0.090408763442209064 0 -0.22783517429451869 0.074844063453478299 0 -0.210949630667597 0.070859803564798013 0 -0.218311202000011 0.090171199496101154 0 -0.23928548338024519 0.090408763442209064 0 -0.22783517429451869 0.074844063453478299 0 -0.218311202000011 0.090171199496101154 0 -0.22530921063711551 0.056709708843000958 0 -0.2453203447876251 0.066070841921282292 0 -0.22783517429451869 0.074844063453478299 0 -0.22530921063711551 0.056709708843000958 0 -0.22783517429451869 0.074844063453478299 0 -0.210949630667597 0.070859803564798013 0 -0.210949630667597 0.070859803564798013 0 -0.218311202000011 0.090171199496101154 0 -0.204402302050183 0.089054045417742006 0 -0.210949630667597 0.070859803564798013 0 -0.218311202000011 0.090171199496101154 0 -0.210949630667597 0.070859803564798013 0 -0.204402302050183 0.089054045417742006 0 -0.20017132597759291 0.077920102232738112 0 -0.204402302050183 0.089054045417742006 0 -0.1958559138966737 0.08678197113407092 0 -0.20017132597759291 0.077920102232738112 0 -0.1958559138966737 0.08678197113407092 0 -0.1900167744143246 0.075404050054600602 0 -0.20017132597759291 0.077920102232738112 0 -0.204402302050183 0.089054045417742006 0 -0.1958559138966737 0.08678197113407092 0 -0.1931825365537708 0.097413996531258235 0 -0.18290927477296409 0.094175554379938922 0 -0.18860605515412371 0.088341042084296051 0 -0.1931825365537708 0.097413996531258235 0 -0.1958559138966737 0.08678197113407092 0 -0.18860605515412371 0.088341042084296051 0 -0.1931825365537708 0.097413996531258235 0 -0.1958559138966737 0.08678197113407092 0 -0.18860605515412371 0.088341042084296051 0 -0.1900167744143246 0.075404050054600602 0 -0.210949630667597 0.070859803564798013 0 -0.19105966258411039 0.063881616056904178 0 -0.20017132597759291 0.077920102232738112 0 -0.1900167744143246 0.075404050054600602 0 -0.19105966258411039 0.063881616056904178 0 -0.20017132597759291 0.077920102232738112 0 -0.18015301443853099 0.1078154947719995 0 -0.20428734434526929 0.1087125292747206 0 -0.1931272776556214 0.13055957448313821 0 -0.204402302050183 0.089054045417742006 0 -0.1931825365537708 0.097413996531258235 0 -0.20428734434526929 0.1087125292747206 0 -0.18015301443853099 0.1078154947719995 0 -0.1931825365537708 0.097413996531258235 0 -0.20428734434526929 0.1087125292747206 0 -0.18015301443853099 0.1078154947719995 0 -0.20428734434526929 0.1087125292747206 0 -0.218311202000011 0.090171199496101154 0 -0.20428734434526929 0.1087125292747206 0 -0.2284216742520076 0.10960956377744339 0 -0.20428734434526929 0.1087125292747206 0 -0.2284216742520076 0.10960956377744339 0 -0.218311202000011 0.090171199496101154 0 -0.204402302050183 0.089054045417742006 0 -0.20428734434526929 0.1087125292747206 0 -0.20428734434526929 0.1087125292747206 0 -0.2161810526630307 0.12404146655248451 0 -0.1931272776556214 0.13055957448313821 0 -0.20428734434526929 0.1087125292747206 0 -0.2161810526630307 0.12404146655248451 0 -0.2284216742520076 0.10960956377744339 0 -0.2161810526630307 0.12404146655248451 0 -0.2284216742520076 0.10960956377744339 0 -0.23828138865505699 0.1275459490147807 0 -0.23928548338024519 0.090408763442209064 0 -0.218311202000011 0.090171199496101154 0 -0.2284216742520076 0.10960956377744339 0 -0.25255600415874591 0.11050659828016619 0 -0.23928548338024519 0.090408763442209064 0 -0.2284216742520076 0.10960956377744339 0 -0.25255600415874591 0.11050659828016619 0 -0.2284216742520076 0.10960956377744339 0 -0.25255600415874591 0.11050659828016619 0 -0.2284216742520076 0.10960956377744339 0 -0.23828138865505699 0.1275459490147807 0 -0.25955882074951758 0.1378087094577885 0 -0.23828138865505699 0.1275459490147807 0 -0.24341254924341379 0.14304060987227959 0 -0.23828138865505699 0.1275459490147807 0 -0.22602688222525791 0.14292663827428179 0 -0.24341254924341379 0.14304060987227959 0 -0.2161810526630307 0.12404146655248451 0 -0.23828138865505699 0.1275459490147807 0 -0.22602688222525791 0.14292663827428179 0 -0.22602688222525791 0.14292663827428179 0 -0.23717963528584959 0.15418407346392471 0 -0.2235411397409594 0.15984820094791749 0 -0.22602688222525791 0.14292663827428179 0 -0.2235411397409594 0.15984820094791749 0 -0.2135077426898587 0.15198822503336459 0 -0.22602688222525791 0.14292663827428179 0 -0.23717963528584959 0.15418407346392471 0 -0.24341254924341379 0.14304060987227959 0 -0.2531894630615053 0.1541487088224906 0 -0.23717963528584959 0.15418407346392471 0 -0.24341254924341379 0.14304060987227959 0 -0.2531894630615053 0.1541487088224906 0 -0.23717963528584959 0.15418407346392471 0 -0.24621570974082679 0.16593578283094709 0 -0.24621570974082679 0.16593578283094709 0 -0.23988631036527031 0.17952934414807051 0 -0.2331101935627457 0.16793707386793111 0 -0.23717963528584959 0.15418407346392471 0 -0.24621570974082679 0.16593578283094709 0 -0.2331101935627457 0.16793707386793111 0 -0.25356511165812928 0.1797694995012781 0 -0.23988631036527031 0.17952934414807051 0 -0.24646365782212221 0.19160384685664031 0 -0.25356511165812928 0.1797694995012781 0 -0.24621570974082679 0.16593578283094709 0 -0.23988631036527031 0.17952934414807051 0 -0.23988631036527031 0.17952934414807051 0 -0.23827001397181991 0.19229689599768501 0 -0.23046737510215459 0.188596246128065 0 -0.23988631036527031 0.17952934414807051 0 -0.22264030954899289 0.1766033985878937 0 -0.23046737510215459 0.188596246128065 0 -0.23988631036527031 0.17952934414807051 0 -0.22264030954899289 0.1766033985878937 0 -0.2331101935627457 0.16793707386793111 0 -0.22264030954899289 0.1766033985878937 0 -0.23046737510215459 0.188596246128065 0 -0.21784493225596921 0.19419603158444129 0 -0.22264030954899289 0.1766033985878937 0 -0.2331101935627457 0.16793707386793111 0 -0.2235411397409594 0.15984820094791749 0 -0.23717963528584959 0.15418407346392471 0 -0.2331101935627457 0.16793707386793111 0 -0.2235411397409594 0.15984820094791749 0 -0.2235411397409594 0.15984820094791749 0 -0.20738786392337491 0.16502525274928809 0 -0.2135077426898587 0.15198822503336459 0 -0.22264030954899289 0.1766033985878937 0 -0.2235411397409594 0.15984820094791749 0 -0.20738786392337491 0.16502525274928809 0 -0.22264030954899289 0.1766033985878937 0 -0.20738786392337491 0.16502525274928809 0 -0.20695539790686979 0.18299252975245789 0 -0.22264030954899289 0.1766033985878937 0 -0.20695539790686979 0.18299252975245789 0 -0.21784493225596921 0.19419603158444129 0 -0.20738786392337491 0.16502525274928809 0 -0.20695539790686979 0.18299252975245789 0 -0.19284497752053739 0.17722942773805461 0 -0.20695539790686979 0.18299252975245789 0 -0.19284497752053739 0.17722942773805461 0 -0.19456176880668921 0.18961092776611571 0 -0.19284497752053739 0.17722942773805461 0 -0.19456176880668921 0.18961092776611571 0 -0.1816204192997693 0.18834498180377801 0 -0.20738786392337491 0.16502525274928809 0 -0.19284497752053739 0.17722942773805461 0 -0.1882255105680502 0.1610815672967654 0 -0.20738786392337491 0.16502525274928809 0 -0.1882255105680502 0.1610815672967654 0 -0.2005362940815934 0.15004297306660269 0 -0.2005362940815934 0.15004297306660269 0 -0.1931272776556214 0.13055957448313821 0 -0.1874655280245851 0.14622115532978819 0 -0.1882255105680502 0.1610815672967654 0 -0.2005362940815934 0.15004297306660269 0 -0.1874655280245851 0.14622115532978819 0 -0.2005362940815934 0.15004297306660269 0 -0.1931272776556214 0.13055957448313821 0 -0.2100846672986364 0.13983794303522151 0 -0.2161810526630307 0.12404146655248451 0 -0.1931272776556214 0.13055957448313821 0 -0.2100846672986364 0.13983794303522151 0 -0.2161810526630307 0.12404146655248451 0 -0.22602688222525791 0.14292663827428179 0 -0.2100846672986364 0.13983794303522151 0 -0.22602688222525791 0.14292663827428179 0 -0.2100846672986364 0.13983794303522151 0 -0.2135077426898587 0.15198822503336459 0 -0.20738786392337491 0.16502525274928809 0 -0.2005362940815934 0.15004297306660269 0 -0.2135077426898587 0.15198822503336459 0 -0.2005362940815934 0.15004297306660269 0 -0.2100846672986364 0.13983794303522151 0 -0.2135077426898587 0.15198822503336459 0 -0.21937070165466629 0.24157050667502011 0 -0.23247685752098829 0.24026727271763851 0 -0.23308277765847391 0.22530116194286129 0 -0.23183983380136211 0.25056461824329479 0 -0.22133253847368489 0.25713703150517231 0 -0.21937070165466629 0.24157050667502011 0 -0.23183983380136211 0.25056461824329479 0 -0.21937070165466629 0.24157050667502011 0 -0.23247685752098829 0.24026727271763851 0 -0.23183983380136211 0.25056461824329479 0 -0.23247685752098829 0.24026727271763851 0 -0.2399068311195944 0.24623338234132119 0 -0.2399068311195944 0.24623338234132119 0 -0.2491247137749866 0.24705707552965961 0 -0.24635563063374369 0.2397952331105222 0 -0.23973711986689161 0.25348271210549078 0 -0.2399068311195944 0.24623338234132119 0 -0.2491247137749866 0.24705707552965961 0 -0.23247685752098829 0.24026727271763851 0 -0.24635563063374369 0.2397952331105222 0 -0.24468675013050051 0.227237945379763 0 -0.23247685752098829 0.24026727271763851 0 -0.2399068311195944 0.24623338234132119 0 -0.24635563063374369 0.2397952331105222 0 -0.24468675013050051 0.227237945379763 0 -0.23308277765847391 0.22530116194286129 0 -0.2467948536622826 0.20903181721070349 0 -0.23247685752098829 0.24026727271763851 0 -0.24468675013050051 0.227237945379763 0 -0.23308277765847391 0.22530116194286129 0 -0.23247685752098829 0.24026727271763851 0 -0.24468675013050051 0.227237945379763 0 -0.25169198418991667 0.2332592681522434 0 -0.24635563063374369 0.2397952331105222 0 -0.24468675013050051 0.227237945379763 0 -0.23308277765847391 0.22530116194286129 0 -0.22399601530758129 0.2116030168339558 0 -0.21726476605203329 0.2245721306028659 0 -0.21937070165466629 0.24157050667502011 0 -0.23308277765847391 0.22530116194286129 0 -0.21937070165466629 0.24157050667502011 0 -0.23308277765847391 0.22530116194286129 0 -0.21726476605203329 0.2245721306028659 0 -0.22399601530758129 0.2116030168339558 0 -0.23404838489686591 0.21188748009627331 0 -0.23231989295912581 0.20161392439757261 0 -0.23308277765847391 0.22530116194286129 0 -0.22399601530758129 0.2116030168339558 0 -0.23404838489686591 0.21188748009627331 0 -0.23308277765847391 0.22530116194286129 0 -0.23404838489686591 0.21188748009627331 0 -0.2467948536622826 0.20903181721070349 0 -0.25689664274001373 0.21420861804188829 0 -0.24468675013050051 0.227237945379763 0 -0.2467948536622826 0.20903181721070349 0 -0.23308277765847391 0.22530116194286129 0 -0.2467948536622826 0.20903181721070349 0 -0.23404838489686591 0.21188748009627331 0 -0.2467948536622826 0.20903181721070349 0 -0.23231989295912581 0.20161392439757261 0 -0.2467948536622826 0.20903181721070349 0 -0.2422128336104265 0.20014111845807639 0 -0.23231989295912581 0.20161392439757261 0 -0.2467948536622826 0.20903181721070349 0 -0.23231989295912581 0.20161392439757261 0 -0.2422128336104265 0.20014111845807639 0 -0.23827001397181991 0.19229689599768501 0 -0.23231989295912581 0.20161392439757261 0 -0.25426478411770992 0.19034730362512831 0 -0.2467948536622826 0.20903181721070349 0 -0.24646365782212221 0.19160384685664031 0 -0.2467948536622826 0.20903181721070349 0 -0.2422128336104265 0.20014111845807639 0 -0.24646365782212221 0.19160384685664031 0 -0.2422128336104265 0.20014111845807639 0 -0.24646365782212221 0.19160384685664031 0 -0.23827001397181991 0.19229689599768501 0 -0.23988631036527031 0.17952934414807051 0 -0.24646365782212221 0.19160384685664031 0 -0.23827001397181991 0.19229689599768501 0 -0.23827001397181991 0.19229689599768501 0 -0.23046737510215459 0.188596246128065 0 -0.23231989295912581 0.20161392439757261 0 -0.23046737510215459 0.188596246128065 0 -0.23231989295912581 0.20161392439757261 0 -0.21784493225596921 0.19419603158444129 0 -0.22399601530758129 0.2116030168339558 0 -0.23231989295912581 0.20161392439757261 0 -0.21784493225596921 0.19419603158444129 0 -0.23231989295912581 0.20161392439757261 0 -0.21784493225596921 0.19419603158444129 0 -0.21784493225596921 0.19419603158444129 0 -0.20400860033754409 0.19704151708930839 0 -0.2074639194503457 0.2116698911150294 0 -0.20695539790686979 0.18299252975245789 0 -0.21784493225596921 0.19419603158444129 0 -0.20400860033754409 0.19704151708930839 0 -0.20695539790686979 0.18299252975245789 0 -0.20400860033754409 0.19704151708930839 0 -0.19456176880668921 0.18961092776611571 0 -0.19456176880668921 0.18961092776611571 0 -0.18965235789376211 0.20311037992538691 0 -0.1816204192997693 0.18834498180377801 0 -0.20400860033754409 0.19704151708930839 0 -0.19456176880668921 0.18961092776611571 0 -0.18965235789376211 0.20311037992538691 0 -0.2074639194503457 0.2116698911150294 0 -0.19104911287258369 0.22108492137151409 0 -0.20400860033754409 0.19704151708930839 0 -0.18965235789376211 0.20311037992538691 0 -0.2074639194503457 0.2116698911150294 0 -0.18965235789376211 0.20311037992538691 0 -0.2074639194503457 0.2116698911150294 0 -0.19104911287258369 0.22108492137151409 0 -0.22399601530758129 0.2116030168339558 0 -0.21784493225596921 0.19419603158444129 0 -0.2074639194503457 0.2116698911150294 0 -0.22399601530758129 0.2116030168339558 0 -0.2074639194503457 0.2116698911150294 0 -0.21726476605203329 0.2245721306028659 0 -0.2074639194503457 0.2116698911150294 0 -0.21726476605203329 0.2245721306028659 0 -0.2039600717657423 0.23007486791710721 0 -0.21937070165466629 0.24157050667502011 0 -0.21726476605203329 0.2245721306028659 0 -0.2039600717657423 0.23007486791710721 0 -0.2039600717657423 0.23007486791710721 0 -0.19104911287258369 0.22108492137151409 0 -0.1901464659728403 0.2441699015175888 0 -0.2074639194503457 0.2116698911150294 0 -0.2039600717657423 0.23007486791710721 0 -0.19104911287258369 0.22108492137151409 0 -0.2039600717657423 0.23007486791710721 0 -0.1901464659728403 0.2441699015175888 0 -0.20478723998615009 0.2431923770583149 0 -0.20565862565085891 0.25783985140717908 0 -0.1901464659728403 0.2441699015175888 0 -0.20478723998615009 0.2431923770583149 0 -0.20565862565085891 0.25783985140717908 0 -0.21937070165466629 0.24157050667502011 0 -0.20565862565085891 0.25783985140717908 0 -0.21937070165466629 0.24157050667502011 0 -0.20478723998615009 0.2431923770583149 0 -0.21937070165466629 0.24157050667502011 0 -0.2039600717657423 0.23007486791710721 0 -0.20478723998615009 0.2431923770583149 0 -0.1746343062948216 0.2304999516279985 0 -0.15369162007931389 0.24251203495270859 0 -0.172875933239933 0.24772063928143781 0 -0.1746343062948216 0.2304999516279985 0 -0.15369162007931389 0.24251203495270859 0 -0.1901464659728403 0.2441699015175888 0 -0.172875933239933 0.24772063928143781 0 -0.1746343062948216 0.2304999516279985 0 -0.1901464659728403 0.2441699015175888 0 -0.1746343062948216 0.2304999516279985 0 -0.19104911287258369 0.22108492137151409 0 -0.1746343062948216 0.2304999516279985 0 -0.17505217826193339 0.21341402124886871 0 -0.19104911287258369 0.22108492137151409 0 -0.1746343062948216 0.2304999516279985 0 -0.19104911287258369 0.22108492137151409 0 -0.1901464659728403 0.2441699015175888 0 -0.1746343062948216 0.2304999516279985 0 -0.1746343062948216 0.2304999516279985 0 -0.1632253773440826 0.22044593656576961 0 -0.15369162007931389 0.24251203495270859 0 -0.1746343062948216 0.2304999516279985 0 -0.1632253773440826 0.22044593656576961 0 -0.1746343062948216 0.2304999516279985 0 -0.1632253773440826 0.22044593656576961 0 -0.17505217826193339 0.21341402124886871 0 -0.1632253773440826 0.22044593656576961 0 -0.15181644839334349 0.21039192150354061 0 -0.1632253773440826 0.22044593656576961 0 -0.16377086324697501 0.20798839730505109 0 -0.15181644839334349 0.21039192150354061 0 -0.16377086324697501 0.20798839730505109 0 -0.15673211869508799 0.1968976207755376 0 -0.15181644839334349 0.21039192150354061 0 -0.16377086324697501 0.20798839730505109 0 -0.17505217826193339 0.21341402124886871 0 -0.172028193540427 0.19879248643153899 0 -0.1632253773440826 0.22044593656576961 0 -0.16377086324697501 0.20798839730505109 0 -0.17505217826193339 0.21341402124886871 0 -0.18965235789376211 0.20311037992538691 0 -0.19104911287258369 0.22108492137151409 0 -0.17505217826193339 0.21341402124886871 0 -0.18965235789376211 0.20311037992538691 0 -0.17505217826193339 0.21341402124886871 0 -0.172028193540427 0.19879248643153899 0 -0.18965235789376211 0.20311037992538691 0 -0.172028193540427 0.19879248643153899 0 -0.1816204192997693 0.18834498180377801 0 -0.172028193540427 0.19879248643153899 0 -0.1816204192997693 0.18834498180377801 0 -0.16676408809815871 0.18575289380054261 0 -0.172028193540427 0.19879248643153899 0 -0.15673211869508799 0.1968976207755376 0 -0.16676408809815871 0.18575289380054261 0 -0.15673211869508799 0.1968976207755376 0 -0.16676408809815871 0.18575289380054261 0 -0.1476459918922203 0.18178154513882661 0 -0.16377086324697501 0.20798839730505109 0 -0.172028193540427 0.19879248643153899 0 -0.15673211869508799 0.1968976207755376 0 -0.15673211869508799 0.1968976207755376 0 -0.13798261527508779 0.19662960113129721 0 -0.1476459918922203 0.18178154513882661 0 -0.15673211869508799 0.1968976207755376 0 -0.13798261527508779 0.19662960113129721 0 -0.15181644839334349 0.21039192150354061 0 -0.13798261527508779 0.19662960113129721 0 -0.118821692388783 0.1750309582551087 0 -0.1186401939364211 0.19533375250348781 0 -0.13798261527508779 0.19662960113129721 0 -0.12457330052985641 0.2102087002086454 0 -0.1186401939364211 0.19533375250348781 0 -0.139013217893772 0.21138135357807761 0 -0.138080486638856 0.2273086196914576 0 -0.12457330052985641 0.2102087002086454 0 -0.13798261527508779 0.19662960113129721 0 -0.139013217893772 0.21138135357807761 0 -0.12457330052985641 0.2102087002086454 0 -0.139013217893772 0.21138135357807761 0 -0.15181644839334349 0.21039192150354061 0 -0.14974271804283709 0.22275743190258401 0 -0.13798261527508779 0.19662960113129721 0 -0.139013217893772 0.21138135357807761 0 -0.15181644839334349 0.21039192150354061 0 -0.1632253773440826 0.22044593656576961 0 -0.15181644839334349 0.21039192150354061 0 -0.14974271804283709 0.22275743190258401 0 -0.139013217893772 0.21138135357807761 0 -0.14974271804283709 0.22275743190258401 0 -0.138080486638856 0.2273086196914576 0 -0.14974271804283709 0.22275743190258401 0 -0.138080486638856 0.2273086196914576 0 -0.15369162007931389 0.24251203495270859 0 -0.1632253773440826 0.22044593656576961 0 -0.14974271804283709 0.22275743190258401 0 -0.15369162007931389 0.24251203495270859 0 -0.138080486638856 0.2273086196914576 0 -0.11375018660093419 0.22152839349305209 0 -0.12457330052985641 0.2102087002086454 0 -0.1327489338638061 0.25452411827741839 0 -0.13180515789113981 0.240209252822598 0 -0.15369162007931389 0.24251203495270859 0 -0.138080486638856 0.2273086196914576 0 -0.13180515789113981 0.240209252822598 0 -0.11791391621741169 0.23662602929645979 0 -0.1327489338638061 0.25452411827741839 0 -0.117855447687145 0.25091031525324797 0 -0.13180515789113981 0.240209252822598 0 -0.1327489338638061 0.25452411827741839 0 -0.15369162007931389 0.24251203495270859 0 -0.138080486638856 0.2273086196914576 0 -0.13180515789113981 0.240209252822598 0 -0.15369162007931389 0.24251203495270859 0 -0.1658302080871219 0.14668645749732609 0 -0.1774570584452228 0.1504705356125714 0 -0.17186642741828931 0.16174563282948631 0 -0.1658302080871219 0.14668645749732609 0 -0.15817375170059941 0.1606177830765444 0 -0.1514314093957769 0.152885783496088 0 -0.1658302080871219 0.14668645749732609 0 -0.1514314093957769 0.152885783496088 0 -0.15482033588567209 0.13908717341321761 0 -0.1658302080871219 0.14668645749732609 0 -0.16710743022487229 0.13396989515601071 0 -0.15482033588567209 0.13908717341321761 0 -0.15919267815156549 0.13034915298064351 0 -0.16710743022487229 0.13396989515601071 0 -0.15482033588567209 0.13908717341321761 0 -0.15972999926012271 0.1221234840487774 0 -0.15919267815156549 0.13034915298064351 0 -0.15095433921303289 0.13006610725247519 0 -0.15972999926012271 0.1221234840487774 0 -0.15919267815156549 0.13034915298064351 0 -0.1667697280983457 0.12548339430533709 0 -0.1667697280983457 0.12548339430533709 0 -0.16710743022487229 0.13396989515601071 0 -0.1754542172429458 0.12629081773085479 0 -0.15919267815156549 0.13034915298064351 0 -0.1667697280983457 0.12548339430533709 0 -0.16710743022487229 0.13396989515601071 0 -0.1658302080871219 0.14668645749732609 0 -0.16710743022487229 0.13396989515601071 0 -0.17798149937243779 0.13895112618986319 0 -0.1931272776556214 0.13055957448313821 0 -0.17798149937243779 0.13895112618986319 0 -0.1754542172429458 0.12629081773085479 0 -0.1931272776556214 0.13055957448313821 0 -0.17798149937243779 0.13895112618986319 0 -0.1874655280245851 0.14622115532978819 0 -0.16710743022487229 0.13396989515601071 0 -0.17798149937243779 0.13895112618986319 0 -0.1754542172429458 0.12629081773085479 0 -0.17798149937243779 0.13895112618986319 0 -0.1874655280245851 0.14622115532978819 0 -0.1774570584452228 0.1504705356125714 0 -0.1658302080871219 0.14668645749732609 0 -0.17798149937243779 0.13895112618986319 0 -0.1774570584452228 0.1504705356125714 0 -0.1882255105680502 0.1610815672967654 0 -0.1874655280245851 0.14622115532978819 0 -0.1774570584452228 0.1504705356125714 0 -0.1882255105680502 0.1610815672967654 0 -0.1774570584452228 0.1504705356125714 0 -0.17186642741828931 0.16174563282948631 0 -0.1882255105680502 0.1610815672967654 0 -0.178330419857087 0.17579324050450609 0 -0.17186642741828931 0.16174563282948631 0 -0.19284497752053739 0.17722942773805461 0 -0.1882255105680502 0.1610815672967654 0 -0.178330419857087 0.17579324050450609 0 -0.19284497752053739 0.17722942773805461 0 -0.1816204192997693 0.18834498180377801 0 -0.178330419857087 0.17579324050450609 0 -0.1816204192997693 0.18834498180377801 0 -0.178330419857087 0.17579324050450609 0 -0.16676408809815871 0.18575289380054261 0 -0.16676408809815871 0.18575289380054261 0 -0.16103756907848971 0.17186334434824441 0 -0.1476459918922203 0.18178154513882661 0 -0.178330419857087 0.17579324050450609 0 -0.16676408809815871 0.18575289380054261 0 -0.16103756907848971 0.17186334434824441 0 -0.178330419857087 0.17579324050450609 0 -0.17186642741828931 0.16174563282948631 0 -0.16103756907848971 0.17186334434824441 0 -0.1658302080871219 0.14668645749732609 0 -0.17186642741828931 0.16174563282948631 0 -0.15817375170059941 0.1606177830765444 0 -0.17186642741828931 0.16174563282948631 0 -0.16103756907848971 0.17186334434824441 0 -0.15817375170059941 0.1606177830765444 0 -0.15817375170059941 0.1606177830765444 0 -0.14393628491235119 0.16556680821314951 0 -0.1514314093957769 0.152885783496088 0 -0.14393628491235119 0.16556680821314951 0 -0.1348880158009074 0.15254853275379171 0 -0.1514314093957769 0.152885783496088 0 -0.16103756907848971 0.17186334434824441 0 -0.15817375170059941 0.1606177830765444 0 -0.14393628491235119 0.16556680821314951 0 -0.16103756907848971 0.17186334434824441 0 -0.14393628491235119 0.16556680821314951 0 -0.1476459918922203 0.18178154513882661 0 -0.13798261527508779 0.19662960113129721 0 -0.1476459918922203 0.18178154513882661 0 -0.118821692388783 0.1750309582551087 0 -0.14393628491235119 0.16556680821314951 0 -0.1476459918922203 0.18178154513882661 0 -0.118821692388783 0.1750309582551087 0 -0.14393628491235119 0.16556680821314951 0 -0.1348880158009074 0.15254853275379171 0 -0.118821692388783 0.1750309582551087 0 -0.1348880158009074 0.15254853275379171 0 -0.118821692388783 0.1750309582551087 0 -0.1348880158009074 0.15254853275379171 0 -0.1514314093957769 0.152885783496088 0 -0.15482033588567209 0.13908717341321761 0 -0.1348880158009074 0.15254853275379171 0 -0.15095433921303289 0.13006610725247519 0 -0.1348880158009074 0.15254853275379171 0 -0.15095433921303289 0.13006610725247519 0 -0.15482033588567209 0.13908717341321761 0 -0.15095433921303289 0.13006610725247519 0 -0.15482033588567209 0.13908717341321761 0 -0.15919267815156549 0.13034915298064351 0 -0.15095433921303289 0.13006610725247519 0 -0.15482033588567209 0.13908717341321761 0 -0.1341720994283348 0.1236650503361988 0 -0.15095433921303289 0.13006610725247519 0 -0.12945194328056819 0.13717859724399539 0 -0.1341720994283348 0.1236650503361988 0 -0.12945194328056819 0.13717859724399539 0 -0.117214529128708 0.1289626219323971 0 -0.1348880158009074 0.15254853275379171 0 -0.15095433921303289 0.13006610725247519 0 -0.12945194328056819 0.13717859724399539 0 -0.12945194328056819 0.13717859724399539 0 -0.117214529128708 0.1289626219323971 0 -0.1080781446198622 0.14859094696333369 0 -0.117214529128708 0.1289626219323971 0 -0.10166520226551599 0.131447178594638 0 -0.1080781446198622 0.14859094696333369 0 -0.10166520226551599 0.131447178594638 0 -0.088829354528461316 0.13973461224633149 0 -0.091622829375769002 0.1208413004639024 0 -0.117214529128708 0.1289626219323971 0 -0.10166520226551599 0.131447178594638 0 -0.1025811536747797 0.1191064113672255 0 -0.10166520226551599 0.131447178594638 0 -0.1080781446198622 0.14859094696333369 0 -0.088829354528461316 0.13973461224633149 0 -0.1348880158009074 0.15254853275379171 0 -0.12945194328056819 0.13717859724399539 0 -0.1080781446198622 0.14859094696333369 0 -0.1348880158009074 0.15254853275379171 0 -0.1080781446198622 0.14859094696333369 0 -0.118821692388783 0.1750309582551087 0 -0.118821692388783 0.1750309582551087 0 -0.089710981777388704 0.1716913345212481 0 -0.098206516429161061 0.19362260743413751 0 -0.1080781446198622 0.14859094696333369 0 -0.118821692388783 0.1750309582551087 0 -0.089710981777388704 0.1716913345212481 0 -0.089710981777388704 0.1716913345212481 0 -0.074102582097272968 0.16368156745116549 0 -0.083346408961024326 0.15323377267297611 0 -0.1080781446198622 0.14859094696333369 0 -0.089710981777388704 0.1716913345212481 0 -0.083346408961024326 0.15323377267297611 0 -0.089710981777388704 0.1716913345212481 0 -0.072821726558503039 0.18412758477716781 0 -0.098206516429161061 0.19362260743413751 0 -0.089710981777388704 0.1716913345212481 0 -0.072821726558503039 0.18412758477716781 0 -0.074102582097272968 0.16368156745116549 0 -0.072821726558503039 0.18412758477716781 0 -0.074102582097272968 0.16368156745116549 0 -0.057006736710370938 0.17349148817670859 0 -0.074102582097272968 0.16368156745116549 0 -0.060328149674997091 0.1593262888350753 0 -0.057006736710370938 0.17349148817670859 0 -0.074102582097272968 0.16368156745116549 0 -0.070847931286770388 0.15543636643801281 0 -0.083346408961024326 0.15323377267297611 0 -0.074102582097272968 0.16368156745116549 0 -0.070847931286770388 0.15543636643801281 0 -0.060328149674997091 0.1593262888350753 0 -0.063554674381993262 0.15130788015837651 0 -0.070847931286770388 0.15543636643801281 0 -0.070353852520198282 0.1470702513651343 0 -0.063554674381993262 0.15130788015837651 0 -0.070847931286770388 0.15543636643801281 0 -0.060328149674997091 0.1593262888350753 0 -0.070847931286770388 0.15543636643801281 0 -0.070353852520198282 0.1470702513651343 0 -0.083346408961024326 0.15323377267297611 0 -0.063554674381993262 0.15130788015837651 0 -0.070353852520198282 0.1470702513651343 0 -0.064873761051774684 0.14340558103078291 0 -0.064873761051774684 0.14340558103078291 0 -0.057163696849592847 0.12283105185767219 0 -0.075802444113132708 0.11804548149495731 0 -0.064873761051774684 0.14340558103078291 0 -0.074969405615506954 0.1278428971863064 0 -0.075802444113132708 0.11804548149495731 0 -0.070353852520198282 0.1470702513651343 0 -0.074969405615506954 0.1278428971863064 0 -0.088829354528461316 0.13973461224633149 0 -0.064873761051774684 0.14340558103078291 0 -0.075802444113132708 0.11804548149495731 0 -0.070353852520198282 0.1470702513651343 0 -0.064873761051774684 0.14340558103078291 0 -0.074969405615506954 0.1278428971863064 0 -0.070353852520198282 0.1470702513651343 0 -0.074969405615506954 0.1278428971863064 0 -0.088829354528461316 0.13973461224633149 0 -0.0766378088882054 0.12089270509125841 0 -0.088829354528461316 0.13973461224633149 0 -0.0766378088882054 0.12089270509125841 0 -0.091622829375769002 0.1208413004639024 0 -0.074969405615506954 0.1278428971863064 0 -0.088829354528461316 0.13973461224633149 0 -0.0766378088882054 0.12089270509125841 0 -0.070353852520198282 0.1470702513651343 0 -0.088829354528461316 0.13973461224633149 0 -0.083346408961024326 0.15323377267297611 0 -0.1080781446198622 0.14859094696333369 0 -0.088829354528461316 0.13973461224633149 0 -0.083346408961024326 0.15323377267297611 0 -0.098557922793196806 0.2461988865623114 0 -0.11791391621741169 0.23662602929645979 0 -0.098557922793196806 0.2461988865623114 0 -0.11791391621741169 0.23662602929645979 0 -0.11375018660093419 0.22152839349305209 0 -0.117855447687145 0.25091031525324797 0 -0.098557922793196806 0.2461988865623114 0 -0.11791391621741169 0.23662602929645979 0 -0.117855447687145 0.25091031525324797 0 -0.13180515789113981 0.240209252822598 0 -0.11791391621741169 0.23662602929645979 0 -0.138080486638856 0.2273086196914576 0 -0.11791391621741169 0.23662602929645979 0 -0.11375018660093419 0.22152839349305209 0 -0.098557922793196806 0.2461988865623114 0 -0.11375018660093419 0.22152839349305209 0 -0.098481069912581778 0.21804567519710091 0 -0.098481069912581778 0.21804567519710091 0 -0.1107302534817909 0.20774782576728471 0 -0.098206516429161061 0.19362260743413751 0 -0.11375018660093419 0.22152839349305209 0 -0.098481069912581778 0.21804567519710091 0 -0.1107302534817909 0.20774782576728471 0 -0.11375018660093419 0.22152839349305209 0 -0.12457330052985641 0.2102087002086454 0 -0.1107302534817909 0.20774782576728471 0 -0.12457330052985641 0.2102087002086454 0 -0.1107302534817909 0.20774782576728471 0 -0.1186401939364211 0.19533375250348781 0 -0.118821692388783 0.1750309582551087 0 -0.1186401939364211 0.19533375250348781 0 -0.098206516429161061 0.19362260743413751 0 -0.1107302534817909 0.20774782576728471 0 -0.1186401939364211 0.19533375250348781 0 -0.098206516429161061 0.19362260743413751 0 -0.072821726558503039 0.18412758477716781 0 -0.098206516429161061 0.19362260743413751 0 -0.077455703014398525 0.2059487996201094 0 -0.072821726558503039 0.18412758477716781 0 -0.077455703014398525 0.2059487996201094 0 -0.056430336116215167 0.1938519240431178 0 -0.077455703014398525 0.2059487996201094 0 -0.056430336116215167 0.1938519240431178 0 -0.077455703014398525 0.2059487996201094 0 -0.064631308932649539 0.21924690452732171 0 -0.056430336116215167 0.1938519240431178 0 -0.098481069912581778 0.21804567519710091 0 -0.077455703014398525 0.2059487996201094 0 -0.098481069912581778 0.21804567519710091 0 -0.098206516429161061 0.19362260743413751 0 -0.077455703014398525 0.2059487996201094 0 -0.098481069912581778 0.21804567519710091 0 -0.077455703014398525 0.2059487996201094 0 -0.082826062766773234 0.23138137573331519 0 -0.098557922793196806 0.2461988865623114 0 -0.098481069912581778 0.21804567519710091 0 -0.082826062766773234 0.23138137573331519 0 -0.077455703014398525 0.2059487996201094 0 -0.082826062766773234 0.23138137573331519 0 -0.064631308932649539 0.21924690452732171 0 -0.082826062766773234 0.23138137573331519 0 -0.064631308932649539 0.21924690452732171 0 -0.066610223949145869 0.23859467964935421 0 -0.079201929368981946 0.25577174382816292 0 -0.082826062766773234 0.23138137573331519 0 -0.066610223949145869 0.23859467964935421 0 -0.079201929368981946 0.25577174382816292 0 -0.06302630062105663 0.2523963721254382 0 -0.066610223949145869 0.23859467964935421 0 -0.079201929368981946 0.25577174382816292 0 -0.098557922793196806 0.2461988865623114 0 -0.082826062766773234 0.23138137573331519 0 -0.044474170284383573 0.25816239822125531 0 -0.036851595457109171 0.24432097919986909 0 -0.052636366582661492 0.2444569440242709 0 -0.036851595457109171 0.24432097919986909 0 -0.052636366582661492 0.2444569440242709 0 -0.049719486263366572 0.22898656034336981 0 -0.066610223949145869 0.23859467964935421 0 -0.052636366582661492 0.2444569440242709 0 -0.049719486263366572 0.22898656034336981 0 -0.06302630062105663 0.2523963721254382 0 -0.066610223949145869 0.23859467964935421 0 -0.052636366582661492 0.2444569440242709 0 -0.064631308932649539 0.21924690452732171 0 -0.066610223949145869 0.23859467964935421 0 -0.049719486263366572 0.22898656034336981 0 -0.064631308932649539 0.21924690452732171 0 -0.049719486263366572 0.22898656034336981 0 -0.045307953214056652 0.21110582694428159 0 -0.036851595457109171 0.24432097919986909 0 -0.049719486263366572 0.22898656034336981 0 -0.031576572761738642 0.2237331075849491 0 -0.049719486263366572 0.22898656034336981 0 -0.031576572761738642 0.2237331075849491 0 -0.045307953214056652 0.21110582694428159 0 -0.031576572761738642 0.2237331075849491 0 -0.045307953214056652 0.21110582694428159 0 -0.02875283205702343 0.2029037827932583 0 -0.045307953214056652 0.21110582694428159 0 -0.04147402265133187 0.1974041455616958 0 -0.02875283205702343 0.2029037827932583 0 -0.064631308932649539 0.21924690452732171 0 -0.045307953214056652 0.21110582694428159 0 -0.056430336116215167 0.1938519240431178 0 -0.045307953214056652 0.21110582694428159 0 -0.056430336116215167 0.1938519240431178 0 -0.04147402265133187 0.1974041455616958 0 -0.056430336116215167 0.1938519240431178 0 -0.04147402265133187 0.1974041455616958 0 -0.035404969218032253 0.18175504846612539 0 -0.04147402265133187 0.1974041455616958 0 -0.02875283205702343 0.2029037827932583 0 -0.035404969218032253 0.18175504846612539 0 -0.056430336116215167 0.1938519240431178 0 -0.035404969218032253 0.18175504846612539 0 -0.02875283205702343 0.2029037827932583 0 -0.0098295367018494516 0.1915386982809045 0 -0.035404969218032253 0.18175504846612539 0 -0.0098295367018494516 0.1915386982809045 0 -0.0090355013916870782 0.2166965840915682 0 0.015745895814332962 0.20132234809568481 0 -0.031576572761738642 0.2237331075849491 0 -0.02875283205702343 0.2029037827932583 0 -0.0090355013916870782 0.2166965840915682 0 -0.02875283205702343 0.2029037827932583 0 -0.0098295367018494516 0.1915386982809045 0 -0.0090355013916870782 0.2166965840915682 0 -0.031576572761738642 0.2237331075849491 0 -0.0090355013916870782 0.2166965840915682 0 -0.019792068187189 0.2383849121373475 0 -0.0090355013916870782 0.2166965840915682 0 -0.0003013679469350591 0.24135250151140319 0 -0.019792068187189 0.2383849121373475 0 -0.021470734496680289 0.26148420300119268 0 -0.0003013679469350591 0.24135250151140319 0 -0.019792068187189 0.2383849121373475 0 -0.036851595457109171 0.24432097919986909 0 -0.031576572761738642 0.2237331075849491 0 -0.019792068187189 0.2383849121373475 0 -0.021470734496680289 0.26148420300119268 0 -0.036851595457109171 0.24432097919986909 0 -0.019792068187189 0.2383849121373475 0 -0.037296713761784242 0.14700953227750441 0 -0.053226390754463802 0.14922007734604731 0 -0.042592810393733707 0.16364362501459651 0 -0.037296713761784242 0.14700953227750441 0 -0.02500457662759106 0.13224593064425469 0 -0.039427612193202739 0.1213301199787533 0 -0.037296713761784242 0.14700953227750441 0 -0.050397634922163662 0.13675927249815201 0 -0.039427612193202739 0.1213301199787533 0 -0.037296713761784242 0.14700953227750441 0 -0.039427612193202739 0.1213301199787533 0 -0.050397634922163662 0.13675927249815201 0 -0.039427612193202739 0.1213301199787533 0 -0.057163696849592847 0.12283105185767219 0 -0.064873761051774684 0.14340558103078291 0 -0.050397634922163662 0.13675927249815201 0 -0.057163696849592847 0.12283105185767219 0 -0.063554674381993262 0.15130788015837651 0 -0.064873761051774684 0.14340558103078291 0 -0.053226390754463802 0.14922007734604731 0 -0.064873761051774684 0.14340558103078291 0 -0.050397634922163662 0.13675927249815201 0 -0.053226390754463802 0.14922007734604731 0 -0.037296713761784242 0.14700953227750441 0 -0.050397634922163662 0.13675927249815201 0 -0.053226390754463802 0.14922007734604731 0 -0.063554674381993262 0.15130788015837651 0 -0.053226390754463802 0.14922007734604731 0 -0.060328149674997091 0.1593262888350753 0 -0.060328149674997091 0.1593262888350753 0 -0.057006736710370938 0.17349148817670859 0 -0.042592810393733707 0.16364362501459651 0 -0.053226390754463802 0.14922007734604731 0 -0.060328149674997091 0.1593262888350753 0 -0.042592810393733707 0.16364362501459651 0 -0.056430336116215167 0.1938519240431178 0 -0.057006736710370938 0.17349148817670859 0 -0.035404969218032253 0.18175504846612539 0 -0.072821726558503039 0.18412758477716781 0 -0.056430336116215167 0.1938519240431178 0 -0.057006736710370938 0.17349148817670859 0 -0.057006736710370938 0.17349148817670859 0 -0.035404969218032253 0.18175504846612539 0 -0.057006736710370938 0.17349148817670859 0 -0.035404969218032253 0.18175504846612539 0 -0.042592810393733707 0.16364362501459651 0 -0.035404969218032253 0.18175504846612539 0 -0.042592810393733707 0.16364362501459651 0 -0.01240086224311162 0.1685197113049251 0 -0.037296713761784242 0.14700953227750441 0 -0.042592810393733707 0.16364362501459651 0 -0.01240086224311162 0.1685197113049251 0 -0.0098295367018494516 0.1915386982809045 0 -0.035404969218032253 0.18175504846612539 0 -0.01240086224311162 0.1685197113049251 0 -0.035404969218032253 0.18175504846612539 0 -0.01240086224311162 0.1685197113049251 0 -0.0098295367018494516 0.1915386982809045 0 -0.035404969218032253 0.18175504846612539 0 -0.0098295367018494516 0.1915386982809045 0 -0.01240086224311162 0.1685197113049251 0 0.0091856628900192361 0.17781094148593959 0 -0.01240086224311162 0.1685197113049251 0 0.01060324473180853 0.15528437414372401 0 -0.01240086224311162 0.1685197113049251 0 -0.011797766153259261 0.1443864474400226 0 0.01060324473180853 0.15528437414372401 0 -0.037296713761784242 0.14700953227750441 0 -0.01240086224311162 0.1685197113049251 0 -0.011797766153259261 0.1443864474400226 0 -0.037296713761784242 0.14700953227750441 0 -0.011797766153259261 0.1443864474400226 0 -0.02500457662759106 0.13224593064425469 0 -0.011797766153259261 0.1443864474400226 0 -0.02500457662759106 0.13224593064425469 0 -0.002137736806820432 0.123161010156593 0 -0.011797766153259261 0.1443864474400226 0 -0.002137736806820432 0.123161010156593 0 0.0060601072686411643 0.13849791517015411 0 -0.002137736806820432 0.123161010156593 0 -0.0051760666142191963 0.10463426502372 0 -0.020118620282767528 0.11523900613245119 0 -0.0051760666142191963 0.10463426502372 0 -0.016483560304732438 0.098843161511037725 0 -0.020118620282767528 0.11523900613245119 0 -0.0051760666142191963 0.10463426502372 0 -0.01001232669329967 0.089610449980912499 0 0.0075763185731497476 0.089996567563775789 0 -0.0051760666142191963 0.10463426502372 0 -0.016483560304732438 0.098843161511037725 0 -0.01001232669329967 0.089610449980912499 0 -0.028661846685179151 0.1033793530243594 0 -0.016483560304732438 0.098843161511037725 0 -0.020118620282767528 0.11523900613245119 0 -0.028661846685179151 0.1033793530243594 0 -0.016483560304732438 0.098843161511037725 0 -0.025720930020571839 0.085833769819552846 0 -0.028661846685179151 0.1033793530243594 0 -0.020118620282767528 0.11523900613245119 0 -0.039427612193202739 0.1213301199787533 0 -0.02500457662759106 0.13224593064425469 0 -0.020118620282767528 0.11523900613245119 0 -0.039427612193202739 0.1213301199787533 0 -0.02500457662759106 0.13224593064425469 0 -0.002137736806820432 0.123161010156593 0 -0.020118620282767528 0.11523900613245119 0 -0.012825841706835209 0.058397820721207 0 0.003761378657590814 0.068888292039587559 0 -0.006164455099322186 0.06997001435534278 0 -0.012825841706835209 0.058397820721207 0 0.003761378657590814 0.068888292039587559 0 -0.006164455099322186 0.06997001435534278 0 -0.01313602473231619 0.073217404567361116 0 -0.012825841706835209 0.058397820721207 0 -0.006164455099322186 0.06997001435534278 0 -0.01313602473231619 0.073217404567361116 0 -0.0024573326157280341 0.07937654009321482 0 -0.006164455099322186 0.06997001435534278 0 -0.0024573326157280341 0.07937654009321482 0 0.003761378657590814 0.068888292039587559 0 -0.01313602473231619 0.073217404567361116 0 -0.0024573326157280341 0.07937654009321482 0 0.0075763185731497476 0.089996567563775789 0 -0.01313602473231619 0.073217404567361116 0 -0.01001232669329967 0.089610449980912499 0 0.0075763185731497476 0.089996567563775789 0 -0.01313602473231619 0.073217404567361116 0 0.0075763185731497476 0.089996567563775789 0 -0.01313602473231619 0.073217404567361116 0 -0.01001232669329967 0.089610449980912499 0 -0.025720930020571839 0.085833769819552846 0 -0.016483560304732438 0.098843161511037725 0 -0.01001232669329967 0.089610449980912499 0 -0.025720930020571839 0.085833769819552846 0 -0.01313602473231619 0.073217404567361116 0 -0.028359508112254812 0.071097696646646849 0 -0.033848368037782052 0.056438241570946499 0 -0.01313602473231619 0.073217404567361116 0 -0.033848368037782052 0.056438241570946499 0 -0.012825841706835209 0.058397820721207 0 -0.01313602473231619 0.073217404567361116 0 -0.033848368037782052 0.056438241570946499 0 -0.01313602473231619 0.073217404567361116 0 -0.025720930020571839 0.085833769819552846 0 -0.028359508112254812 0.071097696646646849 0 -0.025720930020571839 0.085833769819552846 0 -0.028359508112254812 0.071097696646646849 0 -0.043689409056041531 0.069971295381251297 0 -0.043689409056041531 0.069971295381251297 0 -0.044724576312927297 0.057496516482412288 0 -0.028359508112254812 0.071097696646646849 0 -0.043689409056041531 0.069971295381251297 0 -0.033848368037782052 0.056438241570946499 0 -0.043689409056041531 0.069971295381251297 0 -0.041558510624621237 0.095650707680002223 0 -0.025720930020571839 0.085833769819552846 0 -0.043689409056041531 0.069971295381251297 0 -0.041558510624621237 0.095650707680002223 0 -0.043689409056041531 0.069971295381251297 0 -0.041558510624621237 0.095650707680002223 0 -0.05954466211727974 0.094475424301010413 0 -0.043689409056041531 0.069971295381251297 0 -0.054409294359606453 0.076070666721953839 0 -0.05954466211727974 0.094475424301010413 0 -0.043689409056041531 0.069971295381251297 0 -0.05954466211727974 0.094475424301010413 0 -0.054409294359606453 0.076070666721953839 0 -0.05954466211727974 0.094475424301010413 0 -0.064094012406287482 0.094644816961494432 0 -0.054409294359606453 0.076070666721953839 0 -0.064094012406287482 0.094644816961494432 0 -0.064296737486095892 0.084076217037391821 0 -0.054409294359606453 0.076070666721953839 0 -0.064094012406287482 0.094644816961494432 0 -0.054409294359606453 0.076070666721953839 0 -0.064296737486095892 0.084076217037391821 0 -0.067431864422542953 0.078201491677464319 0 -0.054409294359606453 0.076070666721953839 0 -0.05600532016027996 0.060780458395876619 0 -0.044724576312927297 0.057496516482412288 0 -0.043689409056041531 0.069971295381251297 0 -0.054409294359606453 0.076070666721953839 0 -0.044724576312927297 0.057496516482412288 0 -0.054409294359606453 0.076070666721953839 0 -0.044724576312927297 0.057496516482412288 0 -0.054409294359606453 0.076070666721953839 0 -0.067431864422542953 0.078201491677464319 0 -0.065162455337453032 0.066326941638332568 0 -0.054409294359606453 0.076070666721953839 0 -0.065162455337453032 0.066326941638332568 0 -0.05600532016027996 0.060780458395876619 0 -0.039427612193202739 0.1213301199787533 0 -0.041558510624621237 0.095650707680002223 0 -0.051535676702268433 0.10742119002637909 0 -0.028661846685179151 0.1033793530243594 0 -0.039427612193202739 0.1213301199787533 0 -0.041558510624621237 0.095650707680002223 0 -0.039427612193202739 0.1213301199787533 0 -0.041558510624621237 0.095650707680002223 0 -0.028661846685179151 0.1033793530243594 0 -0.025720930020571839 0.085833769819552846 0 -0.041558510624621237 0.095650707680002223 0 -0.041558510624621237 0.095650707680002223 0 -0.051535676702268433 0.10742119002637909 0 -0.05954466211727974 0.094475424301010413 0 -0.051535676702268433 0.10742119002637909 0 -0.05954466211727974 0.094475424301010413 0 -0.060807978157995532 0.1100258983473469 0 -0.051535676702268433 0.10742119002637909 0 -0.060807978157995532 0.1100258983473469 0 -0.057163696849592847 0.12283105185767219 0 -0.039427612193202739 0.1213301199787533 0 -0.051535676702268433 0.10742119002637909 0 -0.057163696849592847 0.12283105185767219 0 -0.060807978157995532 0.1100258983473469 0 -0.057163696849592847 0.12283105185767219 0 -0.075802444113132708 0.11804548149495731 0 -0.0766378088882054 0.12089270509125841 0 -0.079231306768410989 0.11008877731163649 0 -0.075802444113132708 0.11804548149495731 0 -0.0766378088882054 0.12089270509125841 0 -0.079231306768410989 0.11008877731163649 0 -0.075802444113132708 0.11804548149495731 0 -0.079231306768410989 0.11008877731163649 0 -0.074969405615506954 0.1278428971863064 0 -0.075802444113132708 0.11804548149495731 0 -0.0766378088882054 0.12089270509125841 0 -0.074969405615506954 0.1278428971863064 0 -0.075802444113132708 0.11804548149495731 0 -0.075802444113132708 0.11804548149495731 0 -0.0766378088882054 0.12089270509125841 0 -0.074969405615506954 0.1278428971863064 0 -0.0766378088882054 0.12089270509125841 0 -0.0766378088882054 0.12089270509125841 0 -0.08412880897344184 0.115601629555302 0 -0.091622829375769002 0.1208413004639024 0 -0.0766378088882054 0.12089270509125841 0 -0.08412880897344184 0.115601629555302 0 -0.079231306768410989 0.11008877731163649 0 -0.08412880897344184 0.115601629555302 0 -0.079231306768410989 0.11008877731163649 0 -0.088911947422930571 0.11189652417007891 0 -0.088911947422930571 0.11189652417007891 0 -0.091622829375769002 0.1208413004639024 0 -0.099135536556674259 0.1082594822568218 0 -0.08412880897344184 0.115601629555302 0 -0.088911947422930571 0.11189652417007891 0 -0.091622829375769002 0.1208413004639024 0 -0.079231306768410989 0.11008877731163649 0 -0.084861893632395796 0.086633021168667335 0 -0.079231306768410989 0.11008877731163649 0 -0.084861893632395796 0.086633021168667335 0 -0.087737849978117913 0.090349273357431495 0 -0.079231306768410989 0.11008877731163649 0 -0.089402262268416896 0.099075172319361762 0 -0.087737849978117913 0.090349273357431495 0 -0.079231306768410989 0.11008877731163649 0 -0.087737849978117913 0.090349273357431495 0 -0.079231306768410989 0.11008877731163649 0 -0.078748303475385334 0.095326753324479166 0 -0.084861893632395796 0.086633021168667335 0 -0.089402262268416896 0.099075172319361762 0 -0.087737849978117913 0.090349273357431495 0 -0.093643081149867413 0.091990470840979138 0 -0.089402262268416896 0.099075172319361762 0 -0.093643081149867413 0.091990470840979138 0 -0.095957818005331388 0.098255908824030194 0 -0.089402262268416896 0.099075172319361762 0 -0.090441255440357096 0.1046914312627316 0 -0.095957818005331388 0.098255908824030194 0 -0.088911947422930571 0.11189652417007891 0 -0.090441255440357096 0.1046914312627316 0 -0.099135536556674259 0.1082594822568218 0 -0.079231306768410989 0.11008877731163649 0 -0.089402262268416896 0.099075172319361762 0 -0.090441255440357096 0.1046914312627316 0 -0.079231306768410989 0.11008877731163649 0 -0.088911947422930571 0.11189652417007891 0 -0.090441255440357096 0.1046914312627316 0 -0.05954466211727974 0.094475424301010413 0 -0.060807978157995532 0.1100258983473469 0 -0.075802444113132708 0.11804548149495731 0 -0.078748303475385334 0.095326753324479166 0 -0.072474134687687722 0.098851236142396354 0 -0.071251778755946682 0.08738789278865472 0 -0.075802444113132708 0.11804548149495731 0 -0.079231306768410989 0.11008877731163649 0 -0.078748303475385334 0.095326753324479166 0 -0.075802444113132708 0.11804548149495731 0 -0.078748303475385334 0.095326753324479166 0 -0.05954466211727974 0.094475424301010413 0 -0.075802444113132708 0.11804548149495731 0 -0.05954466211727974 0.094475424301010413 0 -0.075802444113132708 0.11804548149495731 0 -0.064094012406287482 0.094644816961494432 0 -0.075802444113132708 0.11804548149495731 0 -0.072474134687687722 0.098851236142396354 0 -0.064094012406287482 0.094644816961494432 0 -0.075802444113132708 0.11804548149495731 0 -0.078748303475385334 0.095326753324479166 0 -0.072474134687687722 0.098851236142396354 0 -0.064094012406287482 0.094644816961494432 0 -0.064296737486095892 0.084076217037391821 0 -0.071251778755946682 0.08738789278865472 0 -0.072474134687687722 0.098851236142396354 0 -0.064094012406287482 0.094644816961494432 0 -0.071251778755946682 0.08738789278865472 0 -0.078748303475385334 0.095326753324479166 0 -0.071251778755946682 0.08738789278865472 0 -0.08169416283763925 0.072608025154001082 0 -0.064296737486095892 0.084076217037391821 0 -0.067431864422542953 0.078201491677464319 0 -0.071251778755946682 0.08738789278865472 0 -0.067431864422542953 0.078201491677464319 0 -0.071251778755946682 0.08738789278865472 0 -0.08169416283763925 0.072608025154001082 0 -0.065162455337453032 0.066326941638332568 0 -0.08169416283763925 0.072608025154001082 0 -0.0723604675960033 0.056585793008253477 0 -0.067431864422542953 0.078201491677464319 0 -0.065162455337453032 0.066326941638332568 0 -0.08169416283763925 0.072608025154001082 0 -0.09049248049638095 0.063177265025698343 0 -0.084861893632395796 0.086633021168667335 0 -0.08169416283763925 0.072608025154001082 0 -0.09049248049638095 0.063177265025698343 0 -0.084861893632395796 0.086633021168667335 0 -0.09049248049638095 0.063177265025698343 0 -0.084861893632395796 0.086633021168667335 0 -0.096244393187824503 0.07060976940322633 0 -0.087737849978117913 0.090349273357431495 0 -0.096244393187824503 0.07060976940322633 0 -0.078748303475385334 0.095326753324479166 0 -0.08169416283763925 0.072608025154001082 0 -0.084861893632395796 0.086633021168667335 0 -0.078748303475385334 0.095326753324479166 0 -0.08169416283763925 0.072608025154001082 0 -0.084861893632395796 0.086633021168667335 0 -0.087737849978117913 0.090349273357431495 0 -0.096244393187824503 0.07060976940322633 0 -0.087737849978117913 0.090349273357431495 0 -0.096008321131456881 0.082099851991826567 0 -0.096244393187824503 0.07060976940322633 0 -0.093515023768609373 0.087876613354007274 0 -0.087737849978117913 0.090349273357431495 0 -0.096008321131456881 0.082099851991826567 0 -0.093515023768609373 0.087876613354007274 0 -0.087737849978117913 0.090349273357431495 0 -0.093643081149867413 0.091990470840979138 0 -0.093643081149867413 0.091990470840979138 0 -0.1010683658857814 0.090966949963849464 0 -0.096657944635918869 0.087389288563400586 0 -0.093643081149867413 0.091990470840979138 0 -0.1010683658857814 0.090966949963849464 0 -0.095957818005331388 0.098255908824030194 0 -0.1010683658857814 0.090966949963849464 0 -0.096657944635918869 0.087389288563400586 0 -0.1007471805321743 0.084074069857482406 0 -0.093515023768609373 0.087876613354007274 0 -0.093643081149867413 0.091990470840979138 0 -0.096657944635918869 0.087389288563400586 0 -0.093515023768609373 0.087876613354007274 0 -0.096657944635918869 0.087389288563400586 0 -0.096008321131456881 0.082099851991826567 0 -0.096008321131456881 0.082099851991826567 0 -0.1007471805321743 0.084074069857482406 0 -0.1009276258921155 0.077797422749104381 0 -0.096657944635918869 0.087389288563400586 0 -0.096008321131456881 0.082099851991826567 0 -0.1007471805321743 0.084074069857482406 0 -0.1007471805321743 0.084074069857482406 0 -0.1059569196724892 0.079990599260978415 0 -0.1055455817575338 0.086320681392589513 0 -0.1007471805321743 0.084074069857482406 0 -0.1059569196724892 0.079990599260978415 0 -0.1009276258921155 0.077797422749104381 0 -0.1059569196724892 0.079990599260978415 0 -0.1055455817575338 0.086320681392589513 0 -0.111434464171615 0.084185595210009456 0 -0.1055455817575338 0.086320681392589513 0 -0.1087553025946115 0.092045053397631929 0 -0.111434464171615 0.084185595210009456 0 -0.1010683658857814 0.090966949963849464 0 -0.1055455817575338 0.086320681392589513 0 -0.1087553025946115 0.092045053397631929 0 -0.1010683658857814 0.090966949963849464 0 -0.1007471805321743 0.084074069857482406 0 -0.1055455817575338 0.086320681392589513 0 -0.09049248049638095 0.063177265025698343 0 -0.099333795377840678 0.063781751753722582 0 -0.096244393187824503 0.07060976940322633 0 -0.099333795377840678 0.063781751753722582 0 -0.096244393187824503 0.07060976940322633 0 -0.10633188744094139 0.066176768455522617 0 -0.096244393187824503 0.07060976940322633 0 -0.1009276258921155 0.077797422749104381 0 -0.104548075081607 0.073068068159670846 0 -0.096008321131456881 0.082099851991826567 0 -0.096244393187824503 0.07060976940322633 0 -0.1009276258921155 0.077797422749104381 0 -0.1059569196724892 0.079990599260978415 0 -0.104548075081607 0.073068068159670846 0 -0.1124824913710305 0.07478031250254781 0 -0.104548075081607 0.073068068159670846 0 -0.10633188744094139 0.066176768455522617 0 -0.1124824913710305 0.07478031250254781 0 -0.1059569196724892 0.079990599260978415 0 -0.1009276258921155 0.077797422749104381 0 -0.104548075081607 0.073068068159670846 0 -0.096244393187824503 0.07060976940322633 0 -0.104548075081607 0.073068068159670846 0 -0.10633188744094139 0.066176768455522617 0 -0.1233625974382829 0.082333349379984169 0 -0.12142537575115479 0.061162081821450019 0 -0.1124824913710305 0.07478031250254781 0 -0.1233625974382829 0.082333349379984169 0 -0.12142537575115479 0.061162081821450019 0 -0.10633188744094139 0.066176768455522617 0 -0.1124824913710305 0.07478031250254781 0 -0.12142537575115479 0.061162081821450019 0 -0.12529981912541141 0.1035046169385182 0 -0.1233625974382829 0.082333349379984169 0 -0.12529981912541141 0.1035046169385182 0 -0.1160858643890981 0.091503307084113528 0 -0.1233625974382829 0.082333349379984169 0 -0.1160858643890981 0.091503307084113528 0 -0.111434464171615 0.084185595210009456 0 -0.1233625974382829 0.082333349379984169 0 -0.1087553025946115 0.092045053397631929 0 -0.1160858643890981 0.091503307084113528 0 -0.111434464171615 0.084185595210009456 0 -0.1059569196724892 0.079990599260978415 0 -0.1124824913710305 0.07478031250254781 0 -0.111434464171615 0.084185595210009456 0 -0.1124824913710305 0.07478031250254781 0 -0.111434464171615 0.084185595210009456 0 -0.1233625974382829 0.082333349379984169 0 -0.12529981912541141 0.1035046169385182 0 -0.1160858643890981 0.091503307084113528 0 -0.11359211540332451 0.099591718828732481 0 -0.1087553025946115 0.092045053397631929 0 -0.1160858643890981 0.091503307084113528 0 -0.11359211540332451 0.099591718828732481 0 -0.11359211540332451 0.099591718828732481 0 -0.1126530685735231 0.11062585941222131 0 -0.1048054239603164 0.099702067906497133 0 -0.12529981912541141 0.1035046169385182 0 -0.11359211540332451 0.099591718828732481 0 -0.1126530685735231 0.11062585941222131 0 -0.12604809599703989 0.1149092058150737 0 -0.117214529128708 0.1289626219323971 0 -0.1126530685735231 0.11062585941222131 0 -0.117214529128708 0.1289626219323971 0 -0.1126530685735231 0.11062585941222131 0 -0.1025811536747797 0.1191064113672255 0 -0.12604809599703989 0.1149092058150737 0 -0.12529981912541141 0.1035046169385182 0 -0.1126530685735231 0.11062585941222131 0 -0.1126530685735231 0.11062585941222131 0 -0.1025811536747797 0.1191064113672255 0 -0.099135536556674259 0.1082594822568218 0 -0.10166520226551599 0.131447178594638 0 -0.091622829375769002 0.1208413004639024 0 -0.1025811536747797 0.1191064113672255 0 -0.091622829375769002 0.1208413004639024 0 -0.1025811536747797 0.1191064113672255 0 -0.099135536556674259 0.1082594822568218 0 -0.090441255440357096 0.1046914312627316 0 -0.099135536556674259 0.1082594822568218 0 -0.095957818005331388 0.098255908824030194 0 -0.099135536556674259 0.1082594822568218 0 -0.095957818005331388 0.098255908824030194 0 -0.1048054239603164 0.099702067906497133 0 -0.1010683658857814 0.090966949963849464 0 -0.095957818005331388 0.098255908824030194 0 -0.1048054239603164 0.099702067906497133 0 -0.1010683658857814 0.090966949963849464 0 -0.1087553025946115 0.092045053397631929 0 -0.1048054239603164 0.099702067906497133 0 -0.1087553025946115 0.092045053397631929 0 -0.11359211540332451 0.099591718828732481 0 -0.1048054239603164 0.099702067906497133 0 -0.1126530685735231 0.11062585941222131 0 -0.099135536556674259 0.1082594822568218 0 -0.1048054239603164 0.099702067906497133 0 -0.10190850785300359 0.0156206674157486 0 -0.096123067360366105 0.039721508882729413 0 -0.10190850785300359 0.0156206674157486 0 -0.11175167813752861 0.038589101661076382 0 -0.10190850785300359 0.0156206674157486 0 -0.096123067360366105 0.039721508882729413 0 -0.087585881562147985 0.02717056881304496 0 -0.10190850785300359 0.0156206674157486 0 -0.11262674035744651 0.02412965852653666 0 -0.11175167813752861 0.038589101661076382 0 -0.10190850785300359 0.0156206674157486 0 -0.1106841912510011 0.015917627181310179 0 -0.11262674035744651 0.02412965852653666 0 -0.10190850785300359 0.0156206674157486 0 -0.087585881562147985 0.02717056881304496 0 -0.1057469685677799 -0.0003694950068303185 0 -0.098985197688483087 0.008799302413251206 0 -0.089853539103909641 0.0096821931168466699 0 -0.1057469685677799 -0.0003694950068303185 0 -0.089853539103909641 0.0096821931168466699 0 -0.10076121028079051 0.01294351888682512 0 -0.0891877909970617 0.014816501449265419 0 -0.10076121028079051 0.01294351888682512 0 -0.10190850785300359 0.0156206674157486 0 -0.0891877909970617 0.014816501449265419 0 -0.099384607322613311 -0.0049481512694408911 0 -0.1057469685677799 -0.0003694950068303185 0 -0.089853539103909641 0.0096821931168466699 0 -0.098985197688483087 0.008799302413251206 0 -0.10076121028079051 0.01294351888682512 0 -0.0891877909970617 0.014816501449265419 0 -0.098985197688483087 0.008799302413251206 0 -0.10076121028079051 0.01294351888682512 0 -0.098985197688483087 0.008799302413251206 0 -0.10076121028079051 0.01294351888682512 0 -0.1026235089232815 0.012642134067190921 0 -0.10076121028079051 0.01294351888682512 0 -0.10190850785300359 0.0156206674157486 0 -0.1057469685677799 -0.0003694950068303185 0 -0.1026235089232815 0.012642134067190921 0 -0.10947993032286921 0.0053361750019564648 0 -0.1057469685677799 -0.0003694950068303185 0 -0.1026235089232815 0.012642134067190921 0 -0.1057469685677799 -0.0003694950068303185 0 -0.098985197688483087 0.008799302413251206 0 -0.1026235089232815 0.012642134067190921 0 -0.10190850785300359 0.0156206674157486 0 -0.10748336879154 0.01185563937915117 0 -0.1106841912510011 0.015917627181310179 0 -0.10190850785300359 0.0156206674157486 0 -0.10748336879154 0.01185563937915117 0 -0.1026235089232815 0.012642134067190921 0 -0.10748336879154 0.01185563937915117 0 -0.10190850785300359 0.0156206674157486 0 -0.1026235089232815 0.012642134067190921 0 -0.10748336879154 0.01185563937915117 0 -0.10076121028079051 0.01294351888682512 0 -0.10190850785300359 0.0156206674157486 0 -0.1026235089232815 0.012642134067190921 0 -0.10190850785300359 0.0156206674157486 0 -0.1026235089232815 0.012642134067190921 0 -0.10076121028079051 0.01294351888682512 0 -0.1026235089232815 0.012642134067190921 0 -0.1026235089232815 0.012642134067190921 0 -0.10748336879154 0.01185563937915117 0 -0.10947993032286921 0.0053361750019564648 0 -0.10748336879154 0.01185563937915117 0 -0.1162932503112503 0.0050747472876079124 0 -0.10748336879154 0.01185563937915117 0 -0.116776108717722 0.01035175021620874 0 -0.1106841912510011 0.015917627181310179 0 -0.10748336879154 0.01185563937915117 0 -0.116776108717722 0.01035175021620874 0 -0.10748336879154 0.01185563937915117 0 -0.116776108717722 0.01035175021620874 0 -0.1162932503112503 0.0050747472876079124 0 -0.1152454136241719 -0.006376720041756003 0 -0.10947993032286921 0.0053361750019564648 0 -0.1162932503112503 0.0050747472876079124 0 -0.10748336879154 0.01185563937915117 0 -0.10947993032286921 0.0053361750019564648 0 -0.1162932503112503 0.0050747472876079124 0 -0.116776108717722 0.01035175021620874 0 -0.1162932503112503 0.0050747472876079124 0 -0.1264402431020083 -0.0027353081613576201 0 -0.1162932503112503 0.0050747472876079124 0 -0.1264402431020083 -0.0027353081613576201 0 -0.12854490351264561 0.0084471490874170573 0 -0.1162932503112503 0.0050747472876079124 0 -0.12854490351264561 0.0084471490874170573 0 -0.116776108717722 0.01035175021620874 0 -0.12854490351264561 0.0084471490874170573 0 -0.12541856848650651 0.020378175403592779 0 -0.116776108717722 0.01035175021620874 0 -0.12854490351264561 0.0084471490874170573 0 -0.116776108717722 0.01035175021620874 0 -0.1162932503112503 0.0050747472876079124 0 -0.12541856848650651 0.020378175403592779 0 -0.116776108717722 0.01035175021620874 0 -0.1191007422344383 0.035756916018829417 0 -0.116776108717722 0.01035175021620874 0 -0.1191007422344383 0.035756916018829417 0 -0.116776108717722 0.01035175021620874 0 -0.11262674035744651 0.02412965852653666 0 -0.1191007422344383 0.035756916018829417 0 -0.116776108717722 0.01035175021620874 0 -0.1106841912510011 0.015917627181310179 0 -0.11262674035744651 0.02412965852653666 0 -0.12541856848650651 0.020378175403592779 0 -0.1296065959992781 0.03034459411561858 0 -0.1191007422344383 0.035756916018829417 0 -0.1191007422344383 0.035756916018829417 0 -0.11175167813752861 0.038589101661076382 0 -0.12142537575115479 0.061162081821450019 0 -0.11262674035744651 0.02412965852653666 0 -0.1191007422344383 0.035756916018829417 0 -0.11175167813752861 0.038589101661076382 0 -0.10633188744094139 0.066176768455522617 0 -0.12142537575115479 0.061162081821450019 0 -0.10426642038621579 0.05516320413044308 0 -0.1191007422344383 0.035756916018829417 0 -0.12142537575115479 0.061162081821450019 0 -0.11175167813752861 0.038589101661076382 0 -0.12142537575115479 0.061162081821450019 0 -0.10426642038621579 0.05516320413044308 0 -0.12991691172345729 0.047392951406861117 0 -0.1191007422344383 0.035756916018829417 0 -0.12142537575115479 0.061162081821450019 0 -0.11175167813752861 0.038589101661076382 0 -0.12142537575115479 0.061162081821450019 0 -0.09049248049638095 0.063177265025698343 0 -0.10426642038621579 0.05516320413044308 0 -0.096123067360366105 0.039721508882729413 0 -0.099333795377840678 0.063781751753722582 0 -0.10633188744094139 0.066176768455522617 0 -0.10426642038621579 0.05516320413044308 0 -0.09049248049638095 0.063177265025698343 0 -0.099333795377840678 0.063781751753722582 0 -0.10426642038621579 0.05516320413044308 0 -0.10190850785300359 0.0156206674157486 0 -0.11175167813752861 0.038589101661076382 0 -0.096123067360366105 0.039721508882729413 0 -0.11175167813752861 0.038589101661076382 0 -0.10426642038621579 0.05516320413044308 0 -0.096123067360366105 0.039721508882729413 0 -0.084640022199893167 0.049889296983522929 0 -0.087585881562147985 0.02717056881304496 0 -0.096123067360366105 0.039721508882729413 0 -0.084640022199893167 0.049889296983522929 0 -0.087585881562147985 0.02717056881304496 0 -0.084640022199893167 0.049889296983522929 0 -0.076910350569557723 0.03538743569357114 0 -0.087585881562147985 0.02717056881304496 0 -0.076910350569557723 0.03538743569357114 0 -0.087585881562147985 0.02717056881304496 0 -0.08169416283763925 0.072608025154001082 0 -0.084640022199893167 0.049889296983522929 0 -0.0723604675960033 0.056585793008253477 0 -0.09049248049638095 0.063177265025698343 0 -0.096123067360366105 0.039721508882729413 0 -0.08169416283763925 0.072608025154001082 0 -0.09049248049638095 0.063177265025698343 0 -0.084640022199893167 0.049889296983522929 0 -0.08169416283763925 0.072608025154001082 0 -0.084640022199893167 0.049889296983522929 0 -0.09049248049638095 0.063177265025698343 0 -0.096123067360366105 0.039721508882729413 0 -0.084640022199893167 0.049889296983522929 0 -0.084640022199893167 0.049889296983522929 0 -0.0723604675960033 0.056585793008253477 0 -0.068719377358321038 0.044671580387270322 0 -0.0723604675960033 0.056585793008253477 0 -0.062761435647858965 0.052842897664951108 0 -0.068719377358321038 0.044671580387270322 0 -0.062761435647858965 0.052842897664951108 0 -0.068719377358321038 0.044671580387270322 0 -0.057473935541817969 0.043603866771175059 0 -0.065162455337453032 0.066326941638332568 0 -0.0723604675960033 0.056585793008253477 0 -0.062761435647858965 0.052842897664951108 0 -0.076910350569557723 0.03538743569357114 0 -0.068719377358321038 0.044671580387270322 0 -0.058170052594795241 0.029720192202148141 0 -0.084640022199893167 0.049889296983522929 0 -0.076910350569557723 0.03538743569357114 0 -0.068719377358321038 0.044671580387270322 0 -0.079172535946737232 0.01643731873824816 0 -0.058170052594795241 0.029720192202148141 0 -0.079172535946737232 0.01643731873824816 0 -0.060861462496374898 0.011643504098876821 0 -0.049394772880322513 0.021256398528265111 0 -0.076910350569557723 0.03538743569357114 0 -0.075459705168310437 0.0271788788617549 0 -0.058170052594795241 0.029720192202148141 0 -0.079172535946737232 0.01643731873824816 0 -0.049394772880322513 0.021256398528265111 0 -0.075459705168310437 0.0271788788617549 0 -0.079172535946737232 0.01643731873824816 0 -0.058170052594795241 0.029720192202148141 0 -0.076910350569557723 0.03538743569357114 0 -0.075459705168310437 0.0271788788617549 0 -0.087585881562147985 0.02717056881304496 0 -0.075459705168310437 0.0271788788617549 0 -0.079172535946737232 0.01643731873824816 0 -0.087585881562147985 0.02717056881304496 0 -0.079172535946737232 0.01643731873824816 0 -0.087585881562147985 0.02717056881304496 0 -0.0891877909970617 0.014816501449265419 0 -0.079172535946737232 0.01643731873824816 0 -0.0891877909970617 0.014816501449265419 0 -0.087585881562147985 0.02717056881304496 0 -0.0891877909970617 0.014816501449265419 0 -0.10190850785300359 0.0156206674157486 0 -0.087585881562147985 0.02717056881304496 0 -0.0891877909970617 0.014816501449265419 0 -0.079172535946737232 0.01643731873824816 0 -0.089853539103909641 0.0096821931168466699 0 -0.0891877909970617 0.014816501449265419 0 -0.098985197688483087 0.008799302413251206 0 -0.089853539103909641 0.0096821931168466699 0 -0.0891877909970617 0.014816501449265419 0 -0.089853539103909641 0.0096821931168466699 0 -0.0891877909970617 0.014816501449265419 0 -0.079172535946737232 0.01643731873824816 0 -0.089853539103909641 0.0096821931168466699 0 -0.079405063389824782 0.0054395139613942003 0 -0.079172535946737232 0.01643731873824816 0 -0.089853539103909641 0.0096821931168466699 0 -0.084676882046832921 -0.003726421551112771 0 -0.089853539103909641 0.0096821931168466699 0 -0.079405063389824782 0.0054395139613942003 0 -0.079172535946737232 0.01643731873824816 0 -0.06924472992207395 0.006335139175882248 0 -0.060861462496374898 0.011643504098876821 0 -0.074828279467209852 -0.0044579459570286816 0 -0.079405063389824782 0.0054395139613942003 0 -0.06924472992207395 0.006335139175882248 0 -0.079172535946737232 0.01643731873824816 0 -0.079405063389824782 0.0054395139613942003 0 -0.06924472992207395 0.006335139175882248 0 -0.064722814706606319 -0.0020232014957569269 0 -0.06924472992207395 0.006335139175882248 0 -0.056106670124102621 0.0027471253245948341 0 -0.06924472992207395 0.006335139175882248 0 -0.056106670124102621 0.0027471253245948341 0 -0.060861462496374898 0.011643504098876821 0 -0.048527118606112023 -0.002568113682287656 0 -0.056106670124102621 0.0027471253245948341 0 -0.044026228067498972 0.003902351111932773 0 -0.056106670124102621 0.0027471253245948341 0 -0.049988917732784709 0.01073643428812371 0 -0.044026228067498972 0.003902351111932773 0 -0.049988917732784709 0.01073643428812371 0 -0.060861462496374898 0.011643504098876821 0 -0.049394772880322513 0.021256398528265111 0 -0.056106670124102621 0.0027471253245948341 0 -0.049988917732784709 0.01073643428812371 0 -0.060861462496374898 0.011643504098876821 0 -0.058170052594795241 0.029720192202148141 0 -0.049394772880322513 0.021256398528265111 0 -0.041240724309719583 0.025838675159626859 0 -0.079172535946737232 0.01643731873824816 0 -0.058170052594795241 0.029720192202148141 0 -0.049394772880322513 0.021256398528265111 0 -0.049394772880322513 0.021256398528265111 0 -0.041240724309719583 0.025838675159626859 0 -0.039555455095624532 0.014132792376949 0 -0.041240724309719583 0.025838675159626859 0 -0.0328813021546965 0.02076653125302437 0 -0.029436032068762861 0.026247281810985269 0 -0.0328813021546965 0.02076653125302437 0 -0.039555455095624532 0.014132792376949 0 -0.0302792572719927 0.01406480973860324 0 -0.041240724309719583 0.025838675159626859 0 -0.0328813021546965 0.02076653125302437 0 -0.039555455095624532 0.014132792376949 0 -0.034257149984634881 0.0060238158360771286 0 -0.039555455095624532 0.014132792376949 0 -0.0302792572719927 0.01406480973860324 0 -0.039566082210381 -0.0079518516456492834 0 -0.034257149984634881 0.0060238158360771286 0 -0.044026228067498972 0.003902351111932773 0 -0.049988917732784709 0.01073643428812371 0 -0.049394772880322513 0.021256398528265111 0 -0.039555455095624532 0.014132792376949 0 -0.049988917732784709 0.01073643428812371 0 -0.044026228067498972 0.003902351111932773 0 -0.039555455095624532 0.014132792376949 0 -0.034257149984634881 0.0060238158360771286 0 -0.044026228067498972 0.003902351111932773 0 -0.039555455095624532 0.014132792376949 0 -0.05600532016027996 0.060780458395876619 0 -0.05296883914355232 0.051165269471733117 0 -0.044724576312927297 0.057496516482412288 0 -0.065162455337453032 0.066326941638332568 0 -0.062761435647858965 0.052842897664951108 0 -0.05600532016027996 0.060780458395876619 0 -0.062761435647858965 0.052842897664951108 0 -0.05600532016027996 0.060780458395876619 0 -0.05296883914355232 0.051165269471733117 0 -0.062761435647858965 0.052842897664951108 0 -0.05296883914355232 0.051165269471733117 0 -0.057473935541817969 0.043603866771175059 0 -0.05296883914355232 0.051165269471733117 0 -0.04592508836571129 0.043029170916583211 0 -0.044724576312927297 0.057496516482412288 0 -0.058170052594795241 0.029720192202148141 0 -0.037167569242850862 0.043003065666043561 0 -0.04592508836571129 0.043029170916583211 0 -0.058170052594795241 0.029720192202148141 0 -0.037167569242850862 0.043003065666043561 0 -0.05296883914355232 0.051165269471733117 0 -0.057473935541817969 0.043603866771175059 0 -0.04592508836571129 0.043029170916583211 0 -0.068719377358321038 0.044671580387270322 0 -0.058170052594795241 0.029720192202148141 0 -0.057473935541817969 0.043603866771175059 0 -0.058170052594795241 0.029720192202148141 0 -0.057473935541817969 0.043603866771175059 0 -0.04592508836571129 0.043029170916583211 0 -0.037167569242850862 0.043003065666043561 0 -0.027761940710255971 0.02496417629203276 0 -0.041240724309719583 0.025838675159626859 0 -0.037167569242850862 0.043003065666043561 0 -0.029436032068762861 0.026247281810985269 0 -0.037167569242850862 0.043003065666043561 0 -0.029436032068762861 0.026247281810985269 0 -0.027761940710255971 0.02496417629203276 0 -0.058170052594795241 0.029720192202148141 0 -0.041240724309719583 0.025838675159626859 0 -0.037167569242850862 0.043003065666043561 0 -0.037167569242850862 0.043003065666043561 0 -0.02941306207126089 0.047907349402825518 0 -0.028075815859620282 0.036520605216819109 0 -0.037167569242850862 0.043003065666043561 0 -0.02941306207126089 0.047907349402825518 0 -0.043689409056041531 0.069971295381251297 0 -0.033848368037782052 0.056438241570946499 0 -0.02941306207126089 0.047907349402825518 0 -0.043689409056041531 0.069971295381251297 0 -0.02941306207126089 0.047907349402825518 0 -0.043689409056041531 0.069971295381251297 0 -0.044724576312927297 0.057496516482412288 0 -0.02941306207126089 0.047907349402825518 0 -0.04592508836571129 0.043029170916583211 0 -0.044724576312927297 0.057496516482412288 0 -0.037167569242850862 0.043003065666043561 0 -0.044724576312927297 0.057496516482412288 0 -0.037167569242850862 0.043003065666043561 0 -0.04592508836571129 0.043029170916583211 0 -0.044724576312927297 0.057496516482412288 0 -0.037167569242850862 0.043003065666043561 0 -0.044724576312927297 0.057496516482412288 0 -0.02941306207126089 0.047907349402825518 0 -0.02941306207126089 0.047907349402825518 0 -0.014893911193761071 0.045508035387886073 0 -0.012825841706835209 0.058397820721207 0 -0.02941306207126089 0.047907349402825518 0 -0.012825841706835209 0.058397820721207 0 -0.033848368037782052 0.056438241570946499 0 -0.02941306207126089 0.047907349402825518 0 -0.012825841706835209 0.058397820721207 0 -0.02941306207126089 0.047907349402825518 0 -0.028075815859620282 0.036520605216819109 0 -0.01796069141411449 0.03020782950637747 0 -0.02941306207126089 0.047907349402825518 0 -0.014893911193761071 0.045508035387886073 0 -0.01796069141411449 0.03020782950637747 0 -0.037167569242850862 0.043003065666043561 0 -0.028075815859620282 0.036520605216819109 0 -0.027761940710255971 0.02496417629203276 0 -0.02941306207126089 0.047907349402825518 0 -0.01796069141411449 0.03020782950637747 0 -0.01796069141411449 0.03020782950637747 0 0.006286359699138936 0.027779514051932859 0 0.00062395041716644219 0.045519141921134022 0 -0.014893911193761071 0.045508035387886073 0 -0.01796069141411449 0.03020782950637747 0 0.00062395041716644219 0.045519141921134022 0 -0.012825841706835209 0.058397820721207 0 0.00062395041716644219 0.045519141921134022 0 0.003761378657590814 0.068888292039587559 0 -0.014893911193761071 0.045508035387886073 0 -0.012825841706835209 0.058397820721207 0 0.00062395041716644219 0.045519141921134022 0 -0.017858727277677441 0.0059709775985498257 0 -0.027761940710255971 0.02496417629203276 0 -0.01497585744956942 0.0078200146864171663 0 -0.039566082210381 -0.0079518516456492834 0 -0.034257149984634881 0.0060238158360771286 0 -0.017858727277677441 0.0059709775985498257 0 -0.017858727277677441 0.0059709775985498257 0 -0.0302792572719927 0.01406480973860324 0 -0.027761940710255971 0.02496417629203276 0 -0.017858727277677441 0.0059709775985498257 0 -0.027761940710255971 0.02496417629203276 0 -0.034257149984634881 0.0060238158360771286 0 -0.017858727277677441 0.0059709775985498257 0 -0.0302792572719927 0.01406480973860324 0 -0.027761940710255971 0.02496417629203276 0 -0.0084644086065456398 0.010173603592049911 0 -0.01497585744956942 0.0078200146864171663 0 -0.017858727277677441 0.0059709775985498257 0 -0.01497585744956942 0.0078200146864171663 0 -0.017858727277677441 0.0059709775985498257 0 -0.01497585744956942 0.0078200146864171663 0 -0.015605737154914791 0.0016500075066230341 0 -0.017858727277677441 0.0059709775985498257 0 -0.015605737154914791 0.0016500075066230341 0 -0.027761940710255971 0.02496417629203276 0 -0.0084644086065456398 0.010173603592049911 0 -0.027761940710255971 0.02496417629203276 0 -0.01796069141411449 0.03020782950637747 0 -0.0084644086065456398 0.010173603592049911 0 -0.0328813021546965 0.02076653125302437 0 -0.0302792572719927 0.01406480973860324 0 -0.027761940710255971 0.02496417629203276 0 -0.028075815859620282 0.036520605216819109 0 -0.027761940710255971 0.02496417629203276 0 -0.01796069141411449 0.03020782950637747 0 -0.0328813021546965 0.02076653125302437 0 -0.029436032068762861 0.026247281810985269 0 -0.027761940710255971 0.02496417629203276 0 -0.029436032068762861 0.026247281810985269 0 -0.027761940710255971 0.02496417629203276 0 -0.01796069141411449 0.03020782950637747 0 -0.0065083207569354056 0.01250830960995053 0 -0.01796069141411449 0.03020782950637747 0 -0.0065083207569354056 0.01250830960995053 0 0.006286359699138936 0.027779514051932859 0 -0.01796069141411449 0.03020782950637747 0 -0.0065083207569354056 0.01250830960995053 0 -0.0084644086065456398 0.010173603592049911 0 -0.0065083207569354056 0.01250830960995053 0 0.006286359699138936 0.027779514051932859 0 -0.0065083207569354056 0.01250830960995053 0 -0.001586950804156211 0.0049023834655272172 0 0.0044547551129398366 0.01254613340450657 0 -0.0065083207569354056 0.01250830960995053 0 -0.001586950804156211 0.0049023834655272172 0 -0.0065083207569354056 0.01250830960995053 0 -0.0084644086065456398 0.010173603592049911 0 -0.001586950804156211 0.0049023834655272172 0 -0.0065083207569354056 0.01250830960995053 0 -0.0084644086065456398 0.010173603592049911 0 -0.0084644086065456398 0.010173603592049911 0 -0.015605737154914791 0.0016500075066230341 0 -0.0084644086065456398 0.010173603592049911 0 -0.015605737154914791 0.0016500075066230341 0 -0.001586950804156211 0.0049023834655272172 0 -0.0084644086065456398 0.010173603592049911 0 -0.01497585744956942 0.0078200146864171663 0 -0.015605737154914791 0.0016500075066230341 0 -0.0084644086065456398 0.010173603592049911 0 -0.001586950804156211 0.0049023834655272172 0 -0.001586950804156211 0.0049023834655272172 0 0.009916948469526822 0.0046729025718050448 0 0.0044547551129398366 0.01254613340450657 0 -0.001586950804156211 0.0049023834655272172 0 0.009916948469526822 0.0046729025718050448 0 0.015005884870503319 -0.0078151775690132319 0 0.009916948469526822 0.0046729025718050448 0 0.01416573895712357 0.01286755732331806 0 0.019656681405177651 0.0005691286581931132 0 0.009916948469526822 0.0046729025718050448 0 0.01416573895712357 0.01286755732331806 0 0.0044547551129398366 0.01254613340450657 0 -0.0065083207569354056 0.01250830960995053 0 0.0044547551129398366 0.01254613340450657 0 0.006286359699138936 0.027779514051932859 0 0.01416573895712357 0.01286755732331806 0 0.006286359699138936 0.027779514051932859 0 0.01936438835173358 0.02294570129993519 0 0.01416573895712357 0.01286755732331806 0 0.0044547551129398366 0.01254613340450657 0 0.006286359699138936 0.027779514051932859 0 0.01936438835173358 0.02294570129993519 0 0.019081040155211521 0.04305071849391668 0 0.033145149528259678 0.019330712647986401 0 0.01416573895712357 0.01286755732331806 0 0.01936438835173358 0.02294570129993519 0 0.02414365341893367 0.011700003982522409 0 0.019081040155211521 0.04305071849391668 0 0.033145149528259678 0.019330712647986401 0 0.01936438835173358 0.02294570129993519 0 0.02414365341893367 0.011700003982522409 0 0.033145149528259678 0.019330712647986401 0 0.02414365341893367 0.011700003982522409 0 0.033788142786988572 0.001392929892674669 0 0.033145149528259678 0.019330712647986401 0 0.02414365341893367 0.011700003982522409 0 0.019656681405177651 0.0005691286581931132 0 0.033788142786988572 0.001392929892674669 0 0.01416573895712357 0.01286755732331806 0 0.02414365341893367 0.011700003982522409 0 0.019656681405177651 0.0005691286581931132 0 0.00062395041716644219 0.045519141921134022 0 0.019081040155211521 0.04305071849391668 0 0.003761378657590814 0.068888292039587559 0 0.019081040155211521 0.04305071849391668 0 0.003761378657590814 0.068888292039587559 0 0.019081040155211521 0.04305071849391668 0 0.020564179264477591 0.064999982741366424 0 0.003761378657590814 0.068888292039587559 0 0.006286359699138936 0.027779514051932859 0 0.01936438835173358 0.02294570129993519 0 0.019081040155211521 0.04305071849391668 0 0.006286359699138936 0.027779514051932859 0 0.00062395041716644219 0.045519141921134022 0 0.019081040155211521 0.04305071849391668 0 0.006286359699138936 0.027779514051932859 0 0.019081040155211521 0.04305071849391668 0 0.019081040155211521 0.04305071849391668 0 0.038125468458144698 0.039752875834301329 0 0.033145149528259678 0.019330712647986401 0 0.019081040155211521 0.04305071849391668 0 0.034019423372089998 0.060880558396588742 0 0.038125468458144698 0.039752875834301329 0 0.019081040155211521 0.04305071849391668 0 0.034019423372089998 0.060880558396588742 0 0.019081040155211521 0.04305071849391668 0 0.034019423372089998 0.060880558396588742 0 0.020564179264477591 0.064999982741366424 0 0.043541637523555748 0.059231637066781563 0 0.038125468458144698 0.039752875834301329 0 0.049685223590126427 0.045895477143746782 0 0.043541637523555748 0.059231637066781563 0 0.034019423372089998 0.060880558396588742 0 0.038125468458144698 0.039752875834301329 0 0.043541637523555748 0.059231637066781563 0 0.038125468458144698 0.039752875834301329 0 0.038125468458144698 0.039752875834301329 0 0.051048749760701839 0.032000990157854528 0 0.049685223590126427 0.045895477143746782 0 0.051048749760701839 0.032000990157854528 0 0.059420641206482383 0.043598652999637187 0 0.069280539903022992 0.031970248345985747 0 0.051048749760701839 0.032000990157854528 0 0.059420641206482383 0.043598652999637187 0 0.049685223590126427 0.045895477143746782 0 0.043541637523555748 0.059231637066781563 0 0.049685223590126427 0.045895477143746782 0 0.056316966909620493 0.055435011565581963 0 0.059420641206482383 0.043598652999637187 0 0.056316966909620493 0.055435011565581963 0 0.07024192331577922 0.050102994974599253 0 0.059420641206482383 0.043598652999637187 0 0.049685223590126427 0.045895477143746782 0 0.056316966909620493 0.055435011565581963 0 0.056316966909620493 0.055435011565581963 0 0.064619607718823857 0.063274707525485141 0 0.052144713813471383 0.067372734910964849 0 0.043541637523555748 0.059231637066781563 0 0.056316966909620493 0.055435011565581963 0 0.052144713813471383 0.067372734910964849 0 0.033145149528259678 0.019330712647986401 0 0.049372501514576457 0.0086375773382634871 0 0.047209258901309593 -0.0043892931979426864 0 0.033788142786988572 0.001392929892674669 0 0.033145149528259678 0.019330712647986401 0 0.047209258901309593 -0.0043892931979426864 0 0.033145149528259678 0.019330712647986401 0 0.047209258901309593 -0.0043892931979426864 0 0.033145149528259678 0.019330712647986401 0 0.056921623458158127 0.017127179833812779 0 0.049372501514576457 0.0086375773382634871 0 0.038125468458144698 0.039752875834301329 0 0.051048749760701839 0.032000990157854528 0 0.033145149528259678 0.019330712647986401 0 0.051048749760701839 0.032000990157854528 0 0.033145149528259678 0.019330712647986401 0 0.056921623458158127 0.017127179833812779 0 0.051048749760701839 0.032000990157854528 0 0.056921623458158127 0.017127179833812779 0 0.069280539903022992 0.031970248345985747 0 0.056921623458158127 0.017127179833812779 0 0.049372501514576457 0.0086375773382634871 0 0.060213974170578471 0.0024817100691974501 0 0.049372501514576457 0.0086375773382634871 0 0.060213974170578471 0.0024817100691974501 0 0.047209258901309593 -0.0043892931979426864 0 0.079557857640346535 0.0133447350575818 0 0.071573094007478549 -0.0061900617459878134 0 0.056921623458158127 0.017127179833812779 0 0.060213974170578471 0.0024817100691974501 0 0.079557857640346535 0.0133447350575818 0 0.060213974170578471 0.0024817100691974501 0 0.079557857640346535 0.0133447350575818 0 0.071573094007478549 -0.0061900617459878134 0 0.079557857640346535 0.0133447350575818 0 0.090390962655939322 -0.00034289475079352609 0 0.071573094007478549 -0.0061900617459878134 0 0.079557857640346535 0.0133447350575818 0 0.100882172054946 0.02237546963521338 0 0.090390962655939322 -0.00034289475079352609 0 0.079557857640346535 0.0133447350575818 0 0.086240665966637833 0.027256556862311779 0 0.069280539903022992 0.031970248345985747 0 0.079557857640346535 0.0133447350575818 0 0.086240665966637833 0.027256556862311779 0 0.100882172054946 0.02237546963521338 0 0.056921623458158127 0.017127179833812779 0 0.079557857640346535 0.0133447350575818 0 0.069280539903022992 0.031970248345985747 0 0.059420641206482383 0.043598652999637187 0 0.069280539903022992 0.031970248345985747 0 0.07024192331577922 0.050102994974599253 0 0.069280539903022992 0.031970248345985747 0 0.07024192331577922 0.050102994974599253 0 0.080928867100889715 0.041747364495509677 0 0.056316966909620493 0.055435011565581963 0 0.07024192331577922 0.050102994974599253 0 0.064619607718823857 0.063274707525485141 0 0.07024192331577922 0.050102994974599253 0 0.075186179712670109 0.061923177372916957 0 0.064619607718823857 0.063274707525485141 0 0.07024192331577922 0.050102994974599253 0 0.075186179712670109 0.061923177372916957 0 0.084857619267689324 0.055401374980348153 0 0.084857619267689324 0.055401374980348153 0 0.080928867100889715 0.041747364495509677 0 0.10237086138960461 0.045485302095211878 0 0.075186179712670109 0.061923177372916957 0 0.084857619267689324 0.055401374980348153 0 0.083055551356612425 0.067293440687280826 0 0.07024192331577922 0.050102994974599253 0 0.084857619267689324 0.055401374980348153 0 0.080928867100889715 0.041747364495509677 0 0.086240665966637833 0.027256556862311779 0 0.069280539903022992 0.031970248345985747 0 0.080928867100889715 0.041747364495509677 0 0.086240665966637833 0.027256556862311779 0 0.080928867100889715 0.041747364495509677 0 0.10237086138960461 0.045485302095211878 0 0.086240665966637833 0.027256556862311779 0 0.10237086138960461 0.045485302095211878 0 0.100882172054946 0.02237546963521338 0 0.10237086138960461 0.045485302095211878 0 0.1122024148392477 0.035215715690169458 0 0.100882172054946 0.02237546963521338 0 0.10237086138960461 0.045485302095211878 0 0.1096843260660503 0.060356853418972879 0 0.094276399955352655 0.066459772172828155 0 0.084857619267689324 0.055401374980348153 0 0.10237086138960461 0.045485302095211878 0 0.094276399955352655 0.066459772172828155 0 0.10237086138960461 0.045485302095211878 0 0.119801941182084 0.047231166057440772 0 0.1096843260660503 0.060356853418972879 0 0.119801941182084 0.047231166057440772 0 0.1096843260660503 0.060356853418972879 0 0.12623645721171081 0.070878328956718209 0 0.10237086138960461 0.045485302095211878 0 0.119801941182084 0.047231166057440772 0 0.119801941182084 0.047231166057440772 0 0.1122024148392477 0.035215715690169458 0 0.12362321086702011 0.026748764275649518 0 0.10237086138960461 0.045485302095211878 0 0.119801941182084 0.047231166057440772 0 0.1122024148392477 0.035215715690169458 0 0.1122024148392477 0.035215715690169458 0 0.12362321086702011 0.026748764275649518 0 0.100882172054946 0.02237546963521338 0 0.12362321086702011 0.026748764275649518 0 0.1203952565228823 0.010720111231283891 0 0.100882172054946 0.02237546963521338 0 0.1203952565228823 0.010720111231283891 0 0.100882172054946 0.02237546963521338 0 0.1081198131278969 -0.0011898653779008181 0 0.1203952565228823 0.010720111231283891 0 0.1081198131278969 -0.0011898653779008181 0 0.12671729673547841 -0.003424175532665474 0 0.100882172054946 0.02237546963521338 0 0.090390962655939322 -0.00034289475079352609 0 0.1081198131278969 -0.0011898653779008181 0 0.1088203241911716 0.1043277935298537 0 0.10320883803769181 0.088585279287683324 0 0.087633647528670963 0.098944844358777512 0 0.1088203241911716 0.1043277935298537 0 0.118143299844883 0.1205503416995295 0 0.094494814569898167 0.1262720179529194 0 0.1088203241911716 0.1043277935298537 0 0.087633647528670963 0.098944844358777512 0 0.094494814569898167 0.1262720179529194 0 0.1088203241911716 0.1043277935298537 0 0.118143299844883 0.1205503416995295 0 0.12731613885478529 0.1040157144150566 0 0.1088203241911716 0.1043277935298537 0 0.1186365169817739 0.088338449415469728 0 0.10320883803769181 0.088585279287683324 0 0.1088203241911716 0.1043277935298537 0 0.1186365169817739 0.088338449415469728 0 0.12731613885478529 0.1040157144150566 0 0.1186365169817739 0.088338449415469728 0 0.10646073341372921 0.074851267955722806 0 0.10320883803769181 0.088585279287683324 0 0.1096843260660503 0.060356853418972879 0 0.10646073341372921 0.074851267955722806 0 0.12623645721171081 0.070878328956718209 0 0.1186365169817739 0.088338449415469728 0 0.10646073341372921 0.074851267955722806 0 0.12623645721171081 0.070878328956718209 0 0.10646073341372921 0.074851267955722806 0 0.094276399955352655 0.066459772172828155 0 0.088338959393096508 0.07888705225577157 0 0.1096843260660503 0.060356853418972879 0 0.10646073341372921 0.074851267955722806 0 0.094276399955352655 0.066459772172828155 0 0.10646073341372921 0.074851267955722806 0 0.10320883803769181 0.088585279287683324 0 0.088338959393096508 0.07888705225577157 0 0.10320883803769181 0.088585279287683324 0 0.088338959393096508 0.07888705225577157 0 0.087633647528670963 0.098944844358777512 0 0.088338959393096508 0.07888705225577157 0 0.072618598454253572 0.073795826654539265 0 0.076657140611621113 0.086801356150468564 0 0.088338959393096508 0.07888705225577157 0 0.076657140611621113 0.086801356150468564 0 0.087633647528670963 0.098944844358777512 0 0.088338959393096508 0.07888705225577157 0 0.083055551356612425 0.067293440687280826 0 0.072618598454253572 0.073795826654539265 0 0.084857619267689324 0.055401374980348153 0 0.094276399955352655 0.066459772172828155 0 0.083055551356612425 0.067293440687280826 0 0.094276399955352655 0.066459772172828155 0 0.088338959393096508 0.07888705225577157 0 0.083055551356612425 0.067293440687280826 0 0.075186179712670109 0.061923177372916957 0 0.083055551356612425 0.067293440687280826 0 0.072618598454253572 0.073795826654539265 0 0.075186179712670109 0.061923177372916957 0 0.072618598454253572 0.073795826654539265 0 0.064619607718823857 0.063274707525485141 0 0.072618598454253572 0.073795826654539265 0 0.065263408486956234 0.076675685336185004 0 0.061209264107148387 0.071018499674308594 0 0.072618598454253572 0.073795826654539265 0 0.065263408486956234 0.076675685336185004 0 0.066471529086723422 0.082998015562692984 0 0.072618598454253572 0.073795826654539265 0 0.064619607718823857 0.063274707525485141 0 0.061209264107148387 0.071018499674308594 0 0.076657140611621113 0.086801356150468564 0 0.066471529086723422 0.082998015562692984 0 0.068779043665845183 0.095837694344426322 0 0.072618598454253572 0.073795826654539265 0 0.076657140611621113 0.086801356150468564 0 0.066471529086723422 0.082998015562692984 0 0.065263408486956234 0.076675685336185004 0 0.066471529086723422 0.082998015562692984 0 0.059467840655484688 0.07841102490764304 0 0.066471529086723422 0.082998015562692984 0 0.068779043665845183 0.095837694344426322 0 0.060011941865929903 0.088186584558526293 0 0.076657140611621113 0.086801356150468564 0 0.068779043665845183 0.095837694344426322 0 0.087633647528670963 0.098944844358777512 0 0.074891336008435394 0.11387393526809669 0 0.055287857446979373 0.1014758525832631 0 0.068779043665845183 0.095837694344426322 0 0.087633647528670963 0.098944844358777512 0 0.074891336008435394 0.11387393526809669 0 0.068779043665845183 0.095837694344426322 0 0.074891336008435394 0.11387393526809669 0 0.055287857446979373 0.1014758525832631 0 0.074891336008435394 0.11387393526809669 0 0.078631637739994015 0.13131400488819581 0 0.094494814569898167 0.1262720179529194 0 0.087633647528670963 0.098944844358777512 0 0.074891336008435394 0.11387393526809669 0 0.094494814569898167 0.1262720179529194 0 0.074891336008435394 0.11387393526809669 0 0.094494814569898167 0.1262720179529194 0 0.059707896019303833 0.1173721207662765 0 0.078631637739994015 0.13131400488819581 0 0.074891336008435394 0.11387393526809669 0 0.059707896019303833 0.1173721207662765 0 0.055287857446979373 0.1014758525832631 0 0.074891336008435394 0.11387393526809669 0 0.059707896019303833 0.1173721207662765 0 0.078631637739994015 0.13131400488819581 0 0.059707896019303833 0.1173721207662765 0 0.055287857446979373 0.1014758525832631 0 0.059707896019303833 0.1173721207662765 0 0.050180073573695992 0.1103525895112268 0 0.055287857446979373 0.1014758525832631 0 0.059707896019303833 0.1173721207662765 0 0.050977460878316831 0.1227054896462007 0 0.050180073573695992 0.1103525895112268 0 0.059707896019303833 0.1173721207662765 0 0.050180073573695992 0.1103525895112268 0 0.050180073573695992 0.1103525895112268 0 0.055287857446979373 0.1014758525832631 0 0.039133835508038381 0.1031444155042673 0 0.068779043665845183 0.095837694344426322 0 0.055287857446979373 0.1014758525832631 0 0.060011941865929903 0.088186584558526293 0 0.055287857446979373 0.1014758525832631 0 0.039133835508038381 0.1031444155042673 0 0.038112364517178587 0.090613332402045499 0 0.055287857446979373 0.1014758525832631 0 0.038112364517178587 0.090613332402045499 0 0.039133835508038381 0.1031444155042673 0 0.038112364517178587 0.090613332402045499 0 0.024372358507304341 0.093328671434914814 0 0.039133835508038381 0.1031444155042673 0 0.038561697124463133 0.1163203165339524 0 0.028288661878615701 0.1067757305601905 0 0.050977460878316831 0.1227054896462007 0 0.038561697124463133 0.1163203165339524 0 0.041353494351689377 0.13277511442114981 0 0.038561697124463133 0.1163203165339524 0 0.021257904092631681 0.1247048844528502 0 0.041353494351689377 0.13277511442114981 0 0.050180073573695992 0.1103525895112268 0 0.039133835508038381 0.1031444155042673 0 0.038561697124463133 0.1163203165339524 0 0.050977460878316831 0.1227054896462007 0 0.050180073573695992 0.1103525895112268 0 0.038561697124463133 0.1163203165339524 0 0.043541637523555748 0.059231637066781563 0 0.052144713813471383 0.067372734910964849 0 0.048957806588967492 0.078710398299261686 0 0.064619607718823857 0.063274707525485141 0 0.052144713813471383 0.067372734910964849 0 0.061209264107148387 0.071018499674308594 0 0.052144713813471383 0.067372734910964849 0 0.061209264107148387 0.071018499674308594 0 0.054654084622150413 0.075449266082329491 0 0.065263408486956234 0.076675685336185004 0 0.061209264107148387 0.071018499674308594 0 0.059467840655484688 0.07841102490764304 0 0.061209264107148387 0.071018499674308594 0 0.054654084622150413 0.075449266082329491 0 0.059467840655484688 0.07841102490764304 0 0.052144713813471383 0.067372734910964849 0 0.054654084622150413 0.075449266082329491 0 0.048957806588967492 0.078710398299261686 0 0.055287857446979373 0.1014758525832631 0 0.048957806588967492 0.078710398299261686 0 0.038112364517178587 0.090613332402045499 0 0.055287857446979373 0.1014758525832631 0 0.05149079794567956 0.08173367261946976 0 0.060011941865929903 0.088186584558526293 0 0.055287857446979373 0.1014758525832631 0 0.048957806588967492 0.078710398299261686 0 0.055287857446979373 0.1014758525832631 0 0.048957806588967492 0.078710398299261686 0 0.05149079794567956 0.08173367261946976 0 0.048957806588967492 0.078710398299261686 0 0.05149079794567956 0.08173367261946976 0 0.054654084622150413 0.075449266082329491 0 0.048957806588967492 0.078710398299261686 0 0.05149079794567956 0.08173367261946976 0 0.054654084622150413 0.075449266082329491 0 0.05149079794567956 0.08173367261946976 0 0.059467840655484688 0.07841102490764304 0 0.066471529086723422 0.082998015562692984 0 0.059467840655484688 0.07841102490764304 0 0.060011941865929903 0.088186584558526293 0 0.05149079794567956 0.08173367261946976 0 0.059467840655484688 0.07841102490764304 0 0.060011941865929903 0.088186584558526293 0 0.048957806588967492 0.078710398299261686 0 0.038112364517178587 0.090613332402045499 0 0.03386925714743183 0.076055982240606376 0 0.043541637523555748 0.059231637066781563 0 0.048957806588967492 0.078710398299261686 0 0.043541637523555748 0.059231637066781563 0 0.034019423372089998 0.060880558396588742 0 0.048957806588967492 0.078710398299261686 0 0.034019423372089998 0.060880558396588742 0 0.048957806588967492 0.078710398299261686 0 0.03386925714743183 0.076055982240606376 0 0.034019423372089998 0.060880558396588742 0 0.048957806588967492 0.078710398299261686 0 0.034019423372089998 0.060880558396588742 0 0.03386925714743183 0.076055982240606376 0 0.020564179264477591 0.064999982741366424 0 0.03386925714743183 0.076055982240606376 0 0.020564179264477591 0.064999982741366424 0 0.020936871587384609 0.079750812220816841 0 0.020936871587384609 0.079750812220816841 0 0.024372358507304341 0.093328671434914814 0 0.0075763185731497476 0.089996567563775789 0 0.038112364517178587 0.090613332402045499 0 0.020936871587384609 0.079750812220816841 0 0.038112364517178587 0.090613332402045499 0 0.020936871587384609 0.079750812220816841 0 0.024372358507304341 0.093328671434914814 0 0.038112364517178587 0.090613332402045499 0 0.03386925714743183 0.076055982240606376 0 0.020936871587384609 0.079750812220816841 0 -0.0024573326157280341 0.07937654009321482 0 0.0075763185731497476 0.089996567563775789 0 0.0074543090505992506 0.079503052979348898 0 0.020936871587384609 0.079750812220816841 0 0.0075763185731497476 0.089996567563775789 0 0.0074543090505992506 0.079503052979348898 0 0.020936871587384609 0.079750812220816841 0 0.003761378657590814 0.068888292039587559 0 0.020564179264477591 0.064999982741366424 0 0.020936871587384609 0.079750812220816841 0 0.003761378657590814 0.068888292039587559 0 0.020936871587384609 0.079750812220816841 0 0.0074543090505992506 0.079503052979348898 0 0.003761378657590814 0.068888292039587559 0 -0.0024573326157280341 0.07937654009321482 0 0.0074543090505992506 0.079503052979348898 0 0.003761378657590814 0.068888292039587559 0 -0.0024573326157280341 0.07937654009321482 0 0.003761378657590814 0.068888292039587559 0 0.021257904092631681 0.1247048844528502 0 0.028288661878615701 0.1067757305601905 0 0.01053754215110982 0.10895990783524891 0 0.038561697124463133 0.1163203165339524 0 0.021257904092631681 0.1247048844528502 0 0.028288661878615701 0.1067757305601905 0 0.0075763185731497476 0.089996567563775789 0 0.028288661878615701 0.1067757305601905 0 0.024372358507304341 0.093328671434914814 0 0.0075763185731497476 0.089996567563775789 0 0.028288661878615701 0.1067757305601905 0 0.039133835508038381 0.1031444155042673 0 0.024372358507304341 0.093328671434914814 0 0.028288661878615701 0.1067757305601905 0 -0.0051760666142191963 0.10463426502372 0 0.0075763185731497476 0.089996567563775789 0 0.01053754215110982 0.10895990783524891 0 0.0075763185731497476 0.089996567563775789 0 0.028288661878615701 0.1067757305601905 0 0.01053754215110982 0.10895990783524891 0 -0.002137736806820432 0.123161010156593 0 -0.0051760666142191963 0.10463426502372 0 0.01053754215110982 0.10895990783524891 0 -0.002137736806820432 0.123161010156593 0 0.021257904092631681 0.1247048844528502 0 0.01053754215110982 0.10895990783524891 0 -0.002137736806820432 0.123161010156593 0 0.021257904092631681 0.1247048844528502 0 0.0060601072686411643 0.13849791517015411 0 0.021257904092631681 0.1247048844528502 0 0.027250147193439631 0.1465240096692865 0 0.041353494351689377 0.13277511442114981 0 0.021257904092631681 0.1247048844528502 0 0.0060601072686411643 0.13849791517015411 0 0.027250147193439631 0.1465240096692865 0 0.027250147193439631 0.1465240096692865 0 0.01060324473180853 0.15528437414372401 0 0.024590140408020648 0.16553713634923661 0 -0.011797766153259261 0.1443864474400226 0 0.0060601072686411643 0.13849791517015411 0 0.01060324473180853 0.15528437414372401 0 0.0060601072686411643 0.13849791517015411 0 0.027250147193439631 0.1465240096692865 0 0.01060324473180853 0.15528437414372401 0 -0.01240086224311162 0.1685197113049251 0 0.01060324473180853 0.15528437414372401 0 0.0091856628900192361 0.17781094148593959 0 0.01060324473180853 0.15528437414372401 0 0.0091856628900192361 0.17781094148593959 0 0.024590140408020648 0.16553713634923661 0 0.0091856628900192361 0.17781094148593959 0 0.028528073905813391 0.1827297276017861 0 0.015745895814332962 0.20132234809568481 0 0.028528073905813391 0.1827297276017861 0 0.024590140408020648 0.16553713634923661 0 0.039350886655516247 0.16952044410991779 0 0.0091856628900192361 0.17781094148593959 0 0.028528073905813391 0.1827297276017861 0 0.024590140408020648 0.16553713634923661 0 0.027250147193439631 0.1465240096692865 0 0.024590140408020648 0.16553713634923661 0 0.037529363818966197 0.1579573741424726 0 0.024590140408020648 0.16553713634923661 0 0.037529363818966197 0.1579573741424726 0 0.039350886655516247 0.16952044410991779 0 0.037529363818966197 0.1579573741424726 0 0.039350886655516247 0.16952044410991779 0 0.049794179765479202 0.1608052162771812 0 0.028528073905813391 0.1827297276017861 0 0.039350886655516247 0.16952044410991779 0 0.04170465480443445 0.18270735534545759 0 0.039350886655516247 0.16952044410991779 0 0.04170465480443445 0.18270735534545759 0 0.051687654017673543 0.1741300495613077 0 0.04170465480443445 0.18270735534545759 0 0.051687654017673543 0.1741300495613077 0 0.051209713570127949 0.18957347339816069 0 0.051687654017673543 0.1741300495613077 0 0.061714445687475118 0.17348211457074089 0 0.061682878554463028 0.18143125325559609 0 0.051687654017673543 0.1741300495613077 0 0.061714445687475118 0.17348211457074089 0 0.056309326219724211 0.16816362867117729 0 0.061682878554463028 0.18143125325559609 0 0.051209713570127949 0.18957347339816069 0 0.060910045557653739 0.18969719542101299 0 0.051687654017673543 0.1741300495613077 0 0.061682878554463028 0.18143125325559609 0 0.051209713570127949 0.18957347339816069 0 0.062041025408268988 0.1642371342754792 0 0.060663278711240047 0.1604204800705078 0 0.046661465072375237 0.1474000643067408 0 0.049794179765479202 0.1608052162771812 0 0.062041025408268988 0.1642371342754792 0 0.046661465072375237 0.1474000643067408 0 0.051687654017673543 0.1741300495613077 0 0.049794179765479202 0.1608052162771812 0 0.056309326219724211 0.16816362867117729 0 0.039350886655516247 0.16952044410991779 0 0.051687654017673543 0.1741300495613077 0 0.049794179765479202 0.1608052162771812 0 0.061714445687475118 0.17348211457074089 0 0.056309326219724211 0.16816362867117729 0 0.062041025408268988 0.1642371342754792 0 0.049794179765479202 0.1608052162771812 0 0.056309326219724211 0.16816362867117729 0 0.062041025408268988 0.1642371342754792 0 0.060663278711240047 0.1604204800705078 0 0.046661465072375237 0.1474000643067408 0 0.065084143322431426 0.13670730699839839 0 0.062041025408268988 0.1642371342754792 0 0.046661465072375237 0.1474000643067408 0 0.041353494351689377 0.13277511442114981 0 0.046661465072375237 0.1474000643067408 0 0.065084143322431426 0.13670730699839839 0 0.059707896019303833 0.1173721207662765 0 0.065084143322431426 0.13670730699839839 0 0.050977460878316831 0.1227054896462007 0 0.041353494351689377 0.13277511442114981 0 0.065084143322431426 0.13670730699839839 0 0.059707896019303833 0.1173721207662765 0 0.050977460878316831 0.1227054896462007 0 0.065084143322431426 0.13670730699839839 0 0.027250147193439631 0.1465240096692865 0 0.037529363818966197 0.1579573741424726 0 0.046661465072375237 0.1474000643067408 0 0.027250147193439631 0.1465240096692865 0 0.041353494351689377 0.13277511442114981 0 0.046661465072375237 0.1474000643067408 0 0.037529363818966197 0.1579573741424726 0 0.049794179765479202 0.1608052162771812 0 0.046661465072375237 0.1474000643067408 0 0.019095836244675621 0.23458843374051119 0 0.036860857792063509 0.2278241971540611 0 0.035398814326772172 0.24599859705133029 0 0.019095836244675621 0.23458843374051119 0 0.035398814326772172 0.24599859705133029 0 0.018350672852097509 0.25492279273797319 0 -0.0003013679469350591 0.24135250151140319 0 0.019095836244675621 0.23458843374051119 0 0.018350672852097509 0.25492279273797319 0 -0.0090355013916870782 0.2166965840915682 0 -0.0003013679469350591 0.24135250151140319 0 0.01049078265224696 0.2214617169142678 0 -0.0003013679469350591 0.24135250151140319 0 0.019095836244675621 0.23458843374051119 0 0.01049078265224696 0.2214617169142678 0 0.019095836244675621 0.23458843374051119 0 0.01049078265224696 0.2214617169142678 0 0.027058697977370951 0.2152198823423927 0 0.019095836244675621 0.23458843374051119 0 0.027058697977370951 0.2152198823423927 0 0.036860857792063509 0.2278241971540611 0 0.01049078265224696 0.2214617169142678 0 0.027058697977370951 0.2152198823423927 0 0.015745895814332962 0.20132234809568481 0 0.027058697977370951 0.2152198823423927 0 0.015745895814332962 0.20132234809568481 0 0.037746945873041143 0.19758308205611569 0 -0.0090355013916870782 0.2166965840915682 0 0.01049078265224696 0.2214617169142678 0 0.015745895814332962 0.20132234809568481 0 -0.0098295367018494516 0.1915386982809045 0 0.0091856628900192361 0.17781094148593959 0 0.015745895814332962 0.20132234809568481 0 -0.0098295367018494516 0.1915386982809045 0 0.015745895814332962 0.20132234809568481 0 0.028528073905813391 0.1827297276017861 0 0.015745895814332962 0.20132234809568481 0 0.037746945873041143 0.19758308205611569 0 0.028528073905813391 0.1827297276017861 0 0.04170465480443445 0.18270735534545759 0 0.037746945873041143 0.19758308205611569 0 0.04170465480443445 0.18270735534545759 0 0.037746945873041143 0.19758308205611569 0 0.051209713570127949 0.18957347339816069 0 0.037746945873041143 0.19758308205611569 0 0.051209713570127949 0.18957347339816069 0 0.055445271604872372 0.2025810554166651 0 0.051209713570127949 0.18957347339816069 0 0.060910045557653739 0.18969719542101299 0 0.055445271604872372 0.2025810554166651 0 0.060910045557653739 0.18969719542101299 0 0.055445271604872372 0.2025810554166651 0 0.069134603623165883 0.19521972863292719 0 0.055445271604872372 0.2025810554166651 0 0.055993334122965442 0.22251083568812841 0 0.06803177032016508 0.2113969883069261 0 0.055445271604872372 0.2025810554166651 0 0.042675023335519743 0.21303031259824631 0 0.055993334122965442 0.22251083568812841 0 0.037746945873041143 0.19758308205611569 0 0.055445271604872372 0.2025810554166651 0 0.042675023335519743 0.21303031259824631 0 0.027058697977370951 0.2152198823423927 0 0.037746945873041143 0.19758308205611569 0 0.042675023335519743 0.21303031259824631 0 0.027058697977370951 0.2152198823423927 0 0.042675023335519743 0.21303031259824631 0 0.036860857792063509 0.2278241971540611 0 0.042675023335519743 0.21303031259824631 0 0.036860857792063509 0.2278241971540611 0 0.055993334122965442 0.22251083568812841 0 0.055993334122965442 0.22251083568812841 0 0.049779966178497177 0.2368623090402511 0 0.06434973113206198 0.2405250570732643 0 0.036860857792063509 0.2278241971540611 0 0.055993334122965442 0.22251083568812841 0 0.049779966178497177 0.2368623090402511 0 0.049779966178497177 0.2368623090402511 0 0.06434973113206198 0.2405250570732643 0 0.058568284769215377 0.25712895011369641 0 0.049779966178497177 0.2368623090402511 0 0.035398814326772172 0.24599859705133029 0 0.058568284769215377 0.25712895011369641 0 0.036860857792063509 0.2278241971540611 0 0.049779966178497177 0.2368623090402511 0 0.035398814326772172 0.24599859705133029 0 0.087425995062602985 0.23700172388071039 0 0.07763384273838439 0.2468283419574023 0 0.073488514255628648 0.22757184730808369 0 0.087425995062602985 0.23700172388071039 0 0.07763384273838439 0.2468283419574023 0 0.09318220146456542 0.25095834456400329 0 0.087425995062602985 0.23700172388071039 0 0.099646358212571576 0.23604651166784429 0 0.09318220146456542 0.25095834456400329 0 0.07763384273838439 0.2468283419574023 0 0.06434973113206198 0.2405250570732643 0 0.058568284769215377 0.25712895011369641 0 0.07763384273838439 0.2468283419574023 0 0.06434973113206198 0.2405250570732643 0 0.073488514255628648 0.22757184730808369 0 0.055993334122965442 0.22251083568812841 0 0.06434973113206198 0.2405250570732643 0 0.073488514255628648 0.22757184730808369 0 0.055993334122965442 0.22251083568812841 0 0.073488514255628648 0.22757184730808369 0 0.06803177032016508 0.2113969883069261 0 0.073488514255628648 0.22757184730808369 0 0.088136444363074051 0.22267084459082409 0 0.079767864163072771 0.21433072091805089 0 0.087425995062602985 0.23700172388071039 0 0.073488514255628648 0.22757184730808369 0 0.088136444363074051 0.22267084459082409 0 0.087425995062602985 0.23700172388071039 0 0.088136444363074051 0.22267084459082409 0 0.099646358212571576 0.23604651166784429 0 0.086326913494260277 0.20955763567753091 0 0.09157272768892849 0.19656753428275001 0 0.094529890771523031 0.2132789417480187 0 0.088136444363074051 0.22267084459082409 0 0.086326913494260277 0.20955763567753091 0 0.094529890771523031 0.2132789417480187 0 0.086326913494260277 0.20955763567753091 0 0.079767864163072771 0.21433072091805089 0 0.083195866175873823 0.2018444769630626 0 0.088136444363074051 0.22267084459082409 0 0.086326913494260277 0.20955763567753091 0 0.079767864163072771 0.21433072091805089 0 0.073488514255628648 0.22757184730808369 0 0.079767864163072771 0.21433072091805089 0 0.06803177032016508 0.2113969883069261 0 0.079767864163072771 0.21433072091805089 0 0.06803177032016508 0.2113969883069261 0 0.083195866175873823 0.2018444769630626 0 0.06803177032016508 0.2113969883069261 0 0.083195866175873823 0.2018444769630626 0 0.06803177032016508 0.2113969883069261 0 0.069134603623165883 0.19521972863292719 0 0.083195866175873823 0.2018444769630626 0 0.055445271604872372 0.2025810554166651 0 0.06803177032016508 0.2113969883069261 0 0.069134603623165883 0.19521972863292719 0 0.069134603623165883 0.19521972863292719 0 0.083195866175873823 0.2018444769630626 0 0.077420585744161552 0.18107420424421891 0 0.060910045557653739 0.18969719542101299 0 0.069134603623165883 0.19521972863292719 0 0.069293533121484147 0.1855802126304206 0 0.09157272768892849 0.19656753428275001 0 0.077420585744161552 0.18107420424421891 0 0.083195866175873823 0.2018444769630626 0 0.077420585744161552 0.18107420424421891 0 0.083195866175873823 0.2018444769630626 0 0.09157272768892849 0.19656753428275001 0 0.077420585744161552 0.18107420424421891 0 0.086326913494260277 0.20955763567753091 0 0.083195866175873823 0.2018444769630626 0 0.09157272768892849 0.19656753428275001 0 0.083195866175873823 0.2018444769630626 0 0.09157272768892849 0.19656753428275001 0 0.09157272768892849 0.19656753428275001 0 0.087300345334273124 0.1841462566664134 0 0.094670310870757224 0.18358484267470279 0 0.1053700741868383 0.20008667695420049 0 0.1030841132384174 0.18931602109716211 0 0.11912700056279189 0.20024385677117279 0 0.09157272768892849 0.19656753428275001 0 0.1030841132384174 0.18931602109716211 0 0.094670310870757224 0.18358484267470279 0 0.09157272768892849 0.19656753428275001 0 0.1030841132384174 0.18931602109716211 0 0.09157272768892849 0.19656753428275001 0 0.1053700741868383 0.20008667695420049 0 0.1030841132384174 0.18931602109716211 0 0.1030841132384174 0.18931602109716211 0 0.1178788124410188 0.18986293429731341 0 0.11912700056279189 0.20024385677117279 0 0.1030841132384174 0.18931602109716211 0 0.11912700056279189 0.20024385677117279 0 0.1178788124410188 0.18986293429731341 0 0.1233380315403509 0.18140105234154091 0 0.12925395971375689 0.1962863723933638 0 0.1178788124410188 0.18986293429731341 0 0.11912700056279189 0.20024385677117279 0 0.12925395971375689 0.1962863723933638 0 0.1053700741868383 0.20008667695420049 0 0.11912700056279189 0.20024385677117279 0 0.10769645525721561 0.21421929566571721 0 0.11912700056279189 0.20024385677117279 0 0.1219535151977464 0.2173862705465841 0 0.10769645525721561 0.21421929566571721 0 0.09157272768892849 0.19656753428275001 0 0.10769645525721561 0.21421929566571721 0 0.09157272768892849 0.19656753428275001 0 0.10769645525721561 0.21421929566571721 0 0.094529890771523031 0.2132789417480187 0 0.09157272768892849 0.19656753428275001 0 0.1053700741868383 0.20008667695420049 0 0.10769645525721561 0.21421929566571721 0 0.10769645525721561 0.21421929566571721 0 0.094529890771523031 0.2132789417480187 0 0.099852903902254778 0.2231268307315632 0 0.088136444363074051 0.22267084459082409 0 0.094529890771523031 0.2132789417480187 0 0.099852903902254778 0.2231268307315632 0 0.088136444363074051 0.22267084459082409 0 0.099852903902254778 0.2231268307315632 0 0.099646358212571576 0.23604651166784429 0 0.099852903902254778 0.2231268307315632 0 0.1092553709068896 0.22941855998541191 0 0.099646358212571576 0.23604651166784429 0 0.10769645525721561 0.21421929566571721 0 0.099852903902254778 0.2231268307315632 0 0.1092553709068896 0.22941855998541191 0 0.10769645525721561 0.21421929566571721 0 0.1092553709068896 0.22941855998541191 0 0.12382018282550319 0.23187105704868391 0 0.1219535151977464 0.2173862705465841 0 0.10769645525721561 0.21421929566571721 0 0.12382018282550319 0.23187105704868391 0 0.10769645525721561 0.21421929566571721 0 0.12382018282550319 0.23187105704868391 0 0.1092553709068896 0.22941855998541191 0 0.12382018282550319 0.23187105704868391 0 0.1161969451850204 0.24157653702154319 0 0.1161969451850204 0.24157653702154319 0 0.12046913192667499 0.25219209955394922 0 0.13630323470446909 0.25309509370655131 0 0.12382018282550319 0.23187105704868391 0 0.1161969451850204 0.24157653702154319 0 0.13101610590274951 0.24514493760169651 0 0.1161969451850204 0.24157653702154319 0 0.12046913192667499 0.25219209955394922 0 0.10782601963677189 0.25094291566811811 0 0.1092553709068896 0.22941855998541191 0 0.1161969451850204 0.24157653702154319 0 0.099646358212571576 0.23604651166784429 0 0.1161969451850204 0.24157653702154319 0 0.099646358212571576 0.23604651166784429 0 0.10782601963677189 0.25094291566811811 0 0.099646358212571576 0.23604651166784429 0 0.09318220146456542 0.25095834456400329 0 0.10782601963677189 0.25094291566811811 0 0.070460390625557395 0.15604249323052069 0 0.097555379460685168 0.1452558890101136 0 0.070460390625557395 0.15604249323052069 0 0.08397547514483604 0.15879496070542101 0 0.097555379460685168 0.1452558890101136 0 0.077347031164600163 0.14284132797601001 0 0.070460390625557395 0.15604249323052069 0 0.097555379460685168 0.1452558890101136 0 0.093634832427624173 0.1642053122735144 0 0.08397547514483604 0.15879496070542101 0 0.097555379460685168 0.1452558890101136 0 0.078631637739994015 0.13131400488819581 0 0.077347031164600163 0.14284132797601001 0 0.097555379460685168 0.1452558890101136 0 0.078631637739994015 0.13131400488819581 0 0.097555379460685168 0.1452558890101136 0 0.094494814569898167 0.1262720179529194 0 0.078631637739994015 0.13131400488819581 0 0.097555379460685168 0.1452558890101136 0 0.078631637739994015 0.13131400488819581 0 0.065084143322431426 0.13670730699839839 0 0.077347031164600163 0.14284132797601001 0 0.059707896019303833 0.1173721207662765 0 0.078631637739994015 0.13131400488819581 0 0.065084143322431426 0.13670730699839839 0 0.065084143322431426 0.13670730699839839 0 0.077347031164600163 0.14284132797601001 0 0.070460390625557395 0.15604249323052069 0 0.065084143322431426 0.13670730699839839 0 0.070460390625557395 0.15604249323052069 0 0.060663278711240047 0.1604204800705078 0 0.065084143322431426 0.13670730699839839 0 0.068291915458661562 0.15690577033055639 0 0.065084143322431426 0.13670730699839839 0 0.070460390625557395 0.15604249323052069 0 0.068291915458661562 0.15690577033055639 0 0.062041025408268988 0.1642371342754792 0 0.074251298065477991 0.16967614830753461 0 0.077420585744161552 0.18107420424421891 0 0.060663278711240047 0.1604204800705078 0 0.068291915458661562 0.15690577033055639 0 0.074251298065477991 0.16967614830753461 0 0.070460390625557395 0.15604249323052069 0 0.068291915458661562 0.15690577033055639 0 0.062041025408268988 0.1642371342754792 0 0.060663278711240047 0.1604204800705078 0 0.074251298065477991 0.16967614830753461 0 0.060663278711240047 0.1604204800705078 0 0.074251298065477991 0.16967614830753461 0 0.070460390625557395 0.15604249323052069 0 0.068291915458661562 0.15690577033055639 0 0.074251298065477991 0.16967614830753461 0 0.070460390625557395 0.15604249323052069 0 0.074251298065477991 0.16967614830753461 0 0.070460390625557395 0.15604249323052069 0 0.074251298065477991 0.16967614830753461 0 0.08397547514483604 0.15879496070542101 0 0.062041025408268988 0.1642371342754792 0 0.077420585744161552 0.18107420424421891 0 0.061714445687475118 0.17348211457074089 0 0.062041025408268988 0.1642371342754792 0 0.077420585744161552 0.18107420424421891 0 0.061714445687475118 0.17348211457074089 0 0.061682878554463028 0.18143125325559609 0 0.077420585744161552 0.18107420424421891 0 0.061682878554463028 0.18143125325559609 0 0.069293533121484147 0.1855802126304206 0 0.077420585744161552 0.18107420424421891 0 0.061682878554463028 0.18143125325559609 0 0.060910045557653739 0.18969719542101299 0 0.069293533121484147 0.1855802126304206 0 0.074251298065477991 0.16967614830753461 0 0.077420585744161552 0.18107420424421891 0 0.069134603623165883 0.19521972863292719 0 0.069293533121484147 0.1855802126304206 0 0.077420585744161552 0.18107420424421891 0 0.074251298065477991 0.16967614830753461 0 0.087300345334273124 0.1841462566664134 0 0.094670310870757224 0.18358484267470279 0 0.074251298065477991 0.16967614830753461 0 0.093634832427624173 0.1642053122735144 0 0.094670310870757224 0.18358484267470279 0 0.074251298065477991 0.16967614830753461 0 0.094670310870757224 0.18358484267470279 0 0.09157272768892849 0.19656753428275001 0 0.077420585744161552 0.18107420424421891 0 0.087300345334273124 0.1841462566664134 0 0.074251298065477991 0.16967614830753461 0 0.077420585744161552 0.18107420424421891 0 0.087300345334273124 0.1841462566664134 0 0.087300345334273124 0.1841462566664134 0 0.094670310870757224 0.18358484267470279 0 0.074251298065477991 0.16967614830753461 0 0.093634832427624173 0.1642053122735144 0 0.08397547514483604 0.15879496070542101 0 0.093634832427624173 0.1642053122735144 0 0.1088645572591216 0.17198830793450509 0 0.1136999402595133 0.15715023840352499 0 0.094670310870757224 0.18358484267470279 0 0.11459095714977741 0.18206736888332919 0 0.1030841132384174 0.18931602109716211 0 0.094670310870757224 0.18358484267470279 0 0.11459095714977741 0.18206736888332919 0 0.093634832427624173 0.1642053122735144 0 0.094670310870757224 0.18358484267470279 0 0.1088645572591216 0.17198830793450509 0 0.094670310870757224 0.18358484267470279 0 0.1088645572591216 0.17198830793450509 0 0.11459095714977741 0.18206736888332919 0 0.1030841132384174 0.18931602109716211 0 0.094670310870757224 0.18358484267470279 0 0.1030841132384174 0.18931602109716211 0 0.11459095714977741 0.18206736888332919 0 0.1030841132384174 0.18931602109716211 0 0.1178788124410188 0.18986293429731341 0 0.11459095714977741 0.18206736888332919 0 0.1088645572591216 0.17198830793450509 0 0.11459095714977741 0.18206736888332919 0 0.1217983915476698 0.17752709826639471 0 0.1217983915476698 0.17752709826639471 0 0.1233380315403509 0.18140105234154091 0 0.1178788124410188 0.18986293429731341 0 0.11459095714977741 0.18206736888332919 0 0.1233380315403509 0.18140105234154091 0 0.11459095714977741 0.18206736888332919 0 0.1233380315403509 0.18140105234154091 0 0.11459095714977741 0.18206736888332919 0 0.1217983915476698 0.17752709826639471 0 0.1233380315403509 0.18140105234154091 0 0.11459095714977741 0.18206736888332919 0 0.1217983915476698 0.17752709826639471 0 0.1217983915476698 0.17752709826639471 0 0.1136999402595133 0.15715023840352499 0 0.1323424632711927 0.1708849373549956 0 0.1136999402595133 0.15715023840352499 0 0.1323424632711927 0.1708849373549956 0 0.1136999402595133 0.15715023840352499 0 0.1215305025723221 0.15272714465371409 0 0.1323424632711927 0.1708849373549956 0 0.1217983915476698 0.17752709826639471 0 0.1136999402595133 0.15715023840352499 0 0.1088645572591216 0.17198830793450509 0 0.1217983915476698 0.17752709826639471 0 0.1136999402595133 0.15715023840352499 0 0.1215305025723221 0.15272714465371409 0 0.1140982931313463 0.13867010063776561 0 0.13140980848570019 0.14961864724847479 0 0.1140982931313463 0.13867010063776561 0 0.13140980848570019 0.14961864724847479 0 0.1215305025723221 0.15272714465371409 0 0.1123990704945329 0.15387706431657081 0 0.1140982931313463 0.13867010063776561 0 0.1136999402595133 0.15715023840352499 0 0.1215305025723221 0.15272714465371409 0 0.1123990704945329 0.15387706431657081 0 0.1136999402595133 0.15715023840352499 0 0.1123990704945329 0.15387706431657081 0 0.1136999402595133 0.15715023840352499 0 0.1123990704945329 0.15387706431657081 0 0.097555379460685168 0.1452558890101136 0 0.097555379460685168 0.1452558890101136 0 0.1140982931313463 0.13867010063776561 0 0.1136999402595133 0.15715023840352499 0 0.097555379460685168 0.1452558890101136 0 0.093634832427624173 0.1642053122735144 0 0.1136999402595133 0.15715023840352499 0 0.097555379460685168 0.1452558890101136 0 0.1123990704945329 0.15387706431657081 0 0.097555379460685168 0.1452558890101136 0 0.1140982931313463 0.13867010063776561 0 0.097555379460685168 0.1452558890101136 0 0.094494814569898167 0.1262720179529194 0 0.1140982931313463 0.13867010063776561 0 0.094494814569898167 0.1262720179529194 0 0.1140982931313463 0.13867010063776561 0 0.118143299844883 0.1205503416995295 0 0.094494814569898167 0.1262720179529194 0 0.1140982931313463 0.13867010063776561 0 0.118143299844883 0.1205503416995295 0 0.1140982931313463 0.13867010063776561 0 0.12964379277677709 0.13248138607129159 0 0.1140982931313463 0.13867010063776561 0 0.12964379277677709 0.13248138607129159 0 0.1140982931313463 0.13867010063776561 0 0.12964379277677709 0.13248138607129159 0 0.13140980848570019 0.14961864724847479 0 0.12964379277677709 0.13248138607129159 0 0.14518929242219031 0.12629267150477369 0 0.14408207415243851 0.14215123973745991 0 0.12964379277677709 0.13248138607129159 0 0.14518929242219031 0.12629267150477369 0 0.12964379277677709 0.13248138607129159 0 0.14518929242219031 0.12629267150477369 0 0.13309078966085541 0.11885664384211481 0 0.14518929242219031 0.12629267150477369 0 0.1548271017874043 0.13312131744326239 0 0.14408207415243851 0.14215123973745991 0 0.14518929242219031 0.12629267150477369 0 0.1548271017874043 0.13312131744326239 0 0.15978652546003869 0.1181421298673602 0 0.1548271017874043 0.13312131744326239 0 0.14408207415243851 0.14215123973745991 0 0.15470112560251961 0.15082622229774989 0 0.14408207415243851 0.14215123973745991 0 0.15470112560251961 0.15082622229774989 0 0.14872132384002479 0.16056719385923029 0 0.14408207415243851 0.14215123973745991 0 0.13140980848570019 0.14961864724847479 0 0.14872132384002479 0.16056719385923029 0 0.15470112560251961 0.15082622229774989 0 0.14872132384002479 0.16056719385923029 0 0.16247068221490579 0.15190588605060709 0 0.14872132384002479 0.16056719385923029 0 0.16247068221490579 0.15190588605060709 0 0.12964379277677709 0.13248138607129159 0 0.14408207415243851 0.14215123973745991 0 0.13140980848570019 0.14961864724847479 0 0.13140980848570019 0.14961864724847479 0 0.14872132384002479 0.16056719385923029 0 0.1323424632711927 0.1708849373549956 0 0.14872132384002479 0.16056719385923029 0 0.1215305025723221 0.15272714465371409 0 0.13140980848570019 0.14961864724847479 0 0.1323424632711927 0.1708849373549956 0 0.13140980848570019 0.14961864724847479 0 0.1323424632711927 0.1708849373549956 0 0.14872132384002479 0.16056719385923029 0 0.1233380315403509 0.18140105234154091 0 0.14443496801658831 0.17979397354838661 0 0.1233380315403509 0.18140105234154091 0 0.1323424632711927 0.1708849373549956 0 0.14443496801658831 0.17979397354838661 0 0.1233380315403509 0.18140105234154091 0 0.14443496801658831 0.17979397354838661 0 0.13504621496964239 0.18847689506094401 0 0.1217983915476698 0.17752709826639471 0 0.1323424632711927 0.1708849373549956 0 0.1217983915476698 0.17752709826639471 0 0.1233380315403509 0.18140105234154091 0 0.1323424632711927 0.1708849373549956 0 0.1323424632711927 0.1708849373549956 0 0.14443496801658831 0.17979397354838661 0 0.1323424632711927 0.1708849373549956 0 0.14443496801658831 0.17979397354838661 0 0.15160416240741589 0.1717166450548723 0 0.14443496801658831 0.17979397354838661 0 0.15991413078509589 0.17861483390177921 0 0.14443496801658831 0.17979397354838661 0 0.15160416240741589 0.1717166450548723 0 0.15991413078509589 0.17861483390177921 0 0.14443496801658831 0.17979397354838661 0 0.1578783370000402 0.18415863501646479 0 0.15991413078509589 0.17861483390177921 0 0.1323424632711927 0.1708849373549956 0 0.15160416240741589 0.1717166450548723 0 0.14872132384002479 0.16056719385923029 0 0.15160416240741589 0.1717166450548723 0 0.14872132384002479 0.16056719385923029 0 0.16205730869682361 0.16900144405717929 0 0.14872132384002479 0.16056719385923029 0 0.16205730869682361 0.16900144405717929 0 0.14872132384002479 0.16056719385923029 0 0.160262650699873 0.16034737635840221 0 0.16247068221490579 0.15190588605060709 0 0.16205730869682361 0.16900144405717929 0 0.1694966339816544 0.16050927501550871 0 0.17539329355360239 0.17743569425516009 0 0.160262650699873 0.16034737635840221 0 0.16205730869682361 0.16900144405717929 0 0.1694966339816544 0.16050927501550871 0 0.14872132384002479 0.16056719385923029 0 0.160262650699873 0.16034737635840221 0 0.16205730869682361 0.16900144405717929 0 0.160262650699873 0.16034737635840221 0 0.1694966339816544 0.16050927501550871 0 0.16247068221490579 0.15190588605060709 0 0.14443496801658831 0.17979397354838661 0 0.1578783370000402 0.18415863501646479 0 0.16803592847610299 0.19718175344673569 0 0.1578783370000402 0.18415863501646479 0 0.15991413078509589 0.17861483390177921 0 0.17325277352428251 0.18498201352455701 0 0.15160416240741589 0.1717166450548723 0 0.16205730869682361 0.16900144405717929 0 0.15991413078509589 0.17861483390177921 0 0.16205730869682361 0.16900144405717929 0 0.15991413078509589 0.17861483390177921 0 0.17539329355360239 0.17743569425516009 0 0.15991413078509589 0.17861483390177921 0 0.17539329355360239 0.17743569425516009 0 0.16205730869682361 0.16900144405717929 0 0.17539329355360239 0.17743569425516009 0 0.15991413078509589 0.17861483390177921 0 0.17325277352428251 0.18498201352455701 0 0.17539329355360239 0.17743569425516009 0 0.1578783370000402 0.18415863501646479 0 0.17325277352428251 0.18498201352455701 0 0.17539329355360239 0.17743569425516009 0 0.19249783680938229 0.1812285188072984 0 0.18862721004852359 0.18580539203267171 0 0.17539329355360239 0.17743569425516009 0 0.19690286012892119 0.17579718297975289 0 0.17325277352428251 0.18498201352455701 0 0.17539329355360239 0.17743569425516009 0 0.18862721004852359 0.18580539203267171 0 0.17325277352428251 0.18498201352455701 0 0.18862721004852359 0.18580539203267171 0 0.17325277352428251 0.18498201352455701 0 0.17974367652019221 0.1865253472686986 0 0.18862721004852359 0.18580539203267171 0 0.17539329355360239 0.17743569425516009 0 0.18862721004852359 0.18580539203267171 0 0.1694966339816544 0.16050927501550871 0 0.17539329355360239 0.17743569425516009 0 0.18057582813496309 0.16112067112978171 0 0.17539329355360239 0.17743569425516009 0 0.18057582813496309 0.16112067112978171 0 0.19690286012892119 0.17579718297975289 0 0.17622004058975321 0.1432445782419306 0 0.18617138203114381 0.1355777255338185 0 0.19289140229462989 0.15069440449831781 0 0.1694966339816544 0.16050927501550871 0 0.18057582813496309 0.16112067112978171 0 0.17622004058975321 0.1432445782419306 0 0.18057582813496309 0.16112067112978171 0 0.17622004058975321 0.1432445782419306 0 0.19289140229462989 0.15069440449831781 0 0.18617138203114381 0.1355777255338185 0 0.17093754983018289 0.12910247922406209 0 0.18650035180878019 0.11840426733708689 0 0.17622004058975321 0.1432445782419306 0 0.18617138203114381 0.1355777255338185 0 0.17093754983018289 0.12910247922406209 0 0.15470112560251961 0.15082622229774989 0 0.17093754983018289 0.12910247922406209 0 0.1548271017874043 0.13312131744326239 0 0.17093754983018289 0.12910247922406209 0 0.15978652546003869 0.1181421298673602 0 0.1548271017874043 0.13312131744326239 0 0.15470112560251961 0.15082622229774989 0 0.17093754983018289 0.12910247922406209 0 0.1694966339816544 0.16050927501550871 0 0.17622004058975321 0.1432445782419306 0 0.16247068221490579 0.15190588605060709 0 0.17622004058975321 0.1432445782419306 0 0.17093754983018289 0.12910247922406209 0 0.16247068221490579 0.15190588605060709 0 0.15470112560251961 0.15082622229774989 0 0.17093754983018289 0.12910247922406209 0 0.16247068221490579 0.15190588605060709 0 0.17622004058975321 0.1432445782419306 0 0.16247068221490579 0.15190588605060709 0 0.1499318931323099 0.24831500558892511 0 0.14514904228108319 0.2362806698779745 0 0.15926565784379501 0.2389713876145371 0 0.1499318931323099 0.24831500558892511 0 0.14514904228108319 0.2362806698779745 0 0.14036075313536919 0.2375653564388486 0 0.14514904228108319 0.2362806698779745 0 0.14036075313536919 0.2375653564388486 0 0.1499318931323099 0.24831500558892511 0 0.14514904228108319 0.2362806698779745 0 0.1499318931323099 0.24831500558892511 0 0.13994391039379331 0.2495228184316485 0 0.14036075313536919 0.2375653564388486 0 0.1499318931323099 0.24831500558892511 0 0.13994391039379331 0.2495228184316485 0 0.1161969451850204 0.24157653702154319 0 0.13101610590274951 0.24514493760169651 0 0.13630323470446909 0.25309509370655131 0 0.12382018282550319 0.23187105704868391 0 0.13994391039379331 0.2495228184316485 0 0.14036075313536919 0.2375653564388486 0 0.12382018282550319 0.23187105704868391 0 0.13994391039379331 0.2495228184316485 0 0.13101610590274951 0.24514493760169651 0 0.1161969451850204 0.24157653702154319 0 0.13630323470446909 0.25309509370655131 0 0.13994391039379331 0.2495228184316485 0 0.13101610590274951 0.24514493760169651 0 0.13630323470446909 0.25309509370655131 0 0.12382018282550319 0.23187105704868391 0 0.13994391039379331 0.2495228184316485 0 0.14514904228108319 0.2362806698779745 0 0.13516988788716491 0.21117169244518599 0 0.14514904228108319 0.2362806698779745 0 0.14036075313536919 0.2375653564388486 0 0.13516988788716491 0.21117169244518599 0 0.12382018282550319 0.23187105704868391 0 0.14036075313536919 0.2375653564388486 0 0.13516988788716491 0.21117169244518599 0 0.1219535151977464 0.2173862705465841 0 0.12382018282550319 0.23187105704868391 0 0.13516988788716491 0.21117169244518599 0 0.14514904228108319 0.2362806698779745 0 0.13516988788716491 0.21117169244518599 0 0.15756194497284909 0.22642435334642119 0 0.13516988788716491 0.21117169244518599 0 0.15756194497284909 0.22642435334642119 0 0.1530890939638434 0.20880240726074301 0 0.13516988788716491 0.21117169244518599 0 0.14315790060787401 0.19642618196048611 0 0.1530890939638434 0.20880240726074301 0 0.13516988788716491 0.21117169244518599 0 0.15756194497284909 0.22642435334642119 0 0.11912700056279189 0.20024385677117279 0 0.13516988788716491 0.21117169244518599 0 0.11912700056279189 0.20024385677117279 0 0.1219535151977464 0.2173862705465841 0 0.13516988788716491 0.21117169244518599 0 0.13516988788716491 0.21117169244518599 0 0.12925395971375689 0.1962863723933638 0 0.11912700056279189 0.20024385677117279 0 0.13516988788716491 0.21117169244518599 0 0.12925395971375689 0.1962863723933638 0 0.13516988788716491 0.21117169244518599 0 0.12925395971375689 0.1962863723933638 0 0.14315790060787401 0.19642618196048611 0 0.1233380315403509 0.18140105234154091 0 0.12925395971375689 0.1962863723933638 0 0.13504621496964239 0.18847689506094401 0 0.1233380315403509 0.18140105234154091 0 0.12925395971375689 0.1962863723933638 0 0.12925395971375689 0.1962863723933638 0 0.13504621496964239 0.18847689506094401 0 0.14315790060787401 0.19642618196048611 0 0.14443496801658831 0.17979397354838661 0 0.16803592847610299 0.19718175344673569 0 0.14443496801658831 0.17979397354838661 0 0.1544997506914946 0.1977310898294074 0 0.16803592847610299 0.19718175344673569 0 0.14443496801658831 0.17979397354838661 0 0.13504621496964239 0.18847689506094401 0 0.14315790060787401 0.19642618196048611 0 0.14443496801658831 0.17979397354838661 0 0.14315790060787401 0.19642618196048611 0 0.1544997506914946 0.1977310898294074 0 0.1530890939638434 0.20880240726074301 0 0.14315790060787401 0.19642618196048611 0 0.1544997506914946 0.1977310898294074 0 0.1544997506914946 0.1977310898294074 0 0.16803592847610299 0.19718175344673569 0 0.1617753703659647 0.2062004950000948 0 0.1578783370000402 0.18415863501646479 0 0.17325277352428251 0.18498201352455701 0 0.16803592847610299 0.19718175344673569 0 0.17325277352428251 0.18498201352455701 0 0.17974367652019221 0.1865253472686986 0 0.1760580436601627 0.19283447875706061 0 0.17974367652019221 0.1865253472686986 0 0.18253101651189449 0.19378692087954349 0 0.19575510764549331 0.19348252282508219 0 0.17325277352428251 0.18498201352455701 0 0.16803592847610299 0.19718175344673569 0 0.1760580436601627 0.19283447875706061 0 0.17974367652019221 0.1865253472686986 0 0.1760580436601627 0.19283447875706061 0 0.18253101651189449 0.19378692087954349 0 0.1760580436601627 0.19283447875706061 0 0.18253101651189449 0.19378692087954349 0 0.18272699809666049 0.20156260777868579 0 0.18253101651189449 0.19378692087954349 0 0.18272699809666049 0.20156260777868579 0 0.19575510764549331 0.19348252282508219 0 0.16803592847610299 0.19718175344673569 0 0.1760580436601627 0.19283447875706061 0 0.18272699809666049 0.20156260777868579 0 0.18256014898340339 0.2148702744127558 0 0.17135733157056399 0.21092838215918619 0 0.16889095890085079 0.22991077025775211 0 0.16803592847610299 0.19718175344673569 0 0.18272699809666049 0.20156260777868579 0 0.17135733157056399 0.21092838215918619 0 0.18272699809666049 0.20156260777868579 0 0.18256014898340339 0.2148702744127558 0 0.17135733157056399 0.21092838215918619 0 0.18272699809666049 0.20156260777868579 0 0.18256014898340339 0.2148702744127558 0 0.19719258082832331 0.20840874123062561 0 0.17135733157056399 0.21092838215918619 0 0.1617753703659647 0.2062004950000948 0 0.1618947471278184 0.2163588423044018 0 0.1530890939638434 0.20880240726074301 0 0.1618947471278184 0.2163588423044018 0 0.15756194497284909 0.22642435334642119 0 0.16803592847610299 0.19718175344673569 0 0.17135733157056399 0.21092838215918619 0 0.1617753703659647 0.2062004950000948 0 0.1530890939638434 0.20880240726074301 0 0.1544997506914946 0.1977310898294074 0 0.1617753703659647 0.2062004950000948 0 0.1530890939638434 0.20880240726074301 0 0.1617753703659647 0.2062004950000948 0 0.1618947471278184 0.2163588423044018 0 0.14514904228108319 0.2362806698779745 0 0.16889095890085079 0.22991077025775211 0 0.14514904228108319 0.2362806698779745 0 0.15756194497284909 0.22642435334642119 0 0.16889095890085079 0.22991077025775211 0 0.17135733157056399 0.21092838215918619 0 0.1618947471278184 0.2163588423044018 0 0.16889095890085079 0.22991077025775211 0 0.1618947471278184 0.2163588423044018 0 0.15756194497284909 0.22642435334642119 0 0.16889095890085079 0.22991077025775211 0 0.16889095890085079 0.22991077025775211 0 0.17665446882502581 0.24508353523527901 0 0.19263287552061831 0.22354087063752931 0 0.18256014898340339 0.2148702744127558 0 0.16889095890085079 0.22991077025775211 0 0.19263287552061831 0.22354087063752931 0 0.16889095890085079 0.22991077025775211 0 0.19263287552061831 0.22354087063752931 0 0.16889095890085079 0.22991077025775211 0 0.17665446882502581 0.24508353523527901 0 0.15926565784379501 0.2389713876145371 0 0.1499318931323099 0.24831500558892511 0 0.17665446882502581 0.24508353523527901 0 0.14514904228108319 0.2362806698779745 0 0.16889095890085079 0.22991077025775211 0 0.15926565784379501 0.2389713876145371 0 0.1499318931323099 0.24831500558892511 0 0.17665446882502581 0.24508353523527901 0 0.15926565784379501 0.2389713876145371 0 0.1499318931323099 0.24831500558892511 0 0.17665446882502581 0.24508353523527901 0 0.16045828066032031 0.25513623445480621 0 0.20337704451774169 0.24185206488163261 0 0.23009962021045779 0.23862059452798609 0 0.17665446882502581 0.24508353523527901 0 0.20337704451774169 0.24185206488163261 0 0.19263287552061831 0.22354087063752931 0 0.17665446882502581 0.24508353523527901 0 0.20337704451774169 0.24185206488163261 0 0.20337704451774169 0.24185206488163261 0 0.19263287552061831 0.22354087063752931 0 0.21637479214038591 0.21717097101730651 0 0.19263287552061831 0.22354087063752931 0 0.21637479214038591 0.21717097101730651 0 0.20337704451774169 0.24185206488163261 0 0.21637479214038591 0.21717097101730651 0 0.23009962021045779 0.23862059452798609 0 0.21637479214038591 0.21717097101730651 0 0.19719258082832331 0.20840874123062561 0 0.21176653877079449 0.20043969838146569 0 0.19263287552061831 0.22354087063752931 0 0.21637479214038591 0.21717097101730651 0 0.19719258082832331 0.20840874123062561 0 0.18256014898340339 0.2148702744127558 0 0.19263287552061831 0.22354087063752931 0 0.19719258082832331 0.20840874123062561 0 0.21176653877079449 0.20043969838146569 0 0.18862721004852359 0.18580539203267171 0 0.17974367652019221 0.1865253472686986 0 0.19575510764549331 0.19348252282508219 0 0.18862721004852359 0.18580539203267171 0 0.19719258082832331 0.20840874123062561 0 0.19575510764549331 0.19348252282508219 0 0.21176653877079449 0.20043969838146569 0 0.21176653877079449 0.20043969838146569 0 0.18862721004852359 0.18580539203267171 0 0.20522194747740341 0.18669412380014139 0 0.17974367652019221 0.1865253472686986 0 0.19575510764549331 0.19348252282508219 0 0.19575510764549331 0.19348252282508219 0 0.21176653877079449 0.20043969838146569 0 0.18862721004852359 0.18580539203267171 0 0.18272699809666049 0.20156260777868579 0 0.19719258082832331 0.20840874123062561 0 0.19575510764549331 0.19348252282508219 0 0.19575510764549331 0.19348252282508219 0 0.21176653877079449 0.20043969838146569 0 0.21176653877079449 0.20043969838146569 0 0.2313145946577696 0.19790214504629089 0 0.20522194747740341 0.18669412380014139 0 0.2313145946577696 0.19790214504629089 0 0.20522194747740341 0.18669412380014139 0 0.2313145946577696 0.19790214504629089 0 0.2309270079531984 0.18807075925026631 0 0.20522194747740341 0.18669412380014139 0 0.21176653877079449 0.20043969838146569 0 0.2313145946577696 0.19790214504629089 0 0.23085272094136791 0.20873289335090051 0 0.2313145946577696 0.19790214504629089 0 0.25740724183813612 0.20911016629243959 0 0.25663206842899322 0.18944739470039451 0 0.2309270079531984 0.18807075925026631 0 0.25663206842899322 0.18944739470039451 0 0.2313145946577696 0.19790214504629089 0 0.2309270079531984 0.18807075925026631 0 0.25663206842899322 0.18944739470039451 0 0.2499389031119412 0.21702608832033521 0 0.23085272094136791 0.20873289335090051 0 0.2313145946577696 0.19790214504629089 0 0.25740724183813612 0.20911016629243959 0 0.2499389031119412 0.21702608832033521 0 0.23393741853033731 0.21446151596818899 0 0.23085272094136791 0.20873289335090051 0 0.2499389031119412 0.21702608832033521 0 0.23085272094136791 0.20873289335090051 0 0.25740724183813612 0.20911016629243959 0 0.2313145946577696 0.19790214504629089 0 0.23085272094136791 0.20873289335090051 0 0.25740724183813612 0.20911016629243959 0 0.21637479214038591 0.21717097101730651 0 0.21176653877079449 0.20043969838146569 0 0.23393741853033731 0.21446151596818899 0 0.21176653877079449 0.20043969838146569 0 0.23085272094136791 0.20873289335090051 0 0.21176653877079449 0.20043969838146569 0 0.23393741853033731 0.21446151596818899 0 0.21176653877079449 0.20043969838146569 0 0.23393741853033731 0.21446151596818899 0 0.23085272094136791 0.20873289335090051 0 0.21637479214038591 0.21717097101730651 0 0.23393741853033731 0.21446151596818899 0 0.23009962021045779 0.23862059452798609 0 0.23393741853033731 0.21446151596818899 0 0.25610829828986881 0.2284833335549307 0 0.2499389031119412 0.21702608832033521 0 0.23393741853033731 0.21446151596818899 0 0.25610829828986881 0.2284833335549307 0 0.23393741853033731 0.21446151596818899 0 0.24261614427577269 0.22861017724595589 0 0.25610829828986881 0.2284833335549307 0 0.24261614427577269 0.22861017724595589 0 0.23009962021045779 0.23862059452798609 0 0.25682219590317362 0.23538912417433799 0 0.23393741853033731 0.21446151596818899 0 0.24261614427577269 0.22861017724595589 0 0.23009962021045779 0.23862059452798609 0 0.23009962021045779 0.23862059452798609 0 0.25682219590317362 0.23538912417433799 0 0.24079862455956111 0.24388204771753469 0 0.24593745411386941 0.25080307675381758 0 0.25682219590317362 0.23538912417433799 0 0.24079862455956111 0.24388204771753469 0 0.23009962021045779 0.23862059452798609 0 0.25682219590317362 0.23538912417433799 0 0.24079862455956111 0.24388204771753469 0 0.23033522801074349 0.25071539541399562 0 0.24593745411386941 0.25080307675381758 0 0.24079862455956111 0.24388204771753469 0 0.23009962021045779 0.23862059452798609 0 0.23033522801074349 0.25071539541399562 0 0.20337704451774169 0.24185206488163261 0 0.23009962021045779 0.23862059452798609 0 0.23033522801074349 0.25071539541399562 0 0.20430756563237251 0.13644289836769519 0 0.2066506608272434 0.1617587573732738 0 0.22211477945596469 0.15448152939830351 0 0.20430756563237251 0.13644289836769519 0 0.22211477945596469 0.15448152939830351 0 0.18617138203114381 0.1355777255338185 0 0.20430756563237251 0.13644289836769519 0 0.18650035180878019 0.11840426733708689 0 0.20430756563237251 0.13644289836769519 0 0.18650035180878019 0.11840426733708689 0 0.18617138203114381 0.1355777255338185 0 0.20430756563237251 0.13644289836769519 0 0.19289140229462989 0.15069440449831781 0 0.20430756563237251 0.13644289836769519 0 0.19289140229462989 0.15069440449831781 0 0.2066506608272434 0.1617587573732738 0 0.18057582813496309 0.16112067112978171 0 0.19289140229462989 0.15069440449831781 0 0.19690286012892119 0.17579718297975289 0 0.19289140229462989 0.15069440449831781 0 0.19690286012892119 0.17579718297975289 0 0.2066506608272434 0.1617587573732738 0 0.17539329355360239 0.17743569425516009 0 0.19249783680938229 0.1812285188072984 0 0.19690286012892119 0.17579718297975289 0 0.19249783680938229 0.1812285188072984 0 0.18862721004852359 0.18580539203267171 0 0.20522194747740341 0.18669412380014139 0 0.18862721004852359 0.18580539203267171 0 0.20522194747740341 0.18669412380014139 0 0.19249783680938229 0.1812285188072984 0 0.19690286012892119 0.17579718297975289 0 0.20522194747740341 0.18669412380014139 0 0.19249783680938229 0.1812285188072984 0 0.20522194747740341 0.18669412380014139 0 0.2309270079531984 0.18807075925026631 0 0.20522194747740341 0.18669412380014139 0 0.19690286012892119 0.17579718297975289 0 0.2184124267042391 0.1741586717043325 0 0.20522194747740341 0.18669412380014139 0 0.19690286012892119 0.17579718297975289 0 0.2184124267042391 0.1741586717043325 0 0.2309270079531984 0.18807075925026631 0 0.2184124267042391 0.1741586717043325 0 0.20522194747740341 0.18669412380014139 0 0.2184124267042391 0.1741586717043325 0 0.2066506608272434 0.1617587573732738 0 0.22211477945596469 0.15448152939830351 0 0.19690286012892119 0.17579718297975289 0 0.2184124267042391 0.1741586717043325 0 0.2066506608272434 0.1617587573732738 0 0.23992199327955691 0.17252016042891199 0 0.22211477945596469 0.15448152939830351 0 0.23992199327955691 0.17252016042891199 0 0.24000004067461739 0.16231492613744589 0 0.22211477945596469 0.15448152939830351 0 0.2184124267042391 0.1741586717043325 0 0.23992199327955691 0.17252016042891199 0 0.22211477945596469 0.15448152939830351 0 0.2184124267042391 0.1741586717043325 0 0.23992199327955691 0.17252016042891199 0 0.2309270079531984 0.18807075925026631 0 0.2184124267042391 0.1741586717043325 0 0.23992199327955691 0.17252016042891199 0 0.23992199327955691 0.17252016042891199 0 0.24667522881024631 0.17200572642003251 0 0.25663206842899322 0.18944739470039451 0 0.23992199327955691 0.17252016042891199 0 0.25663206842899322 0.18944739470039451 0 0.2309270079531984 0.18807075925026631 0 0.23992199327955691 0.17252016042891199 0 0.25663206842899322 0.18944739470039451 0 0.23992199327955691 0.17252016042891199 0 0.24667522881024631 0.17200572642003251 0 0.24667522881024631 0.17200572642003251 0 0.24000004067461739 0.16231492613744589 0 0.24994860219843351 0.1613072979125138 0 0.23992199327955691 0.17252016042891199 0 0.24667522881024631 0.17200572642003251 0 0.24000004067461739 0.16231492613744589 0 0.24000004067461739 0.16231492613744589 0 0.24994860219843351 0.1613072979125138 0 0.24133959962888599 0.1512599165274679 0 0.24000004067461739 0.16231492613744589 0 0.24133959962888599 0.1512599165274679 0 0.22211477945596469 0.15448152939830351 0 0.24133959962888599 0.1512599165274679 0 0.23115940414735309 0.14029607576876019 0 0.24872066338327919 0.13577790065814091 0 0.24994860219843351 0.1613072979125138 0 0.24133959962888599 0.1512599165274679 0 0.25311723389320517 0.1499220563868657 0 0.24133959962888599 0.1512599165274679 0 0.24872066338327919 0.13577790065814091 0 0.25311723389320517 0.1499220563868657 0 0.20430756563237251 0.13644289836769519 0 0.22211477945596469 0.15448152939830351 0 0.23115940414735309 0.14029607576876019 0 0.24133959962888599 0.1512599165274679 0 0.22211477945596469 0.15448152939830351 0 0.23115940414735309 0.14029607576876019 0 0.20430756563237251 0.13644289836769519 0 0.22471676071947669 0.12503674878454721 0 0.23115940414735309 0.14029607576876019 0 0.22471676071947669 0.12503674878454721 0 0.23115940414735309 0.14029607576876019 0 0.2397010375118416 0.12552673718983789 0 0.23115940414735309 0.14029607576876019 0 0.2397010375118416 0.12552673718983789 0 0.24872066338327919 0.13577790065814091 0 0.2397010375118416 0.12552673718983789 0 0.24872066338327919 0.13577790065814091 0 0.25154645537559212 0.12680556658031389 0 0.2397010375118416 0.12552673718983789 0 0.2481760255475001 0.11340651702638881 0 0.2310004824372773 0.1141966675307783 0 0.2397010375118416 0.12552673718983789 0 0.2481760255475001 0.11340651702638881 0 0.25154645537559212 0.12680556658031389 0 0.2481760255475001 0.11340651702638881 0 0.22676395603525271 0.094301922605889626 0 0.2481760255475001 0.11340651702638881 0 0.22676395603525271 0.094301922605889626 0 0.2310004824372773 0.1141966675307783 0 0.2481760255475001 0.11340651702638881 0 0.22676395603525271 0.094301922605889626 0 0.24826261394935639 0.087820904606765754 0 0.22676395603525271 0.094301922605889626 0 0.2310004824372773 0.1141966675307783 0 0.21359877618931089 0.1134827916283087 0 0.22471676071947669 0.12503674878454721 0 0.2310004824372773 0.1141966675307783 0 0.21359877618931089 0.1134827916283087 0 0.22471676071947669 0.12503674878454721 0 0.2397010375118416 0.12552673718983789 0 0.2310004824372773 0.1141966675307783 0 0.20430756563237251 0.13644289836769519 0 0.22471676071947669 0.12503674878454721 0 0.21359877618931089 0.1134827916283087 0 0.20430756563237251 0.13644289836769519 0 0.21359877618931089 0.1134827916283087 0 0.19906875627542811 0.1152175824618151 0 0.21359877618931089 0.1134827916283087 0 0.20490600066834039 0.1018220690087758 0 0.19906875627542811 0.1152175824618151 0 0.22676395603525271 0.094301922605889626 0 0.21359877618931089 0.1134827916283087 0 0.20490600066834039 0.1018220690087758 0 0.22676395603525271 0.094301922605889626 0 0.20490600066834039 0.1018220690087758 0 0.2034103982855098 0.08565499307668617 0 0.20490600066834039 0.1018220690087758 0 0.2034103982855098 0.08565499307668617 0 0.18717397405784639 0.1073787361503742 0 0.20490600066834039 0.1018220690087758 0 0.19906875627542811 0.1152175824618151 0 0.18717397405784639 0.1073787361503742 0 0.2034103982855098 0.08565499307668617 0 0.18717397405784639 0.1073787361503742 0 0.20430756563237251 0.13644289836769519 0 0.19906875627542811 0.1152175824618151 0 0.18650035180878019 0.11840426733708689 0 0.19906875627542811 0.1152175824618151 0 0.18650035180878019 0.11840426733708689 0 0.18717397405784639 0.1073787361503742 0 0.20311310417353981 0.068503333969202204 0 0.18411809042810509 0.087058703630592274 0 0.17674955214555019 0.071009815167514867 0 0.20311310417353981 0.068503333969202204 0 0.1931026693789403 0.054572828265839347 0 0.17674955214555019 0.071009815167514867 0 0.20311310417353981 0.068503333969202204 0 0.2034103982855098 0.08565499307668617 0 0.18411809042810509 0.087058703630592274 0 0.2034103982855098 0.08565499307668617 0 0.18717397405784639 0.1073787361503742 0 0.18411809042810509 0.087058703630592274 0 0.22676395603525271 0.094301922605889626 0 0.2034103982855098 0.08565499307668617 0 0.22531526617465589 0.077954897893188102 0 0.20311310417353981 0.068503333969202204 0 0.2034103982855098 0.08565499307668617 0 0.21964682251317319 0.063931250002998249 0 0.2034103982855098 0.08565499307668617 0 0.21964682251317319 0.063931250002998249 0 0.22531526617465589 0.077954897893188102 0 0.20311310417353981 0.068503333969202204 0 0.21964682251317319 0.063931250002998249 0 0.22103749358112881 0.057370727388924202 0 0.2034103982855098 0.08565499307668617 0 0.21964682251317319 0.063931250002998249 0 0.21964682251317319 0.063931250002998249 0 0.22531526617465589 0.077954897893188102 0 0.22917395047564709 0.068532236846190905 0 0.21964682251317319 0.063931250002998249 0 0.22917395047564709 0.068532236846190905 0 0.2270804075522582 0.061930335249404368 0 0.22531526617465589 0.077954897893188102 0 0.22917395047564709 0.068532236846190905 0 0.23809501161243779 0.075365115696703844 0 0.22917395047564709 0.068532236846190905 0 0.23573224452571051 0.063479585388659943 0 0.2270804075522582 0.061930335249404368 0 0.22917395047564709 0.068532236846190905 0 0.23573224452571051 0.063479585388659943 0 0.23809501161243779 0.075365115696703844 0 0.22676395603525271 0.094301922605889626 0 0.22531526617465589 0.077954897893188102 0 0.23809501161243779 0.075365115696703844 0 0.22676395603525271 0.094301922605889626 0 0.24826261394935639 0.087820904606765754 0 0.23809501161243779 0.075365115696703844 0 0.24826261394935639 0.087820904606765754 0 0.23809501161243779 0.075365115696703844 0 0.24764588888505529 0.069224192746603921 0 0.23573224452571051 0.063479585388659943 0 0.23809501161243779 0.075365115696703844 0 0.24764588888505529 0.069224192746603921 0 0.24764588888505529 0.069224192746603921 0 0.24490786057555919 0.059492238656110502 0 0.25421356650296129 0.06235942859459697 0 0.23573224452571051 0.063479585388659943 0 0.24764588888505529 0.069224192746603921 0 0.24490786057555919 0.059492238656110502 0 0.24490786057555919 0.059492238656110502 0 0.24317272570796511 0.051135525677898933 0 0.25080331219919311 0.05444439867926347 0 0.24490786057555919 0.059492238656110502 0 0.25080331219919311 0.05444439867926347 0 0.25421356650296129 0.06235942859459697 0 0.24490786057555919 0.059492238656110502 0 0.2378794256324695 0.056310300849639817 0 0.24317272570796511 0.051135525677898933 0 0.23573224452571051 0.063479585388659943 0 0.24490786057555919 0.059492238656110502 0 0.2378794256324695 0.056310300849639817 0 0.23573224452571051 0.063479585388659943 0 0.2378794256324695 0.056310300849639817 0 0.2302280666035369 0.054828683753643477 0 0.2378794256324695 0.056310300849639817 0 0.23649215484044719 0.050147640390800399 0 0.2302280666035369 0.054828683753643477 0 0.2378794256324695 0.056310300849639817 0 0.23649215484044719 0.050147640390800399 0 0.24317272570796511 0.051135525677898933 0 0.23649215484044719 0.050147640390800399 0 0.24317272570796511 0.051135525677898933 0 0.2386496269469657 0.043878754138818567 0 0.24317272570796511 0.051135525677898933 0 0.2492340547003716 0.04657055823419224 0 0.25080331219919311 0.05444439867926347 0 0.24317272570796511 0.051135525677898933 0 0.2492340547003716 0.04657055823419224 0 0.24446436309654959 0.043792781739637299 0 0.2492340547003716 0.04657055823419224 0 0.24732092605318759 0.040161049639019203 0 0.24446436309654959 0.043792781739637299 0 0.24732092605318759 0.040161049639019203 0 0.24446436309654959 0.043792781739637299 0 0.24083349447167279 0.039101870051199007 0 0.24732092605318759 0.040161049639019203 0 0.24083349447167279 0.039101870051199007 0 0.23944726530807009 0.030414907465600341 0 0.24732092605318759 0.040161049639019203 0 0.23944726530807009 0.030414907465600341 0 0.25369717739999781 0.041563117502220318 0 0.24083349447167279 0.039101870051199007 0 0.2340663306775084 0.037394447999478067 0 0.23944726530807009 0.030414907465600341 0 0.23649215484044719 0.050147640390800399 0 0.2386496269469657 0.043878754138818567 0 0.23040340537376741 0.044293996547003757 0 0.24317272570796511 0.051135525677898933 0 0.24446436309654959 0.043792781739637299 0 0.2386496269469657 0.043878754138818567 0 0.24446436309654959 0.043792781739637299 0 0.2386496269469657 0.043878754138818567 0 0.24083349447167279 0.039101870051199007 0 0.2386496269469657 0.043878754138818567 0 0.24083349447167279 0.039101870051199007 0 0.2340663306775084 0.037394447999478067 0 0.23040340537376741 0.044293996547003757 0 0.22791777122018339 0.038060590738882731 0 0.2214479045380307 0.038743891567366733 0 0.2386496269469657 0.043878754138818567 0 0.23040340537376741 0.044293996547003757 0 0.2340663306775084 0.037394447999478067 0 0.23040340537376741 0.044293996547003757 0 0.2340663306775084 0.037394447999478067 0 0.22791777122018339 0.038060590738882731 0 0.2340663306775084 0.037394447999478067 0 0.22791777122018339 0.038060590738882731 0 0.2257534442914273 0.031810026841682389 0 0.2340663306775084 0.037394447999478067 0 0.2257534442914273 0.031810026841682389 0 0.23944726530807009 0.030414907465600341 0 0.2257534442914273 0.031810026841682389 0 0.2214479045380307 0.038743891567366733 0 0.2158143829070025 0.03021949526125902 0 0.22791777122018339 0.038060590738882731 0 0.2257534442914273 0.031810026841682389 0 0.2214479045380307 0.038743891567366733 0 0.23040340537376741 0.044293996547003757 0 0.2214479045380307 0.038743891567366733 0 0.2223371416135736 0.047281324691970487 0 0.2223371416135736 0.047281324691970487 0 0.22103749358112881 0.057370727388924202 0 0.2302280666035369 0.054828683753643477 0 0.22103749358112881 0.057370727388924202 0 0.2302280666035369 0.054828683753643477 0 0.2270804075522582 0.061930335249404368 0 0.21964682251317319 0.063931250002998249 0 0.22103749358112881 0.057370727388924202 0 0.2270804075522582 0.061930335249404368 0 0.23573224452571051 0.063479585388659943 0 0.2302280666035369 0.054828683753643477 0 0.2270804075522582 0.061930335249404368 0 0.23649215484044719 0.050147640390800399 0 0.23040340537376741 0.044293996547003757 0 0.2302280666035369 0.054828683753643477 0 0.23040340537376741 0.044293996547003757 0 0.2223371416135736 0.047281324691970487 0 0.2302280666035369 0.054828683753643477 0 0.2460242461399256 0.0072150772703729093 0 0.23759526999934821 0.01126741815824513 0 0.23587209536315579 -0.0017034803014950709 0 0.2460242461399256 0.0072150772703729093 0 0.24526532840516679 0.015266776627792109 0 0.23759526999934821 0.01126741815824513 0 0.2460242461399256 0.0072150772703729093 0 0.24526532840516679 0.015266776627792109 0 0.25634390475142949 0.01089092479112733 0 0.23601865224496679 0.022343189036116349 0 0.25883750361173818 0.037056699231949902 0 0.23601865224496679 0.022343189036116349 0 0.25209714781426379 0.022458788874029259 0 0.25883750361173818 0.037056699231949902 0 0.24526532840516679 0.015266776627792109 0 0.23601865224496679 0.022343189036116349 0 0.25209714781426379 0.022458788874029259 0 0.23601865224496679 0.022343189036116349 0 0.23944726530807009 0.030414907465600341 0 0.25883750361173818 0.037056699231949902 0 0.24526532840516679 0.015266776627792109 0 0.23759526999934821 0.01126741815824513 0 0.23601865224496679 0.022343189036116349 0 0.23601865224496679 0.022343189036116349 0 0.21319980087819551 0.0076296788402828719 0 0.21664804186015041 0.020277695274359169 0 0.23944726530807009 0.030414907465600341 0 0.21664804186015041 0.020277695274359169 0 0.23601865224496679 0.022343189036116349 0 0.23944726530807009 0.030414907465600341 0 0.21664804186015041 0.020277695274359169 0 0.2257534442914273 0.031810026841682389 0 0.23944726530807009 0.030414907465600341 0 0.21664804186015041 0.020277695274359169 0 0.2257534442914273 0.031810026841682389 0 0.21664804186015041 0.020277695274359169 0 0.2158143829070025 0.03021949526125902 0 0.23601865224496679 0.022343189036116349 0 0.21319980087819551 0.0076296788402828719 0 0.23601865224496679 0.022343189036116349 0 0.22830118569172561 0.0088985581403001751 0 0.21319980087819551 0.0076296788402828719 0 0.23759526999934821 0.01126741815824513 0 0.23601865224496679 0.022343189036116349 0 0.22830118569172561 0.0088985581403001751 0 0.22830118569172561 0.0088985581403001751 0 0.21319980087819551 0.0076296788402828719 0 0.22251789875973821 -0.0009434813539314263 0 0.23759526999934821 0.01126741815824513 0 0.22830118569172561 0.0088985581403001751 0 0.23587209536315579 -0.0017034803014950709 0 0.22830118569172561 0.0088985581403001751 0 0.23587209536315579 -0.0017034803014950709 0 0.22251789875973821 -0.0009434813539314263 0 0.21319980087819551 0.0076296788402828719 0 0.21664804186015041 0.020277695274359169 0 0.19384881841223059 0.010140483083118009 0 0.21664804186015041 0.020277695274359169 0 0.19384881841223059 0.010140483083118009 0 0.21664804186015041 0.020277695274359169 0 0.20579158185184299 0.026347014993815109 0 0.19384881841223059 0.010140483083118009 0 0.21664804186015041 0.020277695274359169 0 0.2158143829070025 0.03021949526125902 0 0.20579158185184299 0.026347014993815109 0 0.20579158185184299 0.026347014993815109 0 0.1926177134157504 0.03046552661117061 0 0.19384881841223059 0.010140483083118009 0 0.1926177134157504 0.03046552661117061 0 0.19384881841223059 0.010140483083118009 0 0.176541144992612 0.022204721280126561 0 0.21319980087819551 0.0076296788402828719 0 0.19384881841223059 0.010140483083118009 0 0.1995975287372618 -0.0032828171976979118 0 0.19384881841223059 0.010140483083118009 0 0.18599838952803729 -0.0048000680136285109 0 0.1995975287372618 -0.0032828171976979118 0 0.22103749358112881 0.057370727388924202 0 0.1931026693789403 0.054572828265839347 0 0.2223371416135736 0.047281324691970487 0 0.22103749358112881 0.057370727388924202 0 0.21002895266408109 0.040631874739168711 0 0.22103749358112881 0.057370727388924202 0 0.21002895266408109 0.040631874739168711 0 0.1931026693789403 0.054572828265839347 0 0.20311310417353981 0.068503333969202204 0 0.22103749358112881 0.057370727388924202 0 0.1931026693789403 0.054572828265839347 0 0.2214479045380307 0.038743891567366733 0 0.2223371416135736 0.047281324691970487 0 0.21002895266408109 0.040631874739168711 0 0.2214479045380307 0.038743891567366733 0 0.2158143829070025 0.03021949526125902 0 0.21002895266408109 0.040631874739168711 0 0.2158143829070025 0.03021949526125902 0 0.20579158185184299 0.026347014993815109 0 0.21002895266408109 0.040631874739168711 0 0.1926177134157504 0.03046552661117061 0 0.21002895266408109 0.040631874739168711 0 0.1931026693789403 0.054572828265839347 0 0.20579158185184299 0.026347014993815109 0 0.1926177134157504 0.03046552661117061 0 0.21002895266408109 0.040631874739168711 0 0.1926177134157504 0.03046552661117061 0 0.1931026693789403 0.054572828265839347 0 0.17786091465527051 0.038997763921489972 0 0.1931026693789403 0.054572828265839347 0 0.16516784517675179 0.0517749291427545 0 0.1931026693789403 0.054572828265839347 0 0.16516784517675179 0.0517749291427545 0 0.17674955214555019 0.071009815167514867 0 0.1931026693789403 0.054572828265839347 0 0.17786091465527051 0.038997763921489972 0 0.16516784517675179 0.0517749291427545 0 0.17786091465527051 0.038997763921489972 0 0.16234900335145819 0.032700775939517118 0 0.176541144992612 0.022204721280126561 0 0.16234900335145819 0.032700775939517118 0 0.16516784517675179 0.0517749291427545 0 0.1482219520840666 0.039866342859505279 0 0.17786091465527051 0.038997763921489972 0 0.16234900335145819 0.032700775939517118 0 0.16516784517675179 0.0517749291427545 0 0.19384881841223059 0.010140483083118009 0 0.176541144992612 0.022204721280126561 0 0.17104959496431091 3.2708918768636912e-06 0 0.19384881841223059 0.010140483083118009 0 0.17104959496431091 3.2708918768636912e-06 0 0.19384881841223059 0.010140483083118009 0 0.17104959496431091 3.2708918768636912e-06 0 0.18599838952803729 -0.0048000680136285109 0 0.1926177134157504 0.03046552661117061 0 0.17786091465527051 0.038997763921489972 0 0.176541144992612 0.022204721280126561 0 0.16234900335145819 0.032700775939517118 0 0.176541144992612 0.022204721280126561 0 0.15925446589634651 0.016113613962068941 0 0.15925446589634651 0.016113613962068941 0 0.17104959496431091 3.2708918768636912e-06 0 0.15311471459814399 0.0020652099819181628 0 0.176541144992612 0.022204721280126561 0 0.15925446589634651 0.016113613962068941 0 0.17104959496431091 3.2708918768636912e-06 0 0.15925446589634651 0.016113613962068941 0 0.15311471459814399 0.0020652099819181628 0 0.1394547285336902 0.010096512266777279 0 0.15311471459814399 0.0020652099819181628 0 0.1394547285336902 0.010096512266777279 0 0.14357274752784871 -0.007517168118714535 0 0.16234900335145819 0.032700775939517118 0 0.15925446589634651 0.016113613962068941 0 0.14661697480621311 0.026347607726095471 0 0.15925446589634651 0.016113613962068941 0 0.14661697480621311 0.026347607726095471 0 0.1394547285336902 0.010096512266777279 0 0.12362321086702011 0.026748764275649518 0 0.14661697480621311 0.026347607726095471 0 0.1482219520840666 0.039866342859505279 0 0.12362321086702011 0.026748764275649518 0 0.14661697480621311 0.026347607726095471 0 0.1394547285336902 0.010096512266777279 0 0.12362321086702011 0.026748764275649518 0 0.1203952565228823 0.010720111231283891 0 0.1394547285336902 0.010096512266777279 0 0.1203952565228823 0.010720111231283891 0 0.1394547285336902 0.010096512266777279 0 0.12671729673547841 -0.003424175532665474 0 0.1372330209745635 0.048977030019668792 0 0.15074287489684299 0.07104204200545633 0 0.16516784517675179 0.0517749291427545 0 0.1372330209745635 0.048977030019668792 0 0.16516784517675179 0.0517749291427545 0 0.1372330209745635 0.048977030019668792 0 0.15074287489684299 0.07104204200545633 0 0.16516784517675179 0.0517749291427545 0 0.1482219520840666 0.039866342859505279 0 0.1372330209745635 0.048977030019668792 0 0.16234900335145819 0.032700775939517118 0 0.14661697480621311 0.026347607726095471 0 0.1482219520840666 0.039866342859505279 0 0.12362321086702011 0.026748764275649518 0 0.1482219520840666 0.039866342859505279 0 0.1372330209745635 0.048977030019668792 0 0.119801941182084 0.047231166057440772 0 0.12362321086702011 0.026748764275649518 0 0.1372330209745635 0.048977030019668792 0 0.12362321086702011 0.026748764275649518 0 0.1372330209745635 0.048977030019668792 0 0.119801941182084 0.047231166057440772 0 0.1372330209745635 0.048977030019668792 0 0.12623645721171081 0.070878328956718209 0 0.119801941182084 0.047231166057440772 0 0.1372330209745635 0.048977030019668792 0 0.12623645721171081 0.070878328956718209 0 0.15074287489684299 0.07104204200545633 0 0.14045040066626319 0.089204865586578475 0 0.1372330209745635 0.048977030019668792 0 0.12623645721171081 0.070878328956718209 0 0.15074287489684299 0.07104204200545633 0 0.15074287489684299 0.07104204200545633 0 0.14045040066626319 0.089204865586578475 0 0.1642527288191212 0.093107053991244554 0 0.1186365169817739 0.088338449415469728 0 0.12623645721171081 0.070878328956718209 0 0.14045040066626319 0.089204865586578475 0 0.1186365169817739 0.088338449415469728 0 0.14045040066626319 0.089204865586578475 0 0.12731613885478529 0.1040157144150566 0 0.14045040066626319 0.089204865586578475 0 0.12731613885478529 0.1040157144150566 0 0.14339260948623911 0.1094257436621998 0 0.14518929242219031 0.12629267150477369 0 0.13309078966085541 0.11885664384211481 0 0.14339260948623911 0.1094257436621998 0 0.118143299844883 0.1205503416995295 0 0.12731613885478529 0.1040157144150566 0 0.13309078966085541 0.11885664384211481 0 0.12731613885478529 0.1040157144150566 0 0.13309078966085541 0.11885664384211481 0 0.14339260948623911 0.1094257436621998 0 0.118143299844883 0.1205503416995295 0 0.12964379277677709 0.13248138607129159 0 0.13309078966085541 0.11885664384211481 0 0.14518929242219031 0.12629267150477369 0 0.14339260948623911 0.1094257436621998 0 0.15978652546003869 0.1181421298673602 0 0.14045040066626319 0.089204865586578475 0 0.14339260948623911 0.1094257436621998 0 0.1642527288191212 0.093107053991244554 0 0.14339260948623911 0.1094257436621998 0 0.15978652546003869 0.1181421298673602 0 0.1642527288191212 0.093107053991244554 0 0.15978652546003869 0.1181421298673602 0 0.17776258274139961 0.1151720659770329 0 0.1642527288191212 0.093107053991244554 0 0.17776258274139961 0.1151720659770329 0 0.1642527288191212 0.093107053991244554 0 0.17093754983018289 0.12910247922406209 0 0.15978652546003869 0.1181421298673602 0 0.17776258274139961 0.1151720659770329 0 0.17093754983018289 0.12910247922406209 0 0.18717397405784639 0.1073787361503742 0 0.17093754983018289 0.12910247922406209 0 0.17776258274139961 0.1151720659770329 0 0.18717397405784639 0.1073787361503742 0 0.17093754983018289 0.12910247922406209 0 0.18650035180878019 0.11840426733708689 0 0.18717397405784639 0.1073787361503742 0 0.17776258274139961 0.1151720659770329 0 0.18717397405784639 0.1073787361503742 0 0.1642527288191212 0.093107053991244554 0 0.18717397405784639 0.1073787361503742 0 0.18411809042810509 0.087058703630592274 0 0.1642527288191212 0.093107053991244554 0 0.18411809042810509 0.087058703630592274 0 0.17674955214555019 0.071009815167514867 0 0.1642527288191212 0.093107053991244554 0 0.16516784517675179 0.0517749291427545 0 0.15074287489684299 0.07104204200545633 0 0.17674955214555019 0.071009815167514867 0 0.15074287489684299 0.07104204200545633 0 0.1642527288191212 0.093107053991244554 0 0.15074287489684299 0.07104204200545633 0 0.17674955214555019 0.071009815167514867 0 0.1642527288191212 0.093107053991244554 0 0.1067119541471073 0.48100067922962891 0 0.1098333482827573 0.46200135845925938 0 0.1067119541471073 0.48100067922962891 0 0.1098333482827573 0.46200135845925938 0 0.084537114509337846 0.46385718850613988 0 0.1067119541471073 0.48100067922962891 0 0.10359056001145039 0.49999999999999722 0 0.1067119541471073 0.48100067922962891 0 0.10359056001145039 0.49999999999999722 0 0.088829925394896134 0.48480310488036882 0 0.1067119541471073 0.48100067922962891 0 0.12490734121745441 0.48152238391437302 0 0.12745809750828391 0.5 0 0.1067119541471073 0.48100067922962891 0 0.10359056001145039 0.49999999999999722 0 0.12745809750828391 0.5 0 0.1067119541471073 0.48100067922962891 0 0.12490734121745441 0.48152238391437302 0 0.12257326012046781 0.46845575540061563 0 0.1067119541471073 0.48100067922962891 0 0.1098333482827573 0.46200135845925938 0 0.12257326012046781 0.46845575540061563 0 0.1098333482827573 0.46200135845925938 0 0.12257326012046781 0.46845575540061563 0 0.1378975107519658 0.45994246240313369 0 0.1098333482827573 0.46200135845925938 0 0.1378975107519658 0.45994246240313369 0 0.1098333482827573 0.46200135845925938 0 0.1228960799881406 0.4513194229490205 0 0.1378975107519658 0.45994246240313369 0 0.1098333482827573 0.46200135845925938 0 0.1133910150846786 0.44034653057594381 0 0.1228960799881406 0.4513194229490205 0 0.1133910150846786 0.44034653057594381 0 0.1228960799881406 0.4513194229490205 0 0.1304624458331535 0.44298734035774401 0 0.1098333482827573 0.46200135845925938 0 0.1133910150846786 0.44034653057594381 0 0.1098333482827573 0.46200135845925938 0 0.1133910150846786 0.44034653057594381 0 0.094602443371942097 0.44907444920015399 0 0.1133910150846786 0.44034653057594381 0 0.094602443371942097 0.44907444920015399 0 0.094417698499585478 0.43189689913652529 0 0.1098333482827573 0.46200135845925938 0 0.094602443371942097 0.44907444920015399 0 0.084537114509337846 0.46385718850613988 0 0.1098333482827573 0.46200135845925938 0 0.084537114509337846 0.46385718850613988 0 0.084537114509337846 0.46385718850613988 0 0.081814240020169987 0.45060704302866272 0 0.068562009313748951 0.45379963106026422 0 0.094602443371942097 0.44907444920015399 0 0.084537114509337846 0.46385718850613988 0 0.081814240020169987 0.45060704302866272 0 0.094602443371942097 0.44907444920015399 0 0.083331176511933724 0.43939766653389623 0 0.094417698499585478 0.43189689913652529 0 0.094602443371942097 0.44907444920015399 0 0.081814240020169987 0.45060704302866272 0 0.083331176511933724 0.43939766653389623 0 0.081814240020169987 0.45060704302866272 0 0.083331176511933724 0.43939766653389623 0 0.073232333737687699 0.44474159211746972 0 0.083331176511933724 0.43939766653389623 0 0.073232333737687699 0.44474159211746972 0 0.069687313727989669 0.43623910396220011 0 0.081814240020169987 0.45060704302866272 0 0.073232333737687699 0.44474159211746972 0 0.068562009313748951 0.45379963106026422 0 0.073232333737687699 0.44474159211746972 0 0.068562009313748951 0.45379963106026422 0 0.061562880793805577 0.44557690020265778 0 0.073232333737687699 0.44474159211746972 0 0.061562880793805577 0.44557690020265778 0 0.069687313727989669 0.43623910396220011 0 0.084537114509337846 0.46385718850613988 0 0.059240880735918627 0.46571301855302211 0 0.084537114509337846 0.46385718850613988 0 0.068562009313748951 0.45379963106026422 0 0.059240880735918627 0.46571301855302211 0 0.084537114509337846 0.46385718850613988 0 0.068031181616908853 0.48218715559353781 0 0.059240880735918627 0.46571301855302211 0 0.1067119541471073 0.48100067922962891 0 0.084537114509337846 0.46385718850613988 0 0.088829925394896134 0.48480310488036882 0 0.084537114509337846 0.46385718850613988 0 0.068031181616908853 0.48218715559353781 0 0.088829925394896134 0.48480310488036882 0 0.10359056001145039 0.49999999999999722 0 0.088829925394896134 0.48480310488036882 0 0.076366574313611768 0.5 0 0.068031181616908853 0.48218715559353781 0 0.088829925394896134 0.48480310488036882 0 0.076366574313611768 0.5 0 0.068031181616908853 0.48218715559353781 0 0.076366574313611768 0.5 0 0.049142588615773142 0.5 0 0.068031181616908853 0.48218715559353781 0 0.049142588615773142 0.5 0 0.050070006131915659 0.47874962162169621 0 0.050070006131915659 0.47874962162169621 0 0.036102273191556788 0.47033207390242332 0 0.059240880735918627 0.46571301855302211 0 0.068031181616908853 0.48218715559353781 0 0.050070006131915659 0.47874962162169621 0 0.059240880735918627 0.46571301855302211 0 0.050070006131915659 0.47874962162169621 0 0.036102273191556788 0.47033207390242332 0 0.036730865973568547 0.48640350057489268 0 0.036102273191556788 0.47033207390242332 0 0.036730865973568547 0.48640350057489268 0 0.023283255684584021 0.47891790558282321 0 0.036102273191556788 0.47033207390242332 0 0.033944646962499173 0.46756884859990261 0 0.049142588615773142 0.5 0 0.050070006131915659 0.47874962162169621 0 0.036730865973568547 0.48640350057489268 0 0.049142588615773142 0.5 0 0.036730865973568547 0.48640350057489268 0 0.02191860291793446 0.5 0 0.036730865973568547 0.48640350057489268 0 0.02191860291793446 0.5 0 0.023283255684584021 0.47891790558282321 0 0.02191860291793446 0.5 0 0.023283255684584021 0.47891790558282321 0 0.0084679486474796006 0.48665806647391902 0 0.023283255684584021 0.47891790558282321 0 0.010318891920573101 0.46930212583317987 0 0.033944646962499173 0.46756884859990261 0 0.036102273191556788 0.47033207390242332 0 0.023283255684584021 0.47891790558282321 0 0.033944646962499173 0.46756884859990261 0 -0.0045487042265510104 0.48250265938135573 0 0.010318891920573101 0.46930212583317987 0 0.0084679486474796006 0.48665806647391902 0 0.023283255684584021 0.47891790558282321 0 0.010318891920573101 0.46930212583317987 0 0.0084679486474796006 0.48665806647391902 0 -0.0053053827799041109 0.5 0 0.02191860291793446 0.5 0 0.0084679486474796006 0.48665806647391902 0 -0.001830470611425295 0.45374269968889591 0 0.021795284430502829 0.4520094224556222 0 0.0096459218985064377 0.4364499963113419 0 -0.001830470611425295 0.45374269968889591 0 0.0096459218985064377 0.4364499963113419 0 -0.001830470611425295 0.45374269968889591 0 0.010318891920573101 0.46930212583317987 0 0.021795284430502829 0.4520094224556222 0 0.010318891920573101 0.46930212583317987 0 0.021795284430502829 0.4520094224556222 0 0.033944646962499173 0.46756884859990261 0 0.021795284430502829 0.4520094224556222 0 0.035933505327497998 0.44676262312437409 0 0.033944646962499173 0.46756884859990261 0 0.010318891920573101 0.46930212583317987 0 0.033944646962499173 0.46756884859990261 0 0.021795284430502829 0.4520094224556222 0 0.033944646962499173 0.46756884859990261 0 0.021795284430502829 0.4520094224556222 0 0.02238779068851339 0.43931247986963878 0 0.035933505327497998 0.44676262312437409 0 0.02238779068851339 0.43931247986963878 0 0.035933505327497998 0.44676262312437409 0 0.032023903655165803 0.42925168647614159 0 0.021795284430502829 0.4520094224556222 0 0.02238779068851339 0.43931247986963878 0 0.0096459218985064377 0.4364499963113419 0 0.021795284430502829 0.4520094224556222 0 0.0096459218985064377 0.4364499963113419 0 0.035933505327497998 0.44676262312437409 0 0.032023903655165803 0.42925168647614159 0 0.035933505327497998 0.44676262312437409 0 0.042930696643190831 0.43849531118092072 0 0.032023903655165803 0.42925168647614159 0 0.035933505327497998 0.44676262312437409 0 0.042930696643190831 0.43849531118092072 0 0.050646337317541971 0.45214968699097902 0 0.033944646962499173 0.46756884859990261 0 0.059240880735918627 0.46571301855302211 0 0.035933505327497998 0.44676262312437409 0 0.039843106999828397 0.46427355977260693 0 0.050646337317541971 0.45214968699097902 0 0.039843106999828397 0.46427355977260693 0 0.033944646962499173 0.46756884859990261 0 0.059240880735918627 0.46571301855302211 0 0.036102273191556788 0.47033207390242332 0 0.033944646962499173 0.46756884859990261 0 0.059240880735918627 0.46571301855302211 0 0.035933505327497998 0.44676262312437409 0 0.039843106999828397 0.46427355977260693 0 0.033944646962499173 0.46756884859990261 0 0.035933505327497998 0.44676262312437409 0 0.039843106999828397 0.46427355977260693 0 0.039843106999828397 0.46427355977260693 0 0.059240880735918627 0.46571301855302211 0 0.050646337317541971 0.45214968699097902 0 0.068562009313748951 0.45379963106026422 0 0.059240880735918627 0.46571301855302211 0 0.050646337317541971 0.45214968699097902 0 0.061562880793805577 0.44557690020265778 0 0.052801361546110197 0.43669525809803678 0 0.069687313727989669 0.43623910396220011 0 0.068562009313748951 0.45379963106026422 0 0.050646337317541971 0.45214968699097902 0 0.061562880793805577 0.44557690020265778 0 0.042930696643190831 0.43849531118092072 0 0.050646337317541971 0.45214968699097902 0 0.052801361546110197 0.43669525809803678 0 0.050646337317541971 0.45214968699097902 0 0.061562880793805577 0.44557690020265778 0 0.052801361546110197 0.43669525809803678 0 0.04324837536963793 0.42761730121507002 0 0.06632875609195106 0.42425658767487018 0 0.052801361546110197 0.43669525809803678 0 0.04324837536963793 0.42761730121507002 0 0.06632875609195106 0.42425658767487018 0 0.052801361546110197 0.43669525809803678 0 0.04324837536963793 0.42761730121507002 0 0.049851983388341223 0.40995623252270808 0 0.04324837536963793 0.42761730121507002 0 0.06632875609195106 0.42425658767487018 0 0.049851983388341223 0.40995623252270808 0 0.067086352680964981 0.40255920074830459 0 0.06632875609195106 0.42425658767487018 0 0.049851983388341223 0.40995623252270808 0 0.04324837536963793 0.42761730121507002 0 0.028537981641999621 0.41363839268069519 0 0.049851983388341223 0.40995623252270808 0 0.028537981641999621 0.41363839268069519 0 0.039245178982490157 0.39573031573467699 0 0.04324837536963793 0.42761730121507002 0 0.028537981641999621 0.41363839268069519 0 0.042930696643190831 0.43849531118092072 0 0.04324837536963793 0.42761730121507002 0 0.032023903655165803 0.42925168647614159 0 0.042930696643190831 0.43849531118092072 0 0.052801361546110197 0.43669525809803678 0 0.04324837536963793 0.42761730121507002 0 0.04324837536963793 0.42761730121507002 0 0.032023903655165803 0.42925168647614159 0 0.04324837536963793 0.42761730121507002 0 0.032023903655165803 0.42925168647614159 0 0.028537981641999621 0.41363839268069519 0 0.032023903655165803 0.42925168647614159 0 0.012540338130892991 0.43208867098071352 0 0.032023903655165803 0.42925168647614159 0 0.021105216301286839 0.42199754499048853 0 0.014777299599720699 0.42871800279260591 0 0.032023903655165803 0.42925168647614159 0 0.012540338130892991 0.43208867098071352 0 0.014777299599720699 0.42871800279260591 0 0.02238779068851339 0.43931247986963878 0 0.032023903655165803 0.42925168647614159 0 0.012540338130892991 0.43208867098071352 0 0.021105216301286839 0.42199754499048853 0 0.014777299599720699 0.42871800279260591 0 0.013436946988669931 0.42233058116655298 0 0.032023903655165803 0.42925168647614159 0 0.028537981641999621 0.41363839268069519 0 0.028537981641999621 0.41363839268069519 0 0.016749949620878241 0.41604906183644652 0 0.01253675167787378 0.3984328356951134 0 0.032023903655165803 0.42925168647614159 0 0.021105216301286839 0.42199754499048853 0 0.028537981641999621 0.41363839268069519 0 0.021105216301286839 0.42199754499048853 0 0.028537981641999621 0.41363839268069519 0 0.016749949620878241 0.41604906183644652 0 0.021105216301286839 0.42199754499048853 0 0.016749949620878241 0.41604906183644652 0 0.013436946988669931 0.42233058116655298 0 0.0048761788785234338 0.41291022029683971 0 0.0071840038456510453 0.42420044806050272 0 0.013436946988669931 0.42233058116655298 0 0.016749949620878241 0.41604906183644652 0 0.0048761788785234338 0.41291022029683971 0 0.01253675167787378 0.3984328356951134 0 0.016749949620878241 0.41604906183644652 0 0.0048761788785234338 0.41291022029683971 0 0.013436946988669931 0.42233058116655298 0 -0.0014354322474061461 0.42225834543601892 0 0.0048761788785234338 0.41291022029683971 0 0.0071840038456510453 0.42420044806050272 0 -0.0081375013823759036 0.43695378700822279 0 -0.0014354322474061461 0.42225834543601892 0 0.0096459218985064377 0.4364499963113419 0 -0.0014354322474061461 0.42225834543601892 0 0.0096459218985064377 0.4364499963113419 0 -0.0014354322474061461 0.42225834543601892 0 0.0071840038456510453 0.42420044806050272 0 0.01051670056905599 0.43238333103144477 0 -0.0014354322474061461 0.42225834543601892 0 0.01051670056905599 0.43238333103144477 0 0.0096459218985064377 0.4364499963113419 0 0.01051670056905599 0.43238333103144477 0 0.012540338130892991 0.43208867098071352 0 0.01169105782679814 0.42794420680636402 0 0.02238779068851339 0.43931247986963878 0 0.0096459218985064377 0.4364499963113419 0 0.012540338130892991 0.43208867098071352 0 0.01051670056905599 0.43238333103144477 0 0.012540338130892991 0.43208867098071352 0 0.01051670056905599 0.43238333103144477 0 0.0096459218985064377 0.4364499963113419 0 0.012540338130892991 0.43208867098071352 0 0.0096459218985064377 0.4364499963113419 0 0.012540338130892991 0.43208867098071352 0 0.012540338130892991 0.43208867098071352 0 0.014777299599720699 0.42871800279260591 0 0.012540338130892991 0.43208867098071352 0 0.014777299599720699 0.42871800279260591 0 0.01169105782679814 0.42794420680636402 0 0.014777299599720699 0.42871800279260591 0 0.013436946988669931 0.42233058116655298 0 0.01169105782679814 0.42794420680636402 0 0.0071840038456510453 0.42420044806050272 0 0.01051670056905599 0.43238333103144477 0 0.01169105782679814 0.42794420680636402 0 0.0071840038456510453 0.42420044806050272 0 0.013436946988669931 0.42233058116655298 0 0.01169105782679814 0.42794420680636402 0 -0.0034644782862507249 0.38322727870953011 0 -0.0048853591466102861 0.37581854773372309 0 0.011154703847758121 0.36901005211006882 0 -0.0034644782862507249 0.38322727870953011 0 0.010578309376475329 0.38385289461054778 0 0.01253675167787378 0.3984328356951134 0 0.010578309376475329 0.38385289461054778 0 0.02208626026652017 0.38474141192747902 0 0.011154703847758121 0.36901005211006882 0 0.010578309376475329 0.38385289461054778 0 0.01253675167787378 0.3984328356951134 0 0.02208626026652017 0.38474141192747902 0 -0.0034644782862507249 0.38322727870953011 0 0.010578309376475329 0.38385289461054778 0 0.011154703847758121 0.36901005211006882 0 -0.0034644782862507249 0.38322727870953011 0 0.011154703847758121 0.36901005211006882 0 -0.0034644782862507249 0.38322727870953011 0 0.01253675167787378 0.3984328356951134 0 -0.0018221813426865989 0.39903357532254907 0 -0.0034644782862507249 0.38322727870953011 0 0.01253675167787378 0.3984328356951134 0 -0.0018221813426865989 0.39903357532254907 0 0.0048761788785234338 0.41291022029683971 0 0.01253675167787378 0.3984328356951134 0 0.028537981641999621 0.41363839268069519 0 0.02208626026652017 0.38474141192747902 0 0.039245178982490157 0.39573031573467699 0 0.028537981641999621 0.41363839268069519 0 0.01253675167787378 0.3984328356951134 0 0.028537981641999621 0.41363839268069519 0 0.01253675167787378 0.3984328356951134 0 0.02208626026652017 0.38474141192747902 0 0.028537981641999621 0.41363839268069519 0 0.02208626026652017 0.38474141192747902 0 0.02208626026652017 0.38474141192747902 0 0.040913387539720673 0.37785318969908488 0 0.028296909313102941 0.36715849683182389 0 0.02208626026652017 0.38474141192747902 0 0.040913387539720673 0.37785318969908488 0 0.039245178982490157 0.39573031573467699 0 0.040913387539720673 0.37785318969908488 0 0.039245178982490157 0.39573031573467699 0 0.055092710756339598 0.39231156749275847 0 0.049851983388341223 0.40995623252270808 0 0.055092710756339598 0.39231156749275847 0 0.067086352680964981 0.40255920074830459 0 0.049851983388341223 0.40995623252270808 0 0.039245178982490157 0.39573031573467699 0 0.055092710756339598 0.39231156749275847 0 0.040913387539720673 0.37785318969908488 0 0.055092710756339598 0.39231156749275847 0 0.059240858562917033 0.37059365245369891 0 0.055092710756339598 0.39231156749275847 0 0.07043230420355287 0.38414727549457539 0 0.059240858562917033 0.37059365245369891 0 0.07043230420355287 0.38414727549457539 0 0.088645002051024019 0.38307431134406911 0 0.078256808202736353 0.36479661189134349 0 0.07043230420355287 0.38414727549457539 0 0.088645002051024019 0.38307431134406911 0 0.080583052232311492 0.39568794019712278 0 0.088645002051024019 0.38307431134406911 0 0.092297646400311295 0.40087883290488069 0 0.080583052232311492 0.39568794019712278 0 0.092297646400311295 0.40087883290488069 0 0.080583052232311492 0.39568794019712278 0 0.080086146194398466 0.40909854824944891 0 0.080583052232311492 0.39568794019712278 0 0.067086352680964981 0.40255920074830459 0 0.080086146194398466 0.40909854824944891 0 0.055092710756339598 0.39231156749275847 0 0.07043230420355287 0.38414727549457539 0 0.067086352680964981 0.40255920074830459 0 0.07043230420355287 0.38414727549457539 0 0.080583052232311492 0.39568794019712278 0 0.067086352680964981 0.40255920074830459 0 0.067086352680964981 0.40255920074830459 0 0.06632875609195106 0.42425658767487018 0 0.080086146194398466 0.40909854824944891 0 0.052801361546110197 0.43669525809803678 0 0.06632875609195106 0.42425658767487018 0 0.069687313727989669 0.43623910396220011 0 0.06632875609195106 0.42425658767487018 0 0.069687313727989669 0.43623910396220011 0 0.082253209630931912 0.42638618183588428 0 0.06632875609195106 0.42425658767487018 0 0.089409136814264073 0.4208958741346695 0 0.06632875609195106 0.42425658767487018 0 0.082253209630931912 0.42638618183588428 0 0.089409136814264073 0.4208958741346695 0 0.083331176511933724 0.43939766653389623 0 0.069687313727989669 0.43623910396220011 0 0.082253209630931912 0.42638618183588428 0 0.082253209630931912 0.42638618183588428 0 0.089409136814264073 0.4208958741346695 0 0.082253209630931912 0.42638618183588428 0 0.089409136814264073 0.4208958741346695 0 0.094417698499585478 0.43189689913652529 0 0.089409136814264073 0.4208958741346695 0 0.093264407198684202 0.42033451167111402 0 0.094417698499585478 0.43189689913652529 0 0.083331176511933724 0.43939766653389623 0 0.082253209630931912 0.42638618183588428 0 0.094417698499585478 0.43189689913652529 0 0.06632875609195106 0.42425658767487018 0 0.080086146194398466 0.40909854824944891 0 0.089409136814264073 0.4208958741346695 0 0.092297646400311295 0.40087883290488069 0 0.080086146194398466 0.40909854824944891 0 0.089409136814264073 0.4208958741346695 0 0.089409136814264073 0.4208958741346695 0 0.093264407198684202 0.42033451167111402 0 0.092297646400311295 0.40087883290488069 0 0.089409136814264073 0.4208958741346695 0 0.10495774275138681 0.40896637447199091 0 0.089409136814264073 0.4208958741346695 0 0.10495774275138681 0.40896637447199091 0 0.089409136814264073 0.4208958741346695 0 0.093264407198684202 0.42033451167111402 0 0.10495774275138681 0.40896637447199091 0 0.093264407198684202 0.42033451167111402 0 0.10519676650290161 0.41871346492260181 0 0.10495774275138681 0.40896637447199091 0 0.10519676650290161 0.41871346492260181 0 0.10495774275138681 0.40896637447199091 0 0.11694868188659251 0.4186917026926269 0 0.10519676650290161 0.41871346492260181 0 0.1056162341749431 0.4268612708546754 0 0.11694868188659251 0.4186917026926269 0 0.1133910150846786 0.44034653057594381 0 0.094417698499585478 0.43189689913652529 0 0.1056162341749431 0.4268612708546754 0 0.093264407198684202 0.42033451167111402 0 0.10519676650290161 0.41871346492260181 0 0.1056162341749431 0.4268612708546754 0 0.093264407198684202 0.42033451167111402 0 0.094417698499585478 0.43189689913652529 0 0.1056162341749431 0.4268612708546754 0 0.1133910150846786 0.44034653057594381 0 0.11694868188659251 0.4186917026926269 0 0.1133910150846786 0.44034653057594381 0 0.11694868188659251 0.4186917026926269 0 0.1313906332278614 0.42484499927814479 0 0.1133910150846786 0.44034653057594381 0 0.1056162341749431 0.4268612708546754 0 0.11694868188659251 0.4186917026926269 0 0.11694868188659251 0.4186917026926269 0 0.12050634868850781 0.39703687480931021 0 0.1273398238722433 0.40882311930099302 0 0.11694868188659251 0.4186917026926269 0 0.12050634868850781 0.39703687480931021 0 0.10495774275138681 0.40896637447199091 0 0.11694868188659251 0.4186917026926269 0 0.12050634868850781 0.39703687480931021 0 0.10495774275138681 0.40896637447199091 0 0.1127732118637174 0.39394102194403302 0 0.12050634868850781 0.39703687480931021 0 0.10495774275138681 0.40896637447199091 0 0.12050634868850781 0.39703687480931021 0 0.1127732118637174 0.39394102194403302 0 0.12050634868850781 0.39703687480931021 0 0.1214713209370193 0.39116327587011712 0 0.12050634868850781 0.39703687480931021 0 0.1214713209370193 0.39116327587011712 0 0.1214713209370193 0.39116327587011712 0 0.11421364515238611 0.38213521695499919 0 0.12535823336731231 0.38165703112970623 0 0.11421364515238611 0.38213521695499919 0 0.12308259131018411 0.37094831540195922 0 0.12535823336731231 0.38165703112970623 0 0.1127732118637174 0.39394102194403302 0 0.1214713209370193 0.39116327587011712 0 0.11421364515238611 0.38213521695499919 0 0.1127732118637174 0.39394102194403302 0 0.11421364515238611 0.38213521695499919 0 0.10271700178928821 0.39040336761374728 0 0.11421364515238611 0.38213521695499919 0 0.10271700178928821 0.39040336761374728 0 0.1018283629128543 0.37779340421324348 0 0.11421364515238611 0.38213521695499919 0 0.1018283629128543 0.37779340421324348 0 0.10985842750676621 0.36893047617401808 0 0.088645002051024019 0.38307431134406911 0 0.1018283629128543 0.37779340421324348 0 0.094966676010131645 0.37036189323581492 0 0.088645002051024019 0.38307431134406911 0 0.10271700178928821 0.39040336761374728 0 0.1018283629128543 0.37779340421324348 0 0.092297646400311295 0.40087883290488069 0 0.10495774275138681 0.40896637447199091 0 0.10271700178928821 0.39040336761374728 0 0.088645002051024019 0.38307431134406911 0 0.092297646400311295 0.40087883290488069 0 0.10271700178928821 0.39040336761374728 0 0.10495774275138681 0.40896637447199091 0 0.1127732118637174 0.39394102194403302 0 0.10271700178928821 0.39040336761374728 0 0.096244779377277323 0.35721466255640028 0 0.1189383627130115 0.35657359639549641 0 0.11162907672628419 0.34163265019929512 0 0.096244779377277323 0.35721466255640028 0 0.11162907672628419 0.34163265019929512 0 0.093668212914820942 0.33942457040727941 0 0.096244779377277323 0.35721466255640028 0 0.10985842750676621 0.36893047617401808 0 0.1189383627130115 0.35657359639549641 0 0.096244779377277323 0.35721466255640028 0 0.094966676010131645 0.37036189323581492 0 0.10985842750676621 0.36893047617401808 0 0.1018283629128543 0.37779340421324348 0 0.094966676010131645 0.37036189323581492 0 0.10985842750676621 0.36893047617401808 0 0.11421364515238611 0.38213521695499919 0 0.10985842750676621 0.36893047617401808 0 0.12308259131018411 0.37094831540195922 0 0.10985842750676621 0.36893047617401808 0 0.12308259131018411 0.37094831540195922 0 0.1189383627130115 0.35657359639549641 0 0.1189383627130115 0.35657359639549641 0 0.11162907672628419 0.34163265019929512 0 0.1313582121480418 0.34141086010259158 0 0.11162907672628419 0.34163265019929512 0 0.1224891554384802 0.32533942855689818 0 0.1313582121480418 0.34141086010259158 0 0.11162907672628419 0.34163265019929512 0 0.1224891554384802 0.32533942855689818 0 0.10369339253481349 0.32690380985370998 0 0.1224891554384802 0.32533942855689818 0 0.1111854255167003 0.30460903410001328 0 0.13105508756499509 0.31301657384133752 0 0.1224891554384802 0.32533942855689818 0 0.10369339253481349 0.32690380985370998 0 0.1111854255167003 0.30460903410001328 0 0.10369339253481349 0.32690380985370998 0 0.086232645775877734 0.31113815485876278 0 0.10369339253481349 0.32690380985370998 0 0.086232645775877734 0.31113815485876278 0 0.1111854255167003 0.30460903410001328 0 0.11162907672628419 0.34163265019929512 0 0.10369339253481349 0.32690380985370998 0 0.093668212914820942 0.33942457040727941 0 0.10369339253481349 0.32690380985370998 0 0.093668212914820942 0.33942457040727941 0 0.078763993127402288 0.32647835621152888 0 0.093668212914820942 0.33942457040727941 0 0.078763993127402288 0.32647835621152888 0 0.078009822808327356 0.34489337321546271 0 0.10369339253481349 0.32690380985370998 0 0.078763993127402288 0.32647835621152888 0 0.086232645775877734 0.31113815485876278 0 0.078763993127402288 0.32647835621152888 0 0.062442596299914693 0.31292725092322182 0 0.086232645775877734 0.31113815485876278 0 0.078763993127402288 0.32647835621152888 0 0.059608998042645939 0.33080965631463338 0 0.062442596299914693 0.31292725092322182 0 0.078763993127402288 0.32647835621152888 0 0.078009822808327356 0.34489337321546271 0 0.059608998042645939 0.33080965631463338 0 0.078009822808327356 0.34489337321546271 0 0.061533328346950807 0.35122227182429883 0 0.059608998042645939 0.33080965631463338 0 0.078009822808327356 0.34489337321546271 0 0.078256808202736353 0.36479661189134349 0 0.061533328346950807 0.35122227182429883 0 0.096244779377277323 0.35721466255640028 0 0.078009822808327356 0.34489337321546271 0 0.078256808202736353 0.36479661189134349 0 0.096244779377277323 0.35721466255640028 0 0.093668212914820942 0.33942457040727941 0 0.078009822808327356 0.34489337321546271 0 0.096244779377277323 0.35721466255640028 0 0.094966676010131645 0.37036189323581492 0 0.078256808202736353 0.36479661189134349 0 0.088645002051024019 0.38307431134406911 0 0.094966676010131645 0.37036189323581492 0 0.078256808202736353 0.36479661189134349 0 0.078256808202736353 0.36479661189134349 0 0.059240858562917033 0.37059365245369891 0 0.061533328346950807 0.35122227182429883 0 0.07043230420355287 0.38414727549457539 0 0.078256808202736353 0.36479661189134349 0 0.059240858562917033 0.37059365245369891 0 0.059240858562917033 0.37059365245369891 0 0.061533328346950807 0.35122227182429883 0 0.043744577093302088 0.35779651131669171 0 0.040913387539720673 0.37785318969908488 0 0.059240858562917033 0.37059365245369891 0 0.043744577093302088 0.35779651131669171 0 0.061533328346950807 0.35122227182429883 0 0.043744577093302088 0.35779651131669171 0 0.038797339910804772 0.33815231251492778 0 0.043744577093302088 0.35779651131669171 0 0.028296909313102941 0.36715849683182389 0 0.023509910632847401 0.35013865312247622 0 0.043744577093302088 0.35779651131669171 0 0.023509910632847401 0.35013865312247622 0 0.038797339910804772 0.33815231251492778 0 0.040913387539720673 0.37785318969908488 0 0.043744577093302088 0.35779651131669171 0 0.028296909313102941 0.36715849683182389 0 0.02208626026652017 0.38474141192747902 0 0.028296909313102941 0.36715849683182389 0 0.011154703847758121 0.36901005211006882 0 0.028296909313102941 0.36715849683182389 0 0.023509910632847401 0.35013865312247622 0 0.011154703847758121 0.36901005211006882 0 0.023509910632847401 0.35013865312247622 0 0.0064715985585646453 0.35227443944674941 0 0.016963494861051628 0.33584540477151548 0 0.023509910632847401 0.35013865312247622 0 0.0064715985585646453 0.35227443944674941 0 0.011154703847758121 0.36901005211006882 0 -0.0059007814909059139 0.36388833541651999 0 0.0064715985585646453 0.35227443944674941 0 0.011154703847758121 0.36901005211006882 0 -0.0059007814909059139 0.36388833541651999 0 -0.0048853591466102861 0.37581854773372309 0 0.011154703847758121 0.36901005211006882 0 -0.0069884718554110627 0.31473297142096729 0 0.0066225498951972732 0.32363736202486892 0 0.010089838326201431 0.30651691163275119 0 0.0066225498951972732 0.32363736202486892 0 0.024037033566595929 0.32107633216365772 0 0.010089838326201431 0.30651691163275119 0 0.0064715985585646453 0.35227443944674941 0 0.0020417400016898781 0.33756888359644582 0 0.016963494861051628 0.33584540477151548 0 0.0066225498951972732 0.32363736202486892 0 0.0020417400016898781 0.33756888359644582 0 0.016963494861051628 0.33584540477151548 0 0.023509910632847401 0.35013865312247622 0 0.016963494861051628 0.33584540477151548 0 0.038797339910804772 0.33815231251492778 0 0.016963494861051628 0.33584540477151548 0 0.024037033566595929 0.32107633216365772 0 0.038797339910804772 0.33815231251492778 0 0.0066225498951972732 0.32363736202486892 0 0.016963494861051628 0.33584540477151548 0 0.024037033566595929 0.32107633216365772 0 0.024037033566595929 0.32107633216365772 0 0.041359556708804347 0.320257745078453 0 0.038797339910804772 0.33815231251492778 0 0.024037033566595929 0.32107633216365772 0 0.041359556708804347 0.320257745078453 0 0.029504502775544231 0.30496608473337378 0 0.041359556708804347 0.320257745078453 0 0.038797339910804772 0.33815231251492778 0 0.059608998042645939 0.33080965631463338 0 0.061533328346950807 0.35122227182429883 0 0.038797339910804772 0.33815231251492778 0 0.059608998042645939 0.33080965631463338 0 0.041359556708804347 0.320257745078453 0 0.059608998042645939 0.33080965631463338 0 0.062442596299914693 0.31292725092322182 0 0.041359556708804347 0.320257745078453 0 0.062442596299914693 0.31292725092322182 0 0.047794265287910573 0.30035284619271851 0 0.062442596299914693 0.31292725092322182 0 0.047794265287910573 0.30035284619271851 0 0.068771899016941876 0.29537249986381559 0 0.047794265287910573 0.30035284619271851 0 0.051311152258005963 0.27960684486886828 0 0.068771899016941876 0.29537249986381559 0 0.051311152258005963 0.27960684486886828 0 0.068771899016941876 0.29537249986381559 0 0.047794265287910573 0.30035284619271851 0 0.035370672169809637 0.28719960171199721 0 0.051311152258005963 0.27960684486886828 0 0.047794265287910573 0.30035284619271851 0 0.035370672169809637 0.28719960171199721 0 0.029504502775544231 0.30496608473337378 0 0.041359556708804347 0.320257745078453 0 0.047794265287910573 0.30035284619271851 0 0.029504502775544231 0.30496608473337378 0 0.029504502775544231 0.30496608473337378 0 0.022426330211714009 0.29165686925846612 0 0.010089838326201431 0.30651691163275119 0 0.024037033566595929 0.32107633216365772 0 0.029504502775544231 0.30496608473337378 0 0.010089838326201431 0.30651691163275119 0 0.022426330211714009 0.29165686925846612 0 0.0063012544652409751 0.28371321895731111 0 0.020235248353000931 0.27485703474572909 0 0.035370672169809637 0.28719960171199721 0 0.029504502775544231 0.30496608473337378 0 0.022426330211714009 0.29165686925846612 0 0.035370672169809637 0.28719960171199721 0 0.022426330211714009 0.29165686925846612 0 0.020235248353000931 0.27485703474572909 0 0.022426330211714009 0.29165686925846612 0 0.0063012544652409751 0.28371321895731111 0 0.010089838326201431 0.30651691163275119 0 -0.006236321461727993 0.29644401824570721 0 0.0063012544652409751 0.28371321895731111 0 0.010089838326201431 0.30651691163275119 0 -0.0003013679469350591 0.24135250151140319 0 0.0014496916668720551 0.26498492915082089 0 0.018350672852097509 0.25492279273797319 0 0.0014496916668720551 0.26498492915082089 0 0.020235248353000931 0.27485703474572909 0 0.018350672852097509 0.25492279273797319 0 0.0063012544652409751 0.28371321895731111 0 0.0014496916668720551 0.26498492915082089 0 0.020235248353000931 0.27485703474572909 0 0.035370672169809637 0.28719960171199721 0 0.020235248353000931 0.27485703474572909 0 0.033850405499070091 0.26384118987392102 0 0.020235248353000931 0.27485703474572909 0 0.018350672852097509 0.25492279273797319 0 0.033850405499070091 0.26384118987392102 0 0.035398814326772172 0.24599859705133029 0 0.018350672852097509 0.25492279273797319 0 0.033850405499070091 0.26384118987392102 0 0.035398814326772172 0.24599859705133029 0 0.033850405499070091 0.26384118987392102 0 0.058568284769215377 0.25712895011369641 0 0.035370672169809637 0.28719960171199721 0 0.033850405499070091 0.26384118987392102 0 0.051311152258005963 0.27960684486886828 0 0.033850405499070091 0.26384118987392102 0 0.051311152258005963 0.27960684486886828 0 0.051311152258005963 0.27960684486886828 0 0.058568284769215377 0.25712895011369641 0 0.069402114317609773 0.27553019723353311 0 0.033850405499070091 0.26384118987392102 0 0.051311152258005963 0.27960684486886828 0 0.058568284769215377 0.25712895011369641 0 0.07763384273838439 0.2468283419574023 0 0.058568284769215377 0.25712895011369641 0 0.084202177489783259 0.26435611587154301 0 0.084202177489783259 0.26435611587154301 0 0.09318220146456542 0.25095834456400329 0 0.10077556520531181 0.26503457367309291 0 0.07763384273838439 0.2468283419574023 0 0.084202177489783259 0.26435611587154301 0 0.09318220146456542 0.25095834456400329 0 0.084202177489783259 0.26435611587154301 0 0.069402114317609773 0.27553019723353311 0 0.086502902302345988 0.28270410931034368 0 0.084202177489783259 0.26435611587154301 0 0.086502902302345988 0.28270410931034368 0 0.10077556520531181 0.26503457367309291 0 0.058568284769215377 0.25712895011369641 0 0.084202177489783259 0.26435611587154301 0 0.069402114317609773 0.27553019723353311 0 0.051311152258005963 0.27960684486886828 0 0.069402114317609773 0.27553019723353311 0 0.068771899016941876 0.29537249986381559 0 0.069402114317609773 0.27553019723353311 0 0.068771899016941876 0.29537249986381559 0 0.086502902302345988 0.28270410931034368 0 0.062442596299914693 0.31292725092322182 0 0.068771899016941876 0.29537249986381559 0 0.086232645775877734 0.31113815485876278 0 0.068771899016941876 0.29537249986381559 0 0.086232645775877734 0.31113815485876278 0 0.068771899016941876 0.29537249986381559 0 0.086232645775877734 0.31113815485876278 0 0.086502902302345988 0.28270410931034368 0 0.086502902302345988 0.28270410931034368 0 0.1111854255167003 0.30460903410001328 0 0.1129228581534481 0.27846006228689352 0 0.086232645775877734 0.31113815485876278 0 0.086502902302345988 0.28270410931034368 0 0.1111854255167003 0.30460903410001328 0 0.1111854255167003 0.30460903410001328 0 0.1129228581534481 0.27846006228689352 0 0.1335763320787394 0.2932601963157746 0 0.1129228581534481 0.27846006228689352 0 0.1171035914160015 0.26182211953574619 0 0.12954659702293089 0.26474024262213641 0 0.1129228581534481 0.27846006228689352 0 0.1171035914160015 0.26182211953574619 0 0.10077556520531181 0.26503457367309291 0 0.1171035914160015 0.26182211953574619 0 0.1257512198701406 0.25746921585272819 0 0.12954659702293089 0.26474024262213641 0 0.12046913192667499 0.25219209955394922 0 0.1171035914160015 0.26182211953574619 0 0.1257512198701406 0.25746921585272819 0 0.12046913192667499 0.25219209955394922 0 0.1171035914160015 0.26182211953574619 0 0.10782601963677189 0.25094291566811811 0 0.1171035914160015 0.26182211953574619 0 0.10782601963677189 0.25094291566811811 0 0.10077556520531181 0.26503457367309291 0 0.09318220146456542 0.25095834456400329 0 0.10782601963677189 0.25094291566811811 0 0.10077556520531181 0.26503457367309291 0 0.086502902302345988 0.28270410931034368 0 0.1129228581534481 0.27846006228689352 0 0.10077556520531181 0.26503457367309291 0 0.086502902302345988 0.28270410931034368 0 0.1129228581534481 0.27846006228689352 0 0.13934281400455031 0.27421601526344319 0 0.1554919932069708 0.28552941094099732 0 0.165762769855653 0.26997196823999581 0 0.13934281400455031 0.27421601526344319 0 0.165762769855653 0.26997196823999581 0 0.1571743513785186 0.26653806472635638 0 0.1442713097934224 0.26458763313057743 0 0.13934281400455031 0.27421601526344319 0 0.1571743513785186 0.26653806472635638 0 0.13934281400455031 0.27421601526344319 0 0.165762769855653 0.26997196823999581 0 0.1499318931323099 0.24831500558892511 0 0.14898206812131781 0.26035858512651061 0 0.15640952422391829 0.26461365039155849 0 0.1499318931323099 0.24831500558892511 0 0.16045828066032031 0.25513623445480621 0 0.15640952422391829 0.26461365039155849 0 0.1442713097934224 0.26458763313057743 0 0.1571743513785186 0.26653806472635638 0 0.15640952422391829 0.26461365039155849 0 0.1499318931323099 0.24831500558892511 0 0.15640952422391829 0.26461365039155849 0 0.14898206812131781 0.26035858512651061 0 0.15640952422391829 0.26461365039155849 0 0.14898206812131781 0.26035858512651061 0 0.1442713097934224 0.26458763313057743 0 0.15640952422391829 0.26461365039155849 0 0.14898206812131781 0.26035858512651061 0 0.13630323470446909 0.25309509370655131 0 0.13994391039379331 0.2495228184316485 0 0.14898206812131781 0.26035858512651061 0 0.13994391039379331 0.2495228184316485 0 0.14898206812131781 0.26035858512651061 0 0.13630323470446909 0.25309509370655131 0 0.1499318931323099 0.24831500558892511 0 0.13994391039379331 0.2495228184316485 0 0.14898206812131781 0.26035858512651061 0 0.14898206812131781 0.26035858512651061 0 0.1442713097934224 0.26458763313057743 0 0.13630323470446909 0.25309509370655131 0 0.12046913192667499 0.25219209955394922 0 0.13630323470446909 0.25309509370655131 0 0.1257512198701406 0.25746921585272819 0 0.1442713097934224 0.26458763313057743 0 0.13630323470446909 0.25309509370655131 0 0.12954659702293089 0.26474024262213641 0 0.13630323470446909 0.25309509370655131 0 0.1257512198701406 0.25746921585272819 0 0.12954659702293089 0.26474024262213641 0 0.1129228581534481 0.27846006228689352 0 0.13934281400455031 0.27421601526344319 0 0.1129228581534481 0.27846006228689352 0 0.12954659702293089 0.26474024262213641 0 0.13934281400455031 0.27421601526344319 0 0.1442713097934224 0.26458763313057743 0 0.12954659702293089 0.26474024262213641 0 0.13934281400455031 0.27421601526344319 0 0.1129228581534481 0.27846006228689352 0 0.13934281400455031 0.27421601526344319 0 0.1335763320787394 0.2932601963157746 0 0.1111854255167003 0.30460903410001328 0 0.1335763320787394 0.2932601963157746 0 0.13105508756499509 0.31301657384133752 0 0.1335763320787394 0.2932601963157746 0 0.1514598140257721 0.30373008146196318 0 0.13105508756499509 0.31301657384133752 0 0.1514598140257721 0.30373008146196318 0 0.13105508756499509 0.31301657384133752 0 0.1335763320787394 0.2932601963157746 0 0.1514598140257721 0.30373008146196318 0 0.1554919932069708 0.28552941094099732 0 0.13934281400455031 0.27421601526344319 0 0.1335763320787394 0.2932601963157746 0 0.1554919932069708 0.28552941094099732 0 0.1554919932069708 0.28552941094099732 0 0.17186454048654901 0.29444358908258877 0 0.1675062683574895 0.28229202144953569 0 0.1514598140257721 0.30373008146196318 0 0.1554919932069708 0.28552941094099732 0 0.17186454048654901 0.29444358908258877 0 0.1514598140257721 0.30373008146196318 0 0.17186454048654901 0.29444358908258877 0 0.1514598140257721 0.30373008146196318 0 0.17186454048654901 0.29444358908258877 0 0.17181418462135539 0.31623284122866202 0 0.17186454048654901 0.29444358908258877 0 0.18506040982152591 0.29872391566167261 0 0.17181418462135539 0.31623284122866202 0 0.18506040982152591 0.29872391566167261 0 0.19078975908833179 0.31106286574163861 0 0.17181418462135539 0.31623284122866202 0 0.17186454048654901 0.29444358908258877 0 0.19226926694732591 0.28515709670321421 0 0.17186454048654901 0.29444358908258877 0 0.1675062683574895 0.28229202144953569 0 0.1790160184014889 0.27756453247160601 0 0.17186454048654901 0.29444358908258877 0 0.18506040982152591 0.29872391566167261 0 0.19226926694732591 0.28515709670321421 0 0.17186454048654901 0.29444358908258877 0 0.1790160184014889 0.27756453247160601 0 0.19226926694732591 0.28515709670321421 0 0.1790160184014889 0.27756453247160601 0 0.19226926694732591 0.28515709670321421 0 0.165762769855653 0.26997196823999581 0 0.1928296934129767 0.26562399366331979 0 0.1790160184014889 0.27756453247160601 0 0.165762769855653 0.26997196823999581 0 0.1928296934129767 0.26562399366331979 0 0.1790160184014889 0.27756453247160601 0 0.165762769855653 0.26997196823999581 0 0.1675062683574895 0.28229202144953569 0 0.1790160184014889 0.27756453247160601 0 0.165762769855653 0.26997196823999581 0 0.165762769855653 0.26997196823999581 0 0.15640952422391829 0.26461365039155849 0 0.165762769855653 0.26997196823999581 0 0.1571743513785186 0.26653806472635638 0 0.15640952422391829 0.26461365039155849 0 0.1554919932069708 0.28552941094099732 0 0.1675062683574895 0.28229202144953569 0 0.165762769855653 0.26997196823999581 0 0.17665446882502581 0.24508353523527901 0 0.16045828066032031 0.25513623445480621 0 0.16895462691858171 0.25727172384699881 0 0.16045828066032031 0.25513623445480621 0 0.16289630041461831 0.26174839423333979 0 0.15640952422391829 0.26461365039155849 0 0.165762769855653 0.26997196823999581 0 0.16289630041461831 0.26174839423333979 0 0.15640952422391829 0.26461365039155849 0 0.1571743513785186 0.26653806472635638 0 0.15640952422391829 0.26461365039155849 0 0.16045828066032031 0.25513623445480621 0 0.16289630041461831 0.26174839423333979 0 0.16895462691858171 0.25727172384699881 0 0.165762769855653 0.26997196823999581 0 0.16289630041461831 0.26174839423333979 0 0.16895462691858171 0.25727172384699881 0 0.165762769855653 0.26997196823999581 0 0.16895462691858171 0.25727172384699881 0 0.1928296934129767 0.26562399366331979 0 0.17665446882502581 0.24508353523527901 0 0.16895462691858171 0.25727172384699881 0 0.1928296934129767 0.26562399366331979 0 0.17665446882502581 0.24508353523527901 0 0.20337704451774169 0.24185206488163261 0 0.1928296934129767 0.26562399366331979 0 0.1790160184014889 0.27756453247160601 0 0.1928296934129767 0.26562399366331979 0 0.19226926694732591 0.28515709670321421 0 0.20976570486088431 0.27719420939557099 0 0.19226926694732591 0.28515709670321421 0 0.1928296934129767 0.26562399366331979 0 0.20976570486088431 0.27719420939557099 0 0.19226926694732591 0.28515709670321421 0 0.1928296934129767 0.26562399366331979 0 0.20976570486088431 0.27719420939557099 0 0.219896616970301 0.26127601908664683 0 0.20976570486088431 0.27719420939557099 0 0.22726214277444259 0.26923132208792772 0 0.1928296934129767 0.26562399366331979 0 0.219896616970301 0.26127601908664683 0 0.20337704451774169 0.24185206488163261 0 0.1928296934129767 0.26562399366331979 0 0.219896616970301 0.26127601908664683 0 0.20337704451774169 0.24185206488163261 0 0.23033522801074349 0.25071539541399562 0 0.219896616970301 0.26127601908664683 0 0.22830181441792191 0.26186080709961801 0 0.22726214277444259 0.26923132208792772 0 0.23516327246194049 0.26565232626280072 0 0.23033522801074349 0.25071539541399562 0 0.22830181441792191 0.26186080709961801 0 0.23516327246194049 0.26565232626280072 0 0.22830181441792191 0.26186080709961801 0 0.219896616970301 0.26127601908664683 0 0.22726214277444259 0.26923132208792772 0 0.23033522801074349 0.25071539541399562 0 0.22830181441792191 0.26186080709961801 0 0.219896616970301 0.26127601908664683 0 0.22726214277444259 0.26923132208792772 0 0.23921945771199299 0.27597593486714489 0 0.22493259420198281 0.28538089212944728 0 0.20976570486088431 0.27719420939557099 0 0.219896616970301 0.26127601908664683 0 0.22726214277444259 0.26923132208792772 0 0.20976570486088431 0.27719420939557099 0 0.22726214277444259 0.26923132208792772 0 0.22493259420198281 0.28538089212944728 0 0.22726214277444259 0.26923132208792772 0 0.23516327246194049 0.26565232626280072 0 0.23921945771199299 0.27597593486714489 0 0.23516327246194049 0.26565232626280072 0 0.23921945771199299 0.27597593486714489 0 0.24590174159345601 0.26552376827459562 0 0.23921945771199299 0.27597593486714489 0 0.24590174159345601 0.26552376827459562 0 0.2614682551761679 0.28033214113519639 0 0.23033522801074349 0.25071539541399562 0 0.24590174159345601 0.26552376827459562 0 0.24593745411386941 0.25080307675381758 0 0.23033522801074349 0.25071539541399562 0 0.23516327246194049 0.26565232626280072 0 0.24590174159345601 0.26552376827459562 0 0.23033522801074349 0.25071539541399562 0 0.24590174159345601 0.26552376827459562 0 0.2474487594874602 0.30396454181808918 0 0.22892958163233471 0.30615917729003961 0 0.23935544413287391 0.31971204870109432 0 0.2474487594874602 0.30396454181808918 0 0.2400387426097087 0.2891669937658003 0 0.22892958163233471 0.30615917729003961 0 0.2474487594874602 0.30396454181808918 0 0.2400387426097087 0.2891669937658003 0 0.2614682551761679 0.28033214113519639 0 0.23921945771199299 0.27597593486714489 0 0.2400387426097087 0.2891669937658003 0 0.2614682551761679 0.28033214113519639 0 0.23921945771199299 0.27597593486714489 0 0.2400387426097087 0.2891669937658003 0 0.22493259420198281 0.28538089212944728 0 0.22493259420198281 0.28538089212944728 0 0.22892958163233471 0.30615917729003961 0 0.21059942428983031 0.29565813699662691 0 0.2400387426097087 0.2891669937658003 0 0.22493259420198281 0.28538089212944728 0 0.22892958163233471 0.30615917729003961 0 0.22892958163233471 0.30615917729003961 0 0.21059942428983031 0.29565813699662691 0 0.22892958163233471 0.30615917729003961 0 0.21059942428983031 0.29565813699662691 0 0.20780784434390009 0.31363739821096492 0 0.21059942428983031 0.29565813699662691 0 0.1973053408981828 0.30084788266282342 0 0.20780784434390009 0.31363739821096492 0 0.20976570486088431 0.27719420939557099 0 0.22493259420198281 0.28538089212944728 0 0.21059942428983031 0.29565813699662691 0 0.20976570486088431 0.27719420939557099 0 0.21059942428983031 0.29565813699662691 0 0.19226926694732591 0.28515709670321421 0 0.18506040982152591 0.29872391566167261 0 0.19226926694732591 0.28515709670321421 0 0.1973053408981828 0.30084788266282342 0 0.21059942428983031 0.29565813699662691 0 0.19226926694732591 0.28515709670321421 0 0.1973053408981828 0.30084788266282342 0 0.21059942428983031 0.29565813699662691 0 0.19226926694732591 0.28515709670321421 0 0.1973053408981828 0.30084788266282342 0 0.19078975908833179 0.31106286574163861 0 0.20780784434390009 0.31363739821096492 0 0.18506040982152591 0.29872391566167261 0 0.1973053408981828 0.30084788266282342 0 0.19078975908833179 0.31106286574163861 0 0.19078975908833179 0.31106286574163861 0 0.1900230631669271 0.33360623415499252 0 0.20780784434390009 0.31363739821096492 0 0.2171884481938563 0.32965245877346172 0 0.23337636869919631 0.34396618601441681 0 0.2053049599063354 0.35300013867191249 0 0.1900230631669271 0.33360623415499252 0 0.2171884481938563 0.32965245877346172 0 0.2053049599063354 0.35300013867191249 0 0.22892958163233471 0.30615917729003961 0 0.2171884481938563 0.32965245877346172 0 0.20780784434390009 0.31363739821096492 0 0.1900230631669271 0.33360623415499252 0 0.2171884481938563 0.32965245877346172 0 0.20780784434390009 0.31363739821096492 0 0.22892958163233471 0.30615917729003961 0 0.2171884481938563 0.32965245877346172 0 0.23935544413287391 0.31971204870109432 0 0.2171884481938563 0.32965245877346172 0 0.23935544413287391 0.31971204870109432 0 0.23337636869919631 0.34396618601441681 0 0.24684269231471581 0.33386979735358951 0 0.23337636869919631 0.34396618601441681 0 0.25690650356041639 0.3467603966099736 0 0.24684269231471581 0.33386979735358951 0 0.23935544413287391 0.31971204870109432 0 0.23337636869919631 0.34396618601441681 0 0.24684269231471581 0.33386979735358951 0 0.23935544413287391 0.31971204870109432 0 0.25969598757957102 0.3251005834049675 0 0.2474487594874602 0.30396454181808918 0 0.23935544413287391 0.31971204870109432 0 0.25969598757957102 0.3251005834049675 0 0.23620564329471441 0.37374467276725398 0 0.25005848523140511 0.38538476335610478 0 0.25230815287309599 0.36550081911033849 0 0.23620564329471441 0.37374467276725398 0 0.22401229252763841 0.36021782941844599 0 0.25230815287309599 0.36550081911033849 0 0.23337636869919631 0.34396618601441681 0 0.25690650356041639 0.3467603966099736 0 0.25230815287309599 0.36550081911033849 0 0.23337636869919631 0.34396618601441681 0 0.22401229252763841 0.36021782941844599 0 0.25230815287309599 0.36550081911033849 0 0.23337636869919631 0.34396618601441681 0 0.22401229252763841 0.36021782941844599 0 0.2053049599063354 0.35300013867191249 0 0.23620564329471441 0.37374467276725398 0 0.22401229252763841 0.36021782941844599 0 0.20716148337980669 0.38078170629008862 0 0.22401229252763841 0.36021782941844599 0 0.2053049599063354 0.35300013867191249 0 0.20716148337980669 0.38078170629008862 0 0.22401229252763841 0.36021782941844599 0 0.20716148337980669 0.38078170629008862 0 0.2053049599063354 0.35300013867191249 0 0.18982305775858341 0.37023160571661062 0 0.1785085458378248 0.35288430267033499 0 0.1900230631669271 0.33360623415499252 0 0.2053049599063354 0.35300013867191249 0 0.1785085458378248 0.35288430267033499 0 0.2053049599063354 0.35300013867191249 0 0.18982305775858341 0.37023160571661062 0 0.20716148337980669 0.38078170629008862 0 0.18982305775858341 0.37023160571661062 0 0.17738208585962811 0.36730814853964039 0 0.1785085458378248 0.35288430267033499 0 0.18982305775858341 0.37023160571661062 0 0.1813482893438981 0.37493467359358618 0 0.17738208585962811 0.36730814853964039 0 0.1813482893438981 0.37493467359358618 0 0.17738208585962811 0.36730814853964039 0 0.17131209766351399 0.37855446469005971 0 0.15231352109505031 0.3557633462183869 0 0.15810167689206309 0.37610687976731422 0 0.17131209766351399 0.37855446469005971 0 0.15231352109505031 0.3557633462183869 0 0.17131209766351399 0.37855446469005971 0 0.17738208585962811 0.36730814853964039 0 0.15231352109505031 0.3557633462183869 0 0.17131209766351399 0.37855446469005971 0 0.1637959634558433 0.34437111043893109 0 0.1785085458378248 0.35288430267033499 0 0.15231352109505031 0.3557633462183869 0 0.17738208585962811 0.36730814853964039 0 0.1785085458378248 0.35288430267033499 0 0.15231352109505031 0.3557633462183869 0 0.1637959634558433 0.34437111043893109 0 0.1785085458378248 0.35288430267033499 0 0.17429840352525561 0.33718753077044639 0 0.1900230631669271 0.33360623415499252 0 0.17429840352525561 0.33718753077044639 0 0.17181418462135539 0.31623284122866202 0 0.1900230631669271 0.33360623415499252 0 0.1785085458378248 0.35288430267033499 0 0.17429840352525561 0.33718753077044639 0 0.19078975908833179 0.31106286574163861 0 0.1900230631669271 0.33360623415499252 0 0.17181418462135539 0.31623284122866202 0 0.1514598140257721 0.30373008146196318 0 0.17181418462135539 0.31623284122866202 0 0.14601373814004609 0.32446364324444199 0 0.17181418462135539 0.31623284122866202 0 0.16171632964149671 0.33303597259734352 0 0.14601373814004609 0.32446364324444199 0 0.17429840352525561 0.33718753077044639 0 0.17181418462135539 0.31623284122866202 0 0.16171632964149671 0.33303597259734352 0 0.1637959634558433 0.34437111043893109 0 0.17429840352525561 0.33718753077044639 0 0.16171632964149671 0.33303597259734352 0 0.1637959634558433 0.34437111043893109 0 0.16171632964149671 0.33303597259734352 0 0.1493260517281734 0.34008080355715992 0 0.16171632964149671 0.33303597259734352 0 0.1493260517281734 0.34008080355715992 0 0.14601373814004609 0.32446364324444199 0 0.1493260517281734 0.34008080355715992 0 0.14601373814004609 0.32446364324444199 0 0.1313582121480418 0.34141086010259158 0 0.1514598140257721 0.30373008146196318 0 0.14601373814004609 0.32446364324444199 0 0.13105508756499509 0.31301657384133752 0 0.1224891554384802 0.32533942855689818 0 0.14601373814004609 0.32446364324444199 0 0.13105508756499509 0.31301657384133752 0 0.1224891554384802 0.32533942855689818 0 0.14601373814004609 0.32446364324444199 0 0.1313582121480418 0.34141086010259158 0 0.1189383627130115 0.35657359639549641 0 0.1313582121480418 0.34141086010259158 0 0.13667130968109359 0.35944362070900537 0 0.1493260517281734 0.34008080355715992 0 0.1313582121480418 0.34141086010259158 0 0.13667130968109359 0.35944362070900537 0 0.13417239774606951 0.37485872397805281 0 0.13667130968109359 0.35944362070900537 0 0.14693070538184039 0.3767630730592133 0 0.12308259131018411 0.37094831540195922 0 0.1189383627130115 0.35657359639549641 0 0.13667130968109359 0.35944362070900537 0 0.12308259131018411 0.37094831540195922 0 0.13417239774606951 0.37485872397805281 0 0.13667130968109359 0.35944362070900537 0 0.15231352109505031 0.3557633462183869 0 0.14693070538184039 0.3767630730592133 0 0.15810167689206309 0.37610687976731422 0 0.13667130968109359 0.35944362070900537 0 0.15231352109505031 0.3557633462183869 0 0.14693070538184039 0.3767630730592133 0 0.1637959634558433 0.34437111043893109 0 0.1493260517281734 0.34008080355715992 0 0.15231352109505031 0.3557633462183869 0 0.1493260517281734 0.34008080355715992 0 0.13667130968109359 0.35944362070900537 0 0.15231352109505031 0.3557633462183869 0 0.15045508741497959 0.39283067273232608 0 0.13931973422870891 0.40649098677941381 0 0.1561465152653892 0.41022256250603728 0 0.15045508741497959 0.39283067273232608 0 0.14038150929402871 0.39405389918038197 0 0.13931973422870891 0.40649098677941381 0 0.15045508741497959 0.39283067273232608 0 0.1550443135156217 0.38314440746689599 0 0.14693070538184039 0.3767630730592133 0 0.15045508741497959 0.39283067273232608 0 0.14693070538184039 0.3767630730592133 0 0.14038150929402871 0.39405389918038197 0 0.1550443135156217 0.38314440746689599 0 0.14693070538184039 0.3767630730592133 0 0.15810167689206309 0.37610687976731422 0 0.14693070538184039 0.3767630730592133 0 0.1337185270351747 0.38689997393426251 0 0.14038150929402871 0.39405389918038197 0 0.13417239774606951 0.37485872397805281 0 0.14693070538184039 0.3767630730592133 0 0.1337185270351747 0.38689997393426251 0 0.14693070538184039 0.3767630730592133 0 0.1337185270351747 0.38689997393426251 0 0.12308259131018411 0.37094831540195922 0 0.13417239774606951 0.37485872397805281 0 0.12535823336731231 0.38165703112970623 0 0.13417239774606951 0.37485872397805281 0 0.1337185270351747 0.38689997393426251 0 0.12535823336731231 0.38165703112970623 0 0.1214713209370193 0.39116327587011712 0 0.1337185270351747 0.38689997393426251 0 0.12535823336731231 0.38165703112970623 0 0.12050634868850781 0.39703687480931021 0 0.1337185270351747 0.38689997393426251 0 0.12050634868850781 0.39703687480931021 0 0.1214713209370193 0.39116327587011712 0 0.1337185270351747 0.38689997393426251 0 0.12050634868850781 0.39703687480931021 0 0.1337185270351747 0.38689997393426251 0 0.1319150552333519 0.3985146128140174 0 0.1337185270351747 0.38689997393426251 0 0.14038150929402871 0.39405389918038197 0 0.1319150552333519 0.3985146128140174 0 0.14038150929402871 0.39405389918038197 0 0.1319150552333519 0.3985146128140174 0 0.13931973422870891 0.40649098677941381 0 0.1319150552333519 0.3985146128140174 0 0.1273398238722433 0.40882311930099302 0 0.13931973422870891 0.40649098677941381 0 0.12050634868850781 0.39703687480931021 0 0.1319150552333519 0.3985146128140174 0 0.1273398238722433 0.40882311930099302 0 0.1273398238722433 0.40882311930099302 0 0.13931973422870891 0.40649098677941381 0 0.1313906332278614 0.42484499927814479 0 0.11694868188659251 0.4186917026926269 0 0.1273398238722433 0.40882311930099302 0 0.1313906332278614 0.42484499927814479 0 0.13931973422870891 0.40649098677941381 0 0.1313906332278614 0.42484499927814479 0 0.14346972393265989 0.41916026525454558 0 0.1133910150846786 0.44034653057594381 0 0.1313906332278614 0.42484499927814479 0 0.1304624458331535 0.44298734035774401 0 0.1313906332278614 0.42484499927814479 0 0.1470220130086802 0.43508251245458651 0 0.1304624458331535 0.44298734035774401 0 0.1470220130086802 0.43508251245458651 0 0.1561465152653892 0.41022256250603728 0 0.16122415718449751 0.43076441386466552 0 0.1470220130086802 0.43508251245458651 0 0.1561465152653892 0.41022256250603728 0 0.1313906332278614 0.42484499927814479 0 0.1470220130086802 0.43508251245458651 0 0.14346972393265989 0.41916026525454558 0 0.1470220130086802 0.43508251245458651 0 0.16122415718449751 0.43076441386466552 0 0.15374274931688209 0.44597123281501189 0 0.1470220130086802 0.43508251245458651 0 0.14346972393265989 0.41916026525454558 0 0.1561465152653892 0.41022256250603728 0 0.13931973422870891 0.40649098677941381 0 0.14346972393265989 0.41916026525454558 0 0.1561465152653892 0.41022256250603728 0 0.1561465152653892 0.41022256250603728 0 0.16614372866326499 0.41980993673660533 0 0.16122415718449751 0.43076441386466552 0 0.1561465152653892 0.41022256250603728 0 0.16614372866326499 0.41980993673660533 0 0.16988935489081419 0.41051559024777973 0 0.16614372866326499 0.41980993673660533 0 0.16988935489081419 0.41051559024777973 0 0.1778880078100476 0.41650557817899547 0 0.1561465152653892 0.41022256250603728 0 0.16988935489081419 0.41051559024777973 0 0.1705632638946559 0.39852675032413948 0 0.16122415718449751 0.43076441386466552 0 0.1633439009697136 0.4324061488599894 0 0.15374274931688209 0.44597123281501189 0 0.1633439009697136 0.4324061488599894 0 0.1654653413881198 0.43166557319625948 0 0.15374274931688209 0.44597123281501189 0 0.16122415718449751 0.43076441386466552 0 0.1633439009697136 0.4324061488599894 0 0.1654653413881198 0.43166557319625948 0 0.16122415718449751 0.43076441386466552 0 0.1654653413881198 0.43166557319625948 0 0.16614372866326499 0.41980993673660533 0 0.1654653413881198 0.43166557319625948 0 0.1778880078100476 0.41650557817899547 0 0.16614372866326499 0.41980993673660533 0 0.16122415718449751 0.43076441386466552 0 0.1654653413881198 0.43166557319625948 0 0.1654653413881198 0.43166557319625948 0 0.1778880078100476 0.41650557817899547 0 0.1633439009697136 0.4324061488599894 0 0.1654653413881198 0.43166557319625948 0 0.1654653413881198 0.43166557319625948 0 0.1893954378827529 0.4367501978498301 0 0.1654653413881198 0.43166557319625948 0 0.1778880078100476 0.41650557817899547 0 0.1893954378827529 0.4367501978498301 0 0.1778880078100476 0.41650557817899547 0 0.18606758652154951 0.41497264853155807 0 0.1893954378827529 0.4367501978498301 0 0.16988935489081419 0.41051559024777973 0 0.1778880078100476 0.41650557817899547 0 0.17828741298526729 0.40593370452285021 0 0.1778880078100476 0.41650557817899547 0 0.19031067423197709 0.40134558316173291 0 0.1778880078100476 0.41650557817899547 0 0.17828741298526729 0.40593370452285021 0 0.19031067423197709 0.40134558316173291 0 0.1778880078100476 0.41650557817899547 0 0.18606758652154951 0.41497264853155807 0 0.19031067423197709 0.40134558316173291 0 0.1776183621938536 0.39609012567469548 0 0.17828741298526729 0.40593370452285021 0 0.19031067423197709 0.40134558316173291 0 0.1776183621938536 0.39609012567469548 0 0.1705632638946559 0.39852675032413948 0 0.17131209766351399 0.37855446469005971 0 0.1776183621938536 0.39609012567469548 0 0.17131209766351399 0.37855446469005971 0 0.19031067423197709 0.40134558316173291 0 0.16988935489081419 0.41051559024777973 0 0.17828741298526729 0.40593370452285021 0 0.1705632638946559 0.39852675032413948 0 0.1776183621938536 0.39609012567469548 0 0.17828741298526729 0.40593370452285021 0 0.1705632638946559 0.39852675032413948 0 0.15045508741497959 0.39283067273232608 0 0.1561465152653892 0.41022256250603728 0 0.16527101752209819 0.38536261255748788 0 0.1561465152653892 0.41022256250603728 0 0.1705632638946559 0.39852675032413948 0 0.16527101752209819 0.38536261255748788 0 0.1561465152653892 0.41022256250603728 0 0.16527101752209819 0.38536261255748788 0 0.1705632638946559 0.39852675032413948 0 0.16527101752209819 0.38536261255748788 0 0.17131209766351399 0.37855446469005971 0 0.1550443135156217 0.38314440746689599 0 0.15810167689206309 0.37610687976731422 0 0.16527101752209819 0.38536261255748788 0 0.15045508741497959 0.39283067273232608 0 0.1550443135156217 0.38314440746689599 0 0.16527101752209819 0.38536261255748788 0 0.15810167689206309 0.37610687976731422 0 0.16527101752209819 0.38536261255748788 0 0.17131209766351399 0.37855446469005971 0 0.17131209766351399 0.37855446469005971 0 0.18687591609386711 0.38364447542803398 0 0.19031067423197709 0.40134558316173291 0 0.17131209766351399 0.37855446469005971 0 0.19031067423197709 0.40134558316173291 0 0.1813482893438981 0.37493467359358618 0 0.17131209766351399 0.37855446469005971 0 0.18687591609386711 0.38364447542803398 0 0.18982305775858341 0.37023160571661062 0 0.1813482893438981 0.37493467359358618 0 0.18687591609386711 0.38364447542803398 0 0.18982305775858341 0.37023160571661062 0 0.18687591609386711 0.38364447542803398 0 0.20716148337980669 0.38078170629008862 0 0.18687591609386711 0.38364447542803398 0 0.19031067423197709 0.40134558316173291 0 0.20716148337980669 0.38078170629008862 0 0.19031067423197709 0.40134558316173291 0 0.20716148337980669 0.38078170629008862 0 0.19031067423197709 0.40134558316173291 0 0.20711935080217289 0.40137000666474593 0 0.20716148337980669 0.38078170629008862 0 0.20711935080217289 0.40137000666474593 0 0.20716148337980669 0.38078170629008862 0 0.2198503590445674 0.39706971118433543 0 0.20711935080217289 0.40137000666474593 0 0.2198503590445674 0.39706971118433543 0 0.21894888578477889 0.40985958052341659 0 0.20716148337980669 0.38078170629008862 0 0.23066379147641711 0.38906969751671561 0 0.2198503590445674 0.39706971118433543 0 0.23620564329471441 0.37374467276725398 0 0.20716148337980669 0.38078170629008862 0 0.23066379147641711 0.38906969751671561 0 0.2198503590445674 0.39706971118433543 0 0.23535828377966139 0.40426756492671012 0 0.21894888578477889 0.40985958052341659 0 0.23066379147641711 0.38906969751671561 0 0.2198503590445674 0.39706971118433543 0 0.23535828377966139 0.40426756492671012 0 0.23066379147641711 0.38906969751671561 0 0.23535828377966139 0.40426756492671012 0 0.25005848523140511 0.38538476335610478 0 0.23535828377966139 0.40426756492671012 0 0.25005848523140511 0.38538476335610478 0 0.25992696795584108 0.40118455578044299 0 0.23620564329471441 0.37374467276725398 0 0.23066379147641711 0.38906969751671561 0 0.25005848523140511 0.38538476335610478 0 0.23699002109515041 0.42806530659157649 0 0.23509694694787611 0.43536673125903552 0 0.24055621247175821 0.43639192847351749 0 0.23509694694787611 0.43536673125903552 0 0.24055621247175821 0.43639192847351749 0 0.2362657731889293 0.43923516378162403 0 0.23699002109515041 0.42806530659157649 0 0.24055621247175821 0.43639192847351749 0 0.24974052316338591 0.4290852147135199 0 0.24055621247175821 0.43639192847351749 0 0.24974052316338591 0.4290852147135199 0 0.24947940694055909 0.44046810223115063 0 0.23699002109515041 0.42806530659157649 0 0.24974052316338591 0.4290852147135199 0 0.2469129917803059 0.41654888894304648 0 0.23535828377966139 0.40426756492671012 0 0.2469129917803059 0.41654888894304648 0 0.25992696795584108 0.40118455578044299 0 0.23535828377966139 0.40426756492671012 0 0.2469129917803059 0.41654888894304648 0 0.23413706925621031 0.41888174625347507 0 0.23699002109515041 0.42806530659157649 0 0.2469129917803059 0.41654888894304648 0 0.23413706925621031 0.41888174625347507 0 0.23413706925621031 0.41888174625347507 0 0.2252752544044076 0.4173306211321085 0 0.22531926939783339 0.42763319581507492 0 0.23535828377966139 0.40426756492671012 0 0.21894888578477889 0.40985958052341659 0 0.2252752544044076 0.4173306211321085 0 0.23535828377966139 0.40426756492671012 0 0.23413706925621031 0.41888174625347507 0 0.2252752544044076 0.4173306211321085 0 0.21894888578477889 0.40985958052341659 0 0.2252752544044076 0.4173306211321085 0 0.21610584621776269 0.42417920907174489 0 0.22531926939783339 0.42763319581507492 0 0.21968516991035919 0.43354294782584918 0 0.21610584621776269 0.42417920907174489 0 0.2252752544044076 0.4173306211321085 0 0.22531926939783339 0.42763319581507492 0 0.21610584621776269 0.42417920907174489 0 0.23699002109515041 0.42806530659157649 0 0.23413706925621031 0.41888174625347507 0 0.22531926939783339 0.42763319581507492 0 0.23699002109515041 0.42806530659157649 0 0.22531926939783339 0.42763319581507492 0 0.2302591710774336 0.43357779171420591 0 0.23509694694787611 0.43536673125903552 0 0.2302591710774336 0.43357779171420591 0 0.23199489631017561 0.43883430639832688 0 0.23699002109515041 0.42806530659157649 0 0.23509694694787611 0.43536673125903552 0 0.2302591710774336 0.43357779171420591 0 0.22531926939783339 0.42763319581507492 0 0.2302591710774336 0.43357779171420591 0 0.22512240699323821 0.43335785066873939 0 0.2302591710774336 0.43357779171420591 0 0.22733661603594121 0.43821249908081678 0 0.23199489631017561 0.43883430639832688 0 0.2302591710774336 0.43357779171420591 0 0.22512240699323821 0.43335785066873939 0 0.22733661603594121 0.43821249908081678 0 0.22324435118079911 0.43733868311393448 0 0.22512240699323821 0.43335785066873939 0 0.22733661603594121 0.43821249908081678 0 0.22324435118079911 0.43733868311393448 0 0.22512240699323821 0.43335785066873939 0 0.21968516991035919 0.43354294782584918 0 0.22531926939783339 0.42763319581507492 0 0.22512240699323821 0.43335785066873939 0 0.21968516991035919 0.43354294782584918 0 0.22324435118079911 0.43733868311393448 0 0.21968516991035919 0.43354294782584918 0 0.21949787070666871 0.43839558471260132 0 0.21968516991035919 0.43354294782584918 0 0.21197753399722269 0.43411045258239522 0 0.21610584621776269 0.42417920907174489 0 0.21968516991035919 0.43354294782584918 0 0.21631528795545499 0.43711433837310892 0 0.21949787070666871 0.43839558471260132 0 0.21968516991035919 0.43354294782584918 0 0.21631528795545499 0.43711433837310892 0 0.21197753399722269 0.43411045258239522 0 0.21197753399722269 0.43411045258239522 0 0.21610584621776269 0.42417920907174489 0 0.20712378309352039 0.42687628262981558 0 0.21610584621776269 0.42417920907174489 0 0.20712378309352039 0.42687628262981558 0 0.203878811641377 0.41762222504714969 0 0.21197753399722269 0.43411045258239522 0 0.20712378309352039 0.42687628262981558 0 0.20370386000977031 0.43296273393010121 0 0.21197753399722269 0.43411045258239522 0 0.20370386000977031 0.43296273393010121 0 0.21486145870364259 0.44216117299250468 0 0.20711935080217289 0.40137000666474593 0 0.21894888578477889 0.40985958052341659 0 0.203878811641377 0.41762222504714969 0 0.21894888578477889 0.40985958052341659 0 0.21610584621776269 0.42417920907174489 0 0.203878811641377 0.41762222504714969 0 0.18606758652154951 0.41497264853155807 0 0.203878811641377 0.41762222504714969 0 0.19700234155256341 0.42557874137254331 0 0.19031067423197709 0.40134558316173291 0 0.20711935080217289 0.40137000666474593 0 0.203878811641377 0.41762222504714969 0 0.18606758652154951 0.41497264853155807 0 0.19031067423197709 0.40134558316173291 0 0.203878811641377 0.41762222504714969 0 0.19031067423197709 0.40134558316173291 0 0.203878811641377 0.41762222504714969 0 0.18606758652154951 0.41497264853155807 0 0.19700234155256341 0.42557874137254331 0 0.1893954378827529 0.4367501978498301 0 0.20370386000977031 0.43296273393010121 0 0.1893954378827529 0.4367501978498301 0 0.21486145870364259 0.44216117299250468 0 0.18606758652154951 0.41497264853155807 0 0.1893954378827529 0.4367501978498301 0 0.20370386000977031 0.43296273393010121 0 0.19700234155256341 0.42557874137254331 0 0.1893954378827529 0.4367501978498301 0 0.20712378309352039 0.42687628262981558 0 0.20370386000977031 0.43296273393010121 0 0.19700234155256341 0.42557874137254331 0 0.20712378309352039 0.42687628262981558 0 0.203878811641377 0.41762222504714969 0 0.19700234155256341 0.42557874137254331 0 0.1893954378827529 0.4367501978498301 0 0.20000049257604899 0.44629542856772519 0 0.21294311011022049 0.44266361964958761 0 0.1893954378827529 0.4367501978498301 0 0.1927269799840505 0.45855189947109087 0 0.1893954378827529 0.4367501978498301 0 0.21486145870364259 0.44216117299250468 0 0.1893954378827529 0.4367501978498301 0 0.21294311011022049 0.44266361964958761 0 0.1893954378827529 0.4367501978498301 0 0.20000049257604899 0.44629542856772519 0 0.1927269799840505 0.45855189947109087 0 0.1927269799840505 0.45855189947109087 0 0.19589384499141721 0.47927594973554699 0 0.1767143157805299 0.4669758921137297 0 0.20000049257604899 0.44629542856772519 0 0.1927269799840505 0.45855189947109087 0 0.2062772946080266 0.4557948449702714 0 0.1927269799840505 0.45855189947109087 0 0.2074739888464005 0.46873821397138449 0 0.2062772946080266 0.4557948449702714 0 0.2074739888464005 0.46873821397138449 0 0.2062772946080266 0.4557948449702714 0 0.21650380815357559 0.45937242517720778 0 0.2062772946080266 0.4557948449702714 0 0.21650380815357559 0.45937242517720778 0 0.21288210310476521 0.45133325293712617 0 0.21650380815357559 0.45937242517720778 0 0.21288210310476521 0.45133325293712617 0 0.2188145307803219 0.45151391438715399 0 0.2074739888464005 0.46873821397138449 0 0.21650380815357559 0.45937242517720778 0 0.22179169927880341 0.47077452022511129 0 0.1893954378827529 0.4367501978498301 0 0.21486145870364259 0.44216117299250468 0 0.21294311011022049 0.44266361964958761 0 0.20000049257604899 0.44629542856772519 0 0.20747603971731979 0.44805831183763178 0 0.21294311011022049 0.44266361964958761 0 0.20000049257604899 0.44629542856772519 0 0.2062772946080266 0.4557948449702714 0 0.20747603971731979 0.44805831183763178 0 0.2062772946080266 0.4557948449702714 0 0.20747603971731979 0.44805831183763178 0 0.21288210310476521 0.45133325293712617 0 0.20747603971731979 0.44805831183763178 0 0.21219949796771931 0.4474428865206927 0 0.21288210310476521 0.45133325293712617 0 0.20747603971731979 0.44805831183763178 0 0.21219949796771931 0.4474428865206927 0 0.21294311011022049 0.44266361964958761 0 0.21549673893857171 0.44771636165842549 0 0.21294311011022049 0.44266361964958761 0 0.2211366144628682 0.44619219945093153 0 0.21219949796771931 0.4474428865206927 0 0.21549673893857171 0.44771636165842549 0 0.21294311011022049 0.44266361964958761 0 0.21219949796771931 0.4474428865206927 0 0.21288210310476521 0.45133325293712617 0 0.21549673893857171 0.44771636165842549 0 0.21288210310476521 0.45133325293712617 0 0.21549673893857171 0.44771636165842549 0 0.2188145307803219 0.45151391438715399 0 0.21549673893857171 0.44771636165842549 0 0.2211366144628682 0.44619219945093153 0 0.2188145307803219 0.45151391438715399 0 0.21631528795545499 0.43711433837310892 0 0.21197753399722269 0.43411045258239522 0 0.21486145870364259 0.44216117299250468 0 0.21631528795545499 0.43711433837310892 0 0.21486145870364259 0.44216117299250468 0 0.21949787070666871 0.43839558471260132 0 0.21294311011022049 0.44266361964958761 0 0.2363261052437565 0.44749939009254169 0 0.21486145870364259 0.44216117299250468 0 0.24032747952453221 0.44757214813517893 0 0.21486145870364259 0.44216117299250468 0 0.2363261052437565 0.44749939009254169 0 0.24032747952453221 0.44757214813517893 0 0.21486145870364259 0.44216117299250468 0 0.22894170645580181 0.44275825048254541 0 0.24032747952453221 0.44757214813517893 0 0.21486145870364259 0.44216117299250468 0 0.21294311011022049 0.44266361964958761 0 0.2363261052437565 0.44749939009254169 0 0.21486145870364259 0.44216117299250468 0 0.21949787070666871 0.43839558471260132 0 0.22351685885602571 0.44099722443971862 0 0.21486145870364259 0.44216117299250468 0 0.22351685885602571 0.44099722443971862 0 0.22894170645580181 0.44275825048254541 0 0.21294311011022049 0.44266361964958761 0 0.2211366144628682 0.44619219945093153 0 0.2363261052437565 0.44749939009254169 0 0.22324435118079911 0.43733868311393448 0 0.21949787070666871 0.43839558471260132 0 0.22351685885602571 0.44099722443971862 0 0.22324435118079911 0.43733868311393448 0 0.22351685885602571 0.44099722443971862 0 0.22733661603594121 0.43821249908081678 0 0.22351685885602571 0.44099722443971862 0 0.22733661603594121 0.43821249908081678 0 0.22894170645580181 0.44275825048254541 0 0.22733661603594121 0.43821249908081678 0 0.22894170645580181 0.44275825048254541 0 0.23199489631017561 0.43883430639832688 0 0.22894170645580181 0.44275825048254541 0 0.23199489631017561 0.43883430639832688 0 0.23510077780121899 0.44241549772879252 0 0.22817803956709121 0.44911152319668107 0 0.2211366144628682 0.44619219945093153 0 0.2363261052437565 0.44749939009254169 0 0.23148838327356361 0.4514908808403143 0 0.23365886093548641 0.45588518869778277 0 0.2363261052437565 0.44749939009254169 0 0.23148838327356361 0.4514908808403143 0 0.22817803956709121 0.44911152319668107 0 0.2363261052437565 0.44749939009254169 0 0.23148838327356361 0.4514908808403143 0 0.22817803956709121 0.44911152319668107 0 0.2277905273479203 0.45346742137425161 0 0.22817803956709121 0.44911152319668107 0 0.22365653401427291 0.45051790963075899 0 0.2277905273479203 0.45346742137425161 0 0.22365653401427291 0.45051790963075899 0 0.2226089818812941 0.45470461830321662 0 0.2277905273479203 0.45346742137425161 0 0.22817803956709121 0.44911152319668107 0 0.22365653401427291 0.45051790963075899 0 0.2211366144628682 0.44619219945093153 0 0.22365653401427291 0.45051790963075899 0 0.2211366144628682 0.44619219945093153 0 0.2188145307803219 0.45151391438715399 0 0.22365653401427291 0.45051790963075899 0 0.2188145307803219 0.45151391438715399 0 0.2226089818812941 0.45470461830321662 0 0.21650380815357559 0.45937242517720778 0 0.2226089818812941 0.45470461830321662 0 0.22621530634459469 0.4600037916040714 0 0.21650380815357559 0.45937242517720778 0 0.2188145307803219 0.45151391438715399 0 0.2226089818812941 0.45470461830321662 0 0.2226089818812941 0.45470461830321662 0 0.22621530634459469 0.4600037916040714 0 0.2277905273479203 0.45346742137425161 0 0.21650380815357559 0.45937242517720778 0 0.22621530634459469 0.4600037916040714 0 0.22179169927880341 0.47077452022511129 0 0.22621530634459469 0.4600037916040714 0 0.23555952469190539 0.46709509875367949 0 0.22179169927880341 0.47077452022511129 0 0.22621530634459469 0.4600037916040714 0 0.23365886093548641 0.45588518869778277 0 0.23555952469190539 0.46709509875367949 0 0.22621530634459469 0.4600037916040714 0 0.2277905273479203 0.45346742137425161 0 0.23365886093548641 0.45588518869778277 0 0.23148838327356361 0.4514908808403143 0 0.2277905273479203 0.45346742137425161 0 0.23365886093548641 0.45588518869778277 0 0.23555952469190539 0.46709509875367949 0 0.24427288438405381 0.45870540509692048 0 0.25633047226602551 0.47610270900946339 0 0.23365886093548641 0.45588518869778277 0 0.24427288438405381 0.45870540509692048 0 0.2363261052437565 0.44749939009254169 0 0.23365886093548641 0.45588518869778277 0 0.23555952469190539 0.46709509875367949 0 0.24427288438405381 0.45870540509692048 0 0.2363261052437565 0.44749939009254169 0 0.24032747952453221 0.44757214813517893 0 0.25970910037729261 0.45233516053549577 0 0.24947940694055909 0.44046810223115063 0 0.24032747952453221 0.44757214813517893 0 0.25970910037729261 0.45233516053549577 0 0.2363261052437565 0.44749939009254169 0 0.25970910037729261 0.45233516053549577 0 0.24427288438405381 0.45870540509692048 0 0.2363261052437565 0.44749939009254169 0 0.25970910037729261 0.45233516053549577 0 0.24055621247175821 0.43639192847351749 0 0.24947940694055909 0.44046810223115063 0 0.23974271122175059 0.44170903637659431 0 0.24947940694055909 0.44046810223115063 0 0.23974271122175059 0.44170903637659431 0 0.24032747952453221 0.44757214813517893 0 0.22894170645580181 0.44275825048254541 0 0.23510077780121899 0.44241549772879252 0 0.24032747952453221 0.44757214813517893 0 0.23974271122175059 0.44170903637659431 0 0.23510077780121899 0.44241549772879252 0 0.24032747952453221 0.44757214813517893 0 0.24055621247175821 0.43639192847351749 0 0.23974271122175059 0.44170903637659431 0 0.2362657731889293 0.43923516378162403 0 0.23509694694787611 0.43536673125903552 0 0.23199489631017561 0.43883430639832688 0 0.2362657731889293 0.43923516378162403 0 0.23974271122175059 0.44170903637659431 0 0.2362657731889293 0.43923516378162403 0 0.23510077780121899 0.44241549772879252 0 0.23199489631017561 0.43883430639832688 0 0.2362657731889293 0.43923516378162403 0 0.23510077780121899 0.44241549772879252 0 0.2346458271796566 0.48333763624188403 0 0.25633047226602551 0.47610270900946339 0 0.25404334050544702 0.5 0 0.2346458271796566 0.48333763624188403 0 0.22655202525211571 0.5 0 0.25404334050544702 0.5 0 0.23555952469190539 0.46709509875367949 0 0.2346458271796566 0.48333763624188403 0 0.25633047226602551 0.47610270900946339 0 0.23555952469190539 0.46709509875367949 0 0.2346458271796566 0.48333763624188403 0 0.22179169927880341 0.47077452022511129 0 0.2346458271796566 0.48333763624188403 0 0.22179169927880341 0.47077452022511129 0 0.21406842437504911 0.48401057225107158 0 0.2346458271796566 0.48333763624188403 0 0.22655202525211571 0.5 0 0.21406842437504911 0.48401057225107158 0 0.22655202525211571 0.5 0 0.21406842437504911 0.48401057225107158 0 0.19906070999878431 0.50000000000000311 0 0.2074739888464005 0.46873821397138449 0 0.21406842437504911 0.48401057225107158 0 0.19589384499141721 0.47927594973554699 0 0.2074739888464005 0.46873821397138449 0 0.22179169927880341 0.47077452022511129 0 0.21406842437504911 0.48401057225107158 0 0.1927269799840505 0.45855189947109087 0 0.2074739888464005 0.46873821397138449 0 0.19589384499141721 0.47927594973554699 0 0.1927269799840505 0.45855189947109087 0 0.19589384499141721 0.47927594973554699 0 0.21406842437504911 0.48401057225107158 0 0.19589384499141721 0.47927594973554699 0 0.19906070999878431 0.50000000000000311 0 0.19589384499141721 0.47927594973554699 0 0.19906070999878431 0.50000000000000311 0 0.1828062914302428 0.48625857567666048 0 0.19589384499141721 0.47927594973554699 0 0.19906070999878431 0.50000000000000311 0 0.19906070999878431 0.50000000000000311 0 0.17519317250195079 0.5 0 0.1828062914302428 0.48625857567666048 0 0.17519317250195079 0.5 0 0.1828062914302428 0.48625857567666048 0 0.16980783401104901 0.47850849000390722 0 0.17519317250195079 0.5 0 0.15132563500511739 0.5 0 0.15561115716947899 0.48277077641416738 0 0.17519317250195079 0.5 0 0.16980783401104901 0.47850849000390722 0 0.15561115716947899 0.48277077641416738 0 0.16239063108206361 0.47068424790379221 0 0.15561115716947899 0.48277077641416738 0 0.15229003881008801 0.4702577541828814 0 0.16239063108206361 0.47068424790379221 0 0.16980783401104901 0.47850849000390722 0 0.15561115716947899 0.48277077641416738 0 0.16239063108206361 0.47068424790379221 0 0.16980783401104901 0.47850849000390722 0 0.1767143157805299 0.4669758921137297 0 0.19589384499141721 0.47927594973554699 0 0.1828062914302428 0.48625857567666048 0 0.1767143157805299 0.4669758921137297 0 0.1828062914302428 0.48625857567666048 0 0.16980783401104901 0.47850849000390722 0 0.1767143157805299 0.4669758921137297 0 0.1927269799840505 0.45855189947109087 0 0.1767143157805299 0.4669758921137297 0 0.1746186673085553 0.44724709467720369 0 0.1654653413881198 0.43166557319625948 0 0.1893954378827529 0.4367501978498301 0 0.1746186673085553 0.44724709467720369 0 0.1893954378827529 0.4367501978498301 0 0.1927269799840505 0.45855189947109087 0 0.1746186673085553 0.44724709467720369 0 0.1654653413881198 0.43166557319625948 0 0.1746186673085553 0.44724709467720369 0 0.16412890419211049 0.4442080936572676 0 0.1746186673085553 0.44724709467720369 0 0.16412890419211049 0.4442080936572676 0 0.16081094630431431 0.45826144369670119 0 0.16412890419211049 0.4442080936572676 0 0.16081094630431431 0.45826144369670119 0 0.15374274931688209 0.44597123281501189 0 0.1654653413881198 0.43166557319625948 0 0.15374274931688209 0.44597123281501189 0 0.1654653413881198 0.43166557319625948 0 0.16412890419211049 0.4442080936572676 0 0.15374274931688209 0.44597123281501189 0 0.16239063108206361 0.47068424790379221 0 0.1767143157805299 0.4669758921137297 0 0.16081094630431431 0.45826144369670119 0 0.1767143157805299 0.4669758921137297 0 0.1746186673085553 0.44724709467720369 0 0.16081094630431431 0.45826144369670119 0 0.16239063108206361 0.47068424790379221 0 0.16081094630431431 0.45826144369670119 0 0.15229003881008801 0.4702577541828814 0 0.16081094630431431 0.45826144369670119 0 0.14286917612432509 0.45957772170443029 0 0.14535527824094699 0.46614667515628738 0 0.16081094630431431 0.45826144369670119 0 0.14286917612432509 0.45957772170443029 0 0.15374274931688209 0.44597123281501189 0 0.16081094630431431 0.45826144369670119 0 0.14535527824094699 0.46614667515628738 0 0.15229003881008801 0.4702577541828814 0 0.16081094630431431 0.45826144369670119 0 0.14286917612432509 0.45957772170443029 0 0.14286917612432509 0.45957772170443029 0 0.14535527824094699 0.46614667515628738 0 0.1378975107519658 0.45994246240313369 0 0.1470220130086802 0.43508251245458651 0 0.14286917612432509 0.45957772170443029 0 0.15374274931688209 0.44597123281501189 0 0.1470220130086802 0.43508251245458651 0 0.1378975107519658 0.45994246240313369 0 0.1470220130086802 0.43508251245458651 0 0.14286917612432509 0.45957772170443029 0 0.1378975107519658 0.45994246240313369 0 0.14286917612432509 0.45957772170443029 0 0.15374274931688209 0.44597123281501189 0 0.1228960799881406 0.4513194229490205 0 0.1304624458331535 0.44298734035774401 0 0.1378975107519658 0.45994246240313369 0 0.1470220130086802 0.43508251245458651 0 0.1304624458331535 0.44298734035774401 0 0.1378975107519658 0.45994246240313369 0 0.14535527824094699 0.46614667515628738 0 0.13524813334431521 0.46716076186716637 0 0.1378975107519658 0.45994246240313369 0 0.13524813334431521 0.46716076186716637 0 0.1378975107519658 0.45994246240313369 0 0.14286917612432509 0.45957772170443029 0 0.1378975107519658 0.45994246240313369 0 0.12257326012046781 0.46845575540061563 0 0.13524813334431521 0.46716076186716637 0 0.1378975107519658 0.45994246240313369 0 0.12257326012046781 0.46845575540061563 0 0.13524813334431521 0.46716076186716637 0 0.13218808296001919 0.47541082933968559 0 0.12490734121745441 0.48152238391437302 0 0.12257326012046781 0.46845575540061563 0 0.13218808296001919 0.47541082933968559 0 0.13524813334431521 0.46716076186716637 0 0.13218808296001919 0.47541082933968559 0 0.1430721497629337 0.47454105975406341 0 0.13218808296001919 0.47541082933968559 0 0.13842459692060349 0.48553255519629263 0 0.1430721497629337 0.47454105975406341 0 0.12490734121745441 0.48152238391437302 0 0.13218808296001919 0.47541082933968559 0 0.13842459692060349 0.48553255519629263 0 0.12490734121745441 0.48152238391437302 0 0.12745809750828391 0.5 0 0.13842459692060349 0.48553255519629263 0 0.12745809750828391 0.5 0 0.13842459692060349 0.48553255519629263 0 0.15132563500511739 0.5 0 0.13842459692060349 0.48553255519629263 0 0.15132563500511739 0.5 0 0.15561115716947899 0.48277077641416738 0 0.13842459692060349 0.48553255519629263 0 0.15561115716947899 0.48277077641416738 0 0.1430721497629337 0.47454105975406341 0 0.15561115716947899 0.48277077641416738 0 0.15229003881008801 0.4702577541828814 0 0.1430721497629337 0.47454105975406341 0 0.14535527824094699 0.46614667515628738 0 0.13524813334431521 0.46716076186716637 0 0.1430721497629337 0.47454105975406341 0 0.14535527824094699 0.46614667515628738 0 0.15229003881008801 0.4702577541828814 0 0.1430721497629337 0.47454105975406341 0 0.35396197687748288 0.47662621872110411 0 0.35262136286489232 0.5 0 0.33651728626544092 0.500000000000004 0 0.35396197687748288 0.47662621872110411 0 0.33651728626544092 0.500000000000004 0 0.35396197687748288 0.47662621872110411 0 0.35262136286489232 0.5 0 0.36487681862631682 0.48608150877350081 0 0.36872543946434377 0.49999999999999978 0 0.37581590065307707 0.47665427350599948 0 0.35262136286489232 0.5 0 0.36872543946434377 0.49999999999999978 0 0.36487681862631682 0.48608150877350081 0 0.36872543946434377 0.49999999999999978 0 0.36487681862631682 0.48608150877350081 0 0.37581590065307707 0.47665427350599948 0 0.35396197687748288 0.47662621872110411 0 0.36487681862631682 0.48608150877350081 0 0.37581590065307707 0.47665427350599948 0 0.35396197687748288 0.47662621872110411 0 0.371406667489523 0.45325243744220262 0 0.37581590065307707 0.47665427350599948 0 0.35396197687748288 0.47662621872110411 0 0.371406667489523 0.45325243744220262 0 0.3550953554690276 0.45276595911679751 0 0.35396197687748288 0.47662621872110411 0 0.371406667489523 0.45325243744220262 0 0.371406667489523 0.45325243744220262 0 0.36577224929495838 0.44298175784427418 0 0.3550953554690276 0.45276595911679751 0 0.36577224929495838 0.44298175784427418 0 0.36701721475703891 0.43164488657566819 0 0.37641264948563857 0.43879189168167221 0 0.371406667489523 0.45325243744220262 0 0.36577224929495838 0.44298175784427418 0 0.37641264948563857 0.43879189168167221 0 0.3550953554690276 0.45276595911679751 0 0.3391177795469707 0.44391538900411009 0 0.3560795361894174 0.4370202939404515 0 0.36577224929495838 0.44298175784427418 0 0.3550953554690276 0.45276595911679751 0 0.3560795361894174 0.4370202939404515 0 0.35396197687748288 0.47662621872110411 0 0.3550953554690276 0.45276595911679751 0 0.33925889266726511 0.46362114918612912 0 0.3550953554690276 0.45276595911679751 0 0.33925889266726511 0.46362114918612912 0 0.3391177795469707 0.44391538900411009 0 0.33925889266726511 0.46362114918612912 0 0.3391177795469707 0.44391538900411009 0 0.32082060509776739 0.45205669104889551 0 0.3391177795469707 0.44391538900411009 0 0.32082060509776739 0.45205669104889551 0 0.31966579768431752 0.43258859248792553 0 0.32082060509776739 0.45205669104889551 0 0.30031548991925971 0.43840720120862481 0 0.31966579768431752 0.43258859248792553 0 0.32082060509776739 0.45205669104889551 0 0.3225428653410819 0.47147587605739538 0 0.29928491682775221 0.46259462758508568 0 0.33925889266726511 0.46362114918612912 0 0.32082060509776739 0.45205669104889551 0 0.3225428653410819 0.47147587605739538 0 0.3225428653410819 0.47147587605739538 0 0.32197336949805888 0.48629665687017531 0 0.30741186398207981 0.47992982734924522 0 0.3225428653410819 0.47147587605739538 0 0.33501052995800917 0.48035484614047202 0 0.32197336949805888 0.48629665687017531 0 0.33925889266726511 0.46362114918612912 0 0.3225428653410819 0.47147587605739538 0 0.33501052995800917 0.48035484614047202 0 0.35396197687748288 0.47662621872110411 0 0.33925889266726511 0.46362114918612912 0 0.33501052995800917 0.48035484614047202 0 0.35396197687748288 0.47662621872110411 0 0.33501052995800917 0.48035484614047202 0 0.33651728626544092 0.500000000000004 0 0.33501052995800917 0.48035484614047202 0 0.33651728626544092 0.500000000000004 0 0.32197336949805888 0.48629665687017531 0 0.32197336949805888 0.48629665687017531 0 0.30902597101210949 0.5 0 0.30741186398207981 0.47992982734924522 0 0.33651728626544092 0.500000000000004 0 0.32197336949805888 0.48629665687017531 0 0.30902597101210949 0.5 0 0.30902597101210949 0.5 0 0.30741186398207981 0.47992982734924522 0 0.28834910526680052 0.48037760852285333 0 0.30741186398207981 0.47992982734924522 0 0.28834910526680052 0.48037760852285333 0 0.29928491682775221 0.46259462758508568 0 0.3225428653410819 0.47147587605739538 0 0.30741186398207981 0.47992982734924522 0 0.29928491682775221 0.46259462758508568 0 0.28834910526680052 0.48037760852285333 0 0.27650675175405781 0.46363848719332562 0 0.29928491682775221 0.46259462758508568 0 0.30902597101210949 0.5 0 0.28834910526680052 0.48037760852285333 0 0.28153465575877817 0.5 0 0.28834910526680052 0.48037760852285333 0 0.28153465575877817 0.5 0 0.25633047226602551 0.47610270900946339 0 0.28834910526680052 0.48037760852285333 0 0.25633047226602551 0.47610270900946339 0 0.27650675175405781 0.46363848719332562 0 0.28153465575877817 0.5 0 0.25633047226602551 0.47610270900946339 0 0.25404334050544702 0.5 0 0.24947940694055909 0.44046810223115063 0 0.25970910037729261 0.45233516053549577 0 0.26436961429244898 0.43520205997192513 0 0.25633047226602551 0.47610270900946339 0 0.25970910037729261 0.45233516053549577 0 0.27650675175405781 0.46363848719332562 0 0.24427288438405381 0.45870540509692048 0 0.25633047226602551 0.47610270900946339 0 0.25970910037729261 0.45233516053549577 0 0.25970910037729261 0.45233516053549577 0 0.27650675175405781 0.46363848719332562 0 0.27989706053937552 0.4465470896610797 0 0.25970910037729261 0.45233516053549577 0 0.27989706053937552 0.4465470896610797 0 0.26436961429244898 0.43520205997192513 0 0.27989706053937552 0.4465470896610797 0 0.29928491682775221 0.46259462758508568 0 0.30031548991925971 0.43840720120862481 0 0.27650675175405781 0.46363848719332562 0 0.27989706053937552 0.4465470896610797 0 0.29928491682775221 0.46259462758508568 0 0.32082060509776739 0.45205669104889551 0 0.29928491682775221 0.46259462758508568 0 0.30031548991925971 0.43840720120862481 0 0.30031548991925971 0.43840720120862481 0 0.30427528303276202 0.41505523552948509 0 0.31966579768431752 0.43258859248792553 0 0.30427528303276202 0.41505523552948509 0 0.28260534667697168 0.42482617880470208 0 0.28047569599837952 0.40370450686455089 0 0.30031548991925971 0.43840720120862481 0 0.30427528303276202 0.41505523552948509 0 0.28260534667697168 0.42482617880470208 0 0.27989706053937552 0.4465470896610797 0 0.30031548991925971 0.43840720120862481 0 0.28260534667697168 0.42482617880470208 0 0.27989706053937552 0.4465470896610797 0 0.28260534667697168 0.42482617880470208 0 0.26436961429244898 0.43520205997192513 0 0.28260534667697168 0.42482617880470208 0 0.2640051899778888 0.41842523417969801 0 0.26436961429244898 0.43520205997192513 0 0.2640051899778888 0.41842523417969801 0 0.25992696795584108 0.40118455578044299 0 0.28047569599837952 0.40370450686455089 0 0.28260534667697168 0.42482617880470208 0 0.2640051899778888 0.41842523417969801 0 0.28047569599837952 0.40370450686455089 0 0.24974052316338591 0.4290852147135199 0 0.2469129917803059 0.41654888894304648 0 0.2640051899778888 0.41842523417969801 0 0.2469129917803059 0.41654888894304648 0 0.2640051899778888 0.41842523417969801 0 0.25992696795584108 0.40118455578044299 0 0.24974052316338591 0.4290852147135199 0 0.2640051899778888 0.41842523417969801 0 0.26436961429244898 0.43520205997192513 0 0.24974052316338591 0.4290852147135199 0 0.24947940694055909 0.44046810223115063 0 0.26436961429244898 0.43520205997192513 0 0.25005848523140511 0.38538476335610478 0 0.25992696795584108 0.40118455578044299 0 0.28059603029205821 0.38181676679568438 0 0.25005848523140511 0.38538476335610478 0 0.28059603029205821 0.38181676679568438 0 0.25230815287309599 0.36550081911033849 0 0.25992696795584108 0.40118455578044299 0 0.28047569599837952 0.40370450686455089 0 0.28059603029205821 0.38181676679568438 0 0.28059603029205821 0.38181676679568438 0 0.30658706340671887 0.39071735560464849 0 0.297639752584687 0.37395865980996551 0 0.28047569599837952 0.40370450686455089 0 0.28059603029205821 0.38181676679568438 0 0.30658706340671887 0.39071735560464849 0 0.30427528303276202 0.41505523552948509 0 0.28047569599837952 0.40370450686455089 0 0.30658706340671887 0.39071735560464849 0 0.30658706340671887 0.39071735560464849 0 0.3166113902983963 0.36653931420964819 0 0.297639752584687 0.37395865980996551 0 0.30658706340671887 0.39071735560464849 0 0.32927518802577399 0.38426435683417381 0 0.3166113902983963 0.36653931420964819 0 0.32927518802577399 0.38426435683417381 0 0.34952186562370519 0.38590734802452281 0 0.33637304892244058 0.36713204375576408 0 0.32927518802577399 0.38426435683417381 0 0.33459383165401141 0.40924797025622411 0 0.34952186562370519 0.38590734802452281 0 0.33459383165401141 0.40924797025622411 0 0.34952186562370519 0.38590734802452281 0 0.30658706340671887 0.39071735560464849 0 0.32927518802577399 0.38426435683417381 0 0.33459383165401141 0.40924797025622411 0 0.30427528303276202 0.41505523552948509 0 0.30658706340671887 0.39071735560464849 0 0.33459383165401141 0.40924797025622411 0 0.30427528303276202 0.41505523552948509 0 0.31966579768431752 0.43258859248792553 0 0.33459383165401141 0.40924797025622411 0 0.31966579768431752 0.43258859248792553 0 0.33459383165401141 0.40924797025622411 0 0.3391177795469707 0.44391538900411009 0 0.31966579768431752 0.43258859248792553 0 0.34378649017402951 0.42543964824446201 0 0.31966579768431752 0.43258859248792553 0 0.33459383165401141 0.40924797025622411 0 0.34378649017402951 0.42543964824446201 0 0.33459383165401141 0.40924797025622411 0 0.3564365715610337 0.40639418354370888 0 0.34378649017402951 0.42543964824446201 0 0.3564365715610337 0.40639418354370888 0 0.34378649017402951 0.42543964824446201 0 0.36098769608012882 0.42149605510355248 0 0.34378649017402951 0.42543964824446201 0 0.3560795361894174 0.4370202939404515 0 0.36098769608012882 0.42149605510355248 0 0.3391177795469707 0.44391538900411009 0 0.34378649017402951 0.42543964824446201 0 0.3560795361894174 0.4370202939404515 0 0.3560795361894174 0.4370202939404515 0 0.36701721475703891 0.43164488657566819 0 0.36098769608012882 0.42149605510355248 0 0.36577224929495838 0.44298175784427418 0 0.3560795361894174 0.4370202939404515 0 0.36701721475703891 0.43164488657566819 0 0.36701721475703891 0.43164488657566819 0 0.37495667287529683 0.43068690153289252 0 0.3750347595904614 0.42378296288296358 0 0.36701721475703891 0.43164488657566819 0 0.36098769608012882 0.42149605510355248 0 0.3750347595904614 0.42378296288296358 0 0.36701721475703891 0.43164488657566819 0 0.37495667287529683 0.43068690153289252 0 0.37641264948563857 0.43879189168167221 0 0.3564365715610337 0.40639418354370888 0 0.3724576843239803 0.41288294182131519 0 0.36982140883637121 0.40004921198546789 0 0.3564365715610337 0.40639418354370888 0 0.36098769608012882 0.42149605510355248 0 0.3724576843239803 0.41288294182131519 0 0.36098769608012882 0.42149605510355248 0 0.3724576843239803 0.41288294182131519 0 0.3750347595904614 0.42378296288296358 0 0.3564365715610337 0.40639418354370888 0 0.36982140883637121 0.40004921198546789 0 0.36408985235844948 0.39024265433380761 0 0.3724576843239803 0.41288294182131519 0 0.36982140883637121 0.40004921198546789 0 0.38245621691934067 0.40356646212371239 0 0.36982140883637121 0.40004921198546789 0 0.36408985235844948 0.39024265433380761 0 0.3784879054868453 0.38824325874293991 0 0.36906329226212681 0.37781626021223619 0 0.36408985235844948 0.39024265433380761 0 0.34952186562370519 0.38590734802452281 0 0.36906329226212681 0.37781626021223619 0 0.34952186562370519 0.38590734802452281 0 0.36444989959339907 0.36256672579282129 0 0.36906329226212681 0.37781626021223619 0 0.36408985235844948 0.39024265433380761 0 0.3784879054868453 0.38824325874293991 0 0.33459383165401141 0.40924797025622411 0 0.3564365715610337 0.40639418354370888 0 0.34952186562370519 0.38590734802452281 0 0.3564365715610337 0.40639418354370888 0 0.36408985235844948 0.39024265433380761 0 0.34952186562370519 0.38590734802452281 0 0.35398148585701561 0.35245735875917839 0 0.35065913368367307 0.36637249811942563 0 0.33637304892244058 0.36713204375576408 0 0.34952186562370519 0.38590734802452281 0 0.35065913368367307 0.36637249811942563 0 0.36444989959339907 0.36256672579282129 0 0.34952186562370519 0.38590734802452281 0 0.35065913368367307 0.36637249811942563 0 0.33637304892244058 0.36713204375576408 0 0.34952186562370519 0.38590734802452281 0 0.36444989959339907 0.36256672579282129 0 0.35398148585701561 0.35245735875917839 0 0.35065913368367307 0.36637249811942563 0 0.36444989959339907 0.36256672579282129 0 0.36444989959339907 0.36256672579282129 0 0.38083284398443917 0.35660072067066673 0 0.37507786527348702 0.3662744545418089 0 0.36906329226212681 0.37781626021223619 0 0.36444989959339907 0.36256672579282129 0 0.37507786527348702 0.3662744545418089 0 0.35398148585701561 0.35245735875917839 0 0.36444989959339907 0.36256672579282129 0 0.37937793356309291 0.33922610356111987 0 0.36444989959339907 0.36256672579282129 0 0.37937793356309291 0.33922610356111987 0 0.36444989959339907 0.36256672579282129 0 0.37937793356309291 0.33922610356111987 0 0.38083284398443917 0.35660072067066673 0 0.35398148585701561 0.35245735875917839 0 0.36395409298507819 0.32772705758758752 0 0.37937793356309291 0.33922610356111987 0 0.36395409298507819 0.32772705758758752 0 0.37836651084528838 0.32186922455045452 0 0.37937793356309291 0.33922610356111987 0 0.36395409298507819 0.32772705758758752 0 0.35167147694149792 0.31287981150349709 0 0.37392670011314422 0.30299675641599799 0 0.36395409298507819 0.32772705758758752 0 0.37392670011314422 0.30299675641599799 0 0.37836651084528838 0.32186922455045452 0 0.36395409298507819 0.32772705758758752 0 0.37392670011314422 0.30299675641599799 0 0.36395409298507819 0.32772705758758752 0 0.35167147694149792 0.31287981150349709 0 0.34599068980525788 0.33485913336236273 0 0.35398148585701561 0.35245735875917839 0 0.36395409298507819 0.32772705758758752 0 0.34599068980525788 0.33485913336236273 0 0.35398148585701561 0.35245735875917839 0 0.36395409298507819 0.32772705758758752 0 0.34599068980525788 0.33485913336236273 0 0.33054721569874462 0.32236797189565991 0 0.32967009864708652 0.34521232914461902 0 0.35167147694149792 0.31287981150349709 0 0.34599068980525788 0.33485913336236273 0 0.33054721569874462 0.32236797189565991 0 0.33054721569874462 0.32236797189565991 0 0.31261963777935708 0.32899228214226323 0 0.31453098822238262 0.31140613422331231 0 0.33054721569874462 0.32236797189565991 0 0.31261963777935708 0.32899228214226323 0 0.32967009864708652 0.34521232914461902 0 0.31261963777935708 0.32899228214226323 0 0.32967009864708652 0.34521232914461902 0 0.31261963777935708 0.32899228214226323 0 0.32967009864708652 0.34521232914461902 0 0.31215600326567228 0.34625713843965089 0 0.32967009864708652 0.34521232914461902 0 0.3166113902983963 0.36653931420964819 0 0.31215600326567228 0.34625713843965089 0 0.35398148585701561 0.35245735875917839 0 0.34599068980525788 0.33485913336236273 0 0.32967009864708652 0.34521232914461902 0 0.35398148585701561 0.35245735875917839 0 0.32967009864708652 0.34521232914461902 0 0.33637304892244058 0.36713204375576408 0 0.32927518802577399 0.38426435683417381 0 0.33637304892244058 0.36713204375576408 0 0.3166113902983963 0.36653931420964819 0 0.32967009864708652 0.34521232914461902 0 0.33637304892244058 0.36713204375576408 0 0.3166113902983963 0.36653931420964819 0 0.3166113902983963 0.36653931420964819 0 0.297639752584687 0.37395865980996551 0 0.30178954133801861 0.35725711129320048 0 0.30178954133801861 0.35725711129320048 0 0.31215600326567228 0.34625713843965089 0 0.2941414934004607 0.33812470316342008 0 0.3166113902983963 0.36653931420964819 0 0.30178954133801861 0.35725711129320048 0 0.31215600326567228 0.34625713843965089 0 0.30178954133801861 0.35725711129320048 0 0.27969457649307689 0.3578954475228544 0 0.2941414934004607 0.33812470316342008 0 0.27969457649307689 0.3578954475228544 0 0.27446472439894648 0.33929427314481192 0 0.2941414934004607 0.33812470316342008 0 0.297639752584687 0.37395865980996551 0 0.30178954133801861 0.35725711129320048 0 0.27969457649307689 0.3578954475228544 0 0.28059603029205821 0.38181676679568438 0 0.297639752584687 0.37395865980996551 0 0.27969457649307689 0.3578954475228544 0 0.28059603029205821 0.38181676679568438 0 0.27969457649307689 0.3578954475228544 0 0.25230815287309599 0.36550081911033849 0 0.27969457649307689 0.3578954475228544 0 0.25690650356041639 0.3467603966099736 0 0.27446472439894648 0.33929427314481192 0 0.27969457649307689 0.3578954475228544 0 0.25690650356041639 0.3467603966099736 0 0.25230815287309599 0.36550081911033849 0 0.24684269231471581 0.33386979735358951 0 0.25690650356041639 0.3467603966099736 0 0.25969598757957102 0.3251005834049675 0 0.25690650356041639 0.3467603966099736 0 0.25969598757957102 0.3251005834049675 0 0.27446472439894648 0.33929427314481192 0 0.25969598757957102 0.3251005834049675 0 0.27446472439894648 0.33929427314481192 0 0.27791580257142923 0.32097912818072738 0 0.25969598757957102 0.3251005834049675 0 0.27791580257142923 0.32097912818072738 0 0.26435235150400532 0.30823105127874012 0 0.27791580257142923 0.32097912818072738 0 0.29556917691162771 0.31277223513990737 0 0.2941414934004607 0.33812470316342008 0 0.27446472439894648 0.33929427314481192 0 0.27791580257142923 0.32097912818072738 0 0.2941414934004607 0.33812470316342008 0 0.31261963777935708 0.32899228214226323 0 0.31215600326567228 0.34625713843965089 0 0.2941414934004607 0.33812470316342008 0 0.31261963777935708 0.32899228214226323 0 0.29556917691162771 0.31277223513990737 0 0.31261963777935708 0.32899228214226323 0 0.29556917691162771 0.31277223513990737 0 0.31453098822238262 0.31140613422331231 0 0.31261963777935708 0.32899228214226323 0 0.29556917691162771 0.31277223513990737 0 0.2941414934004607 0.33812470316342008 0 0.29556917691162771 0.31277223513990737 0 0.3063794559155178 0.30055199052151582 0 0.29406450808579948 0.29544049536693562 0 0.29556917691162771 0.31277223513990737 0 0.3063794559155178 0.30055199052151582 0 0.31453098822238262 0.31140613422331231 0 0.3063794559155178 0.30055199052151582 0 0.30445301550337561 0.28533633335060549 0 0.32422667567296243 0.29496745738247881 0 0.3063794559155178 0.30055199052151582 0 0.30445301550337561 0.28533633335060549 0 0.29406450808579948 0.29544049536693562 0 0.30445301550337561 0.28533633335060549 0 0.29406450808579948 0.29544049536693562 0 0.28540217605457868 0.281989729685098 0 0.29406450808579948 0.29544049536693562 0 0.28540217605457868 0.281989729685098 0 0.27851871604389811 0.29655218813755152 0 0.29556917691162771 0.31277223513990737 0 0.29406450808579948 0.29544049536693562 0 0.27851871604389811 0.29655218813755152 0 0.27791580257142923 0.32097912818072738 0 0.29556917691162771 0.31277223513990737 0 0.27851871604389811 0.29655218813755152 0 0.29556917691162771 0.31277223513990737 0 0.27851871604389811 0.29655218813755152 0 0.27791580257142923 0.32097912818072738 0 0.27851871604389811 0.29655218813755152 0 0.26435235150400532 0.30823105127874012 0 0.27851871604389811 0.29655218813755152 0 0.2614682551761679 0.28033214113519639 0 0.27851871604389811 0.29655218813755152 0 0.26435235150400532 0.30823105127874012 0 0.2614682551761679 0.28033214113519639 0 0.28540217605457868 0.281989729685098 0 0.27851871604389811 0.29655218813755152 0 0.2614682551761679 0.28033214113519639 0 0.26435235150400532 0.30823105127874012 0 0.2614682551761679 0.28033214113519639 0 0.2474487594874602 0.30396454181808918 0 0.26435235150400532 0.30823105127874012 0 0.2614682551761679 0.28033214113519639 0 0.2474487594874602 0.30396454181808918 0 0.25969598757957102 0.3251005834049675 0 0.26435235150400532 0.30823105127874012 0 0.24590174159345601 0.26552376827459562 0 0.24593745411386941 0.25080307675381758 0 0.25914522553967001 0.25786063265476722 0 0.25914522553967001 0.25786063265476722 0 0.2614682551761679 0.28033214113519639 0 0.24590174159345601 0.26552376827459562 0 0.25914522553967001 0.25786063265476722 0 0.2614682551761679 0.28033214113519639 0 0.24590174159345601 0.26552376827459562 0 0.2614682551761679 0.28033214113519639 0 0.28540217605457868 0.281989729685098 0 0.2614682551761679 0.28033214113519639 0 0.27925027551595011 0.26304300442789802 0 0.25914522553967001 0.25786063265476722 0 0.2614682551761679 0.28033214113519639 0 0.27925027551595011 0.26304300442789802 0 0.25914522553967001 0.25786063265476722 0 0.27925027551595011 0.26304300442789802 0 0.2687004239312582 0.24721405446465969 0 0.27925027551595011 0.26304300442789802 0 0.2687004239312582 0.24721405446465969 0 0.28289499620843578 0.24542439300037641 0 0.27925027551595011 0.26304300442789802 0 0.29637344732906662 0.27128535309923429 0 0.30040056592781039 0.25649566793483558 0 0.27925027551595011 0.26304300442789802 0 0.30040056592781039 0.25649566793483558 0 0.28289499620843578 0.24542439300037641 0 0.30040056592781039 0.25649566793483558 0 0.28289499620843578 0.24542439300037641 0 0.28540217605457868 0.281989729685098 0 0.27925027551595011 0.26304300442789802 0 0.29637344732906662 0.27128535309923429 0 0.30445301550337561 0.28533633335060549 0 0.28540217605457868 0.281989729685098 0 0.29637344732906662 0.27128535309923429 0 0.30445301550337561 0.28533633335060549 0 0.29637344732906662 0.27128535309923429 0 0.31790613564718351 0.26756694286929689 0 0.30040056592781039 0.25649566793483558 0 0.31790613564718351 0.26756694286929689 0 0.30040056592781039 0.25649566793483558 0 0.31790613564718351 0.26756694286929689 0 0.31374933592302778 0.24954657582701539 0 0.29637344732906662 0.27128535309923429 0 0.30040056592781039 0.25649566793483558 0 0.31790613564718351 0.26756694286929689 0 0.33566869549685902 0.2601492895525605 0 0.31790613564718351 0.26756694286929689 0 0.31374933592302778 0.24954657582701539 0 0.31790613564718351 0.26756694286929689 0 0.31374933592302778 0.24954657582701539 0 0.33566869549685902 0.2601492895525605 0 0.33216425022112078 0.2412218233605454 0 0.31374933592302778 0.24954657582701539 0 0.33566869549685902 0.2601492895525605 0 0.35473596424337228 0.25091743793635379 0 0.33216425022112078 0.2412218233605454 0 0.33566869549685902 0.2601492895525605 0 0.33657965713583821 0.27937688071819577 0 0.31790613564718351 0.26756694286929689 0 0.33566869549685902 0.2601492895525605 0 0.33657965713583821 0.27937688071819577 0 0.34865316574838973 0.26780852283329482 0 0.33657965713583821 0.27937688071819577 0 0.31790613564718351 0.26756694286929689 0 0.32422667567296243 0.29496745738247881 0 0.33657965713583821 0.27937688071819577 0 0.31790613564718351 0.26756694286929689 0 0.30445301550337561 0.28533633335060549 0 0.31790613564718351 0.26756694286929689 0 0.32422667567296243 0.29496745738247881 0 0.31790613564718351 0.26756694286929689 0 0.32422667567296243 0.29496745738247881 0 0.33054721569874462 0.32236797189565991 0 0.32422667567296243 0.29496745738247881 0 0.3063794559155178 0.30055199052151582 0 0.32422667567296243 0.29496745738247881 0 0.31453098822238262 0.31140613422331231 0 0.33054721569874462 0.32236797189565991 0 0.32422667567296243 0.29496745738247881 0 0.31453098822238262 0.31140613422331231 0 0.33054721569874462 0.32236797189565991 0 0.32422667567296243 0.29496745738247881 0 0.33965564081470689 0.30015578801338572 0 0.35167147694149792 0.31287981150349709 0 0.33054721569874462 0.32236797189565991 0 0.33965564081470689 0.30015578801338572 0 0.33657965713583821 0.27937688071819577 0 0.32422667567296243 0.29496745738247881 0 0.33965564081470689 0.30015578801338572 0 0.33657965713583821 0.27937688071819577 0 0.35525317862449129 0.29118681856709661 0 0.35697871229383837 0.28234132580692178 0 0.33657965713583821 0.27937688071819577 0 0.33965564081470689 0.30015578801338572 0 0.35525317862449129 0.29118681856709661 0 0.33657965713583821 0.27937688071819577 0 0.35525317862449129 0.29118681856709661 0 0.35167147694149792 0.31287981150349709 0 0.33965564081470689 0.30015578801338572 0 0.35525317862449129 0.29118681856709661 0 0.35167147694149792 0.31287981150349709 0 0.35525317862449129 0.29118681856709661 0 0.37392670011314422 0.30299675641599799 0 0.35525317862449129 0.29118681856709661 0 0.37392670011314422 0.30299675641599799 0 0.37392670011314422 0.30299675641599799 0 0.36866382522210511 0.28921184865316141 0 0.38137946736668399 0.28451521228464832 0 0.35697871229383837 0.28234132580692178 0 0.36866382522210511 0.28921184865316141 0 0.37298544822766888 0.2774899311334581 0 0.35525317862449129 0.29118681856709661 0 0.37392670011314422 0.30299675641599799 0 0.36866382522210511 0.28921184865316141 0 0.35525317862449129 0.29118681856709661 0 0.35697871229383837 0.28234132580692178 0 0.36866382522210511 0.28921184865316141 0 0.36866382522210511 0.28921184865316141 0 0.37298544822766888 0.2774899311334581 0 0.38137946736668399 0.28451521228464832 0 0.35697871229383837 0.28234132580692178 0 0.37730767826562372 0.26061305251216299 0 0.35697871229383837 0.28234132580692178 0 0.37298544822766888 0.2774899311334581 0 0.37730767826562372 0.26061305251216299 0 0.35697871229383837 0.28234132580692178 0 0.35930279957204042 0.26625768015244189 0 0.37730767826562372 0.26061305251216299 0 0.35473596424337228 0.25091743793635379 0 0.37977971644938008 0.25797085608533982 0 0.37730767826562372 0.26061305251216299 0 0.35473596424337228 0.25091743793635379 0 0.35930279957204042 0.26625768015244189 0 0.37730767826562372 0.26061305251216299 0 0.35473596424337228 0.25091743793635379 0 0.37730767826562372 0.26061305251216299 0 0.35473596424337228 0.25091743793635379 0 0.34865316574838973 0.26780852283329482 0 0.35930279957204042 0.26625768015244189 0 0.33566869549685902 0.2601492895525605 0 0.35473596424337228 0.25091743793635379 0 0.34865316574838973 0.26780852283329482 0 0.35697871229383837 0.28234132580692178 0 0.34865316574838973 0.26780852283329482 0 0.35930279957204042 0.26625768015244189 0 0.33657965713583821 0.27937688071819577 0 0.35697871229383837 0.28234132580692178 0 0.34865316574838973 0.26780852283329482 0 0.38781238696384751 0.26512531979805309 0 0.4151501339958128 0.27686817008986397 0 0.40718531578592593 0.26102691694178998 0 0.4037096798868734 0.27928457171100718 0 0.38781238696384751 0.26512531979805309 0 0.38781238696384751 0.26512531979805309 0 0.4151501339958128 0.27686817008986397 0 0.4037096798868734 0.27928457171100718 0 0.38781238696384751 0.26512531979805309 0 0.4151501339958128 0.27686817008986397 0 0.39638046478901062 0.28083261578998919 0 0.4037096798868734 0.27928457171100718 0 0.38781238696384751 0.26512531979805309 0 0.39638046478901062 0.28083261578998919 0 0.4037096798868734 0.27928457171100718 0 0.39305674463759538 0.25555763077507643 0 0.38781238696384751 0.26512531979805309 0 0.40718531578592593 0.26102691694178998 0 0.40536203825043993 0.25043379715749498 0 0.39305674463759538 0.25555763077507643 0 0.40718531578592593 0.26102691694178998 0 0.39305674463759538 0.25555763077507643 0 0.38813825355102649 0.25767346924967482 0 0.3939331399801651 0.24284320744053689 0 0.38781238696384751 0.26512531979805309 0 0.38813825355102649 0.25767346924967482 0 0.37977971644938008 0.25797085608533982 0 0.39305674463759538 0.25555763077507643 0 0.38781238696384751 0.26512531979805309 0 0.38781238696384751 0.26512531979805309 0 0.37977971644938008 0.25797085608533982 0 0.39305674463759538 0.25555763077507643 0 0.38781238696384751 0.26512531979805309 0 0.38813825355102649 0.25767346924967482 0 0.38813825355102649 0.25767346924967482 0 0.37977971644938008 0.25797085608533982 0 0.3939331399801651 0.24284320744053689 0 0.37977971644938008 0.25797085608533982 0 0.3939331399801651 0.24284320744053689 0 0.38781238696384751 0.26512531979805309 0 0.37977971644938008 0.25797085608533982 0 0.37730767826562372 0.26061305251216299 0 0.38781238696384751 0.26512531979805309 0 0.37730767826562372 0.26061305251216299 0 0.38781238696384751 0.26512531979805309 0 0.37730767826562372 0.26061305251216299 0 0.38059755799009259 0.2707682164103965 0 0.37977971644938008 0.25797085608533982 0 0.37730767826562372 0.26061305251216299 0 0.38781238696384751 0.26512531979805309 0 0.38137946736668399 0.28451521228464832 0 0.38781238696384751 0.26512531979805309 0 0.38059755799009259 0.2707682164103965 0 0.38137946736668399 0.28451521228464832 0 0.39638046478901062 0.28083261578998919 0 0.38781238696384751 0.26512531979805309 0 0.38137946736668399 0.28451521228464832 0 0.37298544822766888 0.2774899311334581 0 0.37730767826562372 0.26061305251216299 0 0.38059755799009259 0.2707682164103965 0 0.37298544822766888 0.2774899311334581 0 0.38059755799009259 0.2707682164103965 0 0.38137946736668399 0.28451521228464832 0 0.37392670011314422 0.30299675641599799 0 0.38137946736668399 0.28451521228464832 0 0.38947738864896497 0.29739319761607941 0 0.37392670011314422 0.30299675641599799 0 0.38137946736668399 0.28451521228464832 0 0.38137946736668399 0.28451521228464832 0 0.38947738864896497 0.29739319761607941 0 0.39318625448507971 0.28919536690261061 0 0.39638046478901062 0.28083261578998919 0 0.38137946736668399 0.28451521228464832 0 0.39318625448507971 0.28919536690261061 0 0.37392670011314422 0.30299675641599799 0 0.38947738864896497 0.29739319761607941 0 0.39430596753276609 0.31588548132940542 0 0.37392670011314422 0.30299675641599799 0 0.39430596753276609 0.31588548132940542 0 0.38947738864896497 0.29739319761607941 0 0.40228727497466032 0.30340636436773211 0 0.39430596753276609 0.31588548132940542 0 0.40228727497466032 0.30340636436773211 0 0.39430596753276609 0.31588548132940542 0 0.38947738864896497 0.29739319761607941 0 0.40228727497466032 0.30340636436773211 0 0.40128005183411453 0.29125195894440692 0 0.40228727497466032 0.30340636436773211 0 0.40826812825586728 0.31636543535439071 0 0.39430596753276609 0.31588548132940542 0 0.4037096798868734 0.27928457171100718 0 0.40128005183411453 0.29125195894440692 0 0.40887803938003803 0.29539881415272662 0 0.39638046478901062 0.28083261578998919 0 0.39318625448507971 0.28919536690261061 0 0.40128005183411453 0.29125195894440692 0 0.38947738864896497 0.29739319761607941 0 0.39318625448507971 0.28919536690261061 0 0.40128005183411453 0.29125195894440692 0 0.40228727497466032 0.30340636436773211 0 0.40128005183411453 0.29125195894440692 0 0.40887803938003803 0.29539881415272662 0 0.39638046478901062 0.28083261578998919 0 0.4037096798868734 0.27928457171100718 0 0.40128005183411453 0.29125195894440692 0 0.42068127310126202 0.2944006713419477 0 0.42051022835175128 0.27917058314161358 0 0.4151501339958128 0.27686817008986397 0 0.4037096798868734 0.27928457171100718 0 0.40887803938003803 0.29539881415272662 0 0.42068127310126202 0.2944006713419477 0 0.4037096798868734 0.27928457171100718 0 0.42068127310126202 0.2944006713419477 0 0.4151501339958128 0.27686817008986397 0 0.4037096798868734 0.27928457171100718 0 0.42068127310126202 0.2944006713419477 0 0.40228727497466032 0.30340636436773211 0 0.4123908256404521 0.30601685536583939 0 0.40826812825586728 0.31636543535439071 0 0.40228727497466032 0.30340636436773211 0 0.40887803938003803 0.29539881415272662 0 0.4123908256404521 0.30601685536583939 0 0.40887803938003803 0.29539881415272662 0 0.42068127310126202 0.2944006713419477 0 0.4123908256404521 0.30601685536583939 0 0.42068127310126202 0.2944006713419477 0 0.4123908256404521 0.30601685536583939 0 0.42221900234539789 0.3097596602747158 0 0.4123908256404521 0.30601685536583939 0 0.42221900234539789 0.3097596602747158 0 0.40826812825586728 0.31636543535439071 0 0.42068127310126202 0.2944006713419477 0 0.43765286631565031 0.30951677097288882 0 0.42068127310126202 0.2944006713419477 0 0.42221900234539789 0.3097596602747158 0 0.43765286631565031 0.30951677097288882 0 0.42068127310126202 0.2944006713419477 0 0.43336472298132273 0.28866251189057412 0 0.43765286631565031 0.30951677097288882 0 0.42068127310126202 0.2944006713419477 0 0.43336472298132273 0.28866251189057412 0 0.42051022835175128 0.27917058314161358 0 0.43553171145475778 0.27256326432787581 0 0.4151501339958128 0.27686817008986397 0 0.42190321914830092 0.26360098046001462 0 0.43336472298132273 0.28866251189057412 0 0.43553171145475778 0.27256326432787581 0 0.42051022835175128 0.27917058314161358 0 0.43553171145475778 0.27256326432787581 0 0.42051022835175128 0.27917058314161358 0 0.4151501339958128 0.27686817008986397 0 0.43553171145475778 0.27256326432787581 0 0.4151501339958128 0.27686817008986397 0 0.4151501339958128 0.27686817008986397 0 0.40718531578592593 0.26102691694178998 0 0.42190321914830092 0.26360098046001462 0 0.42051022835175128 0.27917058314161358 0 0.4151501339958128 0.27686817008986397 0 0.4037096798868734 0.27928457171100718 0 0.4151501339958128 0.27686817008986397 0 0.40536203825043993 0.25043379715749498 0 0.40718531578592593 0.26102691694178998 0 0.4184002464853076 0.25244301268623509 0 0.40718531578592593 0.26102691694178998 0 0.4184002464853076 0.25244301268623509 0 0.42190321914830092 0.26360098046001462 0 0.4184002464853076 0.25244301268623509 0 0.42190321914830092 0.26360098046001462 0 0.43324868801970068 0.25510353825430637 0 0.43553171145475778 0.27256326432787581 0 0.42190321914830092 0.26360098046001462 0 0.43324868801970068 0.25510353825430637 0 0.43324868801970068 0.25510353825430637 0 0.45591328891370331 0.26825835856588992 0 0.45404328175547398 0.24754668122415599 0 0.43553171145475778 0.27256326432787581 0 0.43324868801970068 0.25510353825430637 0 0.45591328891370331 0.26825835856588992 0 0.43553171145475778 0.27256326432787581 0 0.45591328891370331 0.26825835856588992 0 0.43553171145475778 0.27256326432787581 0 0.45591328891370331 0.26825835856588992 0 0.45201170272971708 0.28788743082878931 0 0.45591328891370331 0.26825835856588992 0 0.46850979953884281 0.27775832098557368 0 0.45201170272971708 0.28788743082878931 0 0.45591328891370331 0.26825835856588992 0 0.47629486637264867 0.26395345280390398 0 0.45591328891370331 0.26825835856588992 0 0.46850979953884281 0.27775832098557368 0 0.47629486637264867 0.26395345280390398 0 0.45591328891370331 0.26825835856588992 0 0.47702164087773552 0.25746224243836602 0 0.45404328175547398 0.24754668122415599 0 0.47702164087773552 0.25746224243836602 0 0.45404328175547398 0.24754668122415599 0 0.45591328891370331 0.26825835856588992 0 0.47629486637264867 0.26395345280390398 0 0.47702164087773552 0.25746224243836602 0 0.46850979953884281 0.27775832098557368 0 0.47629486637264867 0.26395345280390398 0 0.48519869773050178 0.27995033588782681 0 0.47629486637264867 0.26395345280390398 0 0.49999999999999728 0.26737780365257491 0 0.48519869773050178 0.27995033588782681 0 0.49999999999999728 0.26737780365257491 0 0.48519869773050178 0.27995033588782681 0 0.5 0.29621608567146179 0 0.47629486637264867 0.26395345280390398 0 0.47702164087773552 0.25746224243836602 0 0.49999999999999728 0.26737780365257491 0 0.47702164087773552 0.25746224243836602 0 0.49999999999999728 0.26737780365257491 0 0.47702164087773552 0.25746224243836602 0 0.49999999999999728 0.26737780365257491 0 0.49999999999998979 0.24093335855195749 0 0.5 0.29621608567146179 0 0.47709013594886879 0.31575604091815651 0 0.5 0.32505436769034868 0 0.48519869773050178 0.27995033588782681 0 0.5 0.29621608567146179 0 0.47371431619900412 0.29379559201166361 0 0.46850979953884281 0.27775832098557368 0 0.48519869773050178 0.27995033588782681 0 0.47371431619900412 0.29379559201166361 0 0.5 0.29621608567146179 0 0.47371431619900412 0.29379559201166361 0 0.47709013594886879 0.31575604091815651 0 0.47371431619900412 0.29379559201166361 0 0.45901869614465568 0.30631774106706572 0 0.47709013594886879 0.31575604091815651 0 0.46850979953884281 0.27775832098557368 0 0.47371431619900412 0.29379559201166361 0 0.45201170272971708 0.28788743082878931 0 0.47371431619900412 0.29379559201166361 0 0.45901869614465568 0.30631774106706572 0 0.45201170272971708 0.28788743082878931 0 0.43336472298132273 0.28866251189057412 0 0.43553171145475778 0.27256326432787581 0 0.45201170272971708 0.28788743082878931 0 0.43336472298132273 0.28866251189057412 0 0.45201170272971708 0.28788743082878931 0 0.43765286631565031 0.30951677097288882 0 0.45901869614465568 0.30631774106706572 0 0.45201170272971708 0.28788743082878931 0 0.43765286631565031 0.30951677097288882 0 0.45901869614465568 0.30631774106706572 0 0.43765286631565031 0.30951677097288882 0 0.45462445953003849 0.32463287060382989 0 0.43765286631565031 0.30951677097288882 0 0.45462445953003849 0.32463287060382989 0 0.43765286631565031 0.30951677097288882 0 0.43826147278085831 0.32591893203571648 0 0.45462445953003849 0.32463287060382989 0 0.43826147278085831 0.32591893203571648 0 0.45462445953003849 0.32463287060382989 0 0.44975514320935001 0.35095392403910802 0 0.43826147278085831 0.32591893203571648 0 0.44975514320935001 0.35095392403910802 0 0.42463271481398163 0.33506542019462149 0 0.45462445953003849 0.32463287060382989 0 0.47689416443487298 0.33991108836977041 0 0.44975514320935001 0.35095392403910802 0 0.45901869614465568 0.30631774106706572 0 0.45462445953003849 0.32463287060382989 0 0.47709013594886879 0.31575604091815651 0 0.45462445953003849 0.32463287060382989 0 0.47709013594886879 0.31575604091815651 0 0.47689416443487298 0.33991108836977041 0 0.47689416443487298 0.33991108836977041 0 0.5 0.32505436769034868 0 0.5 0.35389264970923567 0 0.47709013594886879 0.31575604091815651 0 0.47689416443487298 0.33991108836977041 0 0.5 0.32505436769034868 0 0.5 0.35389264970923567 0 0.47487757160471339 0.36684242788360172 0 0.50000000000005995 0.38273093172812273 0 0.47487757160471339 0.36684242788360172 0 0.50000000000005995 0.38273093172812273 0 0.47689416443487298 0.33991108836977041 0 0.5 0.35389264970923567 0 0.47487757160471339 0.36684242788360172 0 0.47487757160471339 0.36684242788360172 0 0.45832888777211861 0.37357039074514359 0 0.44975514320935001 0.35095392403910802 0 0.47487757160471339 0.36684242788360172 0 0.44975514320935001 0.35095392403910802 0 0.47689416443487298 0.33991108836977041 0 0.47487757160471339 0.36684242788360172 0 0.44975514320935001 0.35095392403910802 0 0.44148080129304662 0.35431790546988562 0 0.44975514320935001 0.35095392403910802 0 0.42463271481398163 0.33506542019462149 0 0.45832888777211861 0.37357039074514359 0 0.44148080129304662 0.35431790546988562 0 0.45832888777211861 0.37357039074514359 0 0.44148080129304662 0.35431790546988562 0 0.43465185752904362 0.37040141932420267 0 0.45832888777211861 0.37357039074514359 0 0.44148080129304662 0.35431790546988562 0 0.44975514320935001 0.35095392403910802 0 0.44148080129304662 0.35431790546988562 0 0.43465185752904362 0.37040141932420267 0 0.42918652741199981 0.36245343669960989 0 0.42918652741199981 0.36245343669960989 0 0.41926782994084189 0.37048062969864032 0 0.42134562088506722 0.35461379230571111 0 0.43465185752904362 0.37040141932420267 0 0.42918652741199981 0.36245343669960989 0 0.41926782994084189 0.37048062969864032 0 0.41926782994084189 0.37048062969864032 0 0.40523339639750072 0.36408957515764678 0 0.4112767860263663 0.3837296095992162 0 0.41926782994084189 0.37048062969864032 0 0.42134562088506722 0.35461379230571111 0 0.40523339639750072 0.36408957515764678 0 0.42134562088506722 0.35461379230571111 0 0.40820410781915489 0.34385610659283788 0 0.40523339639750072 0.36408957515764678 0 0.42134562088506722 0.35461379230571111 0 0.40820410781915489 0.34385610659283788 0 0.42463271481398163 0.33506542019462149 0 0.44148080129304662 0.35431790546988562 0 0.42134562088506722 0.35461379230571111 0 0.42463271481398163 0.33506542019462149 0 0.44148080129304662 0.35431790546988562 0 0.42463271481398163 0.33506542019462149 0 0.44148080129304662 0.35431790546988562 0 0.42918652741199981 0.36245343669960989 0 0.42134562088506722 0.35461379230571111 0 0.44975514320935001 0.35095392403910802 0 0.42463271481398163 0.33506542019462149 0 0.43765286631565031 0.30951677097288882 0 0.43826147278085831 0.32591893203571648 0 0.4261101303320165 0.32014076535853753 0 0.43826147278085831 0.32591893203571648 0 0.42463271481398163 0.33506542019462149 0 0.4261101303320165 0.32014076535853753 0 0.42221900234539789 0.3097596602747158 0 0.43765286631565031 0.30951677097288882 0 0.4261101303320165 0.32014076535853753 0 0.42463271481398163 0.33506542019462149 0 0.40946934117337619 0.32547545076200968 0 0.40826812825586728 0.31636543535439071 0 0.42463271481398163 0.33506542019462149 0 0.40826812825586728 0.31636543535439071 0 0.42221900234539789 0.3097596602747158 0 0.4261101303320165 0.32014076535853753 0 0.40826812825586728 0.31636543535439071 0 0.42463271481398163 0.33506542019462149 0 0.4261101303320165 0.32014076535853753 0 0.40826812825586728 0.31636543535439071 0 0.40820410781915489 0.34385610659283788 0 0.42463271481398163 0.33506542019462149 0 0.40946934117337619 0.32547545076200968 0 0.42463271481398163 0.33506542019462149 0 0.40946934117337619 0.32547545076200968 0 0.40820410781915489 0.34385610659283788 0 0.39706793352451458 0.33521415899000029 0 0.39352692876642481 0.3504943944772268 0 0.40820410781915489 0.34385610659283788 0 0.40946934117337619 0.32547545076200968 0 0.39706793352451458 0.33521415899000029 0 0.40946934117337619 0.32547545076200968 0 0.39706793352451458 0.33521415899000029 0 0.39430596753276609 0.31588548132940542 0 0.40946934117337619 0.32547545076200968 0 0.40826812825586728 0.31636543535439071 0 0.39430596753276609 0.31588548132940542 0 0.40946934117337619 0.32547545076200968 0 0.39430596753276609 0.31588548132940542 0 0.37392670011314422 0.30299675641599799 0 0.39430596753276609 0.31588548132940542 0 0.37836651084528838 0.32186922455045452 0 0.39430596753276609 0.31588548132940542 0 0.37937793356309291 0.33922610356111987 0 0.39430596753276609 0.31588548132940542 0 0.37836651084528838 0.32186922455045452 0 0.37937793356309291 0.33922610356111987 0 0.39706793352451458 0.33521415899000029 0 0.37937793356309291 0.33922610356111987 0 0.39352692876642481 0.3504943944772268 0 0.39706793352451458 0.33521415899000029 0 0.39430596753276609 0.31588548132940542 0 0.37937793356309291 0.33922610356111987 0 0.37937793356309291 0.33922610356111987 0 0.38083284398443917 0.35660072067066673 0 0.39352692876642481 0.3504943944772268 0 0.38083284398443917 0.35660072067066673 0 0.39044535730984709 0.36397970189108908 0 0.39352692876642481 0.3504943944772268 0 0.38083284398443917 0.35660072067066673 0 0.37507786527348702 0.3662744545418089 0 0.39044535730984709 0.36397970189108908 0 0.38295519336031469 0.37416966480090652 0 0.39044535730984709 0.36397970189108908 0 0.39590428188953608 0.38051011333146012 0 0.36906329226212681 0.37781626021223619 0 0.37507786527348702 0.3662744545418089 0 0.38295519336031469 0.37416966480090652 0 0.37507786527348702 0.3662744545418089 0 0.38295519336031469 0.37416966480090652 0 0.39044535730984709 0.36397970189108908 0 0.39044535730984709 0.36397970189108908 0 0.40523339639750072 0.36408957515764678 0 0.39352692876642481 0.3504943944772268 0 0.39044535730984709 0.36397970189108908 0 0.40523339639750072 0.36408957515764678 0 0.39590428188953608 0.38051011333146012 0 0.40820410781915489 0.34385610659283788 0 0.40523339639750072 0.36408957515764678 0 0.39352692876642481 0.3504943944772268 0 0.39205317384617672 0.39413928782561369 0 0.39994480347689809 0.40489545850624642 0 0.40288013692533969 0.39261244172780219 0 0.39205317384617672 0.39413928782561369 0 0.3912981224140748 0.40365895130830109 0 0.39994480347689809 0.40489545850624642 0 0.39994480347689809 0.40489545850624642 0 0.40288013692533969 0.39261244172780219 0 0.41216475972663652 0.40095491534922428 0 0.40523339639750072 0.36408957515764678 0 0.39590428188953608 0.38051011333146012 0 0.4112767860263663 0.3837296095992162 0 0.40288013692533969 0.39261244172780219 0 0.39590428188953608 0.38051011333146012 0 0.4112767860263663 0.3837296095992162 0 0.39205317384617672 0.39413928782561369 0 0.40288013692533969 0.39261244172780219 0 0.39590428188953608 0.38051011333146012 0 0.38295519336031469 0.37416966480090652 0 0.39590428188953608 0.38051011333146012 0 0.3784879054868453 0.38824325874293991 0 0.39205317384617672 0.39413928782561369 0 0.39590428188953608 0.38051011333146012 0 0.3784879054868453 0.38824325874293991 0 0.36906329226212681 0.37781626021223619 0 0.38295519336031469 0.37416966480090652 0 0.3784879054868453 0.38824325874293991 0 0.36982140883637121 0.40004921198546789 0 0.3784879054868453 0.38824325874293991 0 0.38245621691934067 0.40356646212371239 0 0.39205317384617672 0.39413928782561369 0 0.3784879054868453 0.38824325874293991 0 0.38245621691934067 0.40356646212371239 0 0.39205317384617672 0.39413928782561369 0 0.3912981224140748 0.40365895130830109 0 0.38245621691934067 0.40356646212371239 0 0.3724576843239803 0.41288294182131519 0 0.38245621691934067 0.40356646212371239 0 0.38323097862201588 0.41464422189643169 0 0.3724576843239803 0.41288294182131519 0 0.37989119846370428 0.41977012321550072 0 0.3750347595904614 0.42378296288296358 0 0.3724576843239803 0.41288294182131519 0 0.37989119846370428 0.41977012321550072 0 0.38323097862201588 0.41464422189643169 0 0.38323097862201588 0.41464422189643169 0 0.38537962972180162 0.42031251557120758 0 0.38812157347951692 0.41634261581135867 0 0.37989119846370428 0.41977012321550072 0 0.38537962972180162 0.42031251557120758 0 0.38323131382642878 0.42457090297959521 0 0.37989119846370428 0.41977012321550072 0 0.38323097862201588 0.41464422189643169 0 0.38537962972180162 0.42031251557120758 0 0.38537962972180162 0.42031251557120758 0 0.39008051923288539 0.42098683729747471 0 0.38812157347951692 0.41634261581135867 0 0.38323097862201588 0.41464422189643169 0 0.38812157347951692 0.41634261581135867 0 0.39073829541388372 0.41203459677763221 0 0.3912981224140748 0.40365895130830109 0 0.38245621691934067 0.40356646212371239 0 0.39073829541388372 0.41203459677763221 0 0.38245621691934067 0.40356646212371239 0 0.38323097862201588 0.41464422189643169 0 0.39073829541388372 0.41203459677763221 0 0.37495667287529683 0.43068690153289252 0 0.3805998629905612 0.43123398127265489 0 0.37641264948563857 0.43879189168167221 0 0.3805998629905612 0.43123398127265489 0 0.38352763718448513 0.43118502561569799 0 0.37641264948563857 0.43879189168167221 0 0.37495667287529683 0.43068690153289252 0 0.3805998629905612 0.43123398127265489 0 0.37948260495559699 0.42764550033655019 0 0.37989119846370428 0.41977012321550072 0 0.3750347595904614 0.42378296288296358 0 0.38323131382642878 0.42457090297959521 0 0.37948260495559699 0.42764550033655019 0 0.3750347595904614 0.42378296288296358 0 0.38323131382642878 0.42457090297959521 0 0.37948260495559699 0.42764550033655019 0 0.38323131382642878 0.42457090297959521 0 0.38437452537082317 0.42788290199069628 0 0.3805998629905612 0.43123398127265489 0 0.37948260495559699 0.42764550033655019 0 0.38437452537082317 0.42788290199069628 0 0.37495667287529683 0.43068690153289252 0 0.37948260495559699 0.42764550033655019 0 0.3750347595904614 0.42378296288296358 0 0.38537962972180162 0.42031251557120758 0 0.38323131382642878 0.42457090297959521 0 0.38769685590754321 0.42500683578397042 0 0.39008051923288539 0.42098683729747471 0 0.38769685590754321 0.42500683578397042 0 0.39268743449439891 0.42497572137276701 0 0.38537962972180162 0.42031251557120758 0 0.39008051923288539 0.42098683729747471 0 0.38769685590754321 0.42500683578397042 0 0.38769685590754321 0.42500683578397042 0 0.38966789687102948 0.42760085459234498 0 0.39268743449439891 0.42497572137276701 0 0.38769685590754321 0.42500683578397042 0 0.38966789687102948 0.42760085459234498 0 0.38739978997383939 0.42813769697016529 0 0.38966789687102948 0.42760085459234498 0 0.38885135810156318 0.42987865616330112 0 0.39198880286066612 0.42857135752365871 0 0.38966789687102948 0.42760085459234498 0 0.38739978997383939 0.42813769697016529 0 0.38885135810156318 0.42987865616330112 0 0.38739978997383939 0.42813769697016529 0 0.38437452537082317 0.42788290199069628 0 0.38352763718448513 0.43118502561569799 0 0.38323131382642878 0.42457090297959521 0 0.38769685590754321 0.42500683578397042 0 0.38437452537082317 0.42788290199069628 0 0.38769685590754321 0.42500683578397042 0 0.38739978997383939 0.42813769697016529 0 0.38437452537082317 0.42788290199069628 0 0.38352763718448513 0.43118502561569799 0 0.38885135810156318 0.42987865616330112 0 0.37641264948563857 0.43879189168167221 0 0.38739978997383939 0.42813769697016529 0 0.38352763718448513 0.43118502561569799 0 0.38885135810156318 0.42987865616330112 0 0.3805998629905612 0.43123398127265489 0 0.38437452537082317 0.42788290199069628 0 0.38352763718448513 0.43118502561569799 0 0.38885135810156318 0.42987865616330112 0 0.39344128793371758 0.4323103678464027 0 0.39272825508208781 0.43912082233727068 0 0.39344128793371758 0.4323103678464027 0 0.39928769088185417 0.43404157643466651 0 0.39272825508208781 0.43912082233727068 0 0.38885135810156318 0.42987865616330112 0 0.39344128793371758 0.4323103678464027 0 0.39198880286066612 0.42857135752365871 0 0.39344128793371758 0.4323103678464027 0 0.39487418235900512 0.42892329155055819 0 0.39198880286066612 0.42857135752365871 0 0.39344128793371758 0.4323103678464027 0 0.39487418235900512 0.42892329155055819 0 0.39928769088185417 0.43404157643466651 0 0.39771202333939432 0.42607355241084272 0 0.39487418235900512 0.42892329155055819 0 0.39928769088185417 0.43404157643466651 0 0.39771202333939432 0.42607355241084272 0 0.39268743449439891 0.42497572137276701 0 0.39710324339784708 0.41787131914898318 0 0.39771202333939432 0.42607355241084272 0 0.39487418235900512 0.42892329155055819 0 0.39268743449439891 0.42497572137276701 0 0.39487418235900512 0.42892329155055819 0 0.39198880286066612 0.42857135752365871 0 0.39268743449439891 0.42497572137276701 0 0.38966789687102948 0.42760085459234498 0 0.39198880286066612 0.42857135752365871 0 0.39268743449439891 0.42497572137276701 0 0.39771202333939432 0.42607355241084272 0 0.39928769088185417 0.43404157643466651 0 0.40642249345516829 0.42562759921429938 0 0.39771202333939432 0.42607355241084272 0 0.39710324339784708 0.41787131914898318 0 0.40642249345516829 0.42562759921429938 0 0.39994480347689809 0.40489545850624642 0 0.39073829541388372 0.41203459677763221 0 0.39710324339784708 0.41787131914898318 0 0.3912981224140748 0.40365895130830109 0 0.39994480347689809 0.40489545850624642 0 0.39073829541388372 0.41203459677763221 0 0.38812157347951692 0.41634261581135867 0 0.39073829541388372 0.41203459677763221 0 0.39710324339784708 0.41787131914898318 0 0.39008051923288539 0.42098683729747471 0 0.38812157347951692 0.41634261581135867 0 0.39710324339784708 0.41787131914898318 0 0.39008051923288539 0.42098683729747471 0 0.39268743449439891 0.42497572137276701 0 0.39710324339784708 0.41787131914898318 0 0.39710324339784708 0.41787131914898318 0 0.40909856139530471 0.41361776864058691 0 0.40642249345516829 0.42562759921429938 0 0.39994480347689809 0.40489545850624642 0 0.39710324339784708 0.41787131914898318 0 0.40909856139530471 0.41361776864058691 0 0.40909856139530471 0.41361776864058691 0 0.42121699456133033 0.41727777708025521 0 0.41216475972663652 0.40095491534922428 0 0.39994480347689809 0.40489545850624642 0 0.40909856139530471 0.41361776864058691 0 0.41216475972663652 0.40095491534922428 0 0.40909856139530471 0.41361776864058691 0 0.42121699456133033 0.41727777708025521 0 0.40642249345516829 0.42562759921429938 0 0.42121699456133033 0.41727777708025521 0 0.41449956307747371 0.44071595595828139 0 0.42121699456133033 0.41727777708025521 0 0.40642249345516829 0.42562759921429938 0 0.41449956307747371 0.44071595595828139 0 0.39928769088185417 0.43404157643466651 0 0.40642249345516829 0.42562759921429938 0 0.41449956307747371 0.44071595595828139 0 0.42121699456133033 0.41727777708025521 0 0.4422017425939449 0.43340617911246082 0 0.41449956307747371 0.44071595595828139 0 0.42121699456133033 0.41727777708025521 0 0.44293134884969848 0.40550237948764012 0 0.4422017425939449 0.43340617911246082 0 0.42121699456133033 0.41727777708025521 0 0.42793442604518689 0.39383959820222891 0 0.42121699456133033 0.41727777708025521 0 0.42793442604518689 0.39383959820222891 0 0.44293134884969848 0.40550237948764012 0 0.42121699456133033 0.41727777708025521 0 0.42793442604518689 0.39383959820222891 0 0.41216475972663652 0.40095491534922428 0 0.40288013692533969 0.39261244172780219 0 0.41216475972663652 0.40095491534922428 0 0.4112767860263663 0.3837296095992162 0 0.42793442604518689 0.39383959820222891 0 0.41216475972663652 0.40095491534922428 0 0.4112767860263663 0.3837296095992162 0 0.41926782994084189 0.37048062969864032 0 0.42793442604518689 0.39383959820222891 0 0.4112767860263663 0.3837296095992162 0 0.43465185752904362 0.37040141932420267 0 0.42793442604518689 0.39383959820222891 0 0.44436403254004958 0.38742474434941232 0 0.43465185752904362 0.37040141932420267 0 0.42793442604518689 0.39383959820222891 0 0.43465185752904362 0.37040141932420267 0 0.41926782994084189 0.37048062969864032 0 0.42793442604518689 0.39383959820222891 0 0.45832888777211861 0.37357039074514359 0 0.43465185752904362 0.37040141932420267 0 0.44436403254004958 0.38742474434941232 0 0.44436403254004958 0.38742474434941232 0 0.44293134884969848 0.40550237948764012 0 0.45817469707066788 0.39155457122929788 0 0.42793442604518689 0.39383959820222891 0 0.44436403254004958 0.38742474434941232 0 0.44293134884969848 0.40550237948764012 0 0.44293134884969848 0.40550237948764012 0 0.45817469707066788 0.39155457122929788 0 0.46202519009941728 0.41203657935035443 0 0.45817469707066788 0.39155457122929788 0 0.47520317719160537 0.39135958972514778 0 0.46202519009941728 0.41203657935035443 0 0.45832888777211861 0.37357039074514359 0 0.44436403254004958 0.38742474434941232 0 0.45817469707066788 0.39155457122929788 0 0.45832888777211861 0.37357039074514359 0 0.45817469707066788 0.39155457122929788 0 0.47520317719160537 0.39135958972514778 0 0.47487757160471339 0.36684242788360172 0 0.45832888777211861 0.37357039074514359 0 0.47520317719160537 0.39135958972514778 0 0.47487757160471339 0.36684242788360172 0 0.47520317719160537 0.39135958972514778 0 0.50000000000005995 0.38273093172812273 0 0.47520317719160537 0.39135958972514778 0 0.48203797871599119 0.41431103576770839 0 0.46202519009941728 0.41203657935035443 0 0.47520317719160537 0.39135958972514778 0 0.5 0.40487947590545031 0 0.48203797871599119 0.41431103576770839 0 0.47520317719160537 0.39135958972514778 0 0.5 0.40487947590545031 0 0.50000000000005995 0.38273093172812273 0 0.49999999999999972 0.42702802008277779 0 0.48203797871599119 0.41431103576770839 0 0.47296152628893368 0.43625151377481219 0 0.5 0.40487947590545031 0 0.49999999999999972 0.42702802008277779 0 0.48203797871599119 0.41431103576770839 0 0.48203797871599119 0.41431103576770839 0 0.47296152628893368 0.43625151377481219 0 0.46202519009941728 0.41203657935035443 0 0.47296152628893368 0.43625151377481219 0 0.46202519009941728 0.41203657935035443 0 0.4422017425939449 0.43340617911246082 0 0.44293134884969848 0.40550237948764012 0 0.46202519009941728 0.41203657935035443 0 0.4422017425939449 0.43340617911246082 0 0.49999999999999972 0.42702802008277779 0 0.49568899835080388 0.4520326513265609 0 0.5 0.5 0 0.4422017425939449 0.43340617911246082 0 0.45407521106489818 0.4580785619644428 0 0.43047066545383639 0.45813444294329042 0 0.45407521106489818 0.4580785619644428 0 0.44304068737837199 0.47499981826008159 0 0.43047066545383639 0.45813444294329042 0 0.45407521106489818 0.4580785619644428 0 0.47609156487309923 0.46064668657297031 0 0.46757251012826101 0.47828118956673737 0 0.47296152628893368 0.43625151377481219 0 0.45407521106489818 0.4580785619644428 0 0.47609156487309923 0.46064668657297031 0 0.47296152628893368 0.43625151377481219 0 0.4422017425939449 0.43340617911246082 0 0.45407521106489818 0.4580785619644428 0 0.47296152628893368 0.43625151377481219 0 0.47609156487309923 0.46064668657297031 0 0.49568899835080388 0.4520326513265609 0 0.47609156487309923 0.46064668657297031 0 0.49568899835080388 0.4520326513265609 0 0.49137799670160842 0.47703728257034422 0 0.49568899835080388 0.4520326513265609 0 0.49137799670160842 0.47703728257034422 0 0.49999999999999972 0.42702802008277779 0 0.49568899835080388 0.4520326513265609 0 0.49999999999999972 0.42702802008277779 0 0.47296152628893368 0.43625151377481219 0 0.49568899835080388 0.4520326513265609 0 0.5 0.5 0 0.49137799670160842 0.47703728257034422 0 0.46757251012826101 0.47828118956673737 0 0.49568899835080388 0.4520326513265609 0 0.5 0.5 0 0.49137799670160842 0.47703728257034422 0 0.5 0.5 0 0.46757251012826101 0.47828118956673737 0 0.44244668127060421 0.5 0 0.47609156487309923 0.46064668657297031 0 0.49137799670160842 0.47703728257034422 0 0.46757251012826101 0.47828118956673737 0 0.45407521106489818 0.4580785619644428 0 0.46757251012826101 0.47828118956673737 0 0.44304068737837199 0.47499981826008159 0 0.46757251012826101 0.47828118956673737 0 0.44304068737837199 0.47499981826008159 0 0.44244668127060421 0.5 0 0.44244668127060421 0.5 0 0.42063836897425999 0.48050489682593722 0 0.40001321947388191 0.5 0 0.44304068737837199 0.47499981826008159 0 0.44244668127060421 0.5 0 0.42063836897425999 0.48050489682593722 0 0.42063836897425999 0.48050489682593722 0 0.40001321947388191 0.5 0 0.40106470010976042 0.48759231371433398 0 0.42063836897425999 0.48050489682593722 0 0.40778213159361698 0.46415413483630769 0 0.40106470010976042 0.48759231371433398 0 0.44304068737837199 0.47499981826008159 0 0.42063836897425999 0.48050489682593722 0 0.43047066545383639 0.45813444294329042 0 0.4422017425939449 0.43340617911246082 0 0.43047066545383639 0.45813444294329042 0 0.41449956307747371 0.44071595595828139 0 0.41449956307747371 0.44071595595828139 0 0.40778213159361698 0.46415413483630769 0 0.39800911172251291 0.44598079987528633 0 0.41449956307747371 0.44071595595828139 0 0.40778213159361698 0.46415413483630769 0 0.43047066545383639 0.45813444294329042 0 0.41449956307747371 0.44071595595828139 0 0.40778213159361698 0.46415413483630769 0 0.42063836897425999 0.48050489682593722 0 0.43047066545383639 0.45813444294329042 0 0.40778213159361698 0.46415413483630769 0 0.40778213159361698 0.46415413483630769 0 0.39518714014003281 0.45834952796058559 0 0.39205095540219048 0.46995463011874938 0 0.40778213159361698 0.46415413483630769 0 0.39518714014003281 0.45834952796058559 0 0.39800911172251291 0.44598079987528633 0 0.39928769088185417 0.43404157643466651 0 0.41449956307747371 0.44071595595828139 0 0.39800911172251291 0.44598079987528633 0 0.39518714014003281 0.45834952796058559 0 0.39800911172251291 0.44598079987528633 0 0.38290636184181059 0.45330854701199919 0 0.39800911172251291 0.44598079987528633 0 0.39272825508208781 0.43912082233727068 0 0.38290636184181059 0.45330854701199919 0 0.39928769088185417 0.43404157643466651 0 0.39800911172251291 0.44598079987528633 0 0.39272825508208781 0.43912082233727068 0 0.38885135810156318 0.42987865616330112 0 0.38290636184181059 0.45330854701199919 0 0.38885135810156318 0.42987865616330112 0 0.39272825508208781 0.43912082233727068 0 0.38290636184181059 0.45330854701199919 0 0.371406667489523 0.45325243744220262 0 0.38885135810156318 0.42987865616330112 0 0.371406667489523 0.45325243744220262 0 0.38885135810156318 0.42987865616330112 0 0.37641264948563857 0.43879189168167221 0 0.371406667489523 0.45325243744220262 0 0.38885135810156318 0.42987865616330112 0 0.38290636184181059 0.45330854701199919 0 0.38290636184181059 0.45330854701199919 0 0.37581590065307707 0.47665427350599948 0 0.39205095540219048 0.46995463011874938 0 0.38290636184181059 0.45330854701199919 0 0.37581590065307707 0.47665427350599948 0 0.371406667489523 0.45325243744220262 0 0.38290636184181059 0.45330854701199919 0 0.37581590065307707 0.47665427350599948 0 0.39518714014003281 0.45834952796058559 0 0.38290636184181059 0.45330854701199919 0 0.39205095540219048 0.46995463011874938 0 0.39015656029970369 0.48116514730171311 0 0.37581590065307707 0.47665427350599948 0 0.39205095540219048 0.46995463011874938 0 0.36872543946434377 0.49999999999999978 0 0.38715516400015337 0.48908234690440933 0 0.40001321947388191 0.5 0 0.39015656029970369 0.48116514730171311 0 0.37581590065307707 0.47665427350599948 0 0.38715516400015337 0.48908234690440933 0 0.36872543946434377 0.49999999999999978 0 0.37581590065307707 0.47665427350599948 0 0.38715516400015337 0.48908234690440933 0 0.39015656029970369 0.48116514730171311 0 0.38715516400015337 0.48908234690440933 0 0.40106470010976042 0.48759231371433398 0 0.38715516400015337 0.48908234690440933 0 0.40001321947388191 0.5 0 0.40106470010976042 0.48759231371433398 0 0.40778213159361698 0.46415413483630769 0 0.40106470010976042 0.48759231371433398 0 0.40778213159361698 0.46415413483630769 0 0.40106470010976042 0.48759231371433398 0 0.39205095540219048 0.46995463011874938 0 0.39015656029970369 0.48116514730171311 0 0.40106470010976042 0.48759231371433398 0 0.39205095540219048 0.46995463011874938 0 0.32905454669554501 0.0823323865454368 0 0.34622888586919048 0.093406336345824459 0 0.32905454669554501 0.0823323865454368 0 0.34622888586919048 0.093406336345824459 0 0.34420847382981962 0.069999416717579407 0 0.32905454669554501 0.0823323865454368 0 0.3360546583371094 0.10293904178827321 0 0.34622888586919048 0.093406336345824459 0 0.32905454669554501 0.0823323865454368 0 0.32812707637845728 0.064916156673187064 0 0.34420847382981962 0.069999416717579407 0 0.32905454669554501 0.0823323865454368 0 0.32812707637845728 0.064916156673187064 0 0.31188020752190132 0.071258436745046477 0 0.32812707637845728 0.064916156673187064 0 0.31228385103323281 0.057623867950669858 0 0.31188020752190132 0.071258436745046477 0 0.32905454669554501 0.0823323865454368 0 0.31188020752190132 0.071258436745046477 0 0.32905454669554501 0.0823323865454368 0 0.32198618039493349 0.098613013548918785 0 0.31134557035029709 0.089317806192789326 0 0.32905454669554501 0.0823323865454368 0 0.31134557035029709 0.089317806192789326 0 0.31188020752190132 0.071258436745046477 0 0.32198618039493349 0.098613013548918785 0 0.31134557035029709 0.089317806192789326 0 0.31081093317869168 0.1073771756405322 0 0.32198618039493349 0.098613013548918785 0 0.32329052865912128 0.1102523374222372 0 0.31081093317869168 0.1073771756405322 0 0.32198618039493349 0.098613013548918785 0 0.32329052865912128 0.1102523374222372 0 0.3360546583371094 0.10293904178827321 0 0.31559167464284232 0.123044627944753 0 0.33200919674203011 0.11928782818870901 0 0.32569961032314548 0.12835702268635399 0 0.31559167464284232 0.123044627944753 0 0.31081093317869168 0.1073771756405322 0 0.31559167464284232 0.123044627944753 0 0.32329052865912128 0.1102523374222372 0 0.31081093317869168 0.1073771756405322 0 0.31559167464284232 0.123044627944753 0 0.32329052865912128 0.1102523374222372 0 0.33200919674203011 0.11928782818870901 0 0.33200919674203011 0.11928782818870901 0 0.33503075672802762 0.1302712812960625 0 0.34781472307741568 0.1251045208525651 0 0.33200919674203011 0.11928782818870901 0 0.3360546583371094 0.10293904178827321 0 0.34865579363131283 0.1105694033966063 0 0.33200919674203011 0.11928782818870901 0 0.34865579363131283 0.1105694033966063 0 0.34781472307741568 0.1251045208525651 0 0.32329052865912128 0.1102523374222372 0 0.33200919674203011 0.11928782818870901 0 0.3360546583371094 0.10293904178827321 0 0.3360546583371094 0.10293904178827321 0 0.34865579363131283 0.1105694033966063 0 0.34622888586919048 0.093406336345824459 0 0.32905454669554501 0.0823323865454368 0 0.32198618039493349 0.098613013548918785 0 0.3360546583371094 0.10293904178827321 0 0.3360546583371094 0.10293904178827321 0 0.34622888586919048 0.093406336345824459 0 0.34865579363131283 0.1105694033966063 0 0.36542442725442481 0.1057835497886303 0 0.34622888586919048 0.093406336345824459 0 0.36542442725442481 0.1057835497886303 0 0.34622888586919048 0.093406336345824459 0 0.34865579363131283 0.1105694033966063 0 0.36414654832261212 0.12010568056767031 0 0.34781472307741568 0.1251045208525651 0 0.36414654832261212 0.12010568056767031 0 0.36542442725442481 0.1057835497886303 0 0.38461996863965919 0.11816076323143609 0 0.34865579363131283 0.1105694033966063 0 0.36414654832261212 0.12010568056767031 0 0.36542442725442481 0.1057835497886303 0 0.36414654832261212 0.12010568056767031 0 0.37585872713941748 0.12899361726949149 0 0.38461996863965919 0.11816076323143609 0 0.36542442725442481 0.1057835497886303 0 0.37037046505733062 0.091571452996378755 0 0.34622888586919048 0.093406336345824459 0 0.36542442725442481 0.1057835497886303 0 0.37037046505733062 0.091571452996378755 0 0.38058561072847208 0.1010884701334934 0 0.37037046505733062 0.091571452996378755 0 0.36175937329236091 0.078855102700231314 0 0.38615375983951827 0.084982740472958812 0 0.37037046505733062 0.091571452996378755 0 0.36175937329236091 0.078855102700231314 0 0.34622888586919048 0.093406336345824459 0 0.36175937329236091 0.078855102700231314 0 0.34622888586919048 0.093406336345824459 0 0.36175937329236091 0.078855102700231314 0 0.34622888586919048 0.093406336345824459 0 0.34420847382981962 0.069999416717579407 0 0.36175937329236091 0.078855102700231314 0 0.34420847382981962 0.069999416717579407 0 0.35730062330154511 0.058670535513477021 0 0.36175937329236091 0.078855102700231314 0 0.35730062330154511 0.058670535513477021 0 0.37728986071553139 0.064303869054638335 0 0.36175937329236091 0.078855102700231314 0 0.37728986071553139 0.064303869054638335 0 0.37007815628130181 0.04747945503363421 0 0.35730062330154511 0.058670535513477021 0 0.37728986071553139 0.064303869054638335 0 0.37007815628130181 0.04747945503363421 0 0.37728986071553139 0.064303869054638335 0 0.37007815628130181 0.04747945503363421 0 0.35210808291738349 0.040715602423584039 0 0.35730062330154511 0.058670535513477021 0 0.37007815628130181 0.04747945503363421 0 0.3628664518470715 0.03065504101263029 0 0.37007815628130181 0.04747945503363421 0 0.36807075579568171 0.035280461535851827 0 0.3628664518470715 0.03065504101263029 0 0.37007815628130181 0.04747945503363421 0 0.35210808291738349 0.040715602423584039 0 0.3628664518470715 0.03065504101263029 0 0.36807075579568171 0.035280461535851827 0 0.3698806047767127 0.026221660986605898 0 0.37538406237130462 0.033742578557273729 0 0.37007815628130181 0.04747945503363421 0 0.36807075579568171 0.035280461535851827 0 0.37538406237130462 0.033742578557273729 0 0.36807075579568171 0.035280461535851827 0 0.3628664518470715 0.03065504101263029 0 0.35210808291738349 0.040715602423584039 0 0.35730062330154511 0.058670535513477021 0 0.33835979277287359 0.050669767151194929 0 0.34420847382981962 0.069999416717579407 0 0.35730062330154511 0.058670535513477021 0 0.33835979277287359 0.050669767151194929 0 0.37480627682858808 0.0031980373757327469 0 0.36241500556449779 0.014719436543187 0 0.36021918312170298 -0.0013012598410329409 0 0.37480627682858808 0.0031980373757327469 0 0.36241500556449779 0.014719436543187 0 0.37460238038227051 0.0162511377823619 0 0.36241500556449779 0.014719436543187 0 0.3698806047767127 0.026221660986605898 0 0.3628664518470715 0.03065504101263029 0 0.36241500556449779 0.014719436543187 0 0.37460238038227051 0.0162511377823619 0 0.3698806047767127 0.026221660986605898 0 0.36807075579568171 0.035280461535851827 0 0.3698806047767127 0.026221660986605898 0 0.3628664518470715 0.03065504101263029 0 0.36241500556449779 0.014719436543187 0 0.3628664518470715 0.03065504101263029 0 0.34805552624384911 0.01749155941557046 0 0.35210808291738349 0.040715602423584039 0 0.34805552624384911 0.01749155941557046 0 0.33873617913756288 0.032522560164373139 0 0.35210808291738349 0.040715602423584039 0 0.3628664518470715 0.03065504101263029 0 0.34805552624384911 0.01749155941557046 0 0.3628664518470715 0.03065504101263029 0 0.34805552624384911 0.01749155941557046 0 0.36241500556449779 0.014719436543187 0 0.34958724295074289 0.0051500888515663718 0 0.36021918312170298 -0.0013012598410329409 0 0.36241500556449779 0.014719436543187 0 0.34805552624384911 0.01749155941557046 0 0.34958724295074289 0.0051500888515663718 0 0.34805552624384911 0.01749155941557046 0 0.34958724295074289 0.0051500888515663718 0 0.33324460064062689 0.0043280778185103008 0 0.34958724295074289 0.0051500888515663718 0 0.33324460064062689 0.0043280778185103008 0 0.34485758809323902 -0.0063515813176417864 0 0.34805552624384911 0.01749155941557046 0 0.33324460064062689 0.0043280778185103008 0 0.33142984996001412 0.023195204513640089 0 0.34805552624384911 0.01749155941557046 0 0.33324460064062689 0.0043280778185103008 0 0.34805552624384911 0.01749155941557046 0 0.33142984996001412 0.023195204513640089 0 0.33873617913756288 0.032522560164373139 0 0.33142984996001412 0.023195204513640089 0 0.33873617913756288 0.032522560164373139 0 0.32490429878868349 0.037960437896999683 0 0.33324460064062689 0.0043280778185103008 0 0.33142984996001412 0.023195204513640089 0 0.31220864498934781 0.023673387272746999 0 0.33142984996001412 0.023195204513640089 0 0.32490429878868349 0.037960437896999683 0 0.31220864498934781 0.023673387272746999 0 0.33324460064062689 0.0043280778185103008 0 0.3064831655415996 0.0035408580798193248 0 0.31220864498934781 0.023673387272746999 0 0.33324460064062689 0.0043280778185103008 0 0.3064831655415996 0.0035408580798193248 0 0.32011842708006022 -0.0073380495210770384 0 0.33324460064062689 0.0043280778185103008 0 0.31220864498934781 0.023673387272746999 0 0.32812707637845728 0.064916156673187064 0 0.34420847382981962 0.069999416717579407 0 0.33835979277287359 0.050669767151194929 0 0.33835979277287359 0.050669767151194929 0 0.32490429878868349 0.037960437896999683 0 0.32360834860575849 0.052626758746878589 0 0.32812707637845728 0.064916156673187064 0 0.33835979277287359 0.050669767151194929 0 0.32360834860575849 0.052626758746878589 0 0.33835979277287359 0.050669767151194929 0 0.33873617913756288 0.032522560164373139 0 0.32490429878868349 0.037960437896999683 0 0.35210808291738349 0.040715602423584039 0 0.33835979277287359 0.050669767151194929 0 0.33873617913756288 0.032522560164373139 0 0.32490429878868349 0.037960437896999683 0 0.30934599828268328 0.045109512608314653 0 0.31220864498934781 0.023673387272746999 0 0.32490429878868349 0.037960437896999683 0 0.32360834860575849 0.052626758746878589 0 0.30934599828268328 0.045109512608314653 0 0.32812707637845728 0.064916156673187064 0 0.32360834860575849 0.052626758746878589 0 0.31228385103323281 0.057623867950669858 0 0.32360834860575849 0.052626758746878589 0 0.31228385103323281 0.057623867950669858 0 0.30934599828268328 0.045109512608314653 0 0.31228385103323281 0.057623867950669858 0 0.30934599828268328 0.045109512608314653 0 0.29682820556884693 0.061552962063423818 0 0.30934599828268328 0.045109512608314653 0 0.29117268933806761 0.043018696726982643 0 0.29682820556884693 0.061552962063423818 0 0.30934599828268328 0.045109512608314653 0 0.29117268933806761 0.043018696726982643 0 0.31220864498934781 0.023673387272746999 0 0.29117268933806761 0.043018696726982643 0 0.31220864498934781 0.023673387272746999 0 0.29072360804110919 0.041546966901476738 0 0.29117268933806761 0.043018696726982643 0 0.31220864498934781 0.023673387272746999 0 0.29072360804110919 0.041546966901476738 0 0.31220864498934781 0.023673387272746999 0 0.28746187282507929 0.030974342765741191 0 0.29072360804110919 0.041546966901476738 0 0.29117268933806761 0.043018696726982643 0 0.29072360804110919 0.041546966901476738 0 0.28577783235089949 0.038102740695007173 0 0.28746187282507929 0.030974342765741191 0 0.28746187282507929 0.030974342765741191 0 0.27837681189404762 0.032669827226693253 0 0.28043729349388052 0.037619035516238901 0 0.28577783235089949 0.038102740695007173 0 0.28746187282507929 0.030974342765741191 0 0.28043729349388052 0.037619035516238901 0 0.29117268933806761 0.043018696726982643 0 0.28448855504352921 0.042270617596571872 0 0.28165635497851099 0.051770209427781037 0 0.28448855504352921 0.042270617596571872 0 0.28165635497851099 0.051770209427781037 0 0.27879187877705341 0.041850310016732777 0 0.29072360804110919 0.041546966901476738 0 0.29117268933806761 0.043018696726982643 0 0.28448855504352921 0.042270617596571872 0 0.29072360804110919 0.041546966901476738 0 0.28577783235089949 0.038102740695007173 0 0.28448855504352921 0.042270617596571872 0 0.28577783235089949 0.038102740695007173 0 0.28448855504352921 0.042270617596571872 0 0.28043729349388052 0.037619035516238901 0 0.29117268933806761 0.043018696726982643 0 0.28165635497851099 0.051770209427781037 0 0.28165635497851099 0.051770209427781037 0 0.29682820556884693 0.061552962063423818 0 0.27673283310078028 0.056298031025635603 0 0.29117268933806761 0.043018696726982643 0 0.29682820556884693 0.061552962063423818 0 0.29117268933806761 0.043018696726982643 0 0.28165635497851099 0.051770209427781037 0 0.29682820556884693 0.061552962063423818 0 0.28165635497851099 0.051770209427781037 0 0.29682820556884693 0.061552962063423818 0 0.3064831655415996 0.0035408580798193248 0 0.31220864498934781 0.023673387272746999 0 0.28792761025986668 0.016095430959990751 0 0.31220864498934781 0.023673387272746999 0 0.28746187282507929 0.030974342765741191 0 0.28792761025986668 0.016095430959990751 0 0.28746187282507929 0.030974342765741191 0 0.28792761025986668 0.016095430959990751 0 0.27657588519530751 0.026417974027711549 0 0.3064831655415996 0.0035408580798193248 0 0.28792761025986668 0.016095430959990751 0 0.28873231997852122 -0.0063046073450654539 0 0.28792761025986668 0.016095430959990751 0 0.27307428835555619 0.00094827631979207375 0 0.28873231997852122 -0.0063046073450654539 0 0.28792761025986668 0.016095430959990751 0 0.27307428835555619 0.00094827631979207375 0 0.2672522383333264 0.01918689913096441 0 0.28792761025986668 0.016095430959990751 0 0.2672522383333264 0.01918689913096441 0 0.27657588519530751 0.026417974027711549 0 0.28746187282507929 0.030974342765741191 0 0.27657588519530751 0.026417974027711549 0 0.27837681189404762 0.032669827226693253 0 0.27657588519530751 0.026417974027711549 0 0.27837681189404762 0.032669827226693253 0 0.27204025407308352 0.03220032542867074 0 0.27657588519530751 0.026417974027711549 0 0.26686503386698651 0.027912596856790369 0 0.27204025407308352 0.03220032542867074 0 0.2672522383333264 0.01918689913096441 0 0.27657588519530751 0.026417974027711549 0 0.26686503386698651 0.027912596856790369 0 0.2672522383333264 0.01918689913096441 0 0.26686503386698651 0.027912596856790369 0 0.2599159833581588 0.028137115688799289 0 0.26686503386698651 0.027912596856790369 0 0.2599159833581588 0.028137115688799289 0 0.26296880309489268 0.032839449476985257 0 0.2599159833581588 0.028137115688799289 0 0.25209714781426379 0.022458788874029259 0 0.25883750361173818 0.037056699231949902 0 0.24526532840516679 0.015266776627792109 0 0.25209714781426379 0.022458788874029259 0 0.25634390475142949 0.01089092479112733 0 0.2672522383333264 0.01918689913096441 0 0.25209714781426379 0.022458788874029259 0 0.25634390475142949 0.01089092479112733 0 0.2672522383333264 0.01918689913096441 0 0.2599159833581588 0.028137115688799289 0 0.25209714781426379 0.022458788874029259 0 0.2460242461399256 0.0072150772703729093 0 0.25634390475142949 0.01089092479112733 0 0.25849374409069992 -0.005900680933409494 0 0.27307428835555619 0.00094827631979207375 0 0.2672522383333264 0.01918689913096441 0 0.25634390475142949 0.01089092479112733 0 0.27307428835555619 0.00094827631979207375 0 0.25634390475142949 0.01089092479112733 0 0.25849374409069992 -0.005900680933409494 0 0.28165635497851099 0.051770209427781037 0 0.26771105139785711 0.050061408069823773 0 0.26224648875598988 0.040552119656841509 0 0.26771105139785711 0.050061408069823773 0 0.26832057658322328 0.058823361889454653 0 0.26247692129079042 0.052320646697599671 0 0.26771105139785711 0.050061408069823773 0 0.26832057658322328 0.058823361889454653 0 0.27360520401509281 0.054238252603173637 0 0.26832057658322328 0.058823361889454653 0 0.27673283310078028 0.056298031025635603 0 0.27360520401509281 0.054238252603173637 0 0.26832057658322328 0.058823361889454653 0 0.27673283310078028 0.056298031025635603 0 0.27096524466699368 0.06630178426841439 0 0.28165635497851099 0.051770209427781037 0 0.27673283310078028 0.056298031025635603 0 0.27360520401509281 0.054238252603173637 0 0.28165635497851099 0.051770209427781037 0 0.26771105139785711 0.050061408069823773 0 0.27360520401509281 0.054238252603173637 0 0.28165635497851099 0.051770209427781037 0 0.27673283310078028 0.056298031025635603 0 0.28165635497851099 0.051770209427781037 0 0.27879187877705341 0.041850310016732777 0 0.27222808132317122 0.040895392089651247 0 0.28165635497851099 0.051770209427781037 0 0.27222808132317122 0.040895392089651247 0 0.25883750361173818 0.037056699231949902 0 0.28165635497851099 0.051770209427781037 0 0.26224648875598988 0.040552119656841509 0 0.25883750361173818 0.037056699231949902 0 0.28165635497851099 0.051770209427781037 0 0.25883750361173818 0.037056699231949902 0 0.28448855504352921 0.042270617596571872 0 0.27879187877705341 0.041850310016732777 0 0.28043729349388052 0.037619035516238901 0 0.27879187877705341 0.041850310016732777 0 0.27514910904617551 0.036696295453421388 0 0.27222808132317122 0.040895392089651247 0 0.27879187877705341 0.041850310016732777 0 0.28043729349388052 0.037619035516238901 0 0.27514910904617551 0.036696295453421388 0 0.27837681189404762 0.032669827226693253 0 0.28043729349388052 0.037619035516238901 0 0.27514910904617551 0.036696295453421388 0 0.27837681189404762 0.032669827226693253 0 0.27514910904617551 0.036696295453421388 0 0.27204025407308352 0.03220032542867074 0 0.27514910904617551 0.036696295453421388 0 0.27204025407308352 0.03220032542867074 0 0.27170649141792819 0.03624527349178934 0 0.27204025407308352 0.03220032542867074 0 0.27170649141792819 0.03624527349178934 0 0.26740852122928271 0.035189080995413971 0 0.27514910904617551 0.036696295453421388 0 0.27170649141792819 0.03624527349178934 0 0.27222808132317122 0.040895392089651247 0 0.27170649141792819 0.03624527349178934 0 0.26740852122928271 0.035189080995413971 0 0.27222808132317122 0.040895392089651247 0 0.26740852122928271 0.035189080995413971 0 0.27222808132317122 0.040895392089651247 0 0.26536072731477123 0.036495155448500093 0 0.26686503386698651 0.027912596856790369 0 0.27204025407308352 0.03220032542867074 0 0.26740852122928271 0.035189080995413971 0 0.26686503386698651 0.027912596856790369 0 0.26740852122928271 0.035189080995413971 0 0.26296880309489268 0.032839449476985257 0 0.23944726530807009 0.030414907465600341 0 0.26224648875598988 0.040552119656841509 0 0.23944726530807009 0.030414907465600341 0 0.26224648875598988 0.040552119656841509 0 0.25883750361173818 0.037056699231949902 0 0.23944726530807009 0.030414907465600341 0 0.26224648875598988 0.040552119656841509 0 0.25369717739999781 0.041563117502220318 0 0.26224648875598988 0.040552119656841509 0 0.25829482279967281 0.044415592672823398 0 0.25369717739999781 0.041563117502220318 0 0.26771105139785711 0.050061408069823773 0 0.26224648875598988 0.040552119656841509 0 0.26150876157344971 0.047088066638559072 0 0.25829482279967281 0.044415592672823398 0 0.25572686346925377 0.048459066893672673 0 0.26150876157344971 0.047088066638559072 0 0.26224648875598988 0.040552119656841509 0 0.25829482279967281 0.044415592672823398 0 0.26150876157344971 0.047088066638559072 0 0.2599159833581588 0.028137115688799289 0 0.26296880309489268 0.032839449476985257 0 0.25883750361173818 0.037056699231949902 0 0.27222808132317122 0.040895392089651247 0 0.26536072731477123 0.036495155448500093 0 0.25883750361173818 0.037056699231949902 0 0.26740852122928271 0.035189080995413971 0 0.26296880309489268 0.032839449476985257 0 0.26536072731477123 0.036495155448500093 0 0.26296880309489268 0.032839449476985257 0 0.26536072731477123 0.036495155448500093 0 0.25883750361173818 0.037056699231949902 0 0.25829482279967281 0.044415592672823398 0 0.25369717739999781 0.041563117502220318 0 0.25572686346925377 0.048459066893672673 0 0.2492340547003716 0.04657055823419224 0 0.24732092605318759 0.040161049639019203 0 0.25369717739999781 0.041563117502220318 0 0.2492340547003716 0.04657055823419224 0 0.25369717739999781 0.041563117502220318 0 0.25572686346925377 0.048459066893672673 0 0.25080331219919311 0.05444439867926347 0 0.25572686346925377 0.048459066893672673 0 0.25911735343016828 0.057171329996488253 0 0.2492340547003716 0.04657055823419224 0 0.25080331219919311 0.05444439867926347 0 0.25572686346925377 0.048459066893672673 0 0.25572686346925377 0.048459066893672673 0 0.26247692129079042 0.052320646697599671 0 0.25911735343016828 0.057171329996488253 0 0.25572686346925377 0.048459066893672673 0 0.26150876157344971 0.047088066638559072 0 0.26247692129079042 0.052320646697599671 0 0.26771105139785711 0.050061408069823773 0 0.26150876157344971 0.047088066638559072 0 0.26247692129079042 0.052320646697599671 0 0.26832057658322328 0.058823361889454653 0 0.26247692129079042 0.052320646697599671 0 0.25911735343016828 0.057171329996488253 0 0.25911735343016828 0.057171329996488253 0 0.25421356650296129 0.06235942859459697 0 0.26332262524840838 0.064257286307606298 0 0.26832057658322328 0.058823361889454653 0 0.25911735343016828 0.057171329996488253 0 0.26332262524840838 0.064257286307606298 0 0.25080331219919311 0.05444439867926347 0 0.25911735343016828 0.057171329996488253 0 0.25421356650296129 0.06235942859459697 0 0.24764588888505529 0.069224192746603921 0 0.25421356650296129 0.06235942859459697 0 0.26321392809827132 0.075704392059437256 0 0.24826261394935639 0.087820904606765754 0 0.24764588888505529 0.069224192746603921 0 0.26321392809827132 0.075704392059437256 0 0.25421356650296129 0.06235942859459697 0 0.26321392809827132 0.075704392059437256 0 0.26332262524840838 0.064257286307606298 0 0.24826261394935639 0.087820904606765754 0 0.26321392809827132 0.075704392059437256 0 0.26298924529445522 0.094510181868348225 0 0.26321392809827132 0.075704392059437256 0 0.27914114915795829 0.093652217626134307 0 0.27948046689424871 0.071980403357666201 0 0.26321392809827132 0.075704392059437256 0 0.27914114915795829 0.093652217626134307 0 0.26298924529445522 0.094510181868348225 0 0.27914114915795829 0.093652217626134307 0 0.27948046689424871 0.071980403357666201 0 0.26321392809827132 0.075704392059437256 0 0.27948046689424871 0.071980403357666201 0 0.27096524466699368 0.06630178426841439 0 0.27673283310078028 0.056298031025635603 0 0.27948046689424871 0.071980403357666201 0 0.27096524466699368 0.06630178426841439 0 0.26321392809827132 0.075704392059437256 0 0.26332262524840838 0.064257286307606298 0 0.27096524466699368 0.06630178426841439 0 0.26832057658322328 0.058823361889454653 0 0.26332262524840838 0.064257286307606298 0 0.27096524466699368 0.06630178426841439 0 0.29682820556884693 0.061552962063423818 0 0.27948046689424871 0.071980403357666201 0 0.28921422182453049 0.082971369219794686 0 0.29682820556884693 0.061552962063423818 0 0.28921422182453049 0.082971369219794686 0 0.30381956937376992 0.084465068851977756 0 0.29682820556884693 0.061552962063423818 0 0.27673283310078028 0.056298031025635603 0 0.27948046689424871 0.071980403357666201 0 0.28921422182453049 0.082971369219794686 0 0.30381956937376992 0.084465068851977756 0 0.29524069673822428 0.09915962130933785 0 0.27914114915795829 0.093652217626134307 0 0.28921422182453049 0.082971369219794686 0 0.29524069673822428 0.09915962130933785 0 0.27914114915795829 0.093652217626134307 0 0.27948046689424871 0.071980403357666201 0 0.28921422182453049 0.082971369219794686 0 0.31134557035029709 0.089317806192789326 0 0.30381956937376992 0.084465068851977756 0 0.31081093317869168 0.1073771756405322 0 0.31134557035029709 0.089317806192789326 0 0.30381956937376992 0.084465068851977756 0 0.31188020752190132 0.071258436745046477 0 0.31134557035029709 0.089317806192789326 0 0.31188020752190132 0.071258436745046477 0 0.29682820556884693 0.061552962063423818 0 0.30381956937376992 0.084465068851977756 0 0.31188020752190132 0.071258436745046477 0 0.29682820556884693 0.061552962063423818 0 0.30381956937376992 0.084465068851977756 0 0.31228385103323281 0.057623867950669858 0 0.31188020752190132 0.071258436745046477 0 0.31228385103323281 0.057623867950669858 0 0.29682820556884693 0.061552962063423818 0 0.31188020752190132 0.071258436745046477 0 0.29682820556884693 0.061552962063423818 0 0.31188020752190132 0.071258436745046477 0 0.31081093317869168 0.1073771756405322 0 0.31000975859121871 0.134439842876699 0 0.31081093317869168 0.1073771756405322 0 0.29578727500953239 0.11739568701269611 0 0.30294555896111269 0.13048021080052841 0 0.31081093317869168 0.1073771756405322 0 0.31000975859121871 0.134439842876699 0 0.30294555896111269 0.13048021080052841 0 0.31559167464284232 0.123044627944753 0 0.31081093317869168 0.1073771756405322 0 0.31000975859121871 0.134439842876699 0 0.30381956937376992 0.084465068851977756 0 0.31081093317869168 0.1073771756405322 0 0.29524069673822428 0.09915962130933785 0 0.31081093317869168 0.1073771756405322 0 0.29524069673822428 0.09915962130933785 0 0.29578727500953239 0.11739568701269611 0 0.30381956937376992 0.084465068851977756 0 0.31081093317869168 0.1073771756405322 0 0.31134557035029709 0.089317806192789326 0 0.31081093317869168 0.1073771756405322 0 0.27914114915795829 0.093652217626134307 0 0.29524069673822428 0.09915962130933785 0 0.27880183142166792 0.1153240318946024 0 0.29524069673822428 0.09915962130933785 0 0.29578727500953239 0.11739568701269611 0 0.27880183142166792 0.1153240318946024 0 0.29578727500953239 0.11739568701269611 0 0.27880183142166792 0.1153240318946024 0 0.28677257603897233 0.12628739413014611 0 0.29578727500953239 0.11739568701269611 0 0.29463446305030289 0.12925017087956689 0 0.28677257603897233 0.12628739413014611 0 0.27880183142166792 0.1153240318946024 0 0.25892535450455162 0.11016600802682711 0 0.26958809505974712 0.13251111144688821 0 0.27914114915795829 0.093652217626134307 0 0.27880183142166792 0.1153240318946024 0 0.27914114915795829 0.093652217626134307 0 0.27880183142166792 0.1153240318946024 0 0.26298924529445522 0.094510181868348225 0 0.27880183142166792 0.1153240318946024 0 0.26298924529445522 0.094510181868348225 0 0.25892535450455162 0.11016600802682711 0 0.2481760255475001 0.11340651702638881 0 0.24826261394935639 0.087820904606765754 0 0.25892535450455162 0.11016600802682711 0 0.24826261394935639 0.087820904606765754 0 0.26298924529445522 0.094510181868348225 0 0.25892535450455162 0.11016600802682711 0 0.24826261394935639 0.087820904606765754 0 0.25892535450455162 0.11016600802682711 0 0.2481760255475001 0.11340651702638881 0 0.25154645537559212 0.12680556658031389 0 0.26958809505974712 0.13251111144688821 0 0.2481760255475001 0.11340651702638881 0 0.25892535450455162 0.11016600802682711 0 0.26958809505974712 0.13251111144688821 0 0.25892535450455162 0.11016600802682711 0 0.26958809505974712 0.13251111144688821 0 0.2481760255475001 0.11340651702638881 0 0.26958809505974712 0.13251111144688821 0 0.24872066338327919 0.13577790065814091 0 0.27159392266414029 0.13671457349595509 0 0.24872066338327919 0.13577790065814091 0 0.27159392266414029 0.13671457349595509 0 0.26193045453824387 0.14513264251946401 0 0.24872066338327919 0.13577790065814091 0 0.26958809505974712 0.13251111144688821 0 0.27159392266414029 0.13671457349595509 0 0.24872066338327919 0.13577790065814091 0 0.25154645537559212 0.12680556658031389 0 0.26958809505974712 0.13251111144688821 0 0.27880183142166792 0.1153240318946024 0 0.27846251368538028 0.13699584616307051 0 0.27880183142166792 0.1153240318946024 0 0.26958809505974712 0.13251111144688821 0 0.27846251368538028 0.13699584616307051 0 0.27159392266414029 0.13671457349595509 0 0.27442939471562883 0.136830687671915 0 0.26958809505974712 0.13251111144688821 0 0.27442939471562883 0.136830687671915 0 0.26958809505974712 0.13251111144688821 0 0.27159392266414029 0.13671457349595509 0 0.27442939471562883 0.136830687671915 0 0.26958809505974712 0.13251111144688821 0 0.27159392266414029 0.13671457349595509 0 0.27840949830125328 0.14038187475877831 0 0.27846251368538028 0.13699584616307051 0 0.28673905553335077 0.14156772464037409 0 0.26958809505974712 0.13251111144688821 0 0.27442939471562883 0.136830687671915 0 0.27846251368538028 0.13699584616307051 0 0.27442939471562883 0.136830687671915 0 0.27840949830125328 0.14038187475877831 0 0.27846251368538028 0.13699584616307051 0 0.27442939471562883 0.136830687671915 0 0.27840949830125328 0.14038187475877831 0 0.27159392266414029 0.13671457349595509 0 0.27442939471562883 0.136830687671915 0 0.27840949830125328 0.14038187475877831 0 0.27442939471562883 0.136830687671915 0 0.27846251368538028 0.13699584616307051 0 0.27840949830125328 0.14038187475877831 0 0.27846251368538028 0.13699584616307051 0 0.27159392266414029 0.13671457349595509 0 0.280729205408706 0.15585869846479791 0 0.27827593971460779 0.14891210048580369 0 0.27159392266414029 0.13671457349595509 0 0.280729205408706 0.15585869846479791 0 0.27102566128629568 0.14923769377963331 0 0.27159392266414029 0.13671457349595509 0 0.280729205408706 0.15585869846479791 0 0.280729205408706 0.15585869846479791 0 0.27102566128629568 0.14923769377963331 0 0.27227611485633818 0.15668977075705129 0 0.27840949830125328 0.14038187475877831 0 0.27827593971460779 0.14891210048580369 0 0.27159392266414029 0.13671457349595509 0 0.27840949830125328 0.14038187475877831 0 0.27827593971460779 0.14891210048580369 0 0.27159392266414029 0.13671457349595509 0 0.27102566128629568 0.14923769377963331 0 0.26193045453824387 0.14513264251946401 0 0.27102566128629568 0.14923769377963331 0 0.26519479146429908 0.15401098827672799 0 0.26193045453824387 0.14513264251946401 0 0.27102566128629568 0.14923769377963331 0 0.26519479146429908 0.15401098827672799 0 0.27227611485633818 0.15668977075705129 0 0.26519479146429908 0.15401098827672799 0 0.26193045453824387 0.14513264251946401 0 0.25311723389320517 0.1499220563868657 0 0.24872066338327919 0.13577790065814091 0 0.26193045453824387 0.14513264251946401 0 0.25311723389320517 0.1499220563868657 0 0.24994860219843351 0.1613072979125138 0 0.25311723389320517 0.1499220563868657 0 0.25993221918850717 0.16524017374737721 0 0.25356783726751297 0.16874646607368279 0 0.25993221918850717 0.16524017374737721 0 0.25771529887286532 0.1764326662148078 0 0.24994860219843351 0.1613072979125138 0 0.25356783726751297 0.16874646607368279 0 0.25993221918850717 0.16524017374737721 0 0.24667522881024631 0.17200572642003251 0 0.24994860219843351 0.1613072979125138 0 0.25356783726751297 0.16874646607368279 0 0.25993221918850717 0.16524017374737721 0 0.26803261536068429 0.16221288608691981 0 0.26777065247896381 0.17048638892551321 0 0.25993221918850717 0.16524017374737721 0 0.25771529887286532 0.1764326662148078 0 0.26777065247896381 0.17048638892551321 0 0.26519479146429908 0.15401098827672799 0 0.25993221918850717 0.16524017374737721 0 0.26803261536068429 0.16221288608691981 0 0.26519479146429908 0.15401098827672799 0 0.25311723389320517 0.1499220563868657 0 0.25993221918850717 0.16524017374737721 0 0.24667522881024631 0.17200572642003251 0 0.25771529887286532 0.1764326662148078 0 0.25663206842899322 0.18944739470039451 0 0.24667522881024631 0.17200572642003251 0 0.25356783726751297 0.16874646607368279 0 0.25771529887286532 0.1764326662148078 0 0.25771529887286532 0.1764326662148078 0 0.27037197656934131 0.18037863366479001 0 0.26777065247896381 0.17048638892551321 0 0.25771529887286532 0.1764326662148078 0 0.27037197656934131 0.18037863366479001 0 0.25663206842899322 0.18944739470039451 0 0.27037197656934131 0.18037863366479001 0 0.25663206842899322 0.18944739470039451 0 0.27899011185430278 0.19064478053045911 0 0.27037197656934131 0.18037863366479001 0 0.27452267288853421 0.17416961948571069 0 0.26777065247896381 0.17048638892551321 0 0.27037197656934131 0.18037863366479001 0 0.28067699569295068 0.17935524197964589 0 0.27452267288853421 0.17416961948571069 0 0.28067699569295068 0.17935524197964589 0 0.27452267288853421 0.17416961948571069 0 0.27498929881531342 0.1646371087279295 0 0.27037197656934131 0.18037863366479001 0 0.28067699569295068 0.17935524197964589 0 0.27899011185430278 0.19064478053045911 0 0.26519479146429908 0.15401098827672799 0 0.26803261536068429 0.16221288608691981 0 0.27227611485633818 0.15668977075705129 0 0.26803261536068429 0.16221288608691981 0 0.27227611485633818 0.15668977075705129 0 0.27498929881531342 0.1646371087279295 0 0.26803261536068429 0.16221288608691981 0 0.26777065247896381 0.17048638892551321 0 0.27498929881531342 0.1646371087279295 0 0.27452267288853421 0.17416961948571069 0 0.26777065247896381 0.17048638892551321 0 0.27498929881531342 0.1646371087279295 0 0.280729205408706 0.15585869846479791 0 0.27227611485633818 0.15668977075705129 0 0.27498929881531342 0.1646371087279295 0 0.280729205408706 0.15585869846479791 0 0.29141624486447221 0.16321433370314781 0 0.28986448815327842 0.1750028234336376 0 0.280729205408706 0.15585869846479791 0 0.29141624486447221 0.16321433370314781 0 0.29307851554331882 0.15347008301425191 0 0.280729205408706 0.15585869846479791 0 0.27498929881531342 0.1646371087279295 0 0.28986448815327842 0.1750028234336376 0 0.280729205408706 0.15585869846479791 0 0.28986448815327842 0.1750028234336376 0 0.29620677898438819 0.17082602470061661 0 0.29141624486447221 0.16321433370314781 0 0.28986448815327842 0.1750028234336376 0 0.29620677898438819 0.17082602470061661 0 0.29141624486447221 0.16321433370314781 0 0.29747671885707921 0.16080873536630799 0 0.29141624486447221 0.16321433370314781 0 0.29747671885707921 0.16080873536630799 0 0.29307851554331882 0.15347008301425191 0 0.28067699569295068 0.17935524197964589 0 0.27498929881531342 0.1646371087279295 0 0.29594738234212659 0.18330385819941181 0 0.28067699569295068 0.17935524197964589 0 0.29594738234212659 0.18330385819941181 0 0.27899011185430278 0.19064478053045911 0 0.27498929881531342 0.1646371087279295 0 0.28986448815327842 0.1750028234336376 0 0.29594738234212659 0.18330385819941181 0 0.27498929881531342 0.1646371087279295 0 0.29594738234212659 0.18330385819941181 0 0.29620677898438819 0.17082602470061661 0 0.28986448815327842 0.1750028234336376 0 0.29594738234212659 0.18330385819941181 0 0.29594738234212659 0.18330385819941181 0 0.30268822278643809 0.17483252981613509 0 0.30848904411178307 0.18388630452106461 0 0.29620677898438819 0.17082602470061661 0 0.29594738234212659 0.18330385819941181 0 0.30268822278643809 0.17483252981613509 0 0.31038303147328999 0.17669335359689239 0 0.30683332630728088 0.17043541561262879 0 0.31190434157621783 0.16853589902734589 0 0.30268822278643809 0.17483252981613509 0 0.31038303147328999 0.17669335359689239 0 0.30848904411178307 0.18388630452106461 0 0.30268822278643809 0.17483252981613509 0 0.31038303147328999 0.17669335359689239 0 0.30683332630728088 0.17043541561262879 0 0.31038303147328999 0.17669335359689239 0 0.30848904411178307 0.18388630452106461 0 0.31652111808812111 0.18263117332198989 0 0.3029271617213477 0.16001593077304541 0 0.29747671885707921 0.16080873536630799 0 0.3027198030847571 0.1666919714830262 0 0.3029271617213477 0.16001593077304541 0 0.29747671885707921 0.16080873536630799 0 0.29912076031251189 0.1538700629883645 0 0.29620677898438819 0.17082602470061661 0 0.30268822278643809 0.17483252981613509 0 0.3027198030847571 0.1666919714830262 0 0.30268822278643809 0.17483252981613509 0 0.3027198030847571 0.1666919714830262 0 0.30683332630728088 0.17043541561262879 0 0.29620677898438819 0.17082602470061661 0 0.29747671885707921 0.16080873536630799 0 0.3027198030847571 0.1666919714830262 0 0.3027198030847571 0.1666919714830262 0 0.30683332630728088 0.17043541561262879 0 0.30909234938543151 0.16542876894101219 0 0.30683332630728088 0.17043541561262879 0 0.31190434157621783 0.16853589902734589 0 0.30909234938543151 0.16542876894101219 0 0.3029271617213477 0.16001593077304541 0 0.30909234938543151 0.16542876894101219 0 0.30471070109031212 0.15452001186825801 0 0.30909234938543151 0.16542876894101219 0 0.31343532190358969 0.15727473385452229 0 0.31266917056137788 0.16055126226728131 0 0.30909234938543151 0.16542876894101219 0 0.31139781682433099 0.1501087095237188 0 0.31343532190358969 0.15727473385452229 0 0.3029271617213477 0.16001593077304541 0 0.3027198030847571 0.1666919714830262 0 0.30909234938543151 0.16542876894101219 0 0.30909234938543151 0.16542876894101219 0 0.31139781682433099 0.1501087095237188 0 0.30989598224457449 0.13828306438746291 0 0.30909234938543151 0.16542876894101219 0 0.30607146315776701 0.1477571386483427 0 0.30989598224457449 0.13828306438746291 0 0.30909234938543151 0.16542876894101219 0 0.30989598224457449 0.13828306438746291 0 0.30909234938543151 0.16542876894101219 0 0.30471070109031212 0.15452001186825801 0 0.30607146315776701 0.1477571386483427 0 0.3029271617213477 0.16001593077304541 0 0.30471070109031212 0.15452001186825801 0 0.29912076031251189 0.1538700629883645 0 0.30471070109031212 0.15452001186825801 0 0.30171957789385162 0.14883463889563259 0 0.29912076031251189 0.1538700629883645 0 0.30471070109031212 0.15452001186825801 0 0.30171957789385162 0.14883463889563259 0 0.30607146315776701 0.1477571386483427 0 0.30171957789385162 0.14883463889563259 0 0.29912076031251189 0.1538700629883645 0 0.29606912817255437 0.14651579361680989 0 0.30367481552086989 0.14163077324029891 0 0.30089482014948538 0.1437313687675392 0 0.29417924796497752 0.13763945527526669 0 0.30089482014948538 0.1437313687675392 0 0.29417924796497752 0.13763945527526669 0 0.29606912817255437 0.14651579361680989 0 0.30171957789385162 0.14883463889563259 0 0.30089482014948538 0.1437313687675392 0 0.29606912817255437 0.14651579361680989 0 0.30171957789385162 0.14883463889563259 0 0.30089482014948538 0.1437313687675392 0 0.30607146315776701 0.1477571386483427 0 0.30367481552086989 0.14163077324029891 0 0.30089482014948538 0.1437313687675392 0 0.30607146315776701 0.1477571386483427 0 0.31139781682433099 0.1501087095237188 0 0.30989598224457449 0.13828306438746291 0 0.31536062988618468 0.1432127405880676 0 0.30367481552086989 0.14163077324029891 0 0.30607146315776701 0.1477571386483427 0 0.30989598224457449 0.13828306438746291 0 0.30989598224457449 0.13828306438746291 0 0.31000975859121871 0.134439842876699 0 0.317415647403268 0.1385909989068568 0 0.30989598224457449 0.13828306438746291 0 0.29417924796497752 0.13763945527526669 0 0.30367481552086989 0.14163077324029891 0 0.30989598224457449 0.13828306438746291 0 0.29417924796497752 0.13763945527526669 0 0.30989598224457449 0.13828306438746291 0 0.30294555896111269 0.13048021080052841 0 0.29417924796497752 0.13763945527526669 0 0.30989598224457449 0.13828306438746291 0 0.31000975859121871 0.134439842876699 0 0.30989598224457449 0.13828306438746291 0 0.31000975859121871 0.134439842876699 0 0.30294555896111269 0.13048021080052841 0 0.31000975859121871 0.134439842876699 0 0.30294555896111269 0.13048021080052841 0 0.29578727500953239 0.11739568701269611 0 0.30294555896111269 0.13048021080052841 0 0.29463446305030289 0.12925017087956689 0 0.30294555896111269 0.13048021080052841 0 0.29417924796497752 0.13763945527526669 0 0.29463446305030289 0.12925017087956689 0 0.27846251368538028 0.13699584616307051 0 0.29417924796497752 0.13763945527526669 0 0.28677257603897233 0.12628739413014611 0 0.27846251368538028 0.13699584616307051 0 0.29417924796497752 0.13763945527526669 0 0.27880183142166792 0.1153240318946024 0 0.27846251368538028 0.13699584616307051 0 0.28677257603897233 0.12628739413014611 0 0.27846251368538028 0.13699584616307051 0 0.29417924796497752 0.13763945527526669 0 0.28673905553335077 0.14156772464037409 0 0.29417924796497752 0.13763945527526669 0 0.29463446305030289 0.12925017087956689 0 0.28677257603897233 0.12628739413014611 0 0.27840949830125328 0.14038187475877831 0 0.29307851554331882 0.15347008301425191 0 0.27840949830125328 0.14038187475877831 0 0.27827593971460779 0.14891210048580369 0 0.29307851554331882 0.15347008301425191 0 0.27840949830125328 0.14038187475877831 0 0.28673905553335077 0.14156772464037409 0 0.29307851554331882 0.15347008301425191 0 0.280729205408706 0.15585869846479791 0 0.27827593971460779 0.14891210048580369 0 0.29307851554331882 0.15347008301425191 0 0.29747671885707921 0.16080873536630799 0 0.29912076031251189 0.1538700629883645 0 0.29307851554331882 0.15347008301425191 0 0.29912076031251189 0.1538700629883645 0 0.29307851554331882 0.15347008301425191 0 0.29606912817255437 0.14651579361680989 0 0.28673905553335077 0.14156772464037409 0 0.29307851554331882 0.15347008301425191 0 0.29606912817255437 0.14651579361680989 0 0.29417924796497752 0.13763945527526669 0 0.28673905553335077 0.14156772464037409 0 0.29606912817255437 0.14651579361680989 0 0.2687004239312582 0.24721405446465969 0 0.26538942648906821 0.23435311806590631 0 0.28289499620843578 0.24542439300037641 0 0.26538942648906821 0.23435311806590631 0 0.28289499620843578 0.24542439300037641 0 0.26538942648906821 0.23435311806590631 0 0.28429136169364932 0.2320673712148929 0 0.28289499620843578 0.24542439300037641 0 0.24593745411386941 0.25080307675381758 0 0.25914522553967001 0.25786063265476722 0 0.25682219590317362 0.23538912417433799 0 0.25914522553967001 0.25786063265476722 0 0.2687004239312582 0.24721405446465969 0 0.25682219590317362 0.23538912417433799 0 0.25914522553967001 0.25786063265476722 0 0.25682219590317362 0.23538912417433799 0 0.25682219590317362 0.23538912417433799 0 0.26538942648906821 0.23435311806590631 0 0.2687004239312582 0.24721405446465969 0 0.25682219590317362 0.23538912417433799 0 0.26538942648906821 0.23435311806590631 0 0.2499389031119412 0.21702608832033521 0 0.25528684535841301 0.22053712132212669 0 0.26902508528251462 0.2253192832897698 0 0.25682219590317362 0.23538912417433799 0 0.26538942648906821 0.23435311806590631 0 0.25610829828986881 0.2284833335549307 0 0.26538942648906821 0.23435311806590631 0 0.25610829828986881 0.2284833335549307 0 0.26902508528251462 0.2253192832897698 0 0.26538942648906821 0.23435311806590631 0 0.25610829828986881 0.2284833335549307 0 0.2499389031119412 0.21702608832033521 0 0.26902508528251462 0.2253192832897698 0 0.25682219590317362 0.23538912417433799 0 0.25610829828986881 0.2284833335549307 0 0.24261614427577269 0.22861017724595589 0 0.25682219590317362 0.23538912417433799 0 0.25610829828986881 0.2284833335549307 0 0.25610829828986881 0.2284833335549307 0 0.25528684535841301 0.22053712132212669 0 0.2499389031119412 0.21702608832033521 0 0.25610829828986881 0.2284833335549307 0 0.25528684535841301 0.22053712132212669 0 0.25610829828986881 0.2284833335549307 0 0.25528684535841301 0.22053712132212669 0 0.26902508528251462 0.2253192832897698 0 0.26538942648906821 0.23435311806590631 0 0.28429136169364932 0.2320673712148929 0 0.26538942648906821 0.23435311806590631 0 0.26902508528251462 0.2253192832897698 0 0.28429136169364932 0.2320673712148929 0 0.26902508528251462 0.2253192832897698 0 0.28349988901850259 0.22031818753858831 0 0.28429136169364932 0.2320673712148929 0 0.26902508528251462 0.2253192832897698 0 0.25740724183813612 0.20911016629243959 0 0.28349988901850259 0.22031818753858831 0 0.25740724183813612 0.20911016629243959 0 0.28349988901850259 0.22031818753858831 0 0.27996763539886449 0.21308622369575081 0 0.25740724183813612 0.20911016629243959 0 0.28349988901850259 0.22031818753858831 0 0.27996763539886449 0.21308622369575081 0 0.25740724183813612 0.20911016629243959 0 0.26829985191392769 0.20126680919807391 0 0.27996763539886449 0.21308622369575081 0 0.27841842749605827 0.20363078835592771 0 0.26829985191392769 0.20126680919807391 0 0.27996763539886449 0.21308622369575081 0 0.26829985191392769 0.20126680919807391 0 0.2499389031119412 0.21702608832033521 0 0.26902508528251462 0.2253192832897698 0 0.25740724183813612 0.20911016629243959 0 0.25663206842899322 0.18944739470039451 0 0.26829985191392769 0.20126680919807391 0 0.25740724183813612 0.20911016629243959 0 0.25663206842899322 0.18944739470039451 0 0.26829985191392769 0.20126680919807391 0 0.25663206842899322 0.18944739470039451 0 0.26829985191392769 0.20126680919807391 0 0.27899011185430278 0.19064478053045911 0 0.25663206842899322 0.18944739470039451 0 0.27899011185430278 0.19064478053045911 0 0.27841842749605827 0.20363078835592771 0 0.27899011185430278 0.19064478053045911 0 0.28525454249377857 0.20116541104204089 0 0.27841842749605827 0.20363078835592771 0 0.26829985191392769 0.20126680919807391 0 0.27899011185430278 0.19064478053045911 0 0.27899011185430278 0.19064478053045911 0 0.29486768350551201 0.20018449741587471 0 0.30134815527961228 0.19184216636052609 0 0.29594738234212659 0.18330385819941181 0 0.27899011185430278 0.19064478053045911 0 0.30134815527961228 0.19184216636052609 0 0.27899011185430278 0.19064478053045911 0 0.28525454249377857 0.20116541104204089 0 0.29486768350551201 0.20018449741587471 0 0.27899011185430278 0.19064478053045911 0 0.30134815527961228 0.19184216636052609 0 0.29594738234212659 0.18330385819941181 0 0.30848904411178307 0.18388630452106461 0 0.3169054658689397 0.201970607670894 0 0.29594738234212659 0.18330385819941181 0 0.3169054658689397 0.201970607670894 0 0.29594738234212659 0.18330385819941181 0 0.30134815527961228 0.19184216636052609 0 0.3169054658689397 0.201970607670894 0 0.30134815527961228 0.19184216636052609 0 0.30427555299258419 0.20305176293555599 0 0.3169054658689397 0.201970607670894 0 0.29486768350551201 0.20018449741587471 0 0.30134815527961228 0.19184216636052609 0 0.30427555299258419 0.20305176293555599 0 0.29486768350551201 0.20018449741587471 0 0.30427555299258419 0.20305176293555599 0 0.29925467721854748 0.20955915266587069 0 0.30427555299258419 0.20305176293555599 0 0.29925467721854748 0.20955915266587069 0 0.30785615092391028 0.21215207032936831 0 0.30427555299258419 0.20305176293555599 0 0.30785615092391028 0.21215207032936831 0 0.3169054658689397 0.201970607670894 0 0.30785615092391028 0.21215207032936831 0 0.30782511950858898 0.22386418521151299 0 0.31305050417534652 0.21877895898115821 0 0.30785615092391028 0.21215207032936831 0 0.302208172159319 0.21558576631603241 0 0.30782511950858898 0.22386418521151299 0 0.29925467721854748 0.20955915266587069 0 0.302208172159319 0.21558576631603241 0 0.29841259338481191 0.21840044342265319 0 0.29925467721854748 0.20955915266587069 0 0.30785615092391028 0.21215207032936831 0 0.302208172159319 0.21558576631603241 0 0.29841259338481191 0.21840044342265319 0 0.28809516620504422 0.20954916001917789 0 0.28349988901850259 0.22031818753858831 0 0.29925467721854748 0.20955915266587069 0 0.29841259338481191 0.21840044342265319 0 0.28809516620504422 0.20954916001917789 0 0.29486768350551201 0.20018449741587471 0 0.29925467721854748 0.20955915266587069 0 0.28809516620504422 0.20954916001917789 0 0.28525454249377857 0.20116541104204089 0 0.29486768350551201 0.20018449741587471 0 0.28809516620504422 0.20954916001917789 0 0.27996763539886449 0.21308622369575081 0 0.27841842749605827 0.20363078835592771 0 0.28809516620504422 0.20954916001917789 0 0.27841842749605827 0.20363078835592771 0 0.28525454249377857 0.20116541104204089 0 0.28809516620504422 0.20954916001917789 0 0.27996763539886449 0.21308622369575081 0 0.28809516620504422 0.20954916001917789 0 0.28349988901850259 0.22031818753858831 0 0.28349988901850259 0.22031818753858831 0 0.30959253619887028 0.23152620878473429 0 0.28349988901850259 0.22031818753858831 0 0.28429136169364932 0.2320673712148929 0 0.30959253619887028 0.23152620878473429 0 0.29841259338481191 0.21840044342265319 0 0.28349988901850259 0.22031818753858831 0 0.30959253619887028 0.23152620878473429 0 0.302208172159319 0.21558576631603241 0 0.29841259338481191 0.21840044342265319 0 0.30782511950858898 0.22386418521151299 0 0.29841259338481191 0.21840044342265319 0 0.30782511950858898 0.22386418521151299 0 0.30959253619887028 0.23152620878473429 0 0.30782511950858898 0.22386418521151299 0 0.30959253619887028 0.23152620878473429 0 0.31305050417534652 0.21877895898115821 0 0.30782511950858898 0.22386418521151299 0 0.30959253619887028 0.23152620878473429 0 0.30959253619887028 0.23152620878473429 0 0.31374933592302778 0.24954657582701539 0 0.28429136169364932 0.2320673712148929 0 0.30959253619887028 0.23152620878473429 0 0.29818575919035839 0.2430120433523715 0 0.30959253619887028 0.23152620878473429 0 0.29818575919035839 0.2430120433523715 0 0.31374933592302778 0.24954657582701539 0 0.30040056592781039 0.25649566793483558 0 0.29818575919035839 0.2430120433523715 0 0.31374933592302778 0.24954657582701539 0 0.30040056592781039 0.25649566793483558 0 0.29818575919035839 0.2430120433523715 0 0.28289499620843578 0.24542439300037641 0 0.28429136169364932 0.2320673712148929 0 0.29818575919035839 0.2430120433523715 0 0.28289499620843578 0.24542439300037641 0 0.35473596424337228 0.25091743793635379 0 0.33216425022112078 0.2412218233605454 0 0.30959253619887028 0.23152620878473429 0 0.33216425022112078 0.2412218233605454 0 0.30959253619887028 0.23152620878473429 0 0.33216425022112078 0.2412218233605454 0 0.31374933592302778 0.24954657582701539 0 0.30959253619887028 0.23152620878473429 0 0.33216425022112078 0.2412218233605454 0 0.32307324837642409 0.22438172290927841 0 0.30959253619887028 0.23152620878473429 0 0.31305050417534652 0.21877895898115821 0 0.32307324837642409 0.22438172290927841 0 0.33216425022112078 0.2412218233605454 0 0.32307324837642409 0.22438172290927841 0 0.3378635493957528 0.22063735714237631 0 0.33216425022112078 0.2412218233605454 0 0.3378635493957528 0.22063735714237631 0 0.35882163292256603 0.23930410661385859 0 0.3378635493957528 0.22063735714237631 0 0.33305797824297889 0.20042606675438149 0 0.34485047399849778 0.20427841985970549 0 0.3378635493957528 0.22063735714237631 0 0.3169054658689397 0.201970607670894 0 0.33305797824297889 0.20042606675438149 0 0.3378635493957528 0.22063735714237631 0 0.3169054658689397 0.201970607670894 0 0.32307324837642409 0.22438172290927841 0 0.3378635493957528 0.22063735714237631 0 0.3169054658689397 0.201970607670894 0 0.31305050417534652 0.21877895898115821 0 0.32307324837642409 0.22438172290927841 0 0.3169054658689397 0.201970607670894 0 0.30785615092391028 0.21215207032936831 0 0.31305050417534652 0.21877895898115821 0 0.3169054658689397 0.201970607670894 0 0.30848904411178307 0.18388630452106461 0 0.3169054658689397 0.201970607670894 0 0.31652111808812111 0.18263117332198989 0 0.3169054658689397 0.201970607670894 0 0.31652111808812111 0.18263117332198989 0 0.32829084240179263 0.1861970365233088 0 0.3169054658689397 0.201970607670894 0 0.33305797824297889 0.20042606675438149 0 0.32829084240179263 0.1861970365233088 0 0.33305797824297889 0.20042606675438149 0 0.34099300693250428 0.18905104550565499 0 0.32829084240179263 0.1861970365233088 0 0.33305797824297889 0.20042606675438149 0 0.34099300693250428 0.18905104550565499 0 0.34485047399849778 0.20427841985970549 0 0.34099300693250428 0.18905104550565499 0 0.35679443775085429 0.19308347229996209 0 0.34485047399849778 0.20427841985970549 0 0.35679443775085429 0.19308347229996209 0 0.35612644232257101 0.21109475706346431 0 0.34485047399849778 0.20427841985970549 0 0.35679443775085429 0.19308347229996209 0 0.3701185899909375 0.20348024966937611 0 0.35612644232257101 0.21109475706346431 0 0.37140898874287248 0.1898983747553398 0 0.3701185899909375 0.20348024966937611 0 0.38076034118712693 0.19447227765387801 0 0.35679443775085429 0.19308347229996209 0 0.37140898874287248 0.1898983747553398 0 0.3701185899909375 0.20348024966937611 0 0.3701185899909375 0.20348024966937611 0 0.36782724687136709 0.2190787901412396 0 0.37855760796187038 0.21334211847417231 0 0.3701185899909375 0.20348024966937611 0 0.35612644232257101 0.21109475706346431 0 0.36782724687136709 0.2190787901412396 0 0.35612644232257101 0.21109475706346431 0 0.35786423906537279 0.22489862619569001 0 0.36782724687136709 0.2190787901412396 0 0.3378635493957528 0.22063735714237631 0 0.35612644232257101 0.21109475706346431 0 0.34485047399849778 0.20427841985970549 0 0.3378635493957528 0.22063735714237631 0 0.35882163292256603 0.23930410661385859 0 0.3378635493957528 0.22063735714237631 0 0.35612644232257101 0.21109475706346431 0 0.35786423906537279 0.22489862619569001 0 0.3378635493957528 0.22063735714237631 0 0.35786423906537279 0.22489862619569001 0 0.35882163292256603 0.23930410661385859 0 0.35786423906537279 0.22489862619569001 0 0.36782724687136709 0.2190787901412396 0 0.3679952916036815 0.23043463274902609 0 0.36782724687136709 0.2190787901412396 0 0.3679952916036815 0.23043463274902609 0 0.37904258622743731 0.228248223693509 0 0.3679952916036815 0.23043463274902609 0 0.3764207529316641 0.24064341710083359 0 0.37904258622743731 0.228248223693509 0 0.35786423906537279 0.22489862619569001 0 0.3679952916036815 0.23043463274902609 0 0.35882163292256603 0.23930410661385859 0 0.37977971644938008 0.25797085608533982 0 0.35882163292256603 0.23930410661385859 0 0.3764207529316641 0.24064341710083359 0 0.3679952916036815 0.23043463274902609 0 0.35882163292256603 0.23930410661385859 0 0.3764207529316641 0.24064341710083359 0 0.37977971644938008 0.25797085608533982 0 0.35882163292256603 0.23930410661385859 0 0.35473596424337228 0.25091743793635379 0 0.37977971644938008 0.25797085608533982 0 0.35882163292256603 0.23930410661385859 0 0.35473596424337228 0.25091743793635379 0 0.33216425022112078 0.2412218233605454 0 0.35882163292256603 0.23930410661385859 0 0.33892326838854853 0.15064647162772149 0 0.32093790388525478 0.1405652975502851 0 0.33892326838854853 0.15064647162772149 0 0.32264256035487721 0.1461518000067035 0 0.32454997713189532 0.15299183744973971 0 0.33892326838854853 0.15064647162772149 0 0.32093790388525478 0.1405652975502851 0 0.3492578373905611 0.13989495450370629 0 0.33892326838854853 0.15064647162772149 0 0.32454997713189532 0.15299183744973971 0 0.33188114697582982 0.1589644077039816 0 0.33503075672802762 0.1302712812960625 0 0.32037241610698569 0.13871208024897591 0 0.3492578373905611 0.13989495450370629 0 0.32037241610698569 0.13871208024897591 0 0.3492578373905611 0.13989495450370629 0 0.32037241610698569 0.13871208024897591 0 0.32093790388525478 0.1405652975502851 0 0.3492578373905611 0.13989495450370629 0 0.33200919674203011 0.11928782818870901 0 0.33503075672802762 0.1302712812960625 0 0.32569961032314548 0.12835702268635399 0 0.31559167464284232 0.123044627944753 0 0.32037241610698569 0.13871208024897591 0 0.317415647403268 0.1385909989068568 0 0.31559167464284232 0.123044627944753 0 0.32037241610698569 0.13871208024897591 0 0.31559167464284232 0.123044627944753 0 0.32037241610698569 0.13871208024897591 0 0.32569961032314548 0.12835702268635399 0 0.32037241610698569 0.13871208024897591 0 0.32093790388525478 0.1405652975502851 0 0.33503075672802762 0.1302712812960625 0 0.32037241610698569 0.13871208024897591 0 0.32569961032314548 0.12835702268635399 0 0.31559167464284232 0.123044627944753 0 0.31000975859121871 0.134439842876699 0 0.317415647403268 0.1385909989068568 0 0.32037241610698569 0.13871208024897591 0 0.32093790388525478 0.1405652975502851 0 0.317415647403268 0.1385909989068568 0 0.32093790388525478 0.1405652975502851 0 0.317415647403268 0.1385909989068568 0 0.32037241610698569 0.13871208024897591 0 0.317415647403268 0.1385909989068568 0 0.31000975859121871 0.134439842876699 0 0.317415647403268 0.1385909989068568 0 0.30989598224457449 0.13828306438746291 0 0.317415647403268 0.1385909989068568 0 0.30989598224457449 0.13828306438746291 0 0.317415647403268 0.1385909989068568 0 0.31536062988618468 0.1432127405880676 0 0.33892326838854853 0.15064647162772149 0 0.32093790388525478 0.1405652975502851 0 0.32264256035487721 0.1461518000067035 0 0.31139781682433099 0.1501087095237188 0 0.31536062988618468 0.1432127405880676 0 0.31758790711433371 0.14811852744187501 0 0.32093790388525478 0.1405652975502851 0 0.317415647403268 0.1385909989068568 0 0.31536062988618468 0.1432127405880676 0 0.32093790388525478 0.1405652975502851 0 0.31536062988618468 0.1432127405880676 0 0.31758790711433371 0.14811852744187501 0 0.32093790388525478 0.1405652975502851 0 0.32264256035487721 0.1461518000067035 0 0.32093790388525478 0.1405652975502851 0 0.31758790711433371 0.14811852744187501 0 0.32264256035487721 0.1461518000067035 0 0.32454997713189532 0.15299183744973971 0 0.31604625442682788 0.15426097528155869 0 0.32186466094680227 0.15958228889459131 0 0.31758790711433371 0.14811852744187501 0 0.32264256035487721 0.1461518000067035 0 0.32454997713189532 0.15299183744973971 0 0.31758790711433371 0.14811852744187501 0 0.32454997713189532 0.15299183744973971 0 0.31604625442682788 0.15426097528155869 0 0.31139781682433099 0.1501087095237188 0 0.31758790711433371 0.14811852744187501 0 0.31604625442682788 0.15426097528155869 0 0.31139781682433099 0.1501087095237188 0 0.31604625442682788 0.15426097528155869 0 0.31343532190358969 0.15727473385452229 0 0.31190434157621783 0.16853589902734589 0 0.32220786681287622 0.1743118636088424 0 0.33290089351585611 0.16929353927909691 0 0.31190434157621783 0.16853589902734589 0 0.31706871639988532 0.16400894889385009 0 0.33290089351585611 0.16929353927909691 0 0.31706871639988532 0.16400894889385009 0 0.32186466094680227 0.15958228889459131 0 0.33290089351585611 0.16929353927909691 0 0.31604625442682788 0.15426097528155869 0 0.31343532190358969 0.15727473385452229 0 0.31600299331008208 0.1592398245672105 0 0.31190434157621783 0.16853589902734589 0 0.33290089351585611 0.16929353927909691 0 0.30909234938543151 0.16542876894101219 0 0.31706871639988532 0.16400894889385009 0 0.31266917056137788 0.16055126226728131 0 0.31343532190358969 0.15727473385452229 0 0.31600299331008208 0.1592398245672105 0 0.31266917056137788 0.16055126226728131 0 0.31604625442682788 0.15426097528155869 0 0.31600299331008208 0.1592398245672105 0 0.32186466094680227 0.15958228889459131 0 0.31600299331008208 0.1592398245672105 0 0.31706871639988532 0.16400894889385009 0 0.32186466094680227 0.15958228889459131 0 0.31600299331008208 0.1592398245672105 0 0.31706871639988532 0.16400894889385009 0 0.31266917056137788 0.16055126226728131 0 0.31190434157621783 0.16853589902734589 0 0.30909234938543151 0.16542876894101219 0 0.31706871639988532 0.16400894889385009 0 0.32454997713189532 0.15299183744973971 0 0.32186466094680227 0.15958228889459131 0 0.33188114697582982 0.1589644077039816 0 0.32220786681287622 0.1743118636088424 0 0.32829084240179263 0.1861970365233088 0 0.33290089351585611 0.16929353927909691 0 0.31652111808812111 0.18263117332198989 0 0.31525408948762618 0.1755430723887676 0 0.32220786681287622 0.1743118636088424 0 0.31038303147328999 0.17669335359689239 0 0.31190434157621783 0.16853589902734589 0 0.31525408948762618 0.1755430723887676 0 0.31190434157621783 0.16853589902734589 0 0.31525408948762618 0.1755430723887676 0 0.32220786681287622 0.1743118636088424 0 0.31038303147328999 0.17669335359689239 0 0.31652111808812111 0.18263117332198989 0 0.31525408948762618 0.1755430723887676 0 0.31652111808812111 0.18263117332198989 0 0.32220786681287622 0.1743118636088424 0 0.32829084240179263 0.1861970365233088 0 0.34099300693250428 0.18905104550565499 0 0.33290089351585611 0.16929353927909691 0 0.34926858520432891 0.18004154547747819 0 0.34099300693250428 0.18905104550565499 0 0.32829084240179263 0.1861970365233088 0 0.33290089351585611 0.16929353927909691 0 0.33290089351585611 0.16929353927909691 0 0.35389744545549429 0.17005117953084789 0 0.32186466094680227 0.15958228889459131 0 0.33188114697582982 0.1589644077039816 0 0.33290089351585611 0.16929353927909691 0 0.33188114697582982 0.1589644077039816 0 0.33290089351585611 0.16929353927909691 0 0.34445880572774179 0.16185479378474499 0 0.33892326838854853 0.15064647162772149 0 0.33188114697582982 0.1589644077039816 0 0.34445880572774179 0.16185479378474499 0 0.33892326838854853 0.15064647162772149 0 0.34445880572774179 0.16185479378474499 0 0.35690863289184033 0.16072764570516121 0 0.33290089351585611 0.16929353927909691 0 0.34445880572774179 0.16185479378474499 0 0.35389744545549429 0.17005117953084789 0 0.34445880572774179 0.16185479378474499 0 0.35389744545549429 0.17005117953084789 0 0.35690863289184033 0.16072764570516121 0 0.33290089351585611 0.16929353927909691 0 0.35389744545549429 0.17005117953084789 0 0.34926858520432891 0.18004154547747819 0 0.34099300693250428 0.18905104550565499 0 0.35679443775085429 0.19308347229996209 0 0.34926858520432891 0.18004154547747819 0 0.35389744545549429 0.17005117953084789 0 0.34926858520432891 0.18004154547747819 0 0.36175714236693562 0.17872849077182901 0 0.35679443775085429 0.19308347229996209 0 0.34926858520432891 0.18004154547747819 0 0.36175714236693562 0.17872849077182901 0 0.36175714236693562 0.17872849077182901 0 0.38498847891869142 0.18410856532543449 0 0.37140898874287248 0.1898983747553398 0 0.36175714236693562 0.17872849077182901 0 0.38498847891869142 0.18410856532543449 0 0.35389744545549429 0.17005117953084789 0 0.36175714236693562 0.17872849077182901 0 0.37489399739513252 0.17080881978260001 0 0.36175714236693562 0.17872849077182901 0 0.37489399739513252 0.17080881978260001 0 0.38498847891869142 0.18410856532543449 0 0.35679443775085429 0.19308347229996209 0 0.37140898874287248 0.1898983747553398 0 0.36175714236693562 0.17872849077182901 0 0.35690863289184033 0.16072764570516121 0 0.37489399739513252 0.17080881978260001 0 0.35389744545549429 0.17005117953084789 0 0.35690863289184033 0.16072764570516121 0 0.37489399739513252 0.17080881978260001 0 0.35389744545549429 0.17005117953084789 0 0.37489399739513252 0.17080881978260001 0 0.35690863289184033 0.16072764570516121 0 0.37489399739513252 0.17080881978260001 0 0.36933311560578841 0.15480706154147589 0 0.36933311560578841 0.15480706154147589 0 0.3492578373905611 0.13989495450370629 0 0.37814325867413651 0.1410778287584348 0 0.35690863289184033 0.16072764570516121 0 0.36933311560578841 0.15480706154147589 0 0.3492578373905611 0.13989495450370629 0 0.33892326838854853 0.15064647162772149 0 0.35690863289184033 0.16072764570516121 0 0.3492578373905611 0.13989495450370629 0 0.33892326838854853 0.15064647162772149 0 0.35690863289184033 0.16072764570516121 0 0.36414654832261212 0.12010568056767031 0 0.34781472307741568 0.1251045208525651 0 0.36297899087577601 0.13309117480550031 0 0.33503075672802762 0.1302712812960625 0 0.34781472307741568 0.1251045208525651 0 0.3492578373905611 0.13989495450370629 0 0.34781472307741568 0.1251045208525651 0 0.3492578373905611 0.13989495450370629 0 0.36297899087577601 0.13309117480550031 0 0.34781472307741568 0.1251045208525651 0 0.36297899087577601 0.13309117480550031 0 0.3492578373905611 0.13989495450370629 0 0.37814325867413651 0.1410778287584348 0 0.3492578373905611 0.13989495450370629 0 0.36297899087577601 0.13309117480550031 0 0.37814325867413651 0.1410778287584348 0 0.36297899087577601 0.13309117480550031 0 0.37814325867413651 0.1410778287584348 0 0.36297899087577601 0.13309117480550031 0 0.37585872713941748 0.12899361726949149 0 0.37814325867413651 0.1410778287584348 0 0.36414654832261212 0.12010568056767031 0 0.36297899087577601 0.13309117480550031 0 0.37585872713941748 0.12899361726949149 0 0.38940486918490402 0.13253263898441661 0 0.40057715504213132 0.1419965094377437 0 0.37814325867413651 0.1410778287584348 0 0.37585872713941748 0.12899361726949149 0 0.38940486918490402 0.13253263898441661 0 0.37814325867413651 0.1410778287584348 0 0.37585872713941748 0.12899361726949149 0 0.38940486918490402 0.13253263898441661 0 0.38461996863965919 0.11816076323143609 0 0.38940486918490402 0.13253263898441661 0 0.40381551002489358 0.13053797667424191 0 0.38461996863965919 0.11816076323143609 0 0.40388155808749182 0.12634048330959971 0 0.40381551002489358 0.13053797667424191 0 0.38461996863965919 0.11816076323143609 0 0.38940486918490402 0.13253263898441661 0 0.40381551002489358 0.13053797667424191 0 0.40057715504213132 0.1419965094377437 0 0.40388155808749182 0.12634048330959971 0 0.40381551002489358 0.13053797667424191 0 0.41058958209479701 0.1216175239776997 0 0.40043463366268228 0.15281815809948571 0 0.40057715504213132 0.1419965094377437 0 0.37814325867413651 0.1410778287584348 0 0.40057715504213132 0.1419965094377437 0 0.37814325867413651 0.1410778287584348 0 0.40043463366268228 0.15281815809948571 0 0.37814325867413651 0.1410778287584348 0 0.38746185167727232 0.16152605895747671 0 0.36933311560578841 0.15480706154147589 0 0.37814325867413651 0.1410778287584348 0 0.38746185167727232 0.16152605895747671 0 0.40043463366268228 0.15281815809948571 0 0.37814325867413651 0.1410778287584348 0 0.37489399739513252 0.17080881978260001 0 0.36933311560578841 0.15480706154147589 0 0.38746185167727232 0.16152605895747671 0 0.37489399739513252 0.17080881978260001 0 0.39932797264496889 0.17169049612701881 0 0.37489399739513252 0.17080881978260001 0 0.38746185167727232 0.16152605895747671 0 0.39932797264496889 0.17169049612701881 0 0.37489399739513252 0.17080881978260001 0 0.38498847891869142 0.18410856532543449 0 0.3915569064327899 0.1801487298308197 0 0.37489399739513252 0.17080881978260001 0 0.3915569064327899 0.1801487298308197 0 0.39932797264496889 0.17169049612701881 0 0.37489399739513252 0.17080881978260001 0 0.3915569064327899 0.1801487298308197 0 0.39932797264496889 0.17169049612701881 0 0.40988362719734178 0.173942850289873 0 0.40821981547044728 0.18948863987903911 0 0.3915569064327899 0.1801487298308197 0 0.40821981547044728 0.18948863987903911 0 0.3915569064327899 0.1801487298308197 0 0.39932797264496889 0.17169049612701881 0 0.40821981547044728 0.18948863987903911 0 0.38498847891869142 0.18410856532543449 0 0.40821981547044728 0.18948863987903911 0 0.38498847891869142 0.18410856532543449 0 0.3915569064327899 0.1801487298308197 0 0.40821981547044728 0.18948863987903911 0 0.40043463366268228 0.15281815809948571 0 0.38746185167727232 0.16152605895747671 0 0.40396681876669882 0.16490721018287799 0 0.38746185167727232 0.16152605895747671 0 0.40396681876669882 0.16490721018287799 0 0.39932797264496889 0.17169049612701881 0 0.40396681876669882 0.16490721018287799 0 0.39932797264496889 0.17169049612701881 0 0.40988362719734178 0.173942850289873 0 0.40396681876669882 0.16490721018287799 0 0.40988362719734178 0.173942850289873 0 0.42272600865122828 0.16455848744053589 0 0.40043463366268228 0.15281815809948571 0 0.40396681876669882 0.16490721018287799 0 0.42272600865122828 0.16455848744053589 0 0.40043463366268228 0.15281815809948571 0 0.42272600865122828 0.16455848744053589 0 0.40988362719734178 0.173942850289873 0 0.42188801066536508 0.1818762276079316 0 0.42272600865122828 0.16455848744053589 0 0.40988362719734178 0.173942850289873 0 0.42188801066536508 0.1818762276079316 0 0.40821981547044728 0.18948863987903911 0 0.43350314899379422 0.1813972603882085 0 0.42272600865122828 0.16455848744053589 0 0.4450173836397745 0.17629881678158621 0 0.42188801066536508 0.1818762276079316 0 0.43350314899379422 0.1813972603882085 0 0.42272600865122828 0.16455848744053589 0 0.42188801066536508 0.1818762276079316 0 0.43350314899379422 0.1813972603882085 0 0.43258375727354692 0.19513101103699529 0 0.42272600865122828 0.16455848744053589 0 0.44225828855759491 0.15532573679440001 0 0.4450173836397745 0.17629881678158621 0 0.42272600865122828 0.16455848744053589 0 0.4450173836397745 0.17629881678158621 0 0.42301105141012618 0.14291519011705051 0 0.4486740342734149 0.1439661037052781 0 0.42301105141012618 0.14291519011705051 0 0.44225828855759491 0.15532573679440001 0 0.42272600865122828 0.16455848744053589 0 0.42301105141012618 0.14291519011705051 0 0.44225828855759491 0.15532573679440001 0 0.42301105141012618 0.14291519011705051 0 0.43645003495728041 0.12918509348712701 0 0.42137637694615548 0.1254754417473451 0 0.42301105141012618 0.14291519011705051 0 0.43645003495728041 0.12918509348712701 0 0.4486740342734149 0.1439661037052781 0 0.40381551002489358 0.13053797667424191 0 0.42137637694615548 0.1254754417473451 0 0.41058958209479701 0.1216175239776997 0 0.40381551002489358 0.13053797667424191 0 0.42301105141012618 0.14291519011705051 0 0.42137637694615548 0.1254754417473451 0 0.40381551002489358 0.13053797667424191 0 0.42301105141012618 0.14291519011705051 0 0.40381551002489358 0.13053797667424191 0 0.40057715504213132 0.1419965094377437 0 0.42301105141012618 0.14291519011705051 0 0.40043463366268228 0.15281815809948571 0 0.42272600865122828 0.16455848744053589 0 0.42301105141012618 0.14291519011705051 0 0.40043463366268228 0.15281815809948571 0 0.40057715504213132 0.1419965094377437 0 0.42301105141012618 0.14291519011705051 0 0.40057715504213132 0.1419965094377437 0 0.42301105141012618 0.14291519011705051 0 0.40536203825043993 0.25043379715749498 0 0.3939331399801651 0.24284320744053689 0 0.4113693821720153 0.24221333921798979 0 0.3939331399801651 0.24284320744053689 0 0.40808656351095152 0.2277155587957356 0 0.4113693821720153 0.24221333921798979 0 0.3939331399801651 0.24284320744053689 0 0.40808656351095152 0.2277155587957356 0 0.40536203825043993 0.25043379715749498 0 0.39305674463759538 0.25555763077507643 0 0.3939331399801651 0.24284320744053689 0 0.37977971644938008 0.25797085608533982 0 0.3939331399801651 0.24284320744053689 0 0.3764207529316641 0.24064341710083359 0 0.3939331399801651 0.24284320744053689 0 0.3764207529316641 0.24064341710083359 0 0.37904258622743731 0.228248223693509 0 0.3939331399801651 0.24284320744053689 0 0.37904258622743731 0.228248223693509 0 0.38943449449771811 0.2196668669336089 0 0.36782724687136709 0.2190787901412396 0 0.37904258622743731 0.228248223693509 0 0.37855760796187038 0.21334211847417231 0 0.37904258622743731 0.228248223693509 0 0.38943449449771811 0.2196668669336089 0 0.37855760796187038 0.21334211847417231 0 0.3939331399801651 0.24284320744053689 0 0.38943449449771811 0.2196668669336089 0 0.40808656351095152 0.2277155587957356 0 0.38943449449771811 0.2196668669336089 0 0.40808656351095152 0.2277155587957356 0 0.38943449449771811 0.2196668669336089 0 0.40290448645031579 0.207588185440571 0 0.38574759909295198 0.20439098767339511 0 0.38943449449771811 0.2196668669336089 0 0.40290448645031579 0.207588185440571 0 0.40808656351095152 0.2277155587957356 0 0.38943449449771811 0.2196668669336089 0 0.37855760796187038 0.21334211847417231 0 0.38574759909295198 0.20439098767339511 0 0.3701185899909375 0.20348024966937611 0 0.37855760796187038 0.21334211847417231 0 0.38574759909295198 0.20439098767339511 0 0.38574759909295198 0.20439098767339511 0 0.38076034118712693 0.19447227765387801 0 0.39243449922084078 0.19550732025367989 0 0.3701185899909375 0.20348024966937611 0 0.38574759909295198 0.20439098767339511 0 0.38076034118712693 0.19447227765387801 0 0.37140898874287248 0.1898983747553398 0 0.38498847891869142 0.18410856532543449 0 0.38076034118712693 0.19447227765387801 0 0.38498847891869142 0.18410856532543449 0 0.38076034118712693 0.19447227765387801 0 0.39243449922084078 0.19550732025367989 0 0.38498847891869142 0.18410856532543449 0 0.39243449922084078 0.19550732025367989 0 0.40821981547044728 0.18948863987903911 0 0.40290448645031579 0.207588185440571 0 0.38574759909295198 0.20439098767339511 0 0.39243449922084078 0.19550732025367989 0 0.40290448645031579 0.207588185440571 0 0.39243449922084078 0.19550732025367989 0 0.40821981547044728 0.18948863987903911 0 0.42188801066536508 0.1818762276079316 0 0.40821981547044728 0.18948863987903911 0 0.43258375727354692 0.19513101103699529 0 0.40821981547044728 0.18948863987903911 0 0.43116486160283268 0.20234981954726941 0 0.40821981547044728 0.18948863987903911 0 0.43258375727354692 0.19513101103699529 0 0.40290448645031579 0.207588185440571 0 0.40821981547044728 0.18948863987903911 0 0.41520637122806497 0.20399328893653779 0 0.40821981547044728 0.18948863987903911 0 0.43116486160283268 0.20234981954726941 0 0.41520637122806497 0.20399328893653779 0 0.40821981547044728 0.18948863987903911 0 0.43116486160283268 0.20234981954726941 0 0.43258375727354692 0.19513101103699529 0 0.43350314899379422 0.1813972603882085 0 0.43258375727354692 0.19513101103699529 0 0.44530058473905609 0.1891217590739937 0 0.43116486160283268 0.20234981954726941 0 0.41853632138866392 0.21654651087927229 0 0.43714019949965771 0.22186200509194809 0 0.40290448645031579 0.207588185440571 0 0.41853632138866392 0.21654651087927229 0 0.41520637122806497 0.20399328893653779 0 0.40290448645031579 0.207588185440571 0 0.41853632138866392 0.21654651087927229 0 0.40808656351095152 0.2277155587957356 0 0.43116486160283268 0.20234981954726941 0 0.41853632138866392 0.21654651087927229 0 0.41520637122806497 0.20399328893653779 0 0.41853632138866392 0.21654651087927229 0 0.40808656351095152 0.2277155587957356 0 0.43106492263321261 0.2376311200099461 0 0.40808656351095152 0.2277155587957356 0 0.43106492263321261 0.2376311200099461 0 0.41853632138866392 0.21654651087927229 0 0.40808656351095152 0.2277155587957356 0 0.41853632138866392 0.21654651087927229 0 0.43714019949965771 0.22186200509194809 0 0.43106492263321261 0.2376311200099461 0 0.4184002464853076 0.25244301268623509 0 0.43324868801970068 0.25510353825430637 0 0.43106492263321261 0.2376311200099461 0 0.40808656351095152 0.2277155587957356 0 0.43106492263321261 0.2376311200099461 0 0.4113693821720153 0.24221333921798979 0 0.4184002464853076 0.25244301268623509 0 0.43106492263321261 0.2376311200099461 0 0.4113693821720153 0.24221333921798979 0 0.40536203825043993 0.25043379715749498 0 0.4184002464853076 0.25244301268623509 0 0.4113693821720153 0.24221333921798979 0 0.45404328175547398 0.24754668122415599 0 0.45410990773521759 0.21521099921550019 0 0.47705495386760249 0.2280721788837311 0 0.43714019949965771 0.22186200509194809 0 0.45404328175547398 0.24754668122415599 0 0.45410990773521759 0.21521099921550019 0 0.43106492263321261 0.2376311200099461 0 0.45404328175547398 0.24754668122415599 0 0.43324868801970068 0.25510353825430637 0 0.43106492263321261 0.2376311200099461 0 0.45404328175547398 0.24754668122415599 0 0.43714019949965771 0.22186200509194809 0 0.43106492263321261 0.2376311200099461 0 0.45404328175547398 0.24754668122415599 0 0.45410990773521759 0.21521099921550019 0 0.47705495386760249 0.2280721788837311 0 0.4665138901508683 0.2082458830150006 0 0.45410990773521759 0.21521099921550019 0 0.47705495386760249 0.2280721788837311 0 0.4665138901508683 0.2082458830150006 0 0.45410990773521759 0.21521099921550019 0 0.45694769907664651 0.20077338219495069 0 0.43116486160283268 0.20234981954726941 0 0.43714019949965771 0.22186200509194809 0 0.45410990773521759 0.21521099921550019 0 0.43116486160283268 0.20234981954726941 0 0.45410990773521759 0.21521099921550019 0 0.43116486160283268 0.20234981954726941 0 0.45410990773521759 0.21521099921550019 0 0.45694769907664651 0.20077338219495069 0 0.43258375727354692 0.19513101103699529 0 0.44530058473905609 0.1891217590739937 0 0.45694769907664651 0.20077338219495069 0 0.43258375727354692 0.19513101103699529 0 0.45694769907664651 0.20077338219495069 0 0.43116486160283268 0.20234981954726941 0 0.43258375727354692 0.19513101103699529 0 0.45694769907664651 0.20077338219495069 0 0.44530058473905609 0.1891217590739937 0 0.45364360652094943 0.1885582760432917 0 0.45694769907664651 0.20077338219495069 0 0.45364360652094943 0.1885582760432917 0 0.45694769907664651 0.20077338219495069 0 0.46730875862832061 0.18803914612263639 0 0.4665138901508683 0.2082458830150006 0 0.45694769907664651 0.20077338219495069 0 0.46730875862832061 0.18803914612263639 0 0.4665138901508683 0.2082458830150006 0 0.46730875862832061 0.18803914612263639 0 0.47949402334590441 0.20578383509585649 0 0.46730875862832061 0.18803914612263639 0 0.48075573913622083 0.19256537514525021 0 0.47949402334590441 0.20578383509585649 0 0.48075573913622083 0.19256537514525021 0 0.49999999999999661 0.1925573768264553 0 0.48075276285252871 0.1801468301491046 0 0.48075573913622083 0.19256537514525021 0 0.49999999999999661 0.1925573768264553 0 0.47949402334590441 0.20578383509585649 0 0.49999999999999661 0.1925573768264553 0 0.5 0.21674536768920641 0 0.47949402334590441 0.20578383509585649 0 0.5 0.21674536768920641 0 0.47949402334590441 0.20578383509585649 0 0.47705495386760249 0.2280721788837311 0 0.4665138901508683 0.2082458830150006 0 0.47949402334590441 0.20578383509585649 0 0.47705495386760249 0.2280721788837311 0 0.5 0.21674536768920641 0 0.47705495386760249 0.2280721788837311 0 0.49999999999998979 0.24093335855195749 0 0.47702164087773552 0.25746224243836602 0 0.47705495386760249 0.2280721788837311 0 0.49999999999998979 0.24093335855195749 0 0.47705495386760249 0.2280721788837311 0 0.49999999999998979 0.24093335855195749 0 0.47702164087773552 0.25746224243836602 0 0.45404328175547398 0.24754668122415599 0 0.47705495386760249 0.2280721788837311 0 0.4486740342734149 0.1439661037052781 0 0.47433701713670368 0.145017017293503 0 0.46155470895054163 0.15403421430887471 0 0.4486740342734149 0.1439661037052781 0 0.47433701713670368 0.145017017293503 0 0.46674578279044071 0.1289497806642764 0 0.4486740342734149 0.1439661037052781 0 0.47433701713670368 0.145017017293503 0 0.46674578279044071 0.1289497806642764 0 0.4486740342734149 0.1439661037052781 0 0.45216966468001901 0.1197073485162491 0 0.43645003495728041 0.12918509348712701 0 0.4486740342734149 0.1439661037052781 0 0.45216966468001901 0.1197073485162491 0 0.46155470895054163 0.15403421430887471 0 0.44225828855759491 0.15532573679440001 0 0.4486740342734149 0.1439661037052781 0 0.42301105141012618 0.14291519011705051 0 0.44225828855759491 0.15532573679440001 0 0.4486740342734149 0.1439661037052781 0 0.44225828855759491 0.15532573679440001 0 0.4450173836397745 0.17629881678158621 0 0.46150552570506181 0.16773628347175229 0 0.44225828855759491 0.15532573679440001 0 0.46150552570506181 0.16773628347175229 0 0.43350314899379422 0.1813972603882085 0 0.44530058473905609 0.1891217590739937 0 0.4450173836397745 0.17629881678158621 0 0.44530058473905609 0.1891217590739937 0 0.45364360652094943 0.1885582760432917 0 0.4450173836397745 0.17629881678158621 0 0.46730875862832061 0.18803914612263639 0 0.4450173836397745 0.17629881678158621 0 0.45364360652094943 0.1885582760432917 0 0.46730875862832061 0.18803914612263639 0 0.4450173836397745 0.17629881678158621 0 0.46730875862832061 0.18803914612263639 0 0.4450173836397745 0.17629881678158621 0 0.46150552570506181 0.16773628347175229 0 0.46155470895054163 0.15403421430887471 0 0.44225828855759491 0.15532573679440001 0 0.46150552570506181 0.16773628347175229 0 0.46155470895054163 0.15403421430887471 0 0.46150552570506181 0.16773628347175229 0 0.48175838234714491 0.16106159957811639 0 0.46150552570506181 0.16773628347175229 0 0.48175838234714491 0.16106159957811639 0 0.48075276285252871 0.1801468301491046 0 0.46150552570506181 0.16773628347175229 0 0.48075276285252871 0.1801468301491046 0 0.46730875862832061 0.18803914612263639 0 0.46150552570506181 0.16773628347175229 0 0.48075276285252871 0.1801468301491046 0 0.46730875862832061 0.18803914612263639 0 0.48075573913622083 0.19256537514525021 0 0.48075276285252871 0.1801468301491046 0 0.49999999999999661 0.1925573768264553 0 0.48075276285252871 0.1801468301491046 0 0.5 0.16931265385409139 0 0.49999999999999661 0.1925573768264553 0 0.48075276285252871 0.1801468301491046 0 0.48175838234714491 0.16106159957811639 0 0.5 0.16931265385409139 0 0.49999999999999262 0.14606793088172759 0 0.48175838234714491 0.16106159957811639 0 0.48075276285252871 0.1801468301491046 0 0.5 0.16931265385409139 0 0.49999999999999262 0.14606793088172759 0 0.47433701713670368 0.145017017293503 0 0.49999999999999262 0.14606793088172759 0 0.47433701713670368 0.145017017293503 0 0.48672239294106567 0.1323039978348666 0 0.48175838234714491 0.16106159957811639 0 0.49999999999999262 0.14606793088172759 0 0.47433701713670368 0.145017017293503 0 0.46155470895054163 0.15403421430887471 0 0.48175838234714491 0.16106159957811639 0 0.47433701713670368 0.145017017293503 0 0.46674578279044071 0.1289497806642764 0 0.48672239294106567 0.1323039978348666 0 0.47796576750965231 0.1172753876803637 0 0.46674578279044071 0.1289497806642764 0 0.47433701713670368 0.145017017293503 0 0.48672239294106567 0.1323039978348666 0 0.49999999999999262 0.14606793088172759 0 0.48672239294106567 0.1323039978348666 0 0.5 0.1191264575402753 0 0.5 0.1191264575402753 0 0.48903973008496121 0.1047464795871484 0 0.47796576750965231 0.1172753876803637 0 0.48672239294106567 0.1323039978348666 0 0.5 0.1191264575402753 0 0.47796576750965231 0.1172753876803637 0 0.48903973008496121 0.1047464795871484 0 0.5 0.092184984198822928 0 0.47819315283019248 0.090399088929131566 0 0.5 0.1191264575402753 0 0.48903973008496121 0.1047464795871484 0 0.5 0.092184984198822928 0 0.47796576750965231 0.1172753876803637 0 0.47819315283019248 0.090399088929131566 0 0.48903973008496121 0.1047464795871484 0 0.47796576750965231 0.1172753876803637 0 0.47819315283019248 0.090399088929131566 0 0.47796576750965231 0.1172753876803637 0 0.47819315283019248 0.090399088929131566 0 0.46448069376407508 0.1058262149493206 0 0.46674578279044071 0.1289497806642764 0 0.47796576750965231 0.1172753876803637 0 0.46448069376407508 0.1058262149493206 0 0.48915342274523133 0.07783759354080616 0 0.5 0.065243510857370568 0 0.47842053815073282 0.063522790177899607 0 0.48915342274523133 0.07783759354080616 0 0.5 0.092184984198822928 0 0.47819315283019248 0.090399088929131566 0 0.48915342274523133 0.07783759354080616 0 0.5 0.065243510857370568 0 0.5 0.092184984198822928 0 0.47819315283019248 0.090399088929131566 0 0.47842053815073282 0.063522790177899607 0 0.48915342274523133 0.07783759354080616 0 0.47819315283019248 0.090399088929131566 0 0.47842053815073282 0.063522790177899607 0 0.47819315283019248 0.090399088929131566 0 0.47842053815073282 0.063522790177899607 0 0.46034195013922008 0.071455443106072311 0 0.47819315283019248 0.090399088929131566 0 0.46034195013922008 0.071455443106072311 0 0.4538512843204191 0.090136671418907077 0 0.4538512843204191 0.090136671418907077 0 0.43695313269594599 0.09992534171127157 0 0.4332316460752752 0.084951638158924453 0 0.46034195013922008 0.071455443106072311 0 0.4538512843204191 0.090136671418907077 0 0.44420947313048081 0.074685651215811236 0 0.4538512843204191 0.090136671418907077 0 0.44420947313048081 0.074685651215811236 0 0.4332316460752752 0.084951638158924453 0 0.46034195013922008 0.071455443106072311 0 0.44420947313048081 0.074685651215811236 0 0.44161724750626791 0.05689567030594949 0 0.44420947313048081 0.074685651215811236 0 0.42844491400947199 0.067360299856571326 0 0.44161724750626791 0.05689567030594949 0 0.46674578279044071 0.1289497806642764 0 0.46448069376407508 0.1058262149493206 0 0.45216966468001901 0.1197073485162491 0 0.46448069376407508 0.1058262149493206 0 0.4500229111972095 0.10366990384346821 0 0.45216966468001901 0.1197073485162491 0 0.47819315283019248 0.090399088929131566 0 0.4538512843204191 0.090136671418907077 0 0.46448069376407508 0.1058262149493206 0 0.4538512843204191 0.090136671418907077 0 0.46448069376407508 0.1058262149493206 0 0.4500229111972095 0.10366990384346821 0 0.4500229111972095 0.10366990384346821 0 0.43305357086199558 0.1128511697208763 0 0.43695313269594599 0.09992534171127157 0 0.4538512843204191 0.090136671418907077 0 0.4500229111972095 0.10366990384346821 0 0.43695313269594599 0.09992534171127157 0 0.43645003495728041 0.12918509348712701 0 0.45216966468001901 0.1197073485162491 0 0.43305357086199558 0.1128511697208763 0 0.4500229111972095 0.10366990384346821 0 0.45216966468001901 0.1197073485162491 0 0.43305357086199558 0.1128511697208763 0 0.42137637694615548 0.1254754417473451 0 0.43305357086199558 0.1128511697208763 0 0.41671698281691921 0.1120203961530796 0 0.43645003495728041 0.12918509348712701 0 0.42137637694615548 0.1254754417473451 0 0.43305357086199558 0.1128511697208763 0 0.42137637694615548 0.1254754417473451 0 0.41671698281691921 0.1120203961530796 0 0.41058958209479701 0.1216175239776997 0 0.41671698281691921 0.1120203961530796 0 0.40715748259852419 0.113713322004232 0 0.41058958209479701 0.1216175239776997 0 0.41671698281691921 0.1120203961530796 0 0.40715748259852419 0.113713322004232 0 0.40876506443560362 0.1036447075281198 0 0.40388155808749182 0.12634048330959971 0 0.40715748259852419 0.113713322004232 0 0.41058958209479701 0.1216175239776997 0 0.40876506443560362 0.1036447075281198 0 0.4209038059943504 0.097546861768166321 0 0.40402939180471859 0.089281345823841965 0 0.41671698281691921 0.1120203961530796 0 0.40876506443560362 0.1036447075281198 0 0.4209038059943504 0.097546861768166321 0 0.43305357086199558 0.1128511697208763 0 0.41671698281691921 0.1120203961530796 0 0.4209038059943504 0.097546861768166321 0 0.43305357086199558 0.1128511697208763 0 0.4209038059943504 0.097546861768166321 0 0.43695313269594599 0.09992534171127157 0 0.4209038059943504 0.097546861768166321 0 0.43695313269594599 0.09992534171127157 0 0.4332316460752752 0.084951638158924453 0 0.4209038059943504 0.097546861768166321 0 0.4332316460752752 0.084951638158924453 0 0.41572683866073112 0.07826603507716845 0 0.44420947313048081 0.074685651215811236 0 0.4332316460752752 0.084951638158924453 0 0.42844491400947199 0.067360299856571326 0 0.4332316460752752 0.084951638158924453 0 0.42844491400947199 0.067360299856571326 0 0.41572683866073112 0.07826603507716845 0 0.42844491400947199 0.067360299856571326 0 0.41572683866073112 0.07826603507716845 0 0.41193959843101691 0.057756155685341579 0 0.41572683866073112 0.07826603507716845 0 0.39764981541922012 0.070340618325895665 0 0.41193959843101691 0.057756155685341579 0 0.4209038059943504 0.097546861768166321 0 0.41572683866073112 0.07826603507716845 0 0.40402939180471859 0.089281345823841965 0 0.41572683866073112 0.07826603507716845 0 0.40402939180471859 0.089281345823841965 0 0.39764981541922012 0.070340618325895665 0 0.40402939180471859 0.089281345823841965 0 0.38615375983951827 0.084982740472958812 0 0.39501765896350499 0.1056616118912793 0 0.40402939180471859 0.089281345823841965 0 0.39764981541922012 0.070340618325895665 0 0.38615375983951827 0.084982740472958812 0 0.36175937329236091 0.078855102700231314 0 0.37728986071553139 0.064303869054638335 0 0.38615375983951827 0.084982740472958812 0 0.37728986071553139 0.064303869054638335 0 0.38615375983951827 0.084982740472958812 0 0.39764981541922012 0.070340618325895665 0 0.37728986071553139 0.064303869054638335 0 0.38615375983951827 0.084982740472958812 0 0.37037046505733062 0.091571452996378755 0 0.38615375983951827 0.084982740472958812 0 0.38058561072847208 0.1010884701334934 0 0.38058561072847208 0.1010884701334934 0 0.38461996863965919 0.11816076323143609 0 0.39501765896350499 0.1056616118912793 0 0.36542442725442481 0.1057835497886303 0 0.38058561072847208 0.1010884701334934 0 0.38461996863965919 0.11816076323143609 0 0.38615375983951827 0.084982740472958812 0 0.39501765896350499 0.1056616118912793 0 0.38615375983951827 0.084982740472958812 0 0.38058561072847208 0.1010884701334934 0 0.39501765896350499 0.1056616118912793 0 0.36542442725442481 0.1057835497886303 0 0.38461996863965919 0.11816076323143609 0 0.40388155808749182 0.12634048330959971 0 0.40715748259852419 0.113713322004232 0 0.39501765896350499 0.1056616118912793 0 0.40388155808749182 0.12634048330959971 0 0.38461996863965919 0.11816076323143609 0 0.39501765896350499 0.1056616118912793 0 0.40388155808749182 0.12634048330959971 0 0.39501765896350499 0.1056616118912793 0 0.40381551002489358 0.13053797667424191 0 0.38461996863965919 0.11816076323143609 0 0.40876506443560362 0.1036447075281198 0 0.40402939180471859 0.089281345823841965 0 0.39501765896350499 0.1056616118912793 0 0.40715748259852419 0.113713322004232 0 0.40876506443560362 0.1036447075281198 0 0.39501765896350499 0.1056616118912793 0 0.39515182559547091 0.029034330305039741 0 0.40591254264873428 0.01367514443295953 0 0.41083134038813601 0.032877301797848937 0 0.39515182559547091 0.029034330305039741 0 0.40591254264873428 0.01367514443295953 0 0.38675437616595548 0.01511337357289654 0 0.40591254264873428 0.01367514443295953 0 0.38675437616595548 0.01511337357289654 0 0.39230006582974808 -0.0010026223524705999 0 0.40591254264873428 0.01367514443295953 0 0.40790894722904308 -0.0027385974542700189 0 0.39230006582974808 -0.0010026223524705999 0 0.37480627682858808 0.0031980373757327469 0 0.38675437616595548 0.01511337357289654 0 0.39230006582974808 -0.0010026223524705999 0 0.37480627682858808 0.0031980373757327469 0 0.37460238038227051 0.0162511377823619 0 0.38675437616595548 0.01511337357289654 0 0.37460238038227051 0.0162511377823619 0 0.3698806047767127 0.026221660986605898 0 0.38116552014637328 0.026005484535242509 0 0.37460238038227051 0.0162511377823619 0 0.38675437616595548 0.01511337357289654 0 0.38116552014637328 0.026005484535242509 0 0.39515182559547091 0.029034330305039741 0 0.38675437616595548 0.01511337357289654 0 0.38116552014637328 0.026005484535242509 0 0.39515182559547091 0.029034330305039741 0 0.38116552014637328 0.026005484535242509 0 0.38384471736785719 0.036598767336923917 0 0.3698806047767127 0.026221660986605898 0 0.38116552014637328 0.026005484535242509 0 0.37538406237130462 0.033742578557273729 0 0.37007815628130181 0.04747945503363421 0 0.38384471736785719 0.036598767336923917 0 0.39406060055183367 0.04859058542624356 0 0.38116552014637328 0.026005484535242509 0 0.37538406237130462 0.033742578557273729 0 0.38384471736785719 0.036598767336923917 0 0.37007815628130181 0.04747945503363421 0 0.37538406237130462 0.033742578557273729 0 0.38384471736785719 0.036598767336923917 0 0.37728986071553139 0.064303869054638335 0 0.39406060055183367 0.04859058542624356 0 0.37007815628130181 0.04747945503363421 0 0.37728986071553139 0.064303869054638335 0 0.39406060055183367 0.04859058542624356 0 0.39764981541922012 0.070340618325895665 0 0.37728986071553139 0.064303869054638335 0 0.39406060055183367 0.04859058542624356 0 0.39764981541922012 0.070340618325895665 0 0.39406060055183367 0.04859058542624356 0 0.41193959843101691 0.057756155685341579 0 0.39515182559547091 0.029034330305039741 0 0.38384471736785719 0.036598767336923917 0 0.39406060055183367 0.04859058542624356 0 0.39515182559547091 0.029034330305039741 0 0.39406060055183367 0.04859058542624356 0 0.41083134038813601 0.032877301797848937 0 0.39406060055183367 0.04859058542624356 0 0.41083134038813601 0.032877301797848937 0 0.41193959843101691 0.057756155685341579 0 0.39406060055183367 0.04859058542624356 0 0.41083134038813601 0.032877301797848937 0 0.41083134038813601 0.032877301797848937 0 0.41193959843101691 0.057756155685341579 0 0.42562365391645651 0.047313125722670768 0 0.41083134038813601 0.032877301797848937 0 0.42562365391645651 0.047313125722670768 0 0.42599335598633759 0.032801609097427277 0 0.42844491400947199 0.067360299856571326 0 0.42562365391645651 0.047313125722670768 0 0.44161724750626791 0.05689567030594949 0 0.42844491400947199 0.067360299856571326 0 0.41193959843101691 0.057756155685341579 0 0.42562365391645651 0.047313125722670768 0 0.42562365391645651 0.047313125722670768 0 0.44161724750626791 0.05689567030594949 0 0.44069280634039909 0.035557910070736158 0 0.42562365391645651 0.047313125722670768 0 0.42599335598633759 0.032801609097427277 0 0.44069280634039909 0.035557910070736158 0 0.42599335598633759 0.032801609097427277 0 0.42760208022443841 0.017164018169454291 0 0.44069280634039909 0.035557910070736158 0 0.40591254264873428 0.01367514443295953 0 0.41083134038813601 0.032877301797848937 0 0.42760208022443841 0.017164018169454291 0 0.41083134038813601 0.032877301797848937 0 0.42760208022443841 0.017164018169454291 0 0.41083134038813601 0.032877301797848937 0 0.42599335598633759 0.032801609097427277 0 0.42760208022443841 0.017164018169454291 0 0.40591254264873428 0.01367514443295953 0 0.42760208022443841 0.017164018169454291 0 0.41944464684483579 0.0034308182193272451 0 0.40591254264873428 0.01367514443295953 0 0.41944464684483579 0.0034308182193272451 0 0.40790894722904308 -0.0027385974542700189 0 0.42760208022443841 0.017164018169454291 0 0.4340350753884557 0.001639330270419299 0 0.44645859790372139 0.01588245981158435 0 0.42760208022443841 0.017164018169454291 0 0.41944464684483579 0.0034308182193272451 0 0.4340350753884557 0.001639330270419299 0 0.4340350753884557 0.001639330270419299 0 0.44645859790372139 0.01588245981158435 0 0.44978173584962289 -0.0093094241403053127 0 0.44645859790372139 0.01588245981158435 0 0.46061256552131002 0.028407468853257241 0 0.44069280634039909 0.035557910070736158 0 0.42760208022443841 0.017164018169454291 0 0.44645859790372139 0.01588245981158435 0 0.44069280634039909 0.035557910070736158 0 0.46061256552131002 0.028407468853257241 0 0.46379770214080812 0.005307719564829054 0 0.44645859790372139 0.01588245981158435 0 0.46061256552131002 0.028407468853257241 0 0.46379770214080812 0.005307719564829054 0 0.46061256552131002 0.028407468853257241 0 0.46379770214080812 0.005307719564829054 0 0.48061284903450602 0.017294012627082241 0 0.44645859790372139 0.01588245981158435 0 0.46379770214080812 0.005307719564829054 0 0.44978173584962289 -0.0093094241403053127 0 0.44161724750626791 0.05689567030594949 0 0.44069280634039909 0.035557910070736158 0 0.45742742890181193 0.051507218141685428 0 0.46061256552131002 0.028407468853257241 0 0.44069280634039909 0.035557910070736158 0 0.45742742890181193 0.051507218141685428 0 0.46061256552131002 0.028407468853257241 0 0.45742742890181193 0.051507218141685428 0 0.478647923471273 0.036646491426667628 0 0.46061256552131002 0.028407468853257241 0 0.45742742890181193 0.051507218141685428 0 0.47842053815073282 0.063522790177899607 0 0.46034195013922008 0.071455443106072311 0 0.45742742890181193 0.051507218141685428 0 0.46034195013922008 0.071455443106072311 0 0.44161724750626791 0.05689567030594949 0 0.45742742890181193 0.051507218141685428 0 0.47842053815073282 0.063522790177899607 0 0.478647923471273 0.036646491426667628 0 0.47842053815073282 0.063522790177899607 0 0.478647923471273 0.036646491426667628 0 0.48926711540550138 0.050928707494464001 0 0.47842053815073282 0.063522790177899607 0 0.45742742890181193 0.051507218141685428 0 0.478647923471273 0.036646491426667628 0 0.478647923471273 0.036646491426667628 0 0.5 0.038302037515918208 0 0.48926711540550138 0.050928707494464001 0 0.5 0.065243510857370568 0 0.47842053815073282 0.063522790177899607 0 0.48926711540550138 0.050928707494464001 0 0.5 0.065243510857370568 0 0.5 0.038302037515918208 0 0.48926711540550138 0.050928707494464001 0 0.46379770214080812 0.005307719564829054 0 0.48061284903450602 0.017294012627082241 0 0.48217230728125082 -0.0039281438149432616 0 0.46061256552131002 0.028407468853257241 0 0.478647923471273 0.036646491426667628 0 0.48061284903450602 0.017294012627082241 0 0.5 0.038302037515918208 0 0.48061284903450602 0.017294012627082241 0 0.5 0.01136056417446585 0 0.478647923471273 0.036646491426667628 0 0.5 0.038302037515918208 0 0.48061284903450602 0.017294012627082241 0 0.48061284903450602 0.017294012627082241 0 0.5 0.01136056417446585 0 0.48217230728125082 -0.0039281438149432616 0 0.5 0.01136056417446585 0 0.5 -0.015580909166986571 0 0.48217230728125082 -0.0039281438149432616 0 0.46379770214080812 0.005307719564829054 0 0.48217230728125082 -0.0039281438149432616 0 0.46698283876030622 -0.017792029723599102 0 0.4840643948936067 -0.027905991360420629 0 0.4701679753798042 -0.040891779012027188 0 0.46698283876030622 -0.017792029723599102 0 0.48217230728125082 -0.0039281438149432616 0 0.4840643948936067 -0.027905991360420629 0 0.46698283876030622 -0.017792029723599102 0 0.5 -0.015580909166986571 0 0.4840643948936067 -0.027905991360420629 0 0.5 -0.042522382508438927 0 0.5 -0.015580909166986571 0 0.48217230728125082 -0.0039281438149432616 0 0.4840643948936067 -0.027905991360420629 0 0.4840643948936067 -0.027905991360420629 0 0.5 -0.042522382508438927 0 0.48369963931817911 -0.054231482548743701 0 0.5 -0.042522382508438927 0 0.48369963931817911 -0.054231482548743701 0 0.50000000000000089 -0.069463855849891287 0 0.48369963931817911 -0.054231482548743701 0 0.4701679753798042 -0.040891779012027188 0 0.46863294098286618 -0.061368038994321389 0 0.4840643948936067 -0.027905991360420629 0 0.48369963931817911 -0.054231482548743701 0 0.4701679753798042 -0.040891779012027188 0 0.4701679753798042 -0.040891779012027188 0 0.45428338288328929 -0.045807042112366837 0 0.45245511421656798 -0.033730456764711529 0 0.4701679753798042 -0.040891779012027188 0 0.46863294098286618 -0.061368038994321389 0 0.4545732363876453 -0.059774670446613283 0 0.4701679753798042 -0.040891779012027188 0 0.45428338288328929 -0.045807042112366837 0 0.4545732363876453 -0.059774670446613283 0 0.43993720554913962 -0.048831262226115363 0 0.44288827062948161 -0.074066558474382815 0 0.4545732363876453 -0.059774670446613283 0 0.43993720554913962 -0.048831262226115363 0 0.44288827062948161 -0.074066558474382815 0 0.45428338288328929 -0.045807042112366837 0 0.4545732363876453 -0.059774670446613283 0 0.43993720554913962 -0.048831262226115363 0 0.43993720554913962 -0.048831262226115363 0 0.43698614046879769 -0.023595965977848011 0 0.43993720554913962 -0.048831262226115363 0 0.45245511421656798 -0.033730456764711529 0 0.43698614046879769 -0.023595965977848011 0 0.45428338288328929 -0.045807042112366837 0 0.43993720554913962 -0.048831262226115363 0 0.45245511421656798 -0.033730456764711529 0 0.45245511421656798 -0.033730456764711529 0 0.44978173584962289 -0.0093094241403053127 0 0.43698614046879769 -0.023595965977848011 0 0.4340350753884557 0.001639330270419299 0 0.44978173584962289 -0.0093094241403053127 0 0.43698614046879769 -0.023595965977848011 0 0.46379770214080812 0.005307719564829054 0 0.46698283876030622 -0.017792029723599102 0 0.46379770214080812 0.005307719564829054 0 0.44978173584962289 -0.0093094241403053127 0 0.46698283876030622 -0.017792029723599102 0 0.45245511421656798 -0.033730456764711529 0 0.44978173584962289 -0.0093094241403053127 0 0.46698283876030622 -0.017792029723599102 0 0.4701679753798042 -0.040891779012027188 0 0.46698283876030622 -0.017792029723599102 0 0.4701679753798042 -0.040891779012027188 0 0.45245511421656798 -0.033730456764711529 0 0.46698283876030622 -0.017792029723599102 0 0.47933800793569448 -0.110493888105777 0 0.45867601587137918 -0.1246501937812079 0 0.47933800793569448 -0.110493888105777 0 0.45867601587137918 -0.1246501937812079 0 0.48044384086347192 -0.1357744267044341 0 0.47933800793569448 -0.110493888105777 0 0.5 -0.1244889990391311 0 0.50000000000000744 -0.096337582430342517 0 0.47933800793569448 -0.110493888105777 0 0.5 -0.1244889990391311 0 0.48044384086347192 -0.1357744267044341 0 0.47933800793569448 -0.110493888105777 0 0.50000000000000744 -0.096337582430342517 0 0.47714009534566842 -0.096494300544377215 0 0.47933800793569448 -0.110493888105777 0 0.50000000000000744 -0.096337582430342517 0 0.47933800793569448 -0.110493888105777 0 0.47714009534566842 -0.096494300544377215 0 0.46759552007127031 -0.1061258680417736 0 0.47714009534566842 -0.096494300544377215 0 0.463553494513891 -0.095709061236271931 0 0.46759552007127031 -0.1061258680417736 0 0.47714009534566842 -0.096494300544377215 0 0.48011918659690322 -0.082913821922927858 0 0.463553494513891 -0.095709061236271931 0 0.48011918659690322 -0.082913821922927858 0 0.46023837319380623 -0.094187667888458115 0 0.48011918659690322 -0.082913821922927858 0 0.47824128460956788 -0.073802039604704731 0 0.45648256921913488 -0.078140223359518021 0 0.50000000000000744 -0.096337582430342517 0 0.48011918659690322 -0.082913821922927858 0 0.50000000000000011 -0.07163997595739735 0 0.50000000000000744 -0.096337582430342517 0 0.47714009534566842 -0.096494300544377215 0 0.48011918659690322 -0.082913821922927858 0 0.50000000000000089 -0.069463855849891287 0 0.50000000000000011 -0.07163997595739735 0 0.47824128460956788 -0.073802039604704731 0 0.48369963931817911 -0.054231482548743701 0 0.50000000000000089 -0.069463855849891287 0 0.47824128460956788 -0.073802039604704731 0 0.48011918659690322 -0.082913821922927858 0 0.50000000000000011 -0.07163997595739735 0 0.47824128460956788 -0.073802039604704731 0 0.50000000000000089 -0.069463855849891287 0 0.47824128460956788 -0.073802039604704731 0 0.48011918659690322 -0.082913821922927858 0 0.50000000000000011 -0.07163997595739735 0 0.48369963931817911 -0.054231482548743701 0 0.46863294098286618 -0.061368038994321389 0 0.47824128460956788 -0.073802039604704731 0 0.47824128460956788 -0.073802039604704731 0 0.45648256921913488 -0.078140223359518021 0 0.46863294098286618 -0.061368038994321389 0 0.4545732363876453 -0.059774670446613283 0 0.45648256921913488 -0.078140223359518021 0 0.46863294098286618 -0.061368038994321389 0 0.47824128460956788 -0.073802039604704731 0 0.45648256921913488 -0.078140223359518021 0 0.43993720554913962 -0.048831262226115363 0 0.44288827062948161 -0.074066558474382815 0 0.43316124104850812 -0.066912893931490469 0 0.4545732363876453 -0.059774670446613283 0 0.44288827062948161 -0.074066558474382815 0 0.45648256921913488 -0.078140223359518021 0 0.44288827062948161 -0.074066558474382815 0 0.43472385382870188 -0.082478407114331395 0 0.43488980624791451 -0.074872861354195422 0 0.44288827062948161 -0.074066558474382815 0 0.45648256921913488 -0.078140223359518021 0 0.43472385382870188 -0.082478407114331395 0 0.45648256921913488 -0.078140223359518021 0 0.43472385382870188 -0.082478407114331395 0 0.46023837319380623 -0.094187667888458115 0 0.43472385382870188 -0.082478407114331395 0 0.46023837319380623 -0.094187667888458115 0 0.44361994258391002 -0.094509790128746676 0 0.43472385382870188 -0.082478407114331395 0 0.45648256921913488 -0.078140223359518021 0 0.46023837319380623 -0.094187667888458115 0 0.43472385382870188 -0.082478407114331395 0 0.44361994258391002 -0.094509790128746676 0 0.43586602604278912 -0.092428923512229103 0 0.43472385382870188 -0.082478407114331395 0 0.48011918659690322 -0.082913821922927858 0 0.463553494513891 -0.095709061236271931 0 0.46023837319380623 -0.094187667888458115 0 0.48011918659690322 -0.082913821922927858 0 0.45648256921913488 -0.078140223359518021 0 0.46023837319380623 -0.094187667888458115 0 0.463553494513891 -0.095709061236271931 0 0.46023837319380623 -0.094187667888458115 0 0.463553494513891 -0.095709061236271931 0 0.46759552007127031 -0.1061258680417736 0 0.45739445967023912 -0.1047570922390952 0 0.45739445967023912 -0.1047570922390952 0 0.46023837319380623 -0.094187667888458115 0 0.44686407934321609 -0.101771850975545 0 0.46023837319380623 -0.094187667888458115 0 0.44686407934321609 -0.101771850975545 0 0.463553494513891 -0.095709061236271931 0 0.45739445967023912 -0.1047570922390952 0 0.46023837319380623 -0.094187667888458115 0 0.46023837319380623 -0.094187667888458115 0 0.44361994258391002 -0.094509790128746676 0 0.44686407934321609 -0.101771850975545 0 0.44361994258391002 -0.094509790128746676 0 0.43767615068446869 -0.10077149246305139 0 0.43586602604278912 -0.092428923512229103 0 0.44361994258391002 -0.094509790128746676 0 0.43767615068446869 -0.10077149246305139 0 0.44686407934321609 -0.101771850975545 0 0.44686407934321609 -0.101771850975545 0 0.43348978549262601 -0.109356034062632 0 0.44686407934321609 -0.101771850975545 0 0.44688767283690528 -0.11586833410302411 0 0.43348978549262601 -0.109356034062632 0 0.43767615068446869 -0.10077149246305139 0 0.44686407934321609 -0.101771850975545 0 0.43348978549262601 -0.109356034062632 0 0.45739445967023912 -0.1047570922390952 0 0.44686407934321609 -0.101771850975545 0 0.44688767283690528 -0.11586833410302411 0 0.44688767283690528 -0.11586833410302411 0 0.43348978549262601 -0.109356034062632 0 0.43801402380706489 -0.13880649945664031 0 0.46759552007127031 -0.1061258680417736 0 0.45739445967023912 -0.1047570922390952 0 0.45867601587137918 -0.1246501937812079 0 0.45739445967023912 -0.1047570922390952 0 0.44688767283690528 -0.11586833410302411 0 0.45867601587137918 -0.1246501937812079 0 0.47933800793569448 -0.110493888105777 0 0.46759552007127031 -0.1061258680417736 0 0.45867601587137918 -0.1246501937812079 0 0.40965788347577048 -0.12287043042841581 0 0.4260703401465788 -0.11356339129118211 0 0.41860265018879173 -0.1080065396532925 0 0.40965788347577048 -0.12287043042841581 0 0.4260703401465788 -0.11356339129118211 0 0.40965788347577048 -0.12287043042841581 0 0.4260703401465788 -0.11356339129118211 0 0.41215875780221289 -0.1364398482871286 0 0.40965788347577048 -0.12287043042841581 0 0.40822091110887337 -0.1097210061941766 0 0.41860265018879173 -0.1080065396532925 0 0.43348978549262601 -0.109356034062632 0 0.43801402380706489 -0.13880649945664031 0 0.4260703401465788 -0.11356339129118211 0 0.43348978549262601 -0.109356034062632 0 0.43801402380706489 -0.13880649945664031 0 0.4260703401465788 -0.11356339129118211 0 0.43348978549262601 -0.109356034062632 0 0.43250948051949578 -0.1029747526887842 0 0.4252237251623599 -0.096004625889045597 0 0.42952017343151838 -0.083515900429503243 0 0.43250948051949578 -0.1029747526887842 0 0.4252237251623599 -0.096004625889045597 0 0.41860265018879173 -0.1080065396532925 0 0.4260703401465788 -0.11356339129118211 0 0.43250948051949578 -0.1029747526887842 0 0.41860265018879173 -0.1080065396532925 0 0.4260703401465788 -0.11356339129118211 0 0.43250948051949578 -0.1029747526887842 0 0.43250948051949578 -0.1029747526887842 0 0.43379000968534709 -0.100869027425513 0 0.42952017343151838 -0.083515900429503243 0 0.43348978549262601 -0.109356034062632 0 0.43250948051949578 -0.1029747526887842 0 0.4260703401465788 -0.11356339129118211 0 0.43348978549262601 -0.109356034062632 0 0.43250948051949578 -0.1029747526887842 0 0.43767615068446869 -0.10077149246305139 0 0.43348978549262601 -0.109356034062632 0 0.43250948051949578 -0.1029747526887842 0 0.43250948051949578 -0.1029747526887842 0 0.43379000968534709 -0.100869027425513 0 0.43767615068446869 -0.10077149246305139 0 0.43379000968534709 -0.100869027425513 0 0.43586602604278912 -0.092428923512229103 0 0.43767615068446869 -0.10077149246305139 0 0.43250948051949578 -0.1029747526887842 0 0.43379000968534709 -0.100869027425513 0 0.4252237251623599 -0.096004625889045597 0 0.41854770965071608 -0.099166336301493602 0 0.41860265018879173 -0.1080065396532925 0 0.4252237251623599 -0.096004625889045597 0 0.41854770965071608 -0.099166336301493602 0 0.41962235314502311 -0.092590383474632582 0 0.41854770965071608 -0.099166336301493602 0 0.41207625217053079 -0.096480756099523557 0 0.41962235314502311 -0.092590383474632582 0 0.41854770965071608 -0.099166336301493602 0 0.41350723633544528 -0.10322218054684761 0 0.41207625217053079 -0.096480756099523557 0 0.41854770965071608 -0.099166336301493602 0 0.41860265018879173 -0.1080065396532925 0 0.41350723633544528 -0.10322218054684761 0 0.40822091110887337 -0.1097210061941766 0 0.41860265018879173 -0.1080065396532925 0 0.41350723633544528 -0.10322218054684761 0 0.40822091110887337 -0.1097210061941766 0 0.41350723633544528 -0.10322218054684761 0 0.40791534720467409 -0.1025791957879742 0 0.40791534720467409 -0.1025791957879742 0 0.41207625217053079 -0.096480756099523557 0 0.40500385854549981 -0.095597386923395464 0 0.41350723633544528 -0.10322218054684761 0 0.40791534720467409 -0.1025791957879742 0 0.41207625217053079 -0.096480756099523557 0 0.41395797924000682 -0.089603492239670526 0 0.40768714802050149 -0.08893460537075161 0 0.41445357682348283 -0.081310748503101646 0 0.41207625217053079 -0.096480756099523557 0 0.41395797924000682 -0.089603492239670526 0 0.40768714802050149 -0.08893460537075161 0 0.41207625217053079 -0.096480756099523557 0 0.40768714802050149 -0.08893460537075161 0 0.40500385854549981 -0.095597386923395464 0 0.40768714802050149 -0.08893460537075161 0 0.41445357682348283 -0.081310748503101646 0 0.40505380902809568 -0.079387311777305083 0 0.41395797924000682 -0.089603492239670526 0 0.41445357682348283 -0.081310748503101646 0 0.42251097145479438 -0.084913372918297189 0 0.41395797924000682 -0.089603492239670526 0 0.41962235314502311 -0.092590383474632582 0 0.42251097145479438 -0.084913372918297189 0 0.41207625217053079 -0.096480756099523557 0 0.41395797924000682 -0.089603492239670526 0 0.41962235314502311 -0.092590383474632582 0 0.4252237251623599 -0.096004625889045597 0 0.42952017343151838 -0.083515900429503243 0 0.42251097145479438 -0.084913372918297189 0 0.43250948051949578 -0.1029747526887842 0 0.42952017343151838 -0.083515900429503243 0 0.43379000968534709 -0.100869027425513 0 0.43586602604278912 -0.092428923512229103 0 0.42952017343151838 -0.083515900429503243 0 0.4252237251623599 -0.096004625889045597 0 0.41962235314502311 -0.092590383474632582 0 0.42251097145479438 -0.084913372918297189 0 0.43586602604278912 -0.092428923512229103 0 0.43472385382870188 -0.082478407114331395 0 0.42952017343151838 -0.083515900429503243 0 0.43472385382870188 -0.082478407114331395 0 0.42952017343151838 -0.083515900429503243 0 0.43472385382870188 -0.082478407114331395 0 0.42895401193526062 -0.079830480167756152 0 0.43488980624791451 -0.074872861354195422 0 0.43472385382870188 -0.082478407114331395 0 0.42895401193526062 -0.079830480167756152 0 0.43472385382870188 -0.082478407114331395 0 0.42895401193526062 -0.079830480167756152 0 0.42952017343151838 -0.083515900429503243 0 0.41445357682348283 -0.081310748503101646 0 0.42895401193526062 -0.079830480167756152 0 0.42251097145479438 -0.084913372918297189 0 0.42895401193526062 -0.079830480167756152 0 0.42952017343151838 -0.083515900429503243 0 0.42895401193526062 -0.079830480167756152 0 0.42952017343151838 -0.083515900429503243 0 0.42251097145479438 -0.084913372918297189 0 0.42952017343151838 -0.083515900429503243 0 0.42251097145479438 -0.084913372918297189 0 0.42895401193526062 -0.079830480167756152 0 0.43316124104850812 -0.066912893931490469 0 0.42529289394631797 -0.055998484339285677 0 0.42895401193526062 -0.079830480167756152 0 0.4113817043902353 -0.071766102058040848 0 0.42529289394631797 -0.055998484339285677 0 0.42895401193526062 -0.079830480167756152 0 0.42529289394631797 -0.055998484339285677 0 0.44288827062948161 -0.074066558474382815 0 0.43488980624791451 -0.074872861354195422 0 0.43316124104850812 -0.066912893931490469 0 0.42895401193526062 -0.079830480167756152 0 0.43488980624791451 -0.074872861354195422 0 0.43316124104850812 -0.066912893931490469 0 0.41445357682348283 -0.081310748503101646 0 0.42895401193526062 -0.079830480167756152 0 0.4113817043902353 -0.071766102058040848 0 0.42895401193526062 -0.079830480167756152 0 0.4113817043902353 -0.071766102058040848 0 0.41445357682348283 -0.081310748503101646 0 0.4113817043902353 -0.071766102058040848 0 0.40505380902809568 -0.079387311777305083 0 0.4113817043902353 -0.071766102058040848 0 0.39380939684520982 -0.063701723948325933 0 0.40505380902809568 -0.079387311777305083 0 0.4113817043902353 -0.071766102058040848 0 0.39380939684520982 -0.063701723948325933 0 0.39380939684520982 -0.063701723948325933 0 0.39973267347627822 -0.091854553152876051 0 0.4113817043902353 -0.071766102058040848 0 0.39380939684520982 -0.063701723948325933 0 0.40948877344091178 -0.059194250056239579 0 0.39380939684520982 -0.063701723948325933 0 0.37787273566062729 -0.075547932718964289 0 0.38844899859931958 -0.08135705107036198 0 0.39380939684520982 -0.063701723948325933 0 0.37787273566062729 -0.075547932718964289 0 0.37641054954671188 -0.055716951150059521 0 0.38844899859931958 -0.08135705107036198 0 0.38256078186723558 -0.08400355893217365 0 0.38754122074821301 -0.091305700511591786 0 0.37787273566062729 -0.075547932718964289 0 0.38844899859931958 -0.08135705107036198 0 0.38256078186723558 -0.08400355893217365 0 0.37787273566062729 -0.075547932718964289 0 0.38256078186723558 -0.08400355893217365 0 0.37638017246078248 -0.087803551427776572 0 0.38256078186723558 -0.08400355893217365 0 0.37638017246078248 -0.087803551427776572 0 0.38754122074821301 -0.091305700511591786 0 0.37638017246078248 -0.087803551427776572 0 0.37793274110683128 -0.097770061751312698 0 0.3707401700183458 -0.094589703696735417 0 0.37638017246078248 -0.087803551427776572 0 0.38754122074821301 -0.091305700511591786 0 0.37793274110683128 -0.097770061751312698 0 0.38844899859931958 -0.08135705107036198 0 0.38754122074821301 -0.091305700511591786 0 0.39973267347627822 -0.091854553152876051 0 0.39380939684520982 -0.063701723948325933 0 0.38844899859931958 -0.08135705107036198 0 0.39973267347627822 -0.091854553152876051 0 0.39380939684520982 -0.063701723948325933 0 0.40505380902809568 -0.079387311777305083 0 0.39973267347627822 -0.091854553152876051 0 0.40768714802050149 -0.08893460537075161 0 0.40505380902809568 -0.079387311777305083 0 0.39973267347627822 -0.091854553152876051 0 0.40768714802050149 -0.08893460537075161 0 0.39973267347627822 -0.091854553152876051 0 0.40500385854549981 -0.095597386923395464 0 0.39973267347627822 -0.091854553152876051 0 0.40500385854549981 -0.095597386923395464 0 0.38291992134982189 -0.11142604238698101 0 0.40500385854549981 -0.095597386923395464 0 0.40031570466434602 -0.10784192653055739 0 0.38291992134982189 -0.11142604238698101 0 0.40500385854549981 -0.095597386923395464 0 0.38291992134982189 -0.11142604238698101 0 0.40791534720467409 -0.1025791957879742 0 0.40500385854549981 -0.095597386923395464 0 0.40031570466434602 -0.10784192653055739 0 0.40822091110887337 -0.1097210061941766 0 0.40791534720467409 -0.1025791957879742 0 0.40031570466434602 -0.10784192653055739 0 0.38754122074821301 -0.091305700511591786 0 0.37793274110683128 -0.097770061751312698 0 0.38291992134982189 -0.11142604238698101 0 0.38754122074821301 -0.091305700511591786 0 0.39973267347627822 -0.091854553152876051 0 0.38291992134982189 -0.11142604238698101 0 0.37793274110683128 -0.097770061751312698 0 0.38291992134982189 -0.11142604238698101 0 0.37189882748100062 -0.10341498604999699 0 0.38291992134982189 -0.11142604238698101 0 0.39760740981372272 -0.1168421869535083 0 0.38692262846980158 -0.13235152922741089 0 0.38291992134982189 -0.11142604238698101 0 0.36168649913739109 -0.12826321016768899 0 0.38692262846980158 -0.13235152922741089 0 0.40031570466434602 -0.10784192653055739 0 0.38291992134982189 -0.11142604238698101 0 0.39760740981372272 -0.1168421869535083 0 0.40965788347577048 -0.12287043042841581 0 0.39760740981372272 -0.1168421869535083 0 0.38692262846980158 -0.13235152922741089 0 0.40822091110887337 -0.1097210061941766 0 0.40031570466434602 -0.10784192653055739 0 0.39760740981372272 -0.1168421869535083 0 0.40965788347577048 -0.12287043042841581 0 0.40822091110887337 -0.1097210061941766 0 0.39760740981372272 -0.1168421869535083 0 0.42176458873350758 -0.01258580432192687 0 0.42163177595737539 -0.032166488510815078 0 0.40323754691299801 -0.021042540675500869 0 0.41944464684483579 0.0034308182193272451 0 0.40790894722904308 -0.0027385974542700189 0 0.42176458873350758 -0.01258580432192687 0 0.40790894722904308 -0.0027385974542700189 0 0.42176458873350758 -0.01258580432192687 0 0.40323754691299801 -0.021042540675500869 0 0.4340350753884557 0.001639330270419299 0 0.43698614046879769 -0.023595965977848011 0 0.41944464684483579 0.0034308182193272451 0 0.4340350753884557 0.001639330270419299 0 0.42176458873350758 -0.01258580432192687 0 0.4340350753884557 0.001639330270419299 0 0.42176458873350758 -0.01258580432192687 0 0.43698614046879769 -0.023595965977848011 0 0.42176458873350758 -0.01258580432192687 0 0.43698614046879769 -0.023595965977848011 0 0.42163177595737539 -0.032166488510815078 0 0.42529289394631797 -0.055998484339285677 0 0.42163177595737539 -0.032166488510815078 0 0.43993720554913962 -0.048831262226115363 0 0.42529289394631797 -0.055998484339285677 0 0.42163177595737539 -0.032166488510815078 0 0.43993720554913962 -0.048831262226115363 0 0.43698614046879769 -0.023595965977848011 0 0.42163177595737539 -0.032166488510815078 0 0.43993720554913962 -0.048831262226115363 0 0.43316124104850812 -0.066912893931490469 0 0.42529289394631797 -0.055998484339285677 0 0.42529289394631797 -0.055998484339285677 0 0.40948877344091178 -0.059194250056239579 0 0.40747109858188452 -0.045310689879305872 0 0.4113817043902353 -0.071766102058040848 0 0.42529289394631797 -0.055998484339285677 0 0.40948877344091178 -0.059194250056239579 0 0.40747109858188452 -0.045310689879305872 0 0.42163177595737539 -0.032166488510815078 0 0.40323754691299801 -0.021042540675500869 0 0.42529289394631797 -0.055998484339285677 0 0.40747109858188452 -0.045310689879305872 0 0.42163177595737539 -0.032166488510815078 0 0.40747109858188452 -0.045310689879305872 0 0.38862680794823279 -0.039069320442354907 0 0.40323754691299801 -0.021042540675500869 0 0.39380939684520982 -0.063701723948325933 0 0.40747109858188452 -0.045310689879305872 0 0.38862680794823279 -0.039069320442354907 0 0.39380939684520982 -0.063701723948325933 0 0.38862680794823279 -0.039069320442354907 0 0.39380939684520982 -0.063701723948325933 0 0.40948877344091178 -0.059194250056239579 0 0.40747109858188452 -0.045310689879305872 0 0.39380939684520982 -0.063701723948325933 0 0.37641054954671188 -0.055716951150059521 0 0.38862680794823279 -0.039069320442354907 0 0.39380939684520982 -0.063701723948325933 0 0.37641054954671188 -0.055716951150059521 0 0.37641054954671188 -0.055716951150059521 0 0.38862680794823279 -0.039069320442354907 0 0.3702921431185261 -0.031342858665572848 0 0.38862680794823279 -0.039069320442354907 0 0.38344421905125631 -0.014436916936383829 0 0.38862680794823279 -0.039069320442354907 0 0.38344421905125631 -0.014436916936383829 0 0.3702921431185261 -0.031342858665572848 0 0.38862680794823279 -0.039069320442354907 0 0.40323754691299801 -0.021042540675500869 0 0.38344421905125631 -0.014436916936383829 0 0.40323754691299801 -0.021042540675500869 0 0.39230006582974808 -0.0010026223524705999 0 0.38344421905125631 -0.014436916936383829 0 0.40790894722904308 -0.0027385974542700189 0 0.40323754691299801 -0.021042540675500869 0 0.39230006582974808 -0.0010026223524705999 0 0.37480627682858808 0.0031980373757327469 0 0.39230006582974808 -0.0010026223524705999 0 0.38344421905125631 -0.014436916936383829 0 0.37480627682858808 0.0031980373757327469 0 0.38344421905125631 -0.014436916936383829 0 0.36930940972943938 -0.0120171137117403 0 0.37480627682858808 0.0031980373757327469 0 0.36930940972943938 -0.0120171137117403 0 0.36021918312170298 -0.0013012598410329409 0 0.36930940972943938 -0.0120171137117403 0 0.36021918312170298 -0.0013012598410329409 0 0.35647057554584988 -0.01703124045379514 0 0.36930940972943938 -0.0120171137117403 0 0.35647057554584988 -0.01703124045379514 0 0.3702921431185261 -0.031342858665572848 0 0.38344421905125631 -0.014436916936383829 0 0.36930940972943938 -0.0120171137117403 0 0.3702921431185261 -0.031342858665572848 0 0.35647057554584988 -0.01703124045379514 0 0.35453273548585429 -0.032647270005769433 0 0.3702921431185261 -0.031342858665572848 0 0.35647057554584988 -0.01703124045379514 0 0.3444673197428379 -0.020551691930021921 0 0.35453273548585429 -0.032647270005769433 0 0.36021918312170298 -0.0013012598410329409 0 0.35647057554584988 -0.01703124045379514 0 0.34485758809323902 -0.0063515813176417864 0 0.35647057554584988 -0.01703124045379514 0 0.3444673197428379 -0.020551691930021921 0 0.34485758809323902 -0.0063515813176417864 0 0.35647057554584988 -0.01703124045379514 0 0.34485758809323902 -0.0063515813176417864 0 0.34958724295074289 0.0051500888515663718 0 0.36021918312170298 -0.0013012598410329409 0 0.34485758809323902 -0.0063515813176417864 0 0.33324460064062689 0.0043280778185103008 0 0.34485758809323902 -0.0063515813176417864 0 0.33324460064062689 0.0043280778185103008 0 0.34485758809323902 -0.0063515813176417864 0 0.33276926941549179 -0.01032779470550339 0 0.33324460064062689 0.0043280778185103008 0 0.33276926941549179 -0.01032779470550339 0 0.32011842708006022 -0.0073380495210770384 0 0.3444673197428379 -0.020551691930021921 0 0.34485758809323902 -0.0063515813176417864 0 0.33276926941549179 -0.01032779470550339 0 0.3444673197428379 -0.020551691930021921 0 0.33276926941549179 -0.01032779470550339 0 0.32156079371515689 -0.021945208759944081 0 0.3444673197428379 -0.020551691930021921 0 0.32486434900732941 -0.040953937290367712 0 0.3444673197428379 -0.020551691930021921 0 0.32156079371515689 -0.021945208759944081 0 0.32486434900732941 -0.040953937290367712 0 0.32156079371515689 -0.021945208759944081 0 0.32011842708006022 -0.0073380495210770384 0 0.30699225351949327 -0.019004176860664228 0 0.32011842708006022 -0.0073380495210770384 0 0.30699225351949327 -0.019004176860664228 0 0.33324460064062689 0.0043280778185103008 0 0.32011842708006022 -0.0073380495210770384 0 0.33276926941549179 -0.01032779470550339 0 0.32156079371515689 -0.021945208759944081 0 0.32011842708006022 -0.0073380495210770384 0 0.32486434900732941 -0.040953937290367712 0 0.30526137827181749 -0.061356182650710217 0 0.32486434900732941 -0.040953937290367712 0 0.32325805501912891 -0.063329929972463006 0 0.30526137827181749 -0.061356182650710217 0 0.32156079371515689 -0.021945208759944081 0 0.32486434900732941 -0.040953937290367712 0 0.30665210685347483 -0.034914901235082167 0 0.3444673197428379 -0.020551691930021921 0 0.32486434900732941 -0.040953937290367712 0 0.34369293623059982 -0.041622641119980187 0 0.32486434900732941 -0.040953937290367712 0 0.34369293623059982 -0.041622641119980187 0 0.33920436435036522 -0.060253447719391527 0 0.32486434900732941 -0.040953937290367712 0 0.33920436435036522 -0.060253447719391527 0 0.32325805501912891 -0.063329929972463006 0 0.34369293623059982 -0.041622641119980187 0 0.33920436435036522 -0.060253447719391527 0 0.35901170224821383 -0.047732178351793393 0 0.33920436435036522 -0.060253447719391527 0 0.35901170224821383 -0.047732178351793393 0 0.35330747925707878 -0.068693353341801933 0 0.3444673197428379 -0.020551691930021921 0 0.34369293623059982 -0.041622641119980187 0 0.35453273548585429 -0.032647270005769433 0 0.34369293623059982 -0.041622641119980187 0 0.35901170224821383 -0.047732178351793393 0 0.35453273548585429 -0.032647270005769433 0 0.35901170224821383 -0.047732178351793393 0 0.35453273548585429 -0.032647270005769433 0 0.3702921431185261 -0.031342858665572848 0 0.37641054954671188 -0.055716951150059521 0 0.35901170224821383 -0.047732178351793393 0 0.3702921431185261 -0.031342858665572848 0 0.37641054954671188 -0.055716951150059521 0 0.35901170224821383 -0.047732178351793393 0 0.37641054954671188 -0.055716951150059521 0 0.35901170224821383 -0.047732178351793393 0 0.3662813185766185 -0.064564438168145152 0 0.35901170224821383 -0.047732178351793393 0 0.3662813185766185 -0.064564438168145152 0 0.35330747925707878 -0.068693353341801933 0 0.37787273566062729 -0.075547932718964289 0 0.37641054954671188 -0.055716951150059521 0 0.3662813185766185 -0.064564438168145152 0 0.3662813185766185 -0.064564438168145152 0 0.36480412617046071 -0.075131775278106563 0 0.35330747925707878 -0.068693353341801933 0 0.37787273566062729 -0.075547932718964289 0 0.3662813185766185 -0.064564438168145152 0 0.36480412617046071 -0.075131775278106563 0 0.37787273566062729 -0.075547932718964289 0 0.37638017246078248 -0.087803551427776572 0 0.36795821731719341 -0.084744059275466091 0 0.37787273566062729 -0.075547932718964289 0 0.36480412617046071 -0.075131775278106563 0 0.36795821731719341 -0.084744059275466091 0 0.37638017246078248 -0.087803551427776572 0 0.36795821731719341 -0.084744059275466091 0 0.3707401700183458 -0.094589703696735417 0 0.36795821731719341 -0.084744059275466091 0 0.36288380638207512 -0.091511379128484088 0 0.3707401700183458 -0.094589703696735417 0 0.36795821731719341 -0.084744059275466091 0 0.36288380638207512 -0.091511379128484088 0 0.35964209672665459 -0.083660574615442296 0 0.36480412617046071 -0.075131775278106563 0 0.36795821731719341 -0.084744059275466091 0 0.35964209672665459 -0.083660574615442296 0 0.35964209672665459 -0.083660574615442296 0 0.34969974354966321 -0.082393933107359069 0 0.35330747925707878 -0.068693353341801933 0 0.36288380638207512 -0.091511379128484088 0 0.35964209672665459 -0.083660574615442296 0 0.3529880563769448 -0.092548980536749037 0 0.35964209672665459 -0.083660574615442296 0 0.3529880563769448 -0.092548980536749037 0 0.34969974354966321 -0.082393933107359069 0 0.3529880563769448 -0.092548980536749037 0 0.34969974354966321 -0.082393933107359069 0 0.34101196820701368 -0.087755622066602604 0 0.3529880563769448 -0.092548980536749037 0 0.34473177415854922 -0.096883879179409632 0 0.34101196820701368 -0.087755622066602604 0 0.34969974354966321 -0.082393933107359069 0 0.35330747925707878 -0.068693353341801933 0 0.33769911241480499 -0.073758422732266515 0 0.36480412617046071 -0.075131775278106563 0 0.35964209672665459 -0.083660574615442296 0 0.35330747925707878 -0.068693353341801933 0 0.36795640820407999 -0.1118333450189257 0 0.36107672428811749 -0.1114587911797611 0 0.36168649913739109 -0.12826321016768899 0 0.38291992134982189 -0.11142604238698101 0 0.36795640820407999 -0.1118333450189257 0 0.36168649913739109 -0.12826321016768899 0 0.38291992134982189 -0.11142604238698101 0 0.36168649913739109 -0.12826321016768899 0 0.36795640820407999 -0.1118333450189257 0 0.36107672428811749 -0.1114587911797611 0 0.36484610857022609 -0.1058712134123192 0 0.36107672428811749 -0.1114587911797611 0 0.36484610857022609 -0.1058712134123192 0 0.3581253473041604 -0.1041828806657224 0 0.36484610857022609 -0.1058712134123192 0 0.36523159977732739 -0.099156206682578213 0 0.3581253473041604 -0.1041828806657224 0 0.38291992134982189 -0.11142604238698101 0 0.36795640820407999 -0.1118333450189257 0 0.37189882748100062 -0.10341498604999699 0 0.36795640820407999 -0.1118333450189257 0 0.36484610857022609 -0.1058712134123192 0 0.37189882748100062 -0.10341498604999699 0 0.36484610857022609 -0.1058712134123192 0 0.37189882748100062 -0.10341498604999699 0 0.36523159977732739 -0.099156206682578213 0 0.37793274110683128 -0.097770061751312698 0 0.37189882748100062 -0.10341498604999699 0 0.3707401700183458 -0.094589703696735417 0 0.37189882748100062 -0.10341498604999699 0 0.3707401700183458 -0.094589703696735417 0 0.36523159977732739 -0.099156206682578213 0 0.36288380638207512 -0.091511379128484088 0 0.3707401700183458 -0.094589703696735417 0 0.36523159977732739 -0.099156206682578213 0 0.36523159977732739 -0.099156206682578213 0 0.35886095596071238 -0.097229910013133566 0 0.3581253473041604 -0.1041828806657224 0 0.36288380638207512 -0.091511379128484088 0 0.36523159977732739 -0.099156206682578213 0 0.35886095596071238 -0.097229910013133566 0 0.36288380638207512 -0.091511379128484088 0 0.3529880563769448 -0.092548980536749037 0 0.35886095596071238 -0.097229910013133566 0 0.35886095596071238 -0.097229910013133566 0 0.35232982557845949 -0.099056978203848123 0 0.3581253473041604 -0.1041828806657224 0 0.3529880563769448 -0.092548980536749037 0 0.35886095596071238 -0.097229910013133566 0 0.35232982557845949 -0.099056978203848123 0 0.3529880563769448 -0.092548980536749037 0 0.35232982557845949 -0.099056978203848123 0 0.34473177415854922 -0.096883879179409632 0 0.35232982557845949 -0.099056978203848123 0 0.34473177415854922 -0.096883879179409632 0 0.34694299409193058 -0.1044392406242263 0 0.34694299409193058 -0.1044392406242263 0 0.35361977320797489 -0.1081518189512682 0 0.34169632055415922 -0.1045595227316594 0 0.34694299409193058 -0.1044392406242263 0 0.34169632055415922 -0.1045595227316594 0 0.34694299409193058 -0.1044392406242263 0 0.35361977320797489 -0.1081518189512682 0 0.34694299409193058 -0.1044392406242263 0 0.3581253473041604 -0.1041828806657224 0 0.34694299409193058 -0.1044392406242263 0 0.35361977320797489 -0.1081518189512682 0 0.3581253473041604 -0.1041828806657224 0 0.35232982557845949 -0.099056978203848123 0 0.34694299409193058 -0.1044392406242263 0 0.3581253473041604 -0.1041828806657224 0 0.36107672428811749 -0.1114587911797611 0 0.35361977320797489 -0.1081518189512682 0 0.3581253473041604 -0.1041828806657224 0 0.35361977320797489 -0.1081518189512682 0 0.34169632055415922 -0.1045595227316594 0 0.36168649913739109 -0.12826321016768899 0 0.34326165928230218 -0.1177504677768216 0 0.34169632055415922 -0.1045595227316594 0 0.36168649913739109 -0.12826321016768899 0 0.36107672428811749 -0.1114587911797611 0 0.35361977320797489 -0.1081518189512682 0 0.36168649913739109 -0.12826321016768899 0 0.34326165928230218 -0.1177504677768216 0 0.35294213858823181 -0.12684660085224431 0 0.35984511717398671 -0.1279649014659851 0 0.34326165928230218 -0.1177504677768216 0 0.35984511717398671 -0.1279649014659851 0 0.36168649913739109 -0.12826321016768899 0 0.34169632055415922 -0.1045595227316594 0 0.36168649913739109 -0.12826321016768899 0 0.34326165928230218 -0.1177504677768216 0 0.3382695783392563 -0.12981579614062361 0 0.35294213858823181 -0.12684660085224431 0 0.33084250853676511 -0.1236438219174287 0 0.34326165928230218 -0.1177504677768216 0 0.32904682037245309 -0.1146112156658252 0 0.33084250853676511 -0.1236438219174287 0 0.34326165928230218 -0.1177504677768216 0 0.3382695783392563 -0.12981579614062361 0 0.34326165928230218 -0.1177504677768216 0 0.32904682037245309 -0.1146112156658252 0 0.34169632055415922 -0.1045595227316594 0 0.32904682037245309 -0.1146112156658252 0 0.34169632055415922 -0.1045595227316594 0 0.31467755497019151 -0.1051789388324115 0 0.34169632055415922 -0.1045595227316594 0 0.31467755497019151 -0.1051789388324115 0 0.34169632055415922 -0.1045595227316594 0 0.33687252016065472 -0.098839621015655577 0 0.31467755497019151 -0.1051789388324115 0 0.34694299409193058 -0.1044392406242263 0 0.34169632055415922 -0.1045595227316594 0 0.33687252016065472 -0.098839621015655577 0 0.34694299409193058 -0.1044392406242263 0 0.33687252016065472 -0.098839621015655577 0 0.34169632055415922 -0.1045595227316594 0 0.33687252016065472 -0.098839621015655577 0 0.34473177415854922 -0.096883879179409632 0 0.34694299409193058 -0.1044392406242263 0 0.33687252016065472 -0.098839621015655577 0 0.34473177415854922 -0.096883879179409632 0 0.33687252016065472 -0.098839621015655577 0 0.34101196820701368 -0.087755622066602604 0 0.33687252016065472 -0.098839621015655577 0 0.31467755497019151 -0.1051789388324115 0 0.31483383624903971 -0.086585158373601825 0 0.33084250853676511 -0.1236438219174287 0 0.32904682037245309 -0.1146112156658252 0 0.3147560585188473 -0.12192332707080521 0 0.32904682037245309 -0.1146112156658252 0 0.31467755497019151 -0.1051789388324115 0 0.3147560585188473 -0.12192332707080521 0 0.33920436435036522 -0.060253447719391527 0 0.33769911241480499 -0.073758422732266515 0 0.32325805501912891 -0.063329929972463006 0 0.33920436435036522 -0.060253447719391527 0 0.35330747925707878 -0.068693353341801933 0 0.33769911241480499 -0.073758422732266515 0 0.33769911241480499 -0.073758422732266515 0 0.34101196820701368 -0.087755622066602604 0 0.32106694921623552 -0.080097901833183355 0 0.34969974354966321 -0.082393933107359069 0 0.33769911241480499 -0.073758422732266515 0 0.34101196820701368 -0.087755622066602604 0 0.33687252016065472 -0.098839621015655577 0 0.34101196820701368 -0.087755622066602604 0 0.32106694921623552 -0.080097901833183355 0 0.33687252016065472 -0.098839621015655577 0 0.32106694921623552 -0.080097901833183355 0 0.33687252016065472 -0.098839621015655577 0 0.32106694921623552 -0.080097901833183355 0 0.31483383624903971 -0.086585158373601825 0 0.33687252016065472 -0.098839621015655577 0 0.31483383624903971 -0.086585158373601825 0 0.32106694921623552 -0.080097901833183355 0 0.32325805501912891 -0.063329929972463006 0 0.30526137827181749 -0.061356182650710217 0 0.32106694921623552 -0.080097901833183355 0 0.31483383624903971 -0.086585158373601825 0 0.30526137827181749 -0.061356182650710217 0 0.33769911241480499 -0.073758422732266515 0 0.32106694921623552 -0.080097901833183355 0 0.32325805501912891 -0.063329929972463006 0 0.32106694921623552 -0.080097901833183355 0 0.30526137827181749 -0.061356182650710217 0 0.31483383624903971 -0.086585158373601825 0 0.29279515233742431 -0.074330695731548824 0 0.30526137827181749 -0.061356182650710217 0 0.29279515233742431 -0.074330695731548824 0 0.30526137827181749 -0.061356182650710217 0 0.31483383624903971 -0.086585158373601825 0 0.2980052205425533 -0.09021911401215589 0 0.29279515233742431 -0.074330695731548824 0 0.31483383624903971 -0.086585158373601825 0 0.29279515233742431 -0.074330695731548824 0 0.2980052205425533 -0.09021911401215589 0 0.28787052611409941 -0.079456114417924231 0 0.29279515233742431 -0.074330695731548824 0 0.2980052205425533 -0.09021911401215589 0 0.28762885248553471 -0.090413028734746076 0 0.28787052611409941 -0.079456114417924231 0 0.28762885248553471 -0.090413028734746076 0 0.28137523385015889 -0.084095562783942507 0 0.27793004420742112 -0.092879917792882322 0 0.28762885248553471 -0.090413028734746076 0 0.28787052611409941 -0.079456114417924231 0 0.28137523385015889 -0.084095562783942507 0 0.28787052611409941 -0.079456114417924231 0 0.28137523385015889 -0.084095562783942507 0 0.28095559498995287 -0.076924203278833828 0 0.28787052611409941 -0.079456114417924231 0 0.28510235272681189 -0.070053166010667578 0 0.29279515233742431 -0.074330695731548824 0 0.28787052611409941 -0.079456114417924231 0 0.28510235272681189 -0.070053166010667578 0 0.28095559498995287 -0.076924203278833828 0 0.28510235272681189 -0.070053166010667578 0 0.29279515233742431 -0.074330695731548824 0 0.28510235272681189 -0.070053166010667578 0 0.27970896399568712 -0.057464901829033369 0 0.29050800284197031 -0.06121519232671413 0 0.29279515233742431 -0.074330695731548824 0 0.30526137827181749 -0.061356182650710217 0 0.29050800284197031 -0.06121519232671413 0 0.28510235272681189 -0.070053166010667578 0 0.29279515233742431 -0.074330695731548824 0 0.29050800284197031 -0.06121519232671413 0 0.28787052611409941 -0.079456114417924231 0 0.29279515233742431 -0.074330695731548824 0 0.3147560585188473 -0.12192332707080521 0 0.28765878938622369 -0.1057983549331631 0 0.2977070338454324 -0.13584672800640901 0 0.31467755497019151 -0.1051789388324115 0 0.3147560585188473 -0.12192332707080521 0 0.28765878938622369 -0.1057983549331631 0 0.31467755497019151 -0.1051789388324115 0 0.2980052205425533 -0.09021911401215589 0 0.28765878938622369 -0.1057983549331631 0 0.31467755497019151 -0.1051789388324115 0 0.31483383624903971 -0.086585158373601825 0 0.2980052205425533 -0.09021911401215589 0 0.31467755497019151 -0.1051789388324115 0 0.28765878938622369 -0.1057983549331631 0 0.2980052205425533 -0.09021911401215589 0 0.28762885248553471 -0.090413028734746076 0 0.28765878938622369 -0.1057983549331631 0 0.28762885248553471 -0.090413028734746076 0 0.28765878938622369 -0.1057983549331631 0 0.27793004420742112 -0.092879917792882322 0 0.28765878938622369 -0.1057983549331631 0 0.27564158713962128 -0.1245755971625707 0 0.2977070338454324 -0.13584672800640901 0 0.28765878938622369 -0.1057983549331631 0 0.27564158713962128 -0.1245755971625707 0 0.26064002380225593 -0.1064177710339146 0 0.28765878938622369 -0.1057983549331631 0 0.26064002380225593 -0.1064177710339146 0 0.27793004420742112 -0.092879917792882322 0 0.26064002380225593 -0.1064177710339146 0 0.27793004420742112 -0.092879917792882322 0 0.26356556590238289 -0.08984094230504612 0 0.28765878938622369 -0.1057983549331631 0 0.26064002380225593 -0.1064177710339146 0 0.26064002380225593 -0.1064177710339146 0 0.26356556590238289 -0.08984094230504612 0 0.2486579036838901 -0.091929136903625044 0 0.27564158713962128 -0.1245755971625707 0 0.26064002380225593 -0.1064177710339146 0 0.2576308175514026 -0.1290469204973482 0 0.26064002380225593 -0.1064177710339146 0 0.2576308175514026 -0.1290469204973482 0 0.24647198365887141 -0.1171192445788671 0 0.26576855479608402 -0.072152048101549252 0 0.27275872700649267 -0.06279277559081417 0 0.26416087653576148 -0.053537389504546021 0 0.26576855479608402 -0.072152048101549252 0 0.27659848942104109 -0.06993719477980552 0 0.27249115145378638 -0.080804549695326064 0 0.26576855479608402 -0.072152048101549252 0 0.27275872700649267 -0.06279277559081417 0 0.27659848942104109 -0.06993719477980552 0 0.27275872700649267 -0.06279277559081417 0 0.27659848942104109 -0.06993719477980552 0 0.27970896399568712 -0.057464901829033369 0 0.28510235272681189 -0.070053166010667578 0 0.27659848942104109 -0.06993719477980552 0 0.27970896399568712 -0.057464901829033369 0 0.27659848942104109 -0.06993719477980552 0 0.28095559498995287 -0.076924203278833828 0 0.27249115145378638 -0.080804549695326064 0 0.28510235272681189 -0.070053166010667578 0 0.27659848942104109 -0.06993719477980552 0 0.28095559498995287 -0.076924203278833828 0 0.28137523385015889 -0.084095562783942507 0 0.27793004420742112 -0.092879917792882322 0 0.27249115145378638 -0.080804549695326064 0 0.28137523385015889 -0.084095562783942507 0 0.28095559498995287 -0.076924203278833828 0 0.27249115145378638 -0.080804549695326064 0 0.27793004420742112 -0.092879917792882322 0 0.27249115145378638 -0.080804549695326064 0 0.26356556590238289 -0.08984094230504612 0 0.27249115145378638 -0.080804549695326064 0 0.26356556590238289 -0.08984094230504612 0 0.25754713702488752 -0.078577877024033932 0 0.26356556590238289 -0.08984094230504612 0 0.25754713702488752 -0.078577877024033932 0 0.2486579036838901 -0.091929136903625044 0 0.25754713702488752 -0.078577877024033932 0 0.25115979355813689 -0.064850258293955507 0 0.24184062714751611 -0.078719067978312018 0 0.26576855479608402 -0.072152048101549252 0 0.25115979355813689 -0.064850258293955507 0 0.26416087653576148 -0.053537389504546021 0 0.26576855479608402 -0.072152048101549252 0 0.25754713702488752 -0.078577877024033932 0 0.25115979355813689 -0.064850258293955507 0 0.26576855479608402 -0.072152048101549252 0 0.27249115145378638 -0.080804549695326064 0 0.25754713702488752 -0.078577877024033932 0 0.25115979355813689 -0.064850258293955507 0 0.26416087653576148 -0.053537389504546021 0 0.2440693048792196 -0.043621659509538023 0 0.27275872700649267 -0.06279277559081417 0 0.26416087653576148 -0.053537389504546021 0 0.27970896399568712 -0.057464901829033369 0 0.27970896399568712 -0.057464901829033369 0 0.2736894660457348 -0.043008657079828858 0 0.28967216687811143 -0.042871015411610203 0 0.26416087653576148 -0.053537389504546021 0 0.27970896399568712 -0.057464901829033369 0 0.2736894660457348 -0.043008657079828858 0 0.2736894660457348 -0.043008657079828858 0 0.27408295548440559 -0.02438584817250981 0 0.28967216687811143 -0.042871015411610203 0 0.26416087653576148 -0.053537389504546021 0 0.2736894660457348 -0.043008657079828858 0 0.26082236733470843 -0.036784130481444903 0 0.2736894660457348 -0.043008657079828858 0 0.26082236733470843 -0.036784130481444903 0 0.27408295548440559 -0.02438584817250981 0 0.26082236733470843 -0.036784130481444903 0 0.25004730038205031 -0.02239448951804349 0 0.2440693048792196 -0.043621659509538023 0 0.26416087653576148 -0.053537389504546021 0 0.26082236733470843 -0.036784130481444903 0 0.2440693048792196 -0.043621659509538023 0 0.26082236733470843 -0.036784130481444903 0 0.25004730038205031 -0.02239448951804349 0 0.27408295548440559 -0.02438584817250981 0 0.25004730038205031 -0.02239448951804349 0 0.25849374409069992 -0.005900680933409494 0 0.27408295548440559 -0.02438584817250981 0 0.25849374409069992 -0.005900680933409494 0 0.27408295548440559 -0.02438584817250981 0 0.27307428835555619 0.00094827631979207375 0 0.25849374409069992 -0.005900680933409494 0 0.27408295548440559 -0.02438584817250981 0 0.27307428835555619 0.00094827631979207375 0 0.27408295548440559 -0.02438584817250981 0 0.28873231997852122 -0.0063046073450654539 0 0.27408295548440559 -0.02438584817250981 0 0.29156169972894108 -0.023358886437196271 0 0.28967216687811143 -0.042871015411610203 0 0.27408295548440559 -0.02438584817250981 0 0.29156169972894108 -0.023358886437196271 0 0.28873231997852122 -0.0063046073450654539 0 0.29156169972894108 -0.023358886437196271 0 0.28873231997852122 -0.0063046073450654539 0 0.30699225351949327 -0.019004176860664228 0 0.3064831655415996 0.0035408580798193248 0 0.32011842708006022 -0.0073380495210770384 0 0.30699225351949327 -0.019004176860664228 0 0.3064831655415996 0.0035408580798193248 0 0.28873231997852122 -0.0063046073450654539 0 0.30699225351949327 -0.019004176860664228 0 0.29156169972894108 -0.023358886437196271 0 0.30699225351949327 -0.019004176860664228 0 0.30665210685347483 -0.034914901235082167 0 0.32156079371515689 -0.021945208759944081 0 0.30699225351949327 -0.019004176860664228 0 0.30665210685347483 -0.034914901235082167 0 0.30665210685347483 -0.034914901235082167 0 0.30526137827181749 -0.061356182650710217 0 0.28967216687811143 -0.042871015411610203 0 0.32486434900732941 -0.040953937290367712 0 0.30665210685347483 -0.034914901235082167 0 0.30526137827181749 -0.061356182650710217 0 0.30526137827181749 -0.061356182650710217 0 0.28967216687811143 -0.042871015411610203 0 0.30526137827181749 -0.061356182650710217 0 0.29050800284197031 -0.06121519232671413 0 0.28967216687811143 -0.042871015411610203 0 0.27970896399568712 -0.057464901829033369 0 0.29050800284197031 -0.06121519232671413 0 0.28967216687811143 -0.042871015411610203 0 0.29156169972894108 -0.023358886437196271 0 0.30665210685347483 -0.034914901235082167 0 0.28967216687811143 -0.042871015411610203 0 0.27408295548440559 -0.02438584817250981 0 0.28967216687811143 -0.042871015411610203 0 0.29870769194972963 -0.21134354742475789 0 0.2648590544937186 -0.1960461338425592 0 0.28860557016378557 -0.17902582574841691 0 0.29870769194972963 -0.21134354742475789 0 0.28860557016378557 -0.17902582574841691 0 0.31340458770834351 -0.19049672163930381 0 0.29870769194972963 -0.21134354742475789 0 0.2894957999125386 -0.23327239830110261 0 0.31743114122917743 -0.23095527100788099 0 0.30449497469334952 -0.2447051324796215 0 0.2894957999125386 -0.23327239830110261 0 0.31743114122917743 -0.23095527100788099 0 0.2894957999125386 -0.23327239830110261 0 0.270197361731774 -0.2421646047902016 0 0.28415180174894522 -0.25402381697538889 0 0.30449497469334952 -0.2447051324796215 0 0.2894957999125386 -0.23327239830110261 0 0.28415180174894522 -0.25402381697538889 0 0.29870769194972963 -0.21134354742475789 0 0.2894957999125386 -0.23327239830110261 0 0.2719371159194624 -0.21913151904521841 0 0.2894957999125386 -0.23327239830110261 0 0.2719371159194624 -0.21913151904521841 0 0.270197361731774 -0.2421646047902016 0 0.270197361731774 -0.2421646047902016 0 0.24815797478188861 -0.25056618779044898 0 0.24862663255775119 -0.2275323122507785 0 0.2719371159194624 -0.21913151904521841 0 0.270197361731774 -0.2421646047902016 0 0.24862663255775119 -0.2275323122507785 0 0.2719371159194624 -0.21913151904521841 0 0.24517642982242949 -0.2020165801774072 0 0.24862663255775119 -0.2275323122507785 0 0.2719371159194624 -0.21913151904521841 0 0.2648590544937186 -0.1960461338425592 0 0.24517642982242949 -0.2020165801774072 0 0.29870769194972963 -0.21134354742475789 0 0.2719371159194624 -0.21913151904521841 0 0.2648590544937186 -0.1960461338425592 0 0.2648590544937186 -0.1960461338425592 0 0.28860557016378557 -0.17902582574841691 0 0.2648590544937186 -0.1960461338425592 0 0.24938427448736231 -0.17995260973904689 0 0.24517642982242949 -0.2020165801774072 0 0.2648590544937186 -0.1960461338425592 0 0.2704892410715683 -0.1691849374863745 0 0.24938427448736231 -0.17995260973904689 0 0.2704892410715683 -0.1691849374863745 0 0.25351911100064528 -0.15563607498305279 0 0.24938427448736231 -0.17995260973904689 0 0.2704892410715683 -0.1691849374863745 0 0.27457127111279173 -0.1457682113420187 0 0.29114987071941462 -0.15859889576886529 0 0.2704892410715683 -0.1691849374863745 0 0.25351911100064528 -0.15563607498305279 0 0.27457127111279173 -0.1457682113420187 0 0.2648590544937186 -0.1960461338425592 0 0.2704892410715683 -0.1691849374863745 0 0.28860557016378557 -0.17902582574841691 0 0.2576308175514026 -0.1290469204973482 0 0.25351911100064528 -0.15563607498305279 0 0.27457127111279173 -0.1457682113420187 0 0.27564158713962128 -0.1245755971625707 0 0.2576308175514026 -0.1290469204973482 0 0.27457127111279173 -0.1457682113420187 0 0.27564158713962128 -0.1245755971625707 0 0.27457127111279173 -0.1457682113420187 0 0.2977070338454324 -0.13584672800640901 0 0.27457127111279173 -0.1457682113420187 0 0.2977070338454324 -0.13584672800640901 0 0.29114987071941462 -0.15859889576886529 0 0.2977070338454324 -0.13584672800640901 0 0.3123520858338526 -0.16200551765427459 0 0.32167097776301212 -0.13637006672494559 0 0.2977070338454324 -0.13584672800640901 0 0.29114987071941462 -0.15859889576886529 0 0.3123520858338526 -0.16200551765427459 0 0.3147560585188473 -0.12192332707080521 0 0.2977070338454324 -0.13584672800640901 0 0.32167097776301212 -0.13637006672494559 0 0.2704892410715683 -0.1691849374863745 0 0.28860557016378557 -0.17902582574841691 0 0.29114987071941462 -0.15859889576886529 0 0.28860557016378557 -0.17902582574841691 0 0.3123520858338526 -0.16200551765427459 0 0.28860557016378557 -0.17902582574841691 0 0.29114987071941462 -0.15859889576886529 0 0.3123520858338526 -0.16200551765427459 0 0.28860557016378557 -0.17902582574841691 0 0.3123520858338526 -0.16200551765427459 0 0.31340458770834351 -0.19049672163930381 0 0.3123520858338526 -0.16200551765427459 0 0.33479131905103671 -0.18905600809944451 0 0.31340458770834351 -0.19049672163930381 0 0.3123520858338526 -0.16200551765427459 0 0.34841352821016552 -0.170164137366384 0 0.33479131905103671 -0.18905600809944451 0 0.3123520858338526 -0.16200551765427459 0 0.33609860150391963 -0.14498520956013231 0 0.34841352821016552 -0.170164137366384 0 0.33084250853676511 -0.1236438219174287 0 0.3147560585188473 -0.12192332707080521 0 0.32167097776301212 -0.13637006672494559 0 0.3123520858338526 -0.16200551765427459 0 0.32167097776301212 -0.13637006672494559 0 0.33609860150391963 -0.14498520956013231 0 0.3123520858338526 -0.16200551765427459 0 0.33609860150391963 -0.14498520956013231 0 0.33609860150391963 -0.14498520956013231 0 0.3382695783392563 -0.12981579614062361 0 0.35294213858823181 -0.12684660085224431 0 0.32167097776301212 -0.13637006672494559 0 0.33609860150391963 -0.14498520956013231 0 0.3382695783392563 -0.12981579614062361 0 0.33084250853676511 -0.1236438219174287 0 0.32167097776301212 -0.13637006672494559 0 0.3382695783392563 -0.12981579614062361 0 0.33609860150391963 -0.14498520956013231 0 0.35984511717398671 -0.1279649014659851 0 0.33609860150391963 -0.14498520956013231 0 0.35294213858823181 -0.12684660085224431 0 0.35984511717398671 -0.1279649014659851 0 0.33609860150391963 -0.14498520956013231 0 0.3586340012045891 -0.147624868072917 0 0.35984511717398671 -0.1279649014659851 0 0.35294213858823181 -0.12684660085224431 0 0.35984511717398671 -0.1279649014659851 0 0.33609860150391963 -0.14498520956013231 0 0.3586340012045891 -0.147624868072917 0 0.34841352821016552 -0.170164137366384 0 0.3586340012045891 -0.147624868072917 0 0.36168649913739109 -0.12826321016768899 0 0.37779395152130107 -0.1473628902985622 0 0.3586340012045891 -0.147624868072917 0 0.37360674446232123 -0.16445623166505299 0 0.37779395152130107 -0.1473628902985622 0 0.3586340012045891 -0.147624868072917 0 0.35984511717398671 -0.1279649014659851 0 0.36168649913739109 -0.12826321016768899 0 0.36168649913739109 -0.12826321016768899 0 0.38692262846980158 -0.13235152922741089 0 0.36168649913739109 -0.12826321016768899 0 0.37779395152130107 -0.1473628902985622 0 0.35984511717398671 -0.1279649014659851 0 0.36168649913739109 -0.12826321016768899 0 0.34841352821016552 -0.170164137366384 0 0.37167228708172723 -0.18425971138313149 0 0.35211927931252007 -0.19765621032637831 0 0.34841352821016552 -0.170164137366384 0 0.35211927931252007 -0.19765621032637831 0 0.33479131905103671 -0.18905600809944451 0 0.3586340012045891 -0.147624868072917 0 0.34841352821016552 -0.170164137366384 0 0.37360674446232123 -0.16445623166505299 0 0.34841352821016552 -0.170164137366384 0 0.37360674446232123 -0.16445623166505299 0 0.37167228708172723 -0.18425971138313149 0 0.37167228708172723 -0.18425971138313149 0 0.35211927931252007 -0.19765621032637831 0 0.38001906488196802 -0.21129698761074539 0 0.37167228708172723 -0.18425971138313149 0 0.35211927931252007 -0.19765621032637831 0 0.35211927931252007 -0.19765621032637831 0 0.35678821612250988 -0.22543846206811641 0 0.38001906488196802 -0.21129698761074539 0 0.35211927931252007 -0.19765621032637831 0 0.33256627154331292 -0.21105270926962511 0 0.35678821612250988 -0.22543846206811641 0 0.29870769194972963 -0.21134354742475789 0 0.33256627154331292 -0.21105270926962511 0 0.31743114122917743 -0.23095527100788099 0 0.35211927931252007 -0.19765621032637831 0 0.33479131905103671 -0.18905600809944451 0 0.33256627154331292 -0.21105270926962511 0 0.29870769194972963 -0.21134354742475789 0 0.33256627154331292 -0.21105270926962511 0 0.31340458770834351 -0.19049672163930381 0 0.35211927931252007 -0.19765621032637831 0 0.33256627154331292 -0.21105270926962511 0 0.33479131905103671 -0.18905600809944451 0 0.33256627154331292 -0.21105270926962511 0 0.31340458770834351 -0.19049672163930381 0 0.30449497469334952 -0.2447051324796215 0 0.31743114122917743 -0.23095527100788099 0 0.32973084921971491 -0.25127782865676501 0 0.30449497469334952 -0.2447051324796215 0 0.32973084921971491 -0.25127782865676501 0 0.33256627154331292 -0.21105270926962511 0 0.31743114122917743 -0.23095527100788099 0 0.33829664037215912 -0.2353149591672592 0 0.33256627154331292 -0.21105270926962511 0 0.33829664037215912 -0.2353149591672592 0 0.35678821612250988 -0.22543846206811641 0 0.33829664037215912 -0.2353149591672592 0 0.32973084921971491 -0.25127782865676501 0 0.35496672374608029 -0.25785052483390841 0 0.31743114122917743 -0.23095527100788099 0 0.33829664037215912 -0.2353149591672592 0 0.32973084921971491 -0.25127782865676501 0 0.33829664037215912 -0.2353149591672592 0 0.35678821612250988 -0.22543846206811641 0 0.35496672374608029 -0.25785052483390841 0 0.35678821612250988 -0.22543846206811641 0 0.38196373250868598 -0.23808147822196141 0 0.35496672374608029 -0.25785052483390841 0 0.35678821612250988 -0.22543846206811641 0 0.38196373250868598 -0.23808147822196141 0 0.38001906488196802 -0.21129698761074539 0 0.38196373250868598 -0.23808147822196141 0 0.40855358636253752 -0.2267237402989975 0 0.39901782456432339 -0.25169687226961179 0 0.38196373250868598 -0.23808147822196141 0 0.40855358636253752 -0.2267237402989975 0 0.38196373250868598 -0.23808147822196141 0 0.38001906488196802 -0.21129698761074539 0 0.40855358636253752 -0.2267237402989975 0 0.37167228708172723 -0.18425971138313149 0 0.38001906488196802 -0.21129698761074539 0 0.39021086737456562 -0.19239277274164029 0 0.39021086737456562 -0.19239277274164029 0 0.40229566144534118 -0.20409362417294119 0 0.40856350823125492 -0.18384840501075139 0 0.38001906488196802 -0.21129698761074539 0 0.39021086737456562 -0.19239277274164029 0 0.40229566144534118 -0.20409362417294119 0 0.38001906488196802 -0.21129698761074539 0 0.40229566144534118 -0.20409362417294119 0 0.40855358636253752 -0.2267237402989975 0 0.40229566144534118 -0.20409362417294119 0 0.42185347422382208 -0.19960720369339369 0 0.40855358636253752 -0.2267237402989975 0 0.42185347422382208 -0.19960720369339369 0 0.43514344021638979 -0.21536600237603551 0 0.40855358636253752 -0.2267237402989975 0 0.42185347422382208 -0.19960720369339369 0 0.40856350823125492 -0.18384840501075139 0 0.42185347422382208 -0.19960720369339369 0 0.40856350823125492 -0.18384840501075139 0 0.4301441587049547 -0.18459720102103261 0 0.40229566144534118 -0.20409362417294119 0 0.42185347422382208 -0.19960720369339369 0 0.40856350823125492 -0.18384840501075139 0 0.42185347422382208 -0.19960720369339369 0 0.4370060387270473 -0.20031185125425099 0 0.4301441587049547 -0.18459720102103261 0 0.42185347422382208 -0.19960720369339369 0 0.43514344021638979 -0.21536600237603551 0 0.42185347422382208 -0.19960720369339369 0 0.4370060387270473 -0.20031185125425099 0 0.43514344021638979 -0.21536600237603551 0 0.43514344021638979 -0.21536600237603551 0 0.43934682683225063 -0.22035023811461621 0 0.43514344021638979 -0.21536600237603551 0 0.43113324535180703 -0.22602297978518049 0 0.43934682683225063 -0.22035023811461621 0 0.43113324535180703 -0.22602297978518049 0 0.43962214591495491 -0.22944364713559851 0 0.43934682683225063 -0.22035023811461621 0 0.43113324535180703 -0.22602297978518049 0 0.43003040091476741 -0.23733075959572761 0 0.40855358636253752 -0.2267237402989975 0 0.43514344021638979 -0.21536600237603551 0 0.43113324535180703 -0.22602297978518049 0 0.40855358636253752 -0.2267237402989975 0 0.43113324535180703 -0.22602297978518049 0 0.43003040091476741 -0.23733075959572761 0 0.43962214591495491 -0.22944364713559851 0 0.43003040091476741 -0.23733075959572761 0 0.41833335971357549 -0.24892849693142291 0 0.43558216122526949 -0.25323974245981579 0 0.43003040091476741 -0.23733075959572761 0 0.44610161648503882 -0.23783809313925991 0 0.43558216122526949 -0.25323974245981579 0 0.41833335971357549 -0.24892849693142291 0 0.40855358636253752 -0.2267237402989975 0 0.39901782456432339 -0.25169687226961179 0 0.43003040091476741 -0.23733075959572761 0 0.41833335971357549 -0.24892849693142291 0 0.40855358636253752 -0.2267237402989975 0 0.43514344021638979 -0.21536600237603551 0 0.40855358636253752 -0.2267237402989975 0 0.40965788347577048 -0.12287043042841581 0 0.38692262846980158 -0.13235152922741089 0 0.41215875780221289 -0.1364398482871286 0 0.38692262846980158 -0.13235152922741089 0 0.41215875780221289 -0.1364398482871286 0 0.38692262846980158 -0.13235152922741089 0 0.39205167656785639 -0.14559935653237091 0 0.41215875780221289 -0.1364398482871286 0 0.36168649913739109 -0.12826321016768899 0 0.38692262846980158 -0.13235152922741089 0 0.37779395152130107 -0.1473628902985622 0 0.37779395152130107 -0.1473628902985622 0 0.39205167656785639 -0.14559935653237091 0 0.39390140390520773 -0.16646257042943821 0 0.38692262846980158 -0.13235152922741089 0 0.37779395152130107 -0.1473628902985622 0 0.39205167656785639 -0.14559935653237091 0 0.39205167656785639 -0.14559935653237091 0 0.40303008085370878 -0.15145120935828241 0 0.39390140390520773 -0.16646257042943821 0 0.39205167656785639 -0.14559935653237091 0 0.40303008085370878 -0.15145120935828241 0 0.41215875780221289 -0.1364398482871286 0 0.39527354223868699 -0.16808960632810979 0 0.41664378302287819 -0.15344805289237831 0 0.40303008085370878 -0.15145120935828241 0 0.39527354223868699 -0.16808960632810979 0 0.39390140390520773 -0.16646257042943821 0 0.40303008085370878 -0.15145120935828241 0 0.39527354223868699 -0.16808960632810979 0 0.41664378302287819 -0.15344805289237831 0 0.40303008085370878 -0.15145120935828241 0 0.39390140390520773 -0.16646257042943821 0 0.39527354223868699 -0.16808960632810979 0 0.39390140390520773 -0.16646257042943821 0 0.39527354223868699 -0.16808960632810979 0 0.39122529485093521 -0.17086321243988539 0 0.39122529485093521 -0.17086321243988539 0 0.39390140390520773 -0.16646257042943821 0 0.39527354223868699 -0.16808960632810979 0 0.39122529485093521 -0.17086321243988539 0 0.39390140390520773 -0.16646257042943821 0 0.37360674446232123 -0.16445623166505299 0 0.37779395152130107 -0.1473628902985622 0 0.39390140390520773 -0.16646257042943821 0 0.37360674446232123 -0.16445623166505299 0 0.39122529485093521 -0.17086321243988539 0 0.39390140390520773 -0.16646257042943821 0 0.37779395152130107 -0.1473628902985622 0 0.39390140390520773 -0.16646257042943821 0 0.39122529485093521 -0.17086321243988539 0 0.38547278796131801 -0.18221574472031041 0 0.39353146784525778 -0.17825994863040709 0 0.37167228708172723 -0.18425971138313149 0 0.39122529485093521 -0.17086321243988539 0 0.37360674446232123 -0.16445623166505299 0 0.37167228708172723 -0.18425971138313149 0 0.39122529485093521 -0.17086321243988539 0 0.37167228708172723 -0.18425971138313149 0 0.39021086737456562 -0.19239277274164029 0 0.38547278796131801 -0.18221574472031041 0 0.37167228708172723 -0.18425971138313149 0 0.39122529485093521 -0.17086321243988539 0 0.38547278796131801 -0.18221574472031041 0 0.39021086737456562 -0.19239277274164029 0 0.38547278796131801 -0.18221574472031041 0 0.39353146784525778 -0.17825994863040709 0 0.39527354223868699 -0.16808960632810979 0 0.39353146784525778 -0.17825994863040709 0 0.40856350823125492 -0.18384840501075139 0 0.39021086737456562 -0.19239277274164029 0 0.39353146784525778 -0.17825994863040709 0 0.40856350823125492 -0.18384840501075139 0 0.39527354223868699 -0.16808960632810979 0 0.40856350823125492 -0.18384840501075139 0 0.39527354223868699 -0.16808960632810979 0 0.39122529485093521 -0.17086321243988539 0 0.39353146784525778 -0.17825994863040709 0 0.40856350823125492 -0.18384840501075139 0 0.4301441587049547 -0.18459720102103261 0 0.41977281962189927 -0.16933046741058189 0 0.39527354223868699 -0.16808960632810979 0 0.40856350823125492 -0.18384840501075139 0 0.41977281962189927 -0.16933046741058189 0 0.4301441587049547 -0.18459720102103261 0 0.43740052494640869 -0.17047061485705831 0 0.41977281962189927 -0.16933046741058189 0 0.43740052494640869 -0.17047061485705831 0 0.41977281962189927 -0.16933046741058189 0 0.43061140058720732 -0.15552892435415361 0 0.41977281962189927 -0.16933046741058189 0 0.41664378302287819 -0.15344805289237831 0 0.43061140058720732 -0.15552892435415361 0 0.39527354223868699 -0.16808960632810979 0 0.41977281962189927 -0.16933046741058189 0 0.41664378302287819 -0.15344805289237831 0 0.40303008085370878 -0.15145120935828241 0 0.41664378302287819 -0.15344805289237831 0 0.41215875780221289 -0.1364398482871286 0 0.41664378302287819 -0.15344805289237831 0 0.43240677223958601 -0.13972007966712191 0 0.41215875780221289 -0.1364398482871286 0 0.40303008085370878 -0.15145120935828241 0 0.41215875780221289 -0.1364398482871286 0 0.41664378302287819 -0.15344805289237831 0 0.43240677223958601 -0.13972007966712191 0 0.43801402380706489 -0.13880649945664031 0 0.43061140058720732 -0.15552892435415361 0 0.43801402380706489 -0.13880649945664031 0 0.43881739899430749 -0.14403605888872389 0 0.41664378302287819 -0.15344805289237831 0 0.43061140058720732 -0.15552892435415361 0 0.43801402380706489 -0.13880649945664031 0 0.41664378302287819 -0.15344805289237831 0 0.43801402380706489 -0.13880649945664031 0 0.4260703401465788 -0.11356339129118211 0 0.43240677223958601 -0.13972007966712191 0 0.41215875780221289 -0.1364398482871286 0 0.4260703401465788 -0.11356339129118211 0 0.43240677223958601 -0.13972007966712191 0 0.43801402380706489 -0.13880649945664031 0 0.43240677223958601 -0.13972007966712191 0 0.41215875780221289 -0.1364398482871286 0 0.4260703401465788 -0.11356339129118211 0 0.41215875780221289 -0.1364398482871286 0 0.45867601587137918 -0.1246501937812079 0 0.44953542519675599 -0.14244132760456049 0 0.46344960237173233 -0.14719734564817091 0 0.45867601587137918 -0.1246501937812079 0 0.46344960237173233 -0.14719734564817091 0 0.48044384086347192 -0.1357744267044341 0 0.45867601587137918 -0.1246501937812079 0 0.43801402380706489 -0.13880649945664031 0 0.44953542519675599 -0.14244132760456049 0 0.44688767283690528 -0.11586833410302411 0 0.45867601587137918 -0.1246501937812079 0 0.43801402380706489 -0.13880649945664031 0 0.45867601587137918 -0.1246501937812079 0 0.43801402380706489 -0.13880649945664031 0 0.43061140058720732 -0.15552892435415361 0 0.43881739899430749 -0.14403605888872389 0 0.44666515136404172 -0.1555949689326456 0 0.43801402380706489 -0.13880649945664031 0 0.44953542519675599 -0.14244132760456049 0 0.43881739899430749 -0.14403605888872389 0 0.44953542519675599 -0.14244132760456049 0 0.43881739899430749 -0.14403605888872389 0 0.44666515136404172 -0.1555949689326456 0 0.43801402380706489 -0.13880649945664031 0 0.43881739899430749 -0.14403605888872389 0 0.44953542519675599 -0.14244132760456049 0 0.44666515136404172 -0.1555949689326456 0 0.46344960237173233 -0.14719734564817091 0 0.46344960237173233 -0.14719734564817091 0 0.46017655608783831 -0.1738955422432065 0 0.48119941900202567 -0.15517571800439781 0 0.44666515136404172 -0.1555949689326456 0 0.46344960237173233 -0.14719734564817091 0 0.46017655608783831 -0.1738955422432065 0 0.43740052494640869 -0.17047061485705831 0 0.43061140058720732 -0.15552892435415361 0 0.44666515136404172 -0.1555949689326456 0 0.43740052494640869 -0.17047061485705831 0 0.44666515136404172 -0.1555949689326456 0 0.46017655608783831 -0.1738955422432065 0 0.43740052494640869 -0.17047061485705831 0 0.46017655608783831 -0.1738955422432065 0 0.44618233693208142 -0.19033883129298429 0 0.4301441587049547 -0.18459720102103261 0 0.43740052494640869 -0.17047061485705831 0 0.44618233693208142 -0.19033883129298429 0 0.46017655608783831 -0.1738955422432065 0 0.48232138630341681 -0.17448854417006149 0 0.47776931094224678 -0.19715855110144501 0 0.48232138630341681 -0.17448854417006149 0 0.5 -0.18079183225670889 0 0.49234193987246377 -0.19093391740666329 0 0.48232138630341681 -0.17448854417006149 0 0.48119941900202567 -0.15517571800439781 0 0.5 -0.15264041564791991 0 0.48232138630341681 -0.17448854417006149 0 0.5 -0.18079183225670889 0 0.5 -0.15264041564791991 0 0.46017655608783831 -0.1738955422432065 0 0.48232138630341681 -0.17448854417006149 0 0.48119941900202567 -0.15517571800439781 0 0.46344960237173233 -0.14719734564817091 0 0.48119941900202567 -0.15517571800439781 0 0.48044384086347192 -0.1357744267044341 0 0.48119941900202567 -0.15517571800439781 0 0.5 -0.15264041564791991 0 0.48044384086347192 -0.1357744267044341 0 0.5 -0.1244889990391311 0 0.5 -0.15264041564791991 0 0.48044384086347192 -0.1357744267044341 0 0.46588715998448788 -0.22965223937872489 0 0.44610161648503882 -0.23783809313925991 0 0.45135465982994522 -0.22225025665066389 0 0.46588715998448788 -0.22965223937872489 0 0.46857763795694579 -0.25592129396122271 0 0.46588715998448788 -0.22965223937872489 0 0.44610161648503882 -0.23783809313925991 0 0.4521220705125375 -0.2540616209765596 0 0.46588715998448788 -0.22965223937872489 0 0.46857763795694579 -0.25592129396122271 0 0.4521220705125375 -0.2540616209765596 0 0.44610161648503882 -0.23783809313925991 0 0.4521220705125375 -0.2540616209765596 0 0.43558216122526949 -0.25323974245981579 0 0.43003040091476741 -0.23733075959572761 0 0.44610161648503882 -0.23783809313925991 0 0.43962214591495491 -0.22944364713559851 0 0.44610161648503882 -0.23783809313925991 0 0.43962214591495491 -0.22944364713559851 0 0.45135465982994522 -0.22225025665066389 0 0.43962214591495491 -0.22944364713559851 0 0.45135465982994522 -0.22225025665066389 0 0.43934682683225063 -0.22035023811461621 0 0.43514344021638979 -0.21536600237603551 0 0.43934682683225063 -0.22035023811461621 0 0.44917006111420937 -0.2093745935861302 0 0.43514344021638979 -0.21536600237603551 0 0.44917006111420937 -0.2093745935861302 0 0.4370060387270473 -0.20031185125425099 0 0.43514344021638979 -0.21536600237603551 0 0.44917006111420937 -0.2093745935861302 0 0.45135465982994522 -0.22225025665066389 0 0.43934682683225063 -0.22035023811461621 0 0.44917006111420937 -0.2093745935861302 0 0.44917006111420937 -0.2093745935861302 0 0.44618233693208142 -0.19033883129298429 0 0.46319668201203001 -0.203383184796227 0 0.4370060387270473 -0.20031185125425099 0 0.44917006111420937 -0.2093745935861302 0 0.44618233693208142 -0.19033883129298429 0 0.4370060387270473 -0.20031185125425099 0 0.4301441587049547 -0.18459720102103261 0 0.44618233693208142 -0.19033883129298429 0 0.46017655608783831 -0.1738955422432065 0 0.46319668201203001 -0.203383184796227 0 0.47776931094224678 -0.19715855110144501 0 0.46017655608783831 -0.1738955422432065 0 0.46319668201203001 -0.203383184796227 0 0.46017655608783831 -0.1738955422432065 0 0.44618233693208142 -0.19033883129298429 0 0.46319668201203001 -0.203383184796227 0 0.46588715998448788 -0.22965223937872489 0 0.46319668201203001 -0.203383184796227 0 0.46588715998448788 -0.22965223937872489 0 0.45135465982994522 -0.22225025665066389 0 0.46319668201203001 -0.203383184796227 0 0.45135465982994522 -0.22225025665066389 0 0.44917006111420937 -0.2093745935861302 0 0.46319668201203001 -0.203383184796227 0 0.44917006111420937 -0.2093745935861302 0 0.46319668201203001 -0.203383184796227 0 0.46319668201203001 -0.203383184796227 0 0.4815174114626532 -0.21694849108372641 0 0.47776931094224678 -0.19715855110144501 0 0.4815174114626532 -0.21694849108372641 0 0.47776931094224678 -0.19715855110144501 0 0.48889422086629691 -0.2030328557934486 0 0.46588715998448788 -0.22965223937872489 0 0.46319668201203001 -0.203383184796227 0 0.4815174114626532 -0.21694849108372641 0 0.48232138630341681 -0.17448854417006149 0 0.47776931094224678 -0.19715855110144501 0 0.49234193987246377 -0.19093391740666329 0 0.46319668201203001 -0.203383184796227 0 0.47776931094224678 -0.19715855110144501 0 0.5 -0.18079183225670889 0 0.49234193987246377 -0.19093391740666329 0 0.5 -0.20894324886549789 0 0.48889422086629691 -0.2030328557934486 0 0.49234193987246377 -0.19093391740666329 0 0.5 -0.20894324886549789 0 0.47776931094224678 -0.19715855110144501 0 0.49234193987246377 -0.19093391740666329 0 0.47776931094224678 -0.19715855110144501 0 0.48889422086629691 -0.2030328557934486 0 0.49234193987246377 -0.19093391740666329 0 0.4815174114626532 -0.21694849108372641 0 0.48889422086629691 -0.2030328557934486 0 0.5 -0.20894324886549789 0 0.4815174114626532 -0.21694849108372641 0 0.48192885121452572 -0.2412162585459961 0 0.5 -0.23709466547428679 0 0.4815174114626532 -0.21694849108372641 0 0.5 -0.20894324886549789 0 0.5 -0.23709466547428679 0 0.46588715998448788 -0.22965223937872489 0 0.4815174114626532 -0.21694849108372641 0 0.48192885121452572 -0.2412162585459961 0 0.46588715998448788 -0.22965223937872489 0 0.48192885121452572 -0.2412162585459961 0 0.46857763795694579 -0.25592129396122271 0 0.48192885121452572 -0.2412162585459961 0 0.5 -0.23709466547428679 0 0.5 -0.26524608208307571 0 0.5 -0.26524608208307571 0 0.47693178169319811 -0.27880103521854571 0 0.46857763795694579 -0.25592129396122271 0 0.48192885121452572 -0.2412162585459961 0 0.5 -0.26524608208307571 0 0.46857763795694579 -0.25592129396122271 0 0.5 -0.26524608208307571 0 0.47693178169319811 -0.27880103521854571 0 0.5 -0.29339749869186471 0 0.46857763795694579 -0.25592129396122271 0 0.45875404316606161 -0.26911220713066819 0 0.4521220705125375 -0.2540616209765596 0 0.45875404316606161 -0.26911220713066819 0 0.44289919358065061 -0.27193694216403469 0 0.45892268847201001 -0.28583928601430741 0 0.47693178169319811 -0.27880103521854571 0 0.45875404316606161 -0.26911220713066819 0 0.45892268847201001 -0.28583928601430741 0 0.47693178169319811 -0.27880103521854571 0 0.46857763795694579 -0.25592129396122271 0 0.45875404316606161 -0.26911220713066819 0 0.44289919358065061 -0.27193694216403469 0 0.4521220705125375 -0.2540616209765596 0 0.43558216122526949 -0.25323974245981579 0 0.45875404316606161 -0.26911220713066819 0 0.44289919358065061 -0.27193694216403469 0 0.4521220705125375 -0.2540616209765596 0 0.45280810360393292 -0.30092570400343749 0 0.44318008188548369 -0.28945841294677949 0 0.43655862027929881 -0.30523919289307988 0 0.45280810360393292 -0.30092570400343749 0 0.4555320137539825 -0.31736742752665492 0 0.43655862027929881 -0.30523919289307988 0 0.44289919358065061 -0.27193694216403469 0 0.44318008188548369 -0.28945841294677949 0 0.45892268847201001 -0.28583928601430741 0 0.45280810360393292 -0.30092570400343749 0 0.44318008188548369 -0.28945841294677949 0 0.45892268847201001 -0.28583928601430741 0 0.44289919358065061 -0.27193694216403469 0 0.44318008188548369 -0.28945841294677949 0 0.42652329150262219 -0.28508042528153621 0 0.45280810360393292 -0.30092570400343749 0 0.45892268847201001 -0.28583928601430741 0 0.4753363205641713 -0.30328984343013587 0 0.45280810360393292 -0.30092570400343749 0 0.4753363205641713 -0.30328984343013587 0 0.4555320137539825 -0.31736742752665492 0 0.47693178169319811 -0.27880103521854571 0 0.4753363205641713 -0.30328984343013587 0 0.5 -0.29339749869186471 0 0.47693178169319811 -0.27880103521854571 0 0.45892268847201001 -0.28583928601430741 0 0.4753363205641713 -0.30328984343013587 0 0.4753363205641713 -0.30328984343013587 0 0.5 -0.29339749869186471 0 0.5 -0.32154891530065349 0 0.5 -0.32154891530065349 0 0.48271456910758598 -0.33755345881834953 0 0.47106353406778573 -0.32353632550949768 0 0.5 -0.32154891530065349 0 0.48271456910758598 -0.33755345881834953 0 0.5 -0.34970033190944239 0 0.48271456910758598 -0.33755345881834953 0 0.47106353406778573 -0.32353632550949768 0 0.46344277790962118 -0.33840937163860663 0 0.48271456910758598 -0.33755345881834953 0 0.4790665335605232 -0.35457234973354718 0 0.46344277790962118 -0.33840937163860663 0 0.4753363205641713 -0.30328984343013587 0 0.5 -0.32154891530065349 0 0.47106353406778573 -0.32353632550949768 0 0.49033973517225671 -0.36350003913937518 0 0.5 -0.34970033190944239 0 0.49999999999999539 -0.37785174851823128 0 0.49033973517225671 -0.36350003913937518 0 0.48229240712850863 -0.37187572639627842 0 0.49999999999999539 -0.37785174851823128 0 0.48229240712850863 -0.37187572639627842 0 0.49999999999999539 -0.37785174851823128 0 0.49033973517225671 -0.36350003913937518 0 0.5 -0.34970033190944239 0 0.4790665335605232 -0.35457234973354718 0 0.48271456910758598 -0.33755345881834953 0 0.5 -0.34970033190944239 0 0.4790665335605232 -0.35457234973354718 0 0.48229240712850863 -0.37187572639627842 0 0.46458481425702208 -0.3658997042743245 0 0.48229240712850863 -0.37187572639627842 0 0.46458481425702208 -0.3658997042743245 0 0.46866537821804932 -0.3817799937388423 0 0.4790665335605232 -0.35457234973354718 0 0.48229240712850863 -0.37187572639627842 0 0.46458481425702208 -0.3658997042743245 0 0.49033973517225671 -0.36350003913937518 0 0.4790665335605232 -0.35457234973354718 0 0.48229240712850863 -0.37187572639627842 0 0.4790665335605232 -0.35457234973354718 0 0.46458481425702208 -0.3658997042743245 0 0.46458481425702208 -0.3658997042743245 0 0.4481531497994572 -0.36879529746396661 0 0.44793472597470779 -0.3789231201517077 0 0.46458481425702208 -0.3658997042743245 0 0.44670037651698619 -0.3598639999101656 0 0.4481531497994572 -0.36879529746396661 0 0.46458481425702208 -0.3658997042743245 0 0.44793472597470779 -0.3789231201517077 0 0.46458481425702208 -0.3658997042743245 0 0.46102848018248932 -0.35315978371458351 0 0.44670037651698619 -0.3598639999101656 0 0.46458481425702208 -0.3658997042743245 0 0.44670037651698619 -0.3598639999101656 0 0.4790665335605232 -0.35457234973354718 0 0.46458481425702208 -0.3658997042743245 0 0.46102848018248932 -0.35315978371458351 0 0.4790665335605232 -0.35457234973354718 0 0.46102848018248932 -0.35315978371458351 0 0.46344277790962118 -0.33840937163860663 0 0.46102848018248932 -0.35315978371458351 0 0.45134789866829328 -0.34705349301627358 0 0.46344277790962118 -0.33840937163860663 0 0.43981911026734971 -0.3477195685544584 0 0.44670037651698619 -0.3598639999101656 0 0.42881593877695062 -0.35382829554600609 0 0.44670037651698619 -0.3598639999101656 0 0.42881593877695062 -0.35382829554600609 0 0.45134789866829328 -0.34705349301627358 0 0.43981911026734971 -0.3477195685544584 0 0.44670037651698619 -0.3598639999101656 0 0.46102848018248932 -0.35315978371458351 0 0.45134789866829328 -0.34705349301627358 0 0.44670037651698619 -0.3598639999101656 0 0.43837533237583021 -0.3663757078488562 0 0.44793472597470779 -0.3789231201517077 0 0.43078236879200982 -0.37777632355949409 0 0.44670037651698619 -0.3598639999101656 0 0.43837533237583021 -0.3663757078488562 0 0.42881593877695062 -0.35382829554600609 0 0.44670037651698619 -0.3598639999101656 0 0.43837533237583021 -0.3663757078488562 0 0.4481531497994572 -0.36879529746396661 0 0.43837533237583021 -0.3663757078488562 0 0.4481531497994572 -0.36879529746396661 0 0.44793472597470779 -0.3789231201517077 0 0.43837533237583021 -0.3663757078488562 0 0.44793472597470779 -0.3789231201517077 0 0.47106353406778573 -0.32353632550949768 0 0.4555320137539825 -0.31736742752665492 0 0.46344277790962118 -0.33840937163860663 0 0.4753363205641713 -0.30328984343013587 0 0.47106353406778573 -0.32353632550949768 0 0.4555320137539825 -0.31736742752665492 0 0.4555320137539825 -0.31736742752665492 0 0.46344277790962118 -0.33840937163860663 0 0.4412367863948421 -0.33491115175097919 0 0.45134789866829328 -0.34705349301627358 0 0.46344277790962118 -0.33840937163860663 0 0.4412367863948421 -0.33491115175097919 0 0.45134789866829328 -0.34705349301627358 0 0.43981911026734971 -0.3477195685544584 0 0.4412367863948421 -0.33491115175097919 0 0.4555320137539825 -0.31736742752665492 0 0.43731540697576338 -0.32032464170346359 0 0.43655862027929881 -0.30523919289307988 0 0.4555320137539825 -0.31736742752665492 0 0.4412367863948421 -0.33491115175097919 0 0.43731540697576338 -0.32032464170346359 0 0.43731540697576338 -0.32032464170346359 0 0.42083237595487172 -0.32132117706621632 0 0.43655862027929881 -0.30523919289307988 0 0.43731540697576338 -0.32032464170346359 0 0.42862581891469398 -0.33267917735817681 0 0.42083237595487172 -0.32132117706621632 0 0.4412367863948421 -0.33491115175097919 0 0.43731540697576338 -0.32032464170346359 0 0.42862581891469398 -0.33267917735817681 0 0.43981911026734971 -0.3477195685544584 0 0.4412367863948421 -0.33491115175097919 0 0.43099455097967609 -0.34294090254886611 0 0.4412367863948421 -0.33491115175097919 0 0.43099455097967609 -0.34294090254886611 0 0.42862581891469398 -0.33267917735817681 0 0.43099455097967609 -0.34294090254886611 0 0.42862581891469398 -0.33267917735817681 0 0.41970100276019462 -0.3418642667471728 0 0.42862581891469398 -0.33267917735817681 0 0.4195224810493221 -0.33233894319210711 0 0.41970100276019462 -0.3418642667471728 0 0.42862581891469398 -0.33267917735817681 0 0.4195224810493221 -0.33233894319210711 0 0.42083237595487172 -0.32132117706621632 0 0.4195224810493221 -0.33233894319210711 0 0.40893072656752799 -0.33349115159686238 0 0.42083237595487172 -0.32132117706621632 0 0.4195224810493221 -0.33233894319210711 0 0.41970100276019462 -0.3418642667471728 0 0.40893072656752799 -0.33349115159686238 0 0.41970100276019462 -0.3418642667471728 0 0.40893072656752799 -0.33349115159686238 0 0.40897767804462309 -0.34713320797211189 0 0.40893072656752799 -0.33349115159686238 0 0.42083237595487172 -0.32132117706621632 0 0.40160070870906861 -0.32198555535932011 0 0.42083237595487172 -0.32132117706621632 0 0.40160070870906861 -0.32198555535932011 0 0.41406200010584537 -0.30353299032042808 0 0.40160070870906861 -0.32198555535932011 0 0.41406200010584537 -0.30353299032042808 0 0.42670928833938249 -0.36702895123133972 0 0.43078236879200982 -0.37777632355949409 0 0.42183765316265059 -0.37531014596808587 0 0.43837533237583021 -0.3663757078488562 0 0.42670928833938249 -0.36702895123133972 0 0.43078236879200982 -0.37777632355949409 0 0.43837533237583021 -0.3663757078488562 0 0.42670928833938249 -0.36702895123133972 0 0.42881593877695062 -0.35382829554600609 0 0.43837533237583021 -0.3663757078488562 0 0.42881593877695062 -0.35382829554600609 0 0.42670928833938249 -0.36702895123133972 0 0.42881593877695062 -0.35382829554600609 0 0.41389811683842848 -0.36509113379718727 0 0.43981911026734971 -0.3477195685544584 0 0.43099455097967609 -0.34294090254886611 0 0.42881593877695062 -0.35382829554600609 0 0.43099455097967609 -0.34294090254886611 0 0.41970100276019462 -0.3418642667471728 0 0.42881593877695062 -0.35382829554600609 0 0.41970100276019462 -0.3418642667471728 0 0.42881593877695062 -0.35382829554600609 0 0.42881593877695062 -0.35382829554600609 0 0.40897767804462309 -0.34713320797211189 0 0.41389811683842848 -0.36509113379718727 0 0.41970100276019462 -0.3418642667471728 0 0.42881593877695062 -0.35382829554600609 0 0.40897767804462309 -0.34713320797211189 0 0.42881593877695062 -0.35382829554600609 0 0.40897767804462309 -0.34713320797211189 0 0.41389811683842848 -0.36509113379718727 0 0.41319913132225228 -0.379239523159355 0 0.40076481513745221 -0.37903382641439037 0 0.42670928833938249 -0.36702895123133972 0 0.41389811683842848 -0.36509113379718727 0 0.42183765316265059 -0.37531014596808587 0 0.41389811683842848 -0.36509113379718727 0 0.42183765316265059 -0.37531014596808587 0 0.41319913132225228 -0.379239523159355 0 0.41389811683842848 -0.36509113379718727 0 0.39521610543314889 -0.36311134954415142 0 0.40076481513745221 -0.37903382641439037 0 0.40897767804462309 -0.34713320797211189 0 0.41389811683842848 -0.36509113379718727 0 0.39521610543314889 -0.36311134954415142 0 0.40897767804462309 -0.34713320797211189 0 0.39521610543314889 -0.36311134954415142 0 0.38913941731229651 -0.34043812039821519 0 0.40897767804462309 -0.34713320797211189 0 0.38913941731229651 -0.34043812039821519 0 0.38913941731229651 -0.34043812039821519 0 0.37251492751743781 -0.36505551111722589 0 0.38913941731229651 -0.34043812039821519 0 0.37251492751743781 -0.36505551111722589 0 0.36877470004139917 -0.34909742700117641 0 0.39521610543314889 -0.36311134954415142 0 0.38913941731229651 -0.34043812039821519 0 0.37251492751743781 -0.36505551111722589 0 0.39521610543314889 -0.36311134954415142 0 0.38298470525816009 -0.38650256987712989 0 0.37251492751743781 -0.36505551111722589 0 0.40160070870906861 -0.32198555535932011 0 0.38567863245356182 -0.32410628985959983 0 0.39447597202394041 -0.31083035108864221 0 0.40160070870906861 -0.32198555535932011 0 0.38913941731229651 -0.34043812039821519 0 0.38567863245356182 -0.32410628985959983 0 0.40893072656752799 -0.33349115159686238 0 0.40897767804462309 -0.34713320797211189 0 0.38913941731229651 -0.34043812039821519 0 0.40893072656752799 -0.33349115159686238 0 0.40160070870906861 -0.32198555535932011 0 0.38913941731229651 -0.34043812039821519 0 0.40160070870906861 -0.32198555535932011 0 0.38913941731229651 -0.34043812039821519 0 0.38913941731229651 -0.34043812039821519 0 0.36664332468155431 -0.33284605815720181 0 0.38913941731229651 -0.34043812039821519 0 0.38567863245356182 -0.32410628985959983 0 0.36664332468155431 -0.33284605815720181 0 0.38567863245356182 -0.32410628985959983 0 0.3765337395409501 -0.31443136429461882 0 0.36664332468155431 -0.33284605815720181 0 0.3765337395409501 -0.31443136429461882 0 0.39447597202394041 -0.31083035108864221 0 0.38567863245356182 -0.32410628985959983 0 0.3765337395409501 -0.31443136429461882 0 0.39447597202394041 -0.31083035108864221 0 0.3765337395409501 -0.31443136429461882 0 0.3844465548367626 -0.29969870915982161 0 0.39447597202394041 -0.31083035108864221 0 0.3765337395409501 -0.31443136429461882 0 0.3844465548367626 -0.29969870915982161 0 0.3765337395409501 -0.31443136429461882 0 0.3844465548367626 -0.29969870915982161 0 0.36890553220027561 -0.29967469708087052 0 0.40160070870906861 -0.32198555535932011 0 0.39447597202394041 -0.31083035108864221 0 0.41406200010584537 -0.30353299032042808 0 0.39447597202394041 -0.31083035108864221 0 0.39862044033864458 -0.29651445374426189 0 0.41406200010584537 -0.30353299032042808 0 0.3844465548367626 -0.29969870915982161 0 0.39447597202394041 -0.31083035108864221 0 0.39862044033864458 -0.29651445374426189 0 0.39862044033864458 -0.29651445374426189 0 0.39235937013257532 -0.2849660540250244 0 0.40888182496154007 -0.28153625943186777 0 0.3844465548367626 -0.29969870915982161 0 0.39862044033864458 -0.29651445374426189 0 0.39235937013257532 -0.2849660540250244 0 0.3844465548367626 -0.29969870915982161 0 0.39235937013257532 -0.2849660540250244 0 0.3844465548367626 -0.29969870915982161 0 0.39235937013257532 -0.2849660540250244 0 0.37802953511534898 -0.28597997402557518 0 0.3844465548367626 -0.29969870915982161 0 0.37802953511534898 -0.28597997402557518 0 0.36890553220027561 -0.29967469708087052 0 0.39235937013257532 -0.2849660540250244 0 0.37802953511534898 -0.28597997402557518 0 0.38020259827244579 -0.26442322101105192 0 0.39235937013257532 -0.2849660540250244 0 0.38020259827244579 -0.26442322101105192 0 0.39807693131252342 -0.2690378165028337 0 0.38196373250868598 -0.23808147822196141 0 0.38020259827244579 -0.26442322101105192 0 0.39901782456432339 -0.25169687226961179 0 0.39901782456432339 -0.25169687226961179 0 0.39807693131252342 -0.2690378165028337 0 0.40992303863173241 -0.26256667577661252 0 0.38020259827244579 -0.26442322101105192 0 0.39901782456432339 -0.25169687226961179 0 0.39807693131252342 -0.2690378165028337 0 0.39807693131252342 -0.2690378165028337 0 0.40992303863173241 -0.26256667577661252 0 0.40888182496154007 -0.28153625943186777 0 0.39235937013257532 -0.2849660540250244 0 0.39807693131252342 -0.2690378165028337 0 0.40888182496154007 -0.28153625943186777 0 0.42611576230611808 -0.26763164314982479 0 0.42652329150262219 -0.28508042528153621 0 0.40888182496154007 -0.28153625943186777 0 0.40992303863173241 -0.26256667577661252 0 0.42611576230611808 -0.26763164314982479 0 0.40888182496154007 -0.28153625943186777 0 0.41833335971357549 -0.24892849693142291 0 0.39901782456432339 -0.25169687226961179 0 0.40992303863173241 -0.26256667577661252 0 0.41833335971357549 -0.24892849693142291 0 0.40992303863173241 -0.26256667577661252 0 0.42611576230611808 -0.26763164314982479 0 0.44289919358065061 -0.27193694216403469 0 0.43558216122526949 -0.25323974245981579 0 0.42611576230611808 -0.26763164314982479 0 0.41833335971357549 -0.24892849693142291 0 0.43558216122526949 -0.25323974245981579 0 0.42611576230611808 -0.26763164314982479 0 0.44289919358065061 -0.27193694216403469 0 0.42611576230611808 -0.26763164314982479 0 0.42652329150262219 -0.28508042528153621 0 0.44318008188548369 -0.28945841294677949 0 0.42652329150262219 -0.28508042528153621 0 0.43655862027929881 -0.30523919289307988 0 0.42652329150262219 -0.28508042528153621 0 0.43655862027929881 -0.30523919289307988 0 0.41406200010584537 -0.30353299032042808 0 0.42083237595487172 -0.32132117706621632 0 0.43655862027929881 -0.30523919289307988 0 0.41406200010584537 -0.30353299032042808 0 0.42652329150262219 -0.28508042528153621 0 0.41406200010584537 -0.30353299032042808 0 0.40888182496154007 -0.28153625943186777 0 0.39862044033864458 -0.29651445374426189 0 0.41406200010584537 -0.30353299032042808 0 0.40888182496154007 -0.28153625943186777 0 0.42652329150262219 -0.28508042528153621 0 0.41406200010584537 -0.30353299032042808 0 0.44151334532478442 -0.5 0 0.44343736855316163 -0.47663570499697688 0 0.45508922339020691 -0.48847094352099008 0 0.44343736855316163 -0.47663570499697688 0 0.46720476159512869 -0.47724806908698358 0 0.4481593002861779 -0.45826797816053771 0 0.44343736855316163 -0.47663570499697688 0 0.46720476159512869 -0.47724806908698358 0 0.45508922339020691 -0.48847094352099008 0 0.44151334532478442 -0.5 0 0.46820141808775301 -0.49999999999999939 0 0.45508922339020691 -0.48847094352099008 0 0.46720476159512869 -0.47724806908698358 0 0.46820141808775301 -0.49999999999999939 0 0.46720476159512869 -0.47724806908698358 0 0.46820141808775301 -0.49999999999999939 0 0.45508922339020691 -0.48847094352099008 0 0.46820141808775301 -0.49999999999999939 0 0.47978531478549868 -0.48587450932961462 0 0.5 -0.5 0 0.47978531478549868 -0.48587450932961462 0 0.5 -0.5 0 0.48373507945911298 -0.46624996823147469 0 0.46720476159512869 -0.47724806908698358 0 0.46820141808775301 -0.49999999999999939 0 0.47978531478549868 -0.48587450932961462 0 0.5 -0.5 0 0.48373507945911298 -0.46624996823147469 0 0.50000000000000244 -0.44726264954747869 0 0.46720476159512869 -0.47724806908698358 0 0.47978531478549868 -0.48587450932961462 0 0.48373507945911298 -0.46624996823147469 0 0.48373507945911298 -0.46624996823147469 0 0.47448121679029548 -0.44250314781047029 0 0.46620810510250438 -0.45449613817396761 0 0.46720476159512869 -0.47724806908698358 0 0.48373507945911298 -0.46624996823147469 0 0.46620810510250438 -0.45449613817396761 0 0.48373507945911298 -0.46624996823147469 0 0.50000000000000244 -0.44726264954747869 0 0.47448121679029548 -0.44250314781047029 0 0.50000000000000244 -0.44726264954747869 0 0.47448121679029548 -0.44250314781047029 0 0.48264490865823878 -0.42448280641555408 0 0.45321761976426739 -0.43924643412948999 0 0.46620810510250438 -0.45449613817396761 0 0.4481593002861779 -0.45826797816053771 0 0.47448121679029548 -0.44250314781047029 0 0.45321761976426739 -0.43924643412948999 0 0.46620810510250438 -0.45449613817396761 0 0.46720476159512869 -0.47724806908698358 0 0.46620810510250438 -0.45449613817396761 0 0.4481593002861779 -0.45826797816053771 0 0.46720476159512869 -0.47724806908698358 0 0.46620810510250438 -0.45449613817396761 0 0.44343736855316163 -0.47663570499697688 0 0.4481593002861779 -0.45826797816053771 0 0.42633827626740273 -0.45715129500055568 0 0.45321761976426739 -0.43924643412948999 0 0.4481593002861779 -0.45826797816053771 0 0.43173765047437468 -0.44035385309901481 0 0.45321761976426739 -0.43924643412948999 0 0.44102408284899081 -0.42141477701298569 0 0.46108158775764602 -0.42328089036485811 0 0.44102408284899081 -0.42141477701298569 0 0.46108158775764602 -0.42328089036485811 0 0.45321761976426739 -0.43924643412948999 0 0.44102408284899081 -0.42141477701298569 0 0.43173765047437468 -0.44035385309901481 0 0.45112933210560618 -0.41237922300262198 0 0.44102408284899081 -0.42141477701298569 0 0.46108158775764602 -0.42328089036485811 0 0.45112933210560618 -0.41237922300262198 0 0.44102408284899081 -0.42141477701298569 0 0.4337705170763666 -0.41343751146449809 0 0.45112933210560618 -0.41237922300262198 0 0.44714303191593452 -0.40117016697476288 0 0.4337705170763666 -0.41343751146449809 0 0.45112933210560618 -0.41237922300262198 0 0.46108158775764602 -0.42328089036485811 0 0.46528981731647379 -0.40170296328363059 0 0.47448121679029548 -0.44250314781047029 0 0.45321761976426739 -0.43924643412948999 0 0.46108158775764602 -0.42328089036485811 0 0.47448121679029548 -0.44250314781047029 0 0.46108158775764602 -0.42328089036485811 0 0.48264490865823878 -0.42448280641555408 0 0.50000000000000244 -0.44726264954747869 0 0.48264490865823878 -0.42448280641555408 0 0.5 -0.42412568253772959 0 0.50000000000000244 -0.44726264954747869 0 0.48264490865823878 -0.42448280641555408 0 0.5 -0.42412568253772959 0 0.48333982321223951 -0.40683898919013162 0 0.5 -0.40098871552798038 0 0.48264490865823878 -0.42448280641555408 0 0.5 -0.42412568253772959 0 0.48333982321223951 -0.40683898919013162 0 0.48264490865823878 -0.42448280641555408 0 0.48333982321223951 -0.40683898919013162 0 0.46528981731647379 -0.40170296328363059 0 0.48264490865823878 -0.42448280641555408 0 0.46528981731647379 -0.40170296328363059 0 0.46108158775764602 -0.42328089036485811 0 0.48264490865823878 -0.42448280641555408 0 0.46528981731647379 -0.40170296328363059 0 0.48333982321223951 -0.40683898919013162 0 0.48322512641353399 -0.39049845458827021 0 0.46528981731647379 -0.40170296328363059 0 0.48322512641353399 -0.39049845458827021 0 0.46866537821804932 -0.3817799937388423 0 0.46528981731647379 -0.40170296328363059 0 0.48333982321223951 -0.40683898919013162 0 0.5 -0.40098871552798038 0 0.48322512641353399 -0.39049845458827021 0 0.5 -0.40098871552798038 0 0.49999999999999539 -0.37785174851823128 0 0.48322512641353399 -0.39049845458827021 0 0.48229240712850863 -0.37187572639627842 0 0.49999999999999539 -0.37785174851823128 0 0.48322512641353399 -0.39049845458827021 0 0.48229240712850863 -0.37187572639627842 0 0.48322512641353399 -0.39049845458827021 0 0.46866537821804932 -0.3817799937388423 0 0.46866537821804932 -0.3817799937388423 0 0.46528981731647379 -0.40170296328363059 0 0.44793472597470779 -0.3789231201517077 0 0.46528981731647379 -0.40170296328363059 0 0.44793472597470779 -0.3789231201517077 0 0.46458481425702208 -0.3658997042743245 0 0.46866537821804932 -0.3817799937388423 0 0.44793472597470779 -0.3789231201517077 0 0.45112933210560618 -0.41237922300262198 0 0.46528981731647379 -0.40170296328363059 0 0.44714303191593452 -0.40117016697476288 0 0.46528981731647379 -0.40170296328363059 0 0.44714303191593452 -0.40117016697476288 0 0.44793472597470779 -0.3789231201517077 0 0.44714303191593452 -0.40117016697476288 0 0.44793472597470779 -0.3789231201517077 0 0.43674929650873978 -0.39930597500892828 0 0.44793472597470779 -0.3789231201517077 0 0.43674929650873978 -0.39930597500892828 0 0.42838879250387069 -0.3942116168843503 0 0.44714303191593452 -0.40117016697476288 0 0.43674929650873978 -0.39930597500892828 0 0.4337705170763666 -0.41343751146449809 0 0.44793472597470779 -0.3789231201517077 0 0.42838879250387069 -0.3942116168843503 0 0.43078236879200982 -0.37777632355949409 0 0.42838879250387069 -0.3942116168843503 0 0.42026920688777908 -0.38607412639718108 0 0.44793472597470779 -0.3789231201517077 0 0.43078236879200982 -0.37777632355949409 0 0.42838879250387069 -0.3942116168843503 0 0.43078236879200982 -0.37777632355949409 0 0.42026920688777908 -0.38607412639718108 0 0.42183765316265059 -0.37531014596808587 0 0.42825460857342329 -0.40417329344914332 0 0.42838879250387069 -0.3942116168843503 0 0.41458184080255189 -0.41092792187919253 0 0.43674929650873978 -0.39930597500892828 0 0.42825460857342329 -0.40417329344914332 0 0.42838879250387069 -0.3942116168843503 0 0.43674929650873978 -0.39930597500892828 0 0.42825460857342329 -0.40417329344914332 0 0.4337705170763666 -0.41343751146449809 0 0.41674616575833351 -0.39617733963664398 0 0.40922586458495103 -0.39068838321992999 0 0.42026920688777908 -0.38607412639718108 0 0.42838879250387069 -0.3942116168843503 0 0.40884285903303358 -0.40950011361699279 0 0.42838879250387069 -0.3942116168843503 0 0.40884285903303358 -0.40950011361699279 0 0.41458184080255189 -0.41092792187919253 0 0.42838879250387069 -0.3942116168843503 0 0.41674616575833351 -0.39617733963664398 0 0.40884285903303358 -0.40950011361699279 0 0.42838879250387069 -0.3942116168843503 0 0.41674616575833351 -0.39617733963664398 0 0.42026920688777908 -0.38607412639718108 0 0.41674616575833351 -0.39617733963664398 0 0.41015482126832059 -0.39919518737490811 0 0.40884285903303358 -0.40950011361699279 0 0.41015482126832059 -0.39919518737490811 0 0.40301010225626599 -0.39998262675959217 0 0.40884285903303358 -0.40950011361699279 0 0.41015482126832059 -0.39919518737490811 0 0.40922586458495103 -0.39068838321992999 0 0.40301010225626599 -0.39998262675959217 0 0.41674616575833351 -0.39617733963664398 0 0.41015482126832059 -0.39919518737490811 0 0.40922586458495103 -0.39068838321992999 0 0.40922586458495103 -0.39068838321992999 0 0.41319913132225228 -0.379239523159355 0 0.40076481513745221 -0.37903382641439037 0 0.40922586458495103 -0.39068838321992999 0 0.42026920688777908 -0.38607412639718108 0 0.41319913132225228 -0.379239523159355 0 0.42026920688777908 -0.38607412639718108 0 0.42183765316265059 -0.37531014596808587 0 0.41319913132225228 -0.379239523159355 0 0.40076481513745221 -0.37903382641439037 0 0.39692516358452129 -0.3905122966355592 0 0.38298470525816009 -0.38650256987712989 0 0.39521610543314889 -0.36311134954415142 0 0.40076481513745221 -0.37903382641439037 0 0.38298470525816009 -0.38650256987712989 0 0.40922586458495103 -0.39068838321992999 0 0.40076481513745221 -0.37903382641439037 0 0.39692516358452129 -0.3905122966355592 0 0.38298470525816009 -0.38650256987712989 0 0.38104236264291841 -0.40351308633896532 0 0.39238475838945802 -0.4000704432187151 0 0.38298470525816009 -0.38650256987712989 0 0.38104236264291841 -0.40351308633896532 0 0.36977652904748132 -0.39982186010098442 0 0.38104236264291841 -0.40351308633896532 0 0.39238475838945802 -0.4000704432187151 0 0.39064661175373527 -0.40932041672387748 0 0.39238475838945802 -0.4000704432187151 0 0.40301010225626599 -0.39998262675959217 0 0.39914737857063098 -0.40794727322595348 0 0.39238475838945802 -0.4000704432187151 0 0.39914737857063098 -0.40794727322595348 0 0.39064661175373527 -0.40932041672387748 0 0.39692516358452129 -0.3905122966355592 0 0.39238475838945802 -0.4000704432187151 0 0.40301010225626599 -0.39998262675959217 0 0.39692516358452129 -0.3905122966355592 0 0.38298470525816009 -0.38650256987712989 0 0.39238475838945802 -0.4000704432187151 0 0.40922586458495103 -0.39068838321992999 0 0.39692516358452129 -0.3905122966355592 0 0.40301010225626599 -0.39998262675959217 0 0.40301010225626599 -0.39998262675959217 0 0.39914737857063098 -0.40794727322595348 0 0.40884285903303358 -0.40950011361699279 0 0.39914737857063098 -0.40794727322595348 0 0.40090907303168027 -0.4176825503092414 0 0.40884285903303358 -0.40950011361699279 0 0.39914737857063098 -0.40794727322595348 0 0.40090907303168027 -0.4176825503092414 0 0.39064661175373527 -0.40932041672387748 0 0.40090907303168027 -0.4176825503092414 0 0.3799575366969572 -0.41573325791846139 0 0.40090907303168027 -0.4176825503092414 0 0.39064661175373527 -0.40932041672387748 0 0.3799575366969572 -0.41573325791846139 0 0.40090907303168027 -0.4176825503092414 0 0.3799575366969572 -0.41573325791846139 0 0.38392672070260903 -0.42607218156557269 0 0.38104236264291841 -0.40351308633896532 0 0.39064661175373527 -0.40932041672387748 0 0.3799575366969572 -0.41573325791846139 0 0.3799575366969572 -0.41573325791846139 0 0.38392672070260903 -0.42607218156557269 0 0.37266518515911717 -0.42168095395927052 0 0.38104236264291841 -0.40351308633896532 0 0.3799575366969572 -0.41573325791846139 0 0.37070640051996129 -0.41201975406990943 0 0.38392672070260903 -0.42607218156557269 0 0.36694436837353878 -0.43446181282190599 0 0.38392672070260903 -0.42607218156557269 0 0.38974167698104772 -0.44655225575213342 0 0.36694436837353878 -0.43446181282190599 0 0.38392672070260903 -0.42607218156557269 0 0.39856087781465099 -0.43117643358132968 0 0.38974167698104772 -0.44655225575213342 0 0.40090907303168027 -0.4176825503092414 0 0.38392672070260903 -0.42607218156557269 0 0.39856087781465099 -0.43117643358132968 0 0.40090907303168027 -0.4176825503092414 0 0.38392672070260903 -0.42607218156557269 0 0.40090907303168027 -0.4176825503092414 0 0.39856087781465099 -0.43117643358132968 0 0.41037913498896061 -0.42797732853658887 0 0.39856087781465099 -0.43117643358132968 0 0.41037913498896061 -0.42797732853658887 0 0.41121167687293592 -0.4405894346684196 0 0.41037913498896061 -0.42797732853658887 0 0.42306382462511949 -0.42997681139562449 0 0.41121167687293592 -0.4405894346684196 0 0.41037913498896061 -0.42797732853658887 0 0.42096657794033548 -0.41954866366111337 0 0.42306382462511949 -0.42997681139562449 0 0.40090907303168027 -0.4176825503092414 0 0.42096657794033548 -0.41954866366111337 0 0.40090907303168027 -0.4176825503092414 0 0.41037913498896061 -0.42797732853658887 0 0.42096657794033548 -0.41954866366111337 0 0.40090907303168027 -0.4176825503092414 0 0.41458184080255189 -0.41092792187919253 0 0.40090907303168027 -0.4176825503092414 0 0.41458184080255189 -0.41092792187919253 0 0.42096657794033548 -0.41954866366111337 0 0.40090907303168027 -0.4176825503092414 0 0.40884285903303358 -0.40950011361699279 0 0.41458184080255189 -0.41092792187919253 0 0.42825460857342329 -0.40417329344914332 0 0.41458184080255189 -0.41092792187919253 0 0.41458184080255189 -0.41092792187919253 0 0.42096657794033548 -0.41954866366111337 0 0.42439338609816929 -0.41202184761348692 0 0.44102408284899081 -0.42141477701298569 0 0.42096657794033548 -0.41954866366111337 0 0.42096657794033548 -0.41954866366111337 0 0.42439338609816929 -0.41202184761348692 0 0.4337705170763666 -0.41343751146449809 0 0.44102408284899081 -0.42141477701298569 0 0.42096657794033548 -0.41954866366111337 0 0.4337705170763666 -0.41343751146449809 0 0.42825460857342329 -0.40417329344914332 0 0.42439338609816929 -0.41202184761348692 0 0.4337705170763666 -0.41343751146449809 0 0.42825460857342329 -0.40417329344914332 0 0.41458184080255189 -0.41092792187919253 0 0.42439338609816929 -0.41202184761348692 0 0.44102408284899081 -0.42141477701298569 0 0.42096657794033548 -0.41954866366111337 0 0.42306382462511949 -0.42997681139562449 0 0.42306382462511949 -0.42997681139562449 0 0.43173765047437468 -0.44035385309901481 0 0.41121167687293592 -0.4405894346684196 0 0.44102408284899081 -0.42141477701298569 0 0.42306382462511949 -0.42997681139562449 0 0.43173765047437468 -0.44035385309901481 0 0.43173765047437468 -0.44035385309901481 0 0.42633827626740273 -0.45715129500055568 0 0.41121167687293592 -0.4405894346684196 0 0.4481593002861779 -0.45826797816053771 0 0.43173765047437468 -0.44035385309901481 0 0.42633827626740273 -0.45715129500055568 0 0.42633827626740273 -0.45715129500055568 0 0.40570631735346713 -0.4595590597082535 0 0.42187301836326008 -0.47821631619134369 0 0.42633827626740273 -0.45715129500055568 0 0.41121167687293592 -0.4405894346684196 0 0.40570631735346713 -0.4595590597082535 0 0.39856087781465099 -0.43117643358132968 0 0.41121167687293592 -0.4405894346684196 0 0.38974167698104772 -0.44655225575213342 0 0.41121167687293592 -0.4405894346684196 0 0.38974167698104772 -0.44655225575213342 0 0.40570631735346713 -0.4595590597082535 0 0.38974167698104772 -0.44655225575213342 0 0.36694436837353878 -0.43446181282190599 0 0.38974167698104772 -0.44655225575213342 0 0.38492982170406859 -0.46562210323161513 0 0.36763829637218648 -0.45400008097572808 0 0.38492982170406859 -0.46562210323161513 0 0.40570631735346713 -0.4595590597082535 0 0.39943936284630488 -0.4801653946283273 0 0.38974167698104772 -0.44655225575213342 0 0.38492982170406859 -0.46562210323161513 0 0.40570631735346713 -0.4595590597082535 0 0.38492982170406859 -0.46562210323161513 0 0.37988829566492521 -0.48366811441496349 0 0.36548596693952701 -0.47255307421487519 0 0.38492982170406859 -0.46562210323161513 0 0.39943936284630488 -0.4801653946283273 0 0.37988829566492521 -0.48366811441496349 0 0.37988829566492521 -0.48366811441496349 0 0.38813719979884698 -0.5 0 0.36144912703587823 -0.5 0 0.39943936284630488 -0.4801653946283273 0 0.37988829566492521 -0.48366811441496349 0 0.38813719979884698 -0.5 0 0.39943936284630488 -0.4801653946283273 0 0.38813719979884698 -0.5 0 0.41482527256181578 -0.5 0 0.39943936284630488 -0.4801653946283273 0 0.41482527256181578 -0.5 0 0.42187301836326008 -0.47821631619134369 0 0.40570631735346713 -0.4595590597082535 0 0.39943936284630488 -0.4801653946283273 0 0.42187301836326008 -0.47821631619134369 0 0.44343736855316163 -0.47663570499697688 0 0.42633827626740273 -0.45715129500055568 0 0.42187301836326008 -0.47821631619134369 0 0.44151334532478442 -0.5 0 0.44343736855316163 -0.47663570499697688 0 0.42187301836326008 -0.47821631619134369 0 0.44151334532478442 -0.5 0 0.41482527256181578 -0.5 0 0.42187301836326008 -0.47821631619134369 0 0.31932190741442362 -0.48070640991945129 0 0.33476105427290942 -0.5 0 0.30807298150994061 -0.5 0 0.31932190741442362 -0.48070640991945129 0 0.34323148175062712 -0.4782845634134083 0 0.32562608912305918 -0.45487389239371989 0 0.31932190741442362 -0.48070640991945129 0 0.34323148175062712 -0.4782845634134083 0 0.33476105427290942 -0.5 0 0.34323148175062712 -0.4782845634134083 0 0.33476105427290942 -0.5 0 0.36144912703587823 -0.5 0 0.37988829566492521 -0.48366811441496349 0 0.36144912703587823 -0.5 0 0.36548596693952701 -0.47255307421487519 0 0.34323148175062712 -0.4782845634134083 0 0.36144912703587823 -0.5 0 0.36548596693952701 -0.47255307421487519 0 0.34323148175062712 -0.4782845634134083 0 0.36548596693952701 -0.47255307421487519 0 0.35115708267616319 -0.46094793757855917 0 0.35115708267616319 -0.46094793757855917 0 0.36763829637218648 -0.45400008097572808 0 0.34628522874829848 -0.44466785260781172 0 0.36548596693952701 -0.47255307421487519 0 0.35115708267616319 -0.46094793757855917 0 0.36763829637218648 -0.45400008097572808 0 0.38492982170406859 -0.46562210323161513 0 0.36548596693952701 -0.47255307421487519 0 0.36763829637218648 -0.45400008097572808 0 0.36763829637218648 -0.45400008097572808 0 0.34628522874829848 -0.44466785260781172 0 0.36694436837353878 -0.43446181282190599 0 0.38974167698104772 -0.44655225575213342 0 0.36763829637218648 -0.45400008097572808 0 0.36694436837353878 -0.43446181282190599 0 0.34628522874829848 -0.44466785260781172 0 0.36694436837353878 -0.43446181282190599 0 0.34628522874829848 -0.44466785260781172 0 0.33285093699821838 -0.44403636815171821 0 0.33989730124360462 -0.43406764175900592 0 0.34628522874829848 -0.44466785260781172 0 0.33285093699821838 -0.44403636815171821 0 0.32562608912305918 -0.45487389239371989 0 0.34628522874829848 -0.44466785260781172 0 0.32562608912305918 -0.45487389239371989 0 0.33285093699821838 -0.44403636815171821 0 0.32771132465142161 -0.4395996886328658 0 0.33989730124360462 -0.43406764175900592 0 0.33285093699821838 -0.44403636815171821 0 0.32771132465142161 -0.4395996886328658 0 0.32473474122470819 -0.44697276536518787 0 0.35115708267616319 -0.46094793757855917 0 0.34628522874829848 -0.44466785260781172 0 0.32562608912305918 -0.45487389239371989 0 0.34323148175062712 -0.4782845634134083 0 0.35115708267616319 -0.46094793757855917 0 0.32562608912305918 -0.45487389239371989 0 0.32562608912305918 -0.45487389239371989 0 0.30496694949782149 -0.46507993217963101 0 0.32562608912305918 -0.45487389239371989 0 0.313637720809056 -0.4522403342227761 0 0.30496694949782149 -0.46507993217963101 0 0.31932190741442362 -0.48070640991945129 0 0.32562608912305918 -0.45487389239371989 0 0.30496694949782149 -0.46507993217963101 0 0.313637720809056 -0.4522403342227761 0 0.32230849212028589 -0.43940073626591819 0 0.32473474122470819 -0.44697276536518787 0 0.313637720809056 -0.4522403342227761 0 0.32230849212028589 -0.43940073626591819 0 0.32230849212028589 -0.43940073626591819 0 0.32771132465142161 -0.4395996886328658 0 0.32230849212028589 -0.43940073626591819 0 0.32771132465142161 -0.4395996886328658 0 0.32473474122470819 -0.44697276536518787 0 0.32562608912305918 -0.45487389239371989 0 0.313637720809056 -0.4522403342227761 0 0.32473474122470819 -0.44697276536518787 0 0.33285093699821838 -0.44403636815171821 0 0.32562608912305918 -0.45487389239371989 0 0.32473474122470819 -0.44697276536518787 0 0.32230849212028589 -0.43940073626591819 0 0.32074523342875089 -0.4223599565635846 0 0.33653495244787118 -0.41833432540133092 0 0.32230849212028589 -0.43940073626591819 0 0.32074523342875089 -0.4223599565635846 0 0.3064563652520057 -0.4233694764432322 0 0.32074523342875089 -0.4223599565635846 0 0.31768112389484088 -0.40833528814385872 0 0.3064563652520057 -0.4233694764432322 0 0.32074523342875089 -0.4223599565635846 0 0.31768112389484088 -0.40833528814385872 0 0.33653495244787118 -0.41833432540133092 0 0.31768112389484088 -0.40833528814385872 0 0.33653495244787118 -0.41833432540133092 0 0.31768112389484088 -0.40833528814385872 0 0.33653495244787118 -0.41833432540133092 0 0.33926594792773168 -0.41429029255525518 0 0.33653495244787118 -0.41833432540133092 0 0.34059637160694051 -0.41772715018734752 0 0.35173966041070392 -0.42639806911162059 0 0.33926594792773168 -0.41429029255525518 0 0.34059637160694051 -0.41772715018734752 0 0.34988625828927372 -0.41728417175434429 0 0.33653495244787118 -0.41833432540133092 0 0.33926594792773168 -0.41429029255525518 0 0.34059637160694051 -0.41772715018734752 0 0.33653495244787118 -0.41833432540133092 0 0.33926594792773168 -0.41429029255525518 0 0.33926594792773168 -0.41429029255525518 0 0.34059637160694051 -0.41772715018734752 0 0.33653495244787118 -0.41833432540133092 0 0.33989730124360462 -0.43406764175900592 0 0.35173966041070392 -0.42639806911162059 0 0.32230849212028589 -0.43940073626591819 0 0.33653495244787118 -0.41833432540133092 0 0.32230849212028589 -0.43940073626591819 0 0.32771132465142161 -0.4395996886328658 0 0.33653495244787118 -0.41833432540133092 0 0.32771132465142161 -0.4395996886328658 0 0.33653495244787118 -0.41833432540133092 0 0.33989730124360462 -0.43406764175900592 0 0.34628522874829848 -0.44466785260781172 0 0.35173966041070392 -0.42639806911162059 0 0.36694436837353878 -0.43446181282190599 0 0.34628522874829848 -0.44466785260781172 0 0.33989730124360462 -0.43406764175900592 0 0.35173966041070392 -0.42639806911162059 0 0.33653495244787118 -0.41833432540133092 0 0.35173966041070392 -0.42639806911162059 0 0.35173966041070392 -0.42639806911162059 0 0.36694436837353878 -0.43446181282190599 0 0.38392672070260903 -0.42607218156557269 0 0.36694436837353878 -0.43446181282190599 0 0.37266518515911717 -0.42168095395927052 0 0.35173966041070392 -0.42639806911162059 0 0.36694436837353878 -0.43446181282190599 0 0.36179089950252069 -0.42011776342050527 0 0.36694436837353878 -0.43446181282190599 0 0.37266518515911717 -0.42168095395927052 0 0.36179089950252069 -0.42011776342050527 0 0.3799575366969572 -0.41573325791846139 0 0.37070640051996129 -0.41201975406990943 0 0.37266518515911717 -0.42168095395927052 0 0.37070640051996129 -0.41201975406990943 0 0.37266518515911717 -0.42168095395927052 0 0.36179089950252069 -0.42011776342050527 0 0.37070640051996129 -0.41201975406990943 0 0.36179089950252069 -0.42011776342050527 0 0.35688007615020179 -0.40928446897829929 0 0.37070640051996129 -0.41201975406990943 0 0.35688007615020179 -0.40928446897829929 0 0.36977652904748132 -0.39982186010098442 0 0.33926594792773168 -0.41429029255525518 0 0.35688007615020179 -0.40928446897829929 0 0.34988625828927372 -0.41728417175434429 0 0.35173966041070392 -0.42639806911162059 0 0.36179089950252069 -0.42011776342050527 0 0.34988625828927372 -0.41728417175434429 0 0.36179089950252069 -0.42011776342050527 0 0.35688007615020179 -0.40928446897829929 0 0.34988625828927372 -0.41728417175434429 0 0.34059637160694051 -0.41772715018734752 0 0.35173966041070392 -0.42639806911162059 0 0.34988625828927372 -0.41728417175434429 0 0.33926594792773168 -0.41429029255525518 0 0.35688007615020179 -0.40928446897829929 0 0.35589043772258361 -0.38967290183623982 0 0.33926594792773168 -0.41429029255525518 0 0.35589043772258361 -0.38967290183623982 0 0.33926594792773168 -0.41429029255525518 0 0.35589043772258361 -0.38967290183623982 0 0.34266532203804628 -0.38983531809161759 0 0.35688007615020179 -0.40928446897829929 0 0.36977652904748132 -0.39982186010098442 0 0.35589043772258361 -0.38967290183623982 0 0.38298470525816009 -0.38650256987712989 0 0.36977652904748132 -0.39982186010098442 0 0.35589043772258361 -0.38967290183623982 0 0.38104236264291841 -0.40351308633896532 0 0.37070640051996129 -0.41201975406990943 0 0.36977652904748132 -0.39982186010098442 0 0.38298470525816009 -0.38650256987712989 0 0.35589043772258361 -0.38967290183623982 0 0.37251492751743781 -0.36505551111722589 0 0.35444994709539118 -0.37636237184746069 0 0.35589043772258361 -0.38967290183623982 0 0.37251492751743781 -0.36505551111722589 0 0.35589043772258361 -0.38967290183623982 0 0.37251492751743781 -0.36505551111722589 0 0.35444994709539118 -0.37636237184746069 0 0.35589043772258361 -0.38967290183623982 0 0.34889537443284541 -0.38374870460904342 0 0.34889537443284541 -0.38374870460904342 0 0.34257579087536072 -0.3791242266608556 0 0.34266532203804628 -0.38983531809161759 0 0.35589043772258361 -0.38967290183623982 0 0.34889537443284541 -0.38374870460904342 0 0.34266532203804628 -0.38983531809161759 0 0.35444994709539118 -0.37636237184746069 0 0.34889537443284541 -0.38374870460904342 0 0.34257579087536072 -0.3791242266608556 0 0.34257579087536072 -0.3791242266608556 0 0.33936579976175818 -0.37929132287322542 0 0.34765885732645019 -0.36818378880748159 0 0.34257579087536072 -0.3791242266608556 0 0.33936579976175818 -0.37929132287322542 0 0.34266532203804628 -0.38983531809161759 0 0.34257579087536072 -0.3791242266608556 0 0.33936579976175818 -0.37929132287322542 0 0.33936579976175818 -0.37929132287322542 0 0.32598727030695279 -0.37998774274476521 0 0.33037778319051792 -0.39132966934190938 0 0.32598727030695279 -0.37998774274476521 0 0.33936579976175818 -0.37929132287322542 0 0.33037778319051792 -0.39132966934190938 0 0.33936579976175818 -0.37929132287322542 0 0.33037778319051792 -0.39132966934190938 0 0.32598727030695279 -0.37998774274476521 0 0.33936579976175818 -0.37929132287322542 0 0.34266532203804628 -0.38983531809161759 0 0.33037778319051792 -0.39132966934190938 0 0.31768112389484088 -0.40833528814385872 0 0.33926594792773168 -0.41429029255525518 0 0.33037778319051792 -0.39132966934190938 0 0.33926594792773168 -0.41429029255525518 0 0.34266532203804628 -0.38983531809161759 0 0.33037778319051792 -0.39132966934190938 0 0.33926594792773168 -0.41429029255525518 0 0.33037778319051792 -0.39132966934190938 0 0.31768112389484088 -0.40833528814385872 0 0.33037778319051792 -0.39132966934190938 0 0.3143181337442732 -0.38684618699232198 0 0.31768112389484088 -0.40833528814385872 0 0.33037778319051792 -0.39132966934190938 0 0.32598727030695279 -0.37998774274476521 0 0.30386698741642731 -0.38113921493168262 0 0.3143181337442732 -0.38684618699232198 0 0.32598727030695279 -0.37998774274476521 0 0.30386698741642731 -0.38113921493168262 0 0.33037778319051792 -0.39132966934190938 0 0.3143181337442732 -0.38684618699232198 0 0.32598727030695279 -0.37998774274476521 0 0.3143181337442732 -0.38684618699232198 0 0.30386698741642731 -0.38113921493168262 0 0.29538818455208499 -0.39651233502641231 0 0.32598727030695279 -0.37998774274476521 0 0.30386698741642731 -0.38113921493168262 0 0.30424331765864771 -0.36503250220540101 0 0.30386698741642731 -0.38113921493168262 0 0.29538818455208499 -0.39651233502641231 0 0.29303943933799631 -0.38760714447427452 0 0.31768112389484088 -0.40833528814385872 0 0.29538818455208499 -0.39651233502641231 0 0.29869954675388849 -0.41276036127454369 0 0.3143181337442732 -0.38684618699232198 0 0.29538818455208499 -0.39651233502641231 0 0.31768112389484088 -0.40833528814385872 0 0.3143181337442732 -0.38684618699232198 0 0.29538818455208499 -0.39651233502641231 0 0.31768112389484088 -0.40833528814385872 0 0.29538818455208499 -0.39651233502641231 0 0.29538818455208499 -0.39651233502641231 0 0.2872613818724572 -0.39220232432756968 0 0.29303943933799631 -0.38760714447427452 0 0.29538818455208499 -0.39651233502641231 0 0.29092688133973987 -0.39879039804906802 0 0.2872613818724572 -0.39220232432756968 0 0.29538818455208499 -0.39651233502641231 0 0.29092688133973987 -0.39879039804906802 0 0.29869954675388849 -0.41276036127454369 0 0.29538818455208499 -0.39651233502641231 0 0.2872613818724572 -0.39220232432756968 0 0.29538818455208499 -0.39651233502641231 0 0.29092688133973987 -0.39879039804906802 0 0.29092688133973987 -0.39879039804906802 0 0.2872613818724572 -0.39220232432756968 0 0.29092688133973987 -0.39879039804906802 0 0.29869954675388849 -0.41276036127454369 0 0.29092688133973987 -0.39879039804906802 0 0.2756272690108838 -0.40660279712808489 0 0.29092688133973987 -0.39879039804906802 0 0.2756272690108838 -0.40660279712808489 0 0.28763766445980182 -0.41116398337626231 0 0.29092688133973987 -0.39879039804906802 0 0.2872613818724572 -0.39220232432756968 0 0.27539052845755491 -0.3934324775861438 0 0.2872613818724572 -0.39220232432756968 0 0.28174670452590161 -0.38229068711860048 0 0.30386698741642731 -0.38113921493168262 0 0.28174670452590161 -0.38229068711860048 0 0.30386698741642731 -0.38113921493168262 0 0.29303943933799631 -0.38760714447427452 0 0.28174670452590161 -0.38229068711860048 0 0.2872613818724572 -0.39220232432756968 0 0.29303943933799631 -0.38760714447427452 0 0.28174670452590161 -0.38229068711860048 0 0.30386698741642731 -0.38113921493168262 0 0.28174670452590161 -0.38229068711860048 0 0.29241103918675909 -0.36764657620642721 0 0.28174670452590161 -0.38229068711860048 0 0.26901978772295237 -0.382953187268182 0 0.27336484957918661 -0.36722581565845441 0 0.2872613818724572 -0.39220232432756968 0 0.28174670452590161 -0.38229068711860048 0 0.26901978772295237 -0.382953187268182 0 0.2872613818724572 -0.39220232432756968 0 0.26901978772295237 -0.382953187268182 0 0.26901978772295237 -0.382953187268182 0 0.27336484957918661 -0.36722581565845441 0 0.2872613818724572 -0.39220232432756968 0 0.26901978772295237 -0.382953187268182 0 0.27539052845755491 -0.3934324775861438 0 0.28174670452590161 -0.38229068711860048 0 0.26901978772295237 -0.382953187268182 0 0.26901978772295237 -0.382953187268182 0 0.26261129461503768 -0.38328678162637081 0 0.26261129461503768 -0.38328678162637081 0 0.2511572423839723 -0.38875302535496642 0 0.24769687328441389 -0.37121947756343487 0 0.26901978772295237 -0.382953187268182 0 0.26261129461503768 -0.38328678162637081 0 0.24769687328441389 -0.37121947756343487 0 0.26901978772295237 -0.382953187268182 0 0.24769687328441389 -0.37121947756343487 0 0.26901978772295237 -0.382953187268182 0 0.26261129461503768 -0.38328678162637081 0 0.26467372220249002 -0.3986841917376423 0 0.26261129461503768 -0.38328678162637081 0 0.2511572423839723 -0.38875302535496642 0 0.26467372220249002 -0.3986841917376423 0 0.25125777314891651 -0.40330977310569072 0 0.26467372220249002 -0.3986841917376423 0 0.26032765668202817 -0.41441519620710282 0 0.2511572423839723 -0.38875302535496642 0 0.25125777314891651 -0.40330977310569072 0 0.26467372220249002 -0.3986841917376423 0 0.26901978772295237 -0.382953187268182 0 0.26467372220249002 -0.3986841917376423 0 0.26467372220249002 -0.3986841917376423 0 0.27539052845755491 -0.3934324775861438 0 0.2756272690108838 -0.40660279712808489 0 0.26901978772295237 -0.382953187268182 0 0.26467372220249002 -0.3986841917376423 0 0.27539052845755491 -0.3934324775861438 0 0.29092688133973987 -0.39879039804906802 0 0.27539052845755491 -0.3934324775861438 0 0.2756272690108838 -0.40660279712808489 0 0.2756272690108838 -0.40660279712808489 0 0.26997461791726901 -0.42450350258508712 0 0.28294129299012771 -0.42346538613620072 0 0.2756272690108838 -0.40660279712808489 0 0.26032765668202817 -0.41441519620710282 0 0.26997461791726901 -0.42450350258508712 0 0.26467372220249002 -0.3986841917376423 0 0.2756272690108838 -0.40660279712808489 0 0.26032765668202817 -0.41441519620710282 0 0.2756272690108838 -0.40660279712808489 0 0.26032765668202817 -0.41441519620710282 0 0.26032765668202817 -0.41441519620710282 0 0.24358468605797151 -0.42296461337348978 0 0.26032765668202817 -0.41441519620710282 0 0.24358468605797151 -0.42296461337348978 0 0.24892819567348121 -0.41260102830448281 0 0.26467372220249002 -0.3986841917376423 0 0.26032765668202817 -0.41441519620710282 0 0.25125777314891651 -0.40330977310569072 0 0.26032765668202817 -0.41441519620710282 0 0.24892819567348121 -0.41260102830448281 0 0.26032765668202817 -0.41441519620710282 0 0.2541185306064625 -0.43688972853670599 0 0.24358468605797151 -0.42296461337348978 0 0.26032765668202817 -0.41441519620710282 0 0.2541185306064625 -0.43688972853670599 0 0.26032765668202817 -0.41441519620710282 0 0.2541185306064625 -0.43688972853670599 0 0.26997461791726901 -0.42450350258508712 0 0.2541185306064625 -0.43688972853670599 0 0.27467506860781421 -0.43764669663965577 0 0.2541185306064625 -0.43688972853670599 0 0.24814437523465621 -0.43666973794012998 0 0.2541185306064625 -0.43688972853670599 0 0.26997461791726901 -0.42450350258508712 0 0.27467506860781421 -0.43764669663965577 0 0.26997461791726901 -0.42450350258508712 0 0.28294129299012771 -0.42346538613620072 0 0.27467506860781421 -0.43764669663965577 0 0.28294129299012771 -0.42346538613620072 0 0.29523160660916598 -0.43840366474260251 0 0.27467506860781421 -0.43764669663965577 0 0.29485324804091778 -0.42309776683373329 0 0.28294129299012771 -0.42346538613620072 0 0.29523160660916598 -0.43840366474260251 0 0.2756272690108838 -0.40660279712808489 0 0.28294129299012771 -0.42346538613620072 0 0.28763766445980182 -0.41116398337626231 0 0.29485324804091778 -0.42309776683373329 0 0.28294129299012771 -0.42346538613620072 0 0.28763766445980182 -0.41116398337626231 0 0.29092688133973987 -0.39879039804906802 0 0.28763766445980182 -0.41116398337626231 0 0.29869954675388849 -0.41276036127454369 0 0.29485324804091778 -0.42309776683373329 0 0.28763766445980182 -0.41116398337626231 0 0.29869954675388849 -0.41276036127454369 0 0.31768112389484088 -0.40833528814385872 0 0.29869954675388849 -0.41276036127454369 0 0.3064563652520057 -0.4233694764432322 0 0.29485324804091778 -0.42309776683373329 0 0.29869954675388849 -0.41276036127454369 0 0.3064563652520057 -0.4233694764432322 0 0.31768112389484088 -0.40833528814385872 0 0.3064563652520057 -0.4233694764432322 0 0.32230849212028589 -0.43940073626591819 0 0.3064563652520057 -0.4233694764432322 0 0.29523160660916598 -0.43840366474260251 0 0.3064563652520057 -0.4233694764432322 0 0.29523160660916598 -0.43840366474260251 0 0.29485324804091778 -0.42309776683373329 0 0.3064563652520057 -0.4233694764432322 0 0.29523160660916598 -0.43840366474260251 0 0.313637720809056 -0.4522403342227761 0 0.30017737350341789 -0.45369013641628098 0 0.29523160660916598 -0.43840366474260251 0 0.313637720809056 -0.4522403342227761 0 0.32230849212028589 -0.43940073626591819 0 0.29523160660916598 -0.43840366474260251 0 0.32230849212028589 -0.43940073626591819 0 0.29523160660916598 -0.43840366474260251 0 0.313637720809056 -0.4522403342227761 0 0.30496694949782149 -0.46507993217963101 0 0.313637720809056 -0.4522403342227761 0 0.30496694949782149 -0.46507993217963101 0 0.30017737350341789 -0.45369013641628098 0 0.30496694949782149 -0.46507993217963101 0 0.30017737350341789 -0.45369013641628098 0 0.29256957899159641 -0.46226548158801217 0 0.30496694949782149 -0.46507993217963101 0 0.29256957899159641 -0.46226548158801217 0 0.2872716508291781 -0.47382177358792421 0 0.30017737350341789 -0.45369013641628098 0 0.29256957899159641 -0.46226548158801217 0 0.28058736955320762 -0.45801782522526879 0 0.29256957899159641 -0.46226548158801217 0 0.28058736955320762 -0.45801782522526879 0 0.27802462675035178 -0.46821455278476409 0 0.29256957899159641 -0.46226548158801217 0 0.27802462675035178 -0.46821455278476409 0 0.2872716508291781 -0.47382177358792421 0 0.29523160660916598 -0.43840366474260251 0 0.28058736955320762 -0.45801782522526879 0 0.30017737350341789 -0.45369013641628098 0 0.29523160660916598 -0.43840366474260251 0 0.28058736955320762 -0.45801782522526879 0 0.29523160660916598 -0.43840366474260251 0 0.27601198413499889 -0.44830221056038477 0 0.28058736955320762 -0.45801782522526879 0 0.29523160660916598 -0.43840366474260251 0 0.27467506860781421 -0.43764669663965577 0 0.27601198413499889 -0.44830221056038477 0 0.29523160660916598 -0.43840366474260251 0 0.27467506860781421 -0.43764669663965577 0 0.27601198413499889 -0.44830221056038477 0 0.26562995318490767 -0.44510182762937789 0 0.27055580387848449 -0.46096616039423971 0 0.27467506860781421 -0.43764669663965577 0 0.27601198413499889 -0.44830221056038477 0 0.26562995318490767 -0.44510182762937789 0 0.2541185306064625 -0.43688972853670599 0 0.27467506860781421 -0.43764669663965577 0 0.26562995318490767 -0.44510182762937789 0 0.25278837869677923 -0.44170434201590347 0 0.25724359337602343 -0.45507576836891112 0 0.27055580387848449 -0.46096616039423971 0 0.26562995318490767 -0.44510182762937789 0 0.25278837869677923 -0.44170434201590347 0 0.27055580387848449 -0.46096616039423971 0 0.25278837869677923 -0.44170434201590347 0 0.27055580387848449 -0.46096616039423971 0 0.25009545983798842 -0.45145162226376928 0 0.25278837869677923 -0.44170434201590347 0 0.25724359337602343 -0.45507576836891112 0 0.25009545983798842 -0.45145162226376928 0 0.25278837869677923 -0.44170434201590347 0 0.2541185306064625 -0.43688972853670599 0 0.26562995318490767 -0.44510182762937789 0 0.25278837869677923 -0.44170434201590347 0 0.2541185306064625 -0.43688972853670599 0 0.25278837869677923 -0.44170434201590347 0 0.25278837869677923 -0.44170434201590347 0 0.24814437523465621 -0.43666973794012998 0 0.2541185306064625 -0.43688972853670599 0 0.25278837869677923 -0.44170434201590347 0 0.24814437523465621 -0.43666973794012998 0 0.25009545983798842 -0.45145162226376928 0 0.25553473109084213 -0.46618094880173211 0 0.25724359337602343 -0.45507576836891112 0 0.25553473109084213 -0.46618094880173211 0 0.25724359337602343 -0.45507576836891112 0 0.27055580387848449 -0.46096616039423971 0 0.25553473109084213 -0.46618094880173211 0 0.27055580387848449 -0.46096616039423971 0 0.26596231829139783 -0.47161067093024989 0 0.27055580387848449 -0.46096616039423971 0 0.27802462675035178 -0.46821455278476409 0 0.26596231829139783 -0.47161067093024989 0 0.27601198413499889 -0.44830221056038477 0 0.27055580387848449 -0.46096616039423971 0 0.28058736955320762 -0.45801782522526879 0 0.27055580387848449 -0.46096616039423971 0 0.28058736955320762 -0.45801782522526879 0 0.27802462675035178 -0.46821455278476409 0 0.26957635216053621 -0.48256361499622019 0 0.2872716508291781 -0.47382177358792421 0 0.26957635216053621 -0.48256361499622019 0 0.2813777639586712 -0.48417172165623928 0 0.2872716508291781 -0.47382177358792421 0 0.27802462675035178 -0.46821455278476409 0 0.26957635216053621 -0.48256361499622019 0 0.2872716508291781 -0.47382177358792421 0 0.27802462675035178 -0.46821455278476409 0 0.26957635216053621 -0.48256361499622019 0 0.26596231829139783 -0.47161067093024989 0 0.25553473109084213 -0.46618094880173211 0 0.26596231829139783 -0.47161067093024989 0 0.25612007757677441 -0.48012807767429377 0 0.26957635216053621 -0.48256361499622019 0 0.26596231829139783 -0.47161067093024989 0 0.25612007757677441 -0.48012807767429377 0 0.25553473109084213 -0.46618094880173211 0 0.25612007757677441 -0.48012807767429377 0 0.2420017643367364 -0.47470191523119559 0 0.26957635216053621 -0.48256361499622019 0 0.25612007757677441 -0.48012807767429377 0 0.2569760984471593 -0.5 0 0.25612007757677441 -0.48012807767429377 0 0.2569760984471593 -0.5 0 0.2446818756598719 -0.48942765687134032 0 0.26957635216053621 -0.48256361499622019 0 0.2569760984471593 -0.5 0 0.28138490874697181 -0.50000000000000444 0 0.26957635216053621 -0.48256361499622019 0 0.28138490874697181 -0.50000000000000444 0 0.2813777639586712 -0.48417172165623928 0 0.28138490874697181 -0.50000000000000444 0 0.2813777639586712 -0.48417172165623928 0 0.29317592912239931 -0.48253996608981953 0 0.28138490874697181 -0.50000000000000444 0 0.29317592912239931 -0.48253996608981953 0 0.28138490874697181 -0.50000000000000444 0 0.29317592912239931 -0.48253996608981953 0 0.30807298150994061 -0.5 0 0.30496694949782149 -0.46507993217963101 0 0.2872716508291781 -0.47382177358792421 0 0.30496694949782149 -0.46507993217963101 0 0.2872716508291781 -0.47382177358792421 0 0.29317592912239931 -0.48253996608981953 0 0.2813777639586712 -0.48417172165623928 0 0.2872716508291781 -0.47382177358792421 0 0.29317592912239931 -0.48253996608981953 0 0.30496694949782149 -0.46507993217963101 0 0.29317592912239931 -0.48253996608981953 0 0.31932190741442362 -0.48070640991945129 0 0.30496694949782149 -0.46507993217963101 0 0.29317592912239931 -0.48253996608981953 0 0.31932190741442362 -0.48070640991945129 0 0.29317592912239931 -0.48253996608981953 0 0.30807298150994061 -0.5 0 0.33924867531082442 -0.28998555637506979 0 0.32328597854825991 -0.28344425853444077 0 0.3354968343279372 -0.27148511589681418 0 0.33924867531082442 -0.28998555637506979 0 0.3289774040373995 -0.29915447351354868 0 0.32328597854825991 -0.28344425853444077 0 0.33924867531082442 -0.28998555637506979 0 0.34249863791399909 -0.30721500145286479 0 0.3289774040373995 -0.29915447351354868 0 0.34249863791399909 -0.30721500145286479 0 0.33084760574877259 -0.31129412990349498 0 0.3289774040373995 -0.29915447351354868 0 0.3289774040373995 -0.29915447351354868 0 0.31952198722338282 -0.3094314363712205 0 0.3171269857983513 -0.29408532215883898 0 0.33084760574877259 -0.31129412990349498 0 0.3289774040373995 -0.29915447351354868 0 0.31952198722338282 -0.3094314363712205 0 0.31952198722338282 -0.3094314363712205 0 0.310675541971767 -0.30351265072822581 0 0.31104106739558329 -0.31107847763739349 0 0.31952198722338282 -0.3094314363712205 0 0.3171269857983513 -0.29408532215883898 0 0.310675541971767 -0.30351265072822581 0 0.3171269857983513 -0.29408532215883898 0 0.32328597854825991 -0.28344425853444077 0 0.30559157873718568 -0.28443811693023818 0 0.3289774040373995 -0.29915447351354868 0 0.3171269857983513 -0.29408532215883898 0 0.32328597854825991 -0.28344425853444077 0 0.32328597854825991 -0.28344425853444077 0 0.3153765102916456 -0.26643476358674117 0 0.3354968343279372 -0.27148511589681418 0 0.32328597854825991 -0.28344425853444077 0 0.3153765102916456 -0.26643476358674117 0 0.30559157873718568 -0.28443811693023818 0 0.30449497469334952 -0.2447051324796215 0 0.3153765102916456 -0.26643476358674117 0 0.32973084921971491 -0.25127782865676501 0 0.3153765102916456 -0.26643476358674117 0 0.32973084921971491 -0.25127782865676501 0 0.3354968343279372 -0.27148511589681418 0 0.32973084921971491 -0.25127782865676501 0 0.35496672374608029 -0.25785052483390841 0 0.32973084921971491 -0.25127782865676501 0 0.3354968343279372 -0.27148511589681418 0 0.35496672374608029 -0.25785052483390841 0 0.33924867531082442 -0.28998555637506979 0 0.3354968343279372 -0.27148511589681418 0 0.3494875275154245 -0.27955809975243351 0 0.3354968343279372 -0.27148511589681418 0 0.3494875275154245 -0.27955809975243351 0 0.35496672374608029 -0.25785052483390841 0 0.3494875275154245 -0.27955809975243351 0 0.35496672374608029 -0.25785052483390841 0 0.36423362013468569 -0.28113718885110739 0 0.38196373250868598 -0.23808147822196141 0 0.38020259827244579 -0.26442322101105192 0 0.35496672374608029 -0.25785052483390841 0 0.38020259827244579 -0.26442322101105192 0 0.35496672374608029 -0.25785052483390841 0 0.38020259827244579 -0.26442322101105192 0 0.35496672374608029 -0.25785052483390841 0 0.36423362013468569 -0.28113718885110739 0 0.37802953511534898 -0.28597997402557518 0 0.38020259827244579 -0.26442322101105192 0 0.36423362013468569 -0.28113718885110739 0 0.36423362013468569 -0.28113718885110739 0 0.3534917840575949 -0.2973321128052675 0 0.36890553220027561 -0.29967469708087052 0 0.37802953511534898 -0.28597997402557518 0 0.36423362013468569 -0.28113718885110739 0 0.36890553220027561 -0.29967469708087052 0 0.33924867531082442 -0.28998555637506979 0 0.3494875275154245 -0.27955809975243351 0 0.3534917840575949 -0.2973321128052675 0 0.3494875275154245 -0.27955809975243351 0 0.36423362013468569 -0.28113718885110739 0 0.3534917840575949 -0.2973321128052675 0 0.34249863791399909 -0.30721500145286479 0 0.3534917840575949 -0.2973321128052675 0 0.35632452962426281 -0.31848736077450762 0 0.33924867531082442 -0.28998555637506979 0 0.34249863791399909 -0.30721500145286479 0 0.3534917840575949 -0.2973321128052675 0 0.3765337395409501 -0.31443136429461882 0 0.36890553220027561 -0.29967469708087052 0 0.35632452962426281 -0.31848736077450762 0 0.3534917840575949 -0.2973321128052675 0 0.36890553220027561 -0.29967469708087052 0 0.35632452962426281 -0.31848736077450762 0 0.3765337395409501 -0.31443136429461882 0 0.36664332468155431 -0.33284605815720181 0 0.35632452962426281 -0.31848736077450762 0 0.3765337395409501 -0.31443136429461882 0 0.35632452962426281 -0.31848736077450762 0 0.3765337395409501 -0.31443136429461882 0 0.36664332468155431 -0.33284605815720181 0 0.38913941731229651 -0.34043812039821519 0 0.36664332468155431 -0.33284605815720181 0 0.36877470004139917 -0.34909742700117641 0 0.36664332468155431 -0.33284605815720181 0 0.35189847439699601 -0.3420709948503276 0 0.35404905005308102 -0.35629499482989357 0 0.36664332468155431 -0.33284605815720181 0 0.35137932219456458 -0.32769470770579912 0 0.36664332468155431 -0.33284605815720181 0 0.35189847439699601 -0.3420709948503276 0 0.35137932219456458 -0.32769470770579912 0 0.35189847439699601 -0.3420709948503276 0 0.35137932219456458 -0.32769470770579912 0 0.34011618710387642 -0.34290856504400552 0 0.35632452962426281 -0.31848736077450762 0 0.33611531970757541 -0.32254335725439548 0 0.35137932219456458 -0.32769470770579912 0 0.35632452962426281 -0.31848736077450762 0 0.33611531970757541 -0.32254335725439548 0 0.34249863791399909 -0.30721500145286479 0 0.35632452962426281 -0.31848736077450762 0 0.33611531970757541 -0.32254335725439548 0 0.36664332468155431 -0.33284605815720181 0 0.35137932219456458 -0.32769470770579912 0 0.35632452962426281 -0.31848736077450762 0 0.35444994709539118 -0.37636237184746069 0 0.37251492751743781 -0.36505551111722589 0 0.35957490874975923 -0.36415391406357422 0 0.37251492751743781 -0.36505551111722589 0 0.35957490874975923 -0.36415391406357422 0 0.36877470004139917 -0.34909742700117641 0 0.36664332468155431 -0.33284605815720181 0 0.35404905005308102 -0.35629499482989357 0 0.36664332468155431 -0.33284605815720181 0 0.36877470004139917 -0.34909742700117641 0 0.35404905005308102 -0.35629499482989357 0 0.35957490874975923 -0.36415391406357422 0 0.36877470004139917 -0.34909742700117641 0 0.35404905005308102 -0.35629499482989357 0 0.35189847439699601 -0.3420709948503276 0 0.34291318143620603 -0.35464727169742682 0 0.34011618710387642 -0.34290856504400552 0 0.35189847439699601 -0.3420709948503276 0 0.35404905005308102 -0.35629499482989357 0 0.34291318143620603 -0.35464727169742682 0 0.35957490874975923 -0.36415391406357422 0 0.35404905005308102 -0.35629499482989357 0 0.34765885732645019 -0.36818378880748159 0 0.35404905005308102 -0.35629499482989357 0 0.34765885732645019 -0.36818378880748159 0 0.34291318143620603 -0.35464727169742682 0 0.35444994709539118 -0.37636237184746069 0 0.34257579087536072 -0.3791242266608556 0 0.34765885732645019 -0.36818378880748159 0 0.35444994709539118 -0.37636237184746069 0 0.35957490874975923 -0.36415391406357422 0 0.34765885732645019 -0.36818378880748159 0 0.33936579976175818 -0.37929132287322542 0 0.32598727030695279 -0.37998774274476521 0 0.33349077995442428 -0.3653499718965621 0 0.33936579976175818 -0.37929132287322542 0 0.34765885732645019 -0.36818378880748159 0 0.33936579976175818 -0.37929132287322542 0 0.34765885732645019 -0.36818378880748159 0 0.33349077995442428 -0.3653499718965621 0 0.34765885732645019 -0.36818378880748159 0 0.33349077995442428 -0.3653499718965621 0 0.34291318143620603 -0.35464727169742682 0 0.33349077995442428 -0.3653499718965621 0 0.33156597761684081 -0.351789634213789 0 0.34291318143620603 -0.35464727169742682 0 0.33156597761684081 -0.351789634213789 0 0.34291318143620603 -0.35464727169742682 0 0.34011618710387642 -0.34290856504400552 0 0.33349077995442428 -0.3653499718965621 0 0.33156597761684081 -0.351789634213789 0 0.31603539155922999 -0.35427924780264602 0 0.33156597761684081 -0.351789634213789 0 0.31603539155922999 -0.35427924780264602 0 0.33151548963574351 -0.33559184802429542 0 0.32598727030695279 -0.37998774274476521 0 0.31603539155922999 -0.35427924780264602 0 0.30424331765864771 -0.36503250220540101 0 0.32598727030695279 -0.37998774274476521 0 0.31603539155922999 -0.35427924780264602 0 0.32598727030695279 -0.37998774274476521 0 0.33349077995442428 -0.3653499718965621 0 0.31603539155922999 -0.35427924780264602 0 0.33611531970757541 -0.32254335725439548 0 0.33151548963574351 -0.33559184802429542 0 0.3210994162595403 -0.32555705505745991 0 0.33611531970757541 -0.32254335725439548 0 0.32428001354607638 -0.31854913556912501 0 0.33611531970757541 -0.32254335725439548 0 0.3210994162595403 -0.32555705505745991 0 0.33084760574877259 -0.31129412990349498 0 0.33611531970757541 -0.32254335725439548 0 0.32428001354607638 -0.31854913556912501 0 0.34249863791399909 -0.30721500145286479 0 0.33084760574877259 -0.31129412990349498 0 0.33611531970757541 -0.32254335725439548 0 0.35137932219456458 -0.32769470770579912 0 0.33611531970757541 -0.32254335725439548 0 0.35137932219456458 -0.32769470770579912 0 0.34011618710387642 -0.34290856504400552 0 0.33151548963574351 -0.33559184802429542 0 0.35137932219456458 -0.32769470770579912 0 0.33611531970757541 -0.32254335725439548 0 0.33151548963574351 -0.33559184802429542 0 0.33156597761684081 -0.351789634213789 0 0.34011618710387642 -0.34290856504400552 0 0.33151548963574351 -0.33559184802429542 0 0.31603539155922999 -0.35427924780264602 0 0.3210994162595403 -0.32555705505745991 0 0.30608351281150581 -0.32857075286052739 0 0.31603539155922999 -0.35427924780264602 0 0.33151548963574351 -0.33559184802429542 0 0.3210994162595403 -0.32555705505745991 0 0.3210994162595403 -0.32555705505745991 0 0.3182136926593877 -0.32017332202613202 0 0.30608351281150581 -0.32857075286052739 0 0.3210994162595403 -0.32555705505745991 0 0.30608351281150581 -0.32857075286052739 0 0.33611531970757541 -0.32254335725439548 0 0.3210994162595403 -0.32555705505745991 0 0.32428001354607638 -0.31854913556912501 0 0.3210994162595403 -0.32555705505745991 0 0.32428001354607638 -0.31854913556912501 0 0.3182136926593877 -0.32017332202613202 0 0.31952198722338282 -0.3094314363712205 0 0.32428001354607638 -0.31854913556912501 0 0.3182136926593877 -0.32017332202613202 0 0.33084760574877259 -0.31129412990349498 0 0.31952198722338282 -0.3094314363712205 0 0.32428001354607638 -0.31854913556912501 0 0.31952198722338282 -0.3094314363712205 0 0.31309971198318198 -0.31774397020748879 0 0.31104106739558329 -0.31107847763739349 0 0.31952198722338282 -0.3094314363712205 0 0.3182136926593877 -0.32017332202613202 0 0.31309971198318198 -0.31774397020748879 0 0.31309971198318198 -0.31774397020748879 0 0.3072999517897263 -0.31888459376976691 0 0.31104106739558329 -0.31107847763739349 0 0.3072999517897263 -0.31888459376976691 0 0.3036281372809515 -0.31328804937586802 0 0.31104106739558329 -0.31107847763739349 0 0.3036281372809515 -0.31328804937586802 0 0.30089632269569039 -0.31757838902350027 0 0.29489356611124451 -0.31143960601415283 0 0.3072999517897263 -0.31888459376976691 0 0.3036281372809515 -0.31328804937586802 0 0.30089632269569039 -0.31757838902350027 0 0.3072999517897263 -0.31888459376976691 0 0.30089632269569039 -0.31757838902350027 0 0.30418592692671348 -0.32366875612623708 0 0.30418592692671348 -0.32366875612623708 0 0.29511129659453572 -0.33077288102565572 0 0.29447403136981598 -0.32061093983147682 0 0.30089632269569039 -0.31757838902350027 0 0.30418592692671348 -0.32366875612623708 0 0.29447403136981598 -0.32061093983147682 0 0.30418592692671348 -0.32366875612623708 0 0.30608351281150581 -0.32857075286052739 0 0.29511129659453572 -0.33077288102565572 0 0.31309971198318198 -0.31774397020748879 0 0.3072999517897263 -0.31888459376976691 0 0.30608351281150581 -0.32857075286052739 0 0.3182136926593877 -0.32017332202613202 0 0.31309971198318198 -0.31774397020748879 0 0.30608351281150581 -0.32857075286052739 0 0.30418592692671348 -0.32366875612623708 0 0.30608351281150581 -0.32857075286052739 0 0.3072999517897263 -0.31888459376976691 0 0.30418592692671348 -0.32366875612623708 0 0.30608351281150581 -0.32857075286052739 0 0.31603539155922999 -0.35427924780264602 0 0.30608351281150581 -0.32857075286052739 0 0.30608351281150581 -0.32857075286052739 0 0.29089099391815382 -0.34065089955753691 0 0.29831520479173751 -0.35269077809663019 0 0.30608351281150581 -0.32857075286052739 0 0.29511129659453572 -0.33077288102565572 0 0.29089099391815382 -0.34065089955753691 0 0.30608351281150581 -0.32857075286052739 0 0.29511129659453572 -0.33077288102565572 0 0.29511129659453572 -0.33077288102565572 0 0.29089099391815382 -0.34065089955753691 0 0.28425166811362612 -0.33073874292401367 0 0.29089099391815382 -0.34065089955753691 0 0.28425166811362612 -0.33073874292401367 0 0.27671245341840123 -0.34377238780064862 0 0.28425166811362612 -0.33073874292401367 0 0.28157988505109882 -0.31801792307864429 0 0.29447403136981598 -0.32061093983147682 0 0.30089632269569039 -0.31757838902350027 0 0.29447403136981598 -0.32061093983147682 0 0.29489356611124451 -0.31143960601415283 0 0.28157988505109882 -0.31801792307864429 0 0.29447403136981598 -0.32061093983147682 0 0.29489356611124451 -0.31143960601415283 0 0.29511129659453572 -0.33077288102565572 0 0.28425166811362612 -0.33073874292401367 0 0.29447403136981598 -0.32061093983147682 0 0.30386698741642731 -0.38113921493168262 0 0.30424331765864771 -0.36503250220540101 0 0.29241103918675909 -0.36764657620642721 0 0.30424331765864771 -0.36503250220540101 0 0.29831520479173751 -0.35269077809663019 0 0.29241103918675909 -0.36764657620642721 0 0.31603539155922999 -0.35427924780264602 0 0.30608351281150581 -0.32857075286052739 0 0.29831520479173751 -0.35269077809663019 0 0.31603539155922999 -0.35427924780264602 0 0.30424331765864771 -0.36503250220540101 0 0.29831520479173751 -0.35269077809663019 0 0.29089099391815382 -0.34065089955753691 0 0.29831520479173751 -0.35269077809663019 0 0.28541518748029959 -0.35639086854839302 0 0.29089099391815382 -0.34065089955753691 0 0.28541518748029959 -0.35639086854839302 0 0.27671245341840123 -0.34377238780064862 0 0.29831520479173751 -0.35269077809663019 0 0.28541518748029959 -0.35639086854839302 0 0.29241103918675909 -0.36764657620642721 0 0.28541518748029959 -0.35639086854839302 0 0.28155714504315937 -0.36708231157896681 0 0.29241103918675909 -0.36764657620642721 0 0.28174670452590161 -0.38229068711860048 0 0.28155714504315937 -0.36708231157896681 0 0.29241103918675909 -0.36764657620642721 0 0.26901978772295237 -0.382953187268182 0 0.27336484957918661 -0.36722581565845441 0 0.26136496057854142 -0.36948206554488677 0 0.28174670452590161 -0.38229068711860048 0 0.27336484957918661 -0.36722581565845441 0 0.28174670452590161 -0.38229068711860048 0 0.28155714504315937 -0.36708231157896681 0 0.27336484957918661 -0.36722581565845441 0 0.28155714504315937 -0.36708231157896681 0 0.27336484957918661 -0.36722581565845441 0 0.2748479444436504 -0.36185761036295838 0 0.28541518748029959 -0.35639086854839302 0 0.28155714504315937 -0.36708231157896681 0 0.2748479444436504 -0.36185761036295838 0 0.27336484957918661 -0.36722581565845441 0 0.2748479444436504 -0.36185761036295838 0 0.27336484957918661 -0.36722581565845441 0 0.25882512043895478 -0.34109327674488232 0 0.28541518748029959 -0.35639086854839302 0 0.2748479444436504 -0.36185761036295838 0 0.27671245341840123 -0.34377238780064862 0 0.2748479444436504 -0.36185761036295838 0 0.27671245341840123 -0.34377238780064862 0 0.25882512043895478 -0.34109327674488232 0 0.27336484957918661 -0.36722581565845441 0 0.2748479444436504 -0.36185761036295838 0 0.25882512043895478 -0.34109327674488232 0 0.25464862209846639 -0.3574939316128018 0 0.25882512043895478 -0.34109327674488232 0 0.23930150478793649 -0.34376064209243612 0 0.27336484957918661 -0.36722581565845441 0 0.25464862209846639 -0.3574939316128018 0 0.25882512043895478 -0.34109327674488232 0 0.26901978772295237 -0.382953187268182 0 0.26136496057854142 -0.36948206554488677 0 0.24769687328441389 -0.37121947756343487 0 0.27336484957918661 -0.36722581565845441 0 0.25464862209846639 -0.3574939316128018 0 0.26136496057854142 -0.36948206554488677 0 0.25464862209846639 -0.3574939316128018 0 0.26136496057854142 -0.36948206554488677 0 0.24769687328441389 -0.37121947756343487 0 0.28157988505109882 -0.31801792307864429 0 0.26724069618821511 -0.31251802092936648 0 0.2680454116125896 -0.32828185963567452 0 0.28425166811362612 -0.33073874292401367 0 0.28157988505109882 -0.31801792307864429 0 0.2680454116125896 -0.32828185963567452 0 0.28425166811362612 -0.33073874292401367 0 0.27671245341840123 -0.34377238780064862 0 0.2680454116125896 -0.32828185963567452 0 0.27671245341840123 -0.34377238780064862 0 0.2680454116125896 -0.32828185963567452 0 0.25882512043895478 -0.34109327674488232 0 0.2680454116125896 -0.32828185963567452 0 0.25882512043895478 -0.34109327674488232 0 0.25038245290156269 -0.32339209083415621 0 0.26724069618821511 -0.31251802092936648 0 0.2680454116125896 -0.32828185963567452 0 0.25038245290156269 -0.32339209083415621 0 0.26724069618821511 -0.31251802092936648 0 0.25038245290156269 -0.32339209083415621 0 0.25232281431768622 -0.30541497191669892 0 0.26724069618821511 -0.31251802092936648 0 0.25232281431768622 -0.30541497191669892 0 0.26585675966784922 -0.29115761494845371 0 0.25232281431768622 -0.30541497191669892 0 0.26585675966784922 -0.29115761494845371 0 0.24820386476913511 -0.29037438639922769 0 0.26585675966784922 -0.29115761494845371 0 0.25106524756784299 -0.27168097660826329 0 0.24820386476913511 -0.29037438639922769 0 0.26585675966784922 -0.29115761494845371 0 0.28606556647295289 -0.28805597281781059 0 0.27839246953248359 -0.27601509591591228 0 0.26585675966784922 -0.29115761494845371 0 0.28111729661228407 -0.30354938304782952 0 0.28606556647295289 -0.28805597281781059 0 0.26724069618821511 -0.31251802092936648 0 0.26585675966784922 -0.29115761494845371 0 0.28111729661228407 -0.30354938304782952 0 0.28157988505109882 -0.31801792307864429 0 0.26724069618821511 -0.31251802092936648 0 0.28111729661228407 -0.30354938304782952 0 0.28157988505109882 -0.31801792307864429 0 0.28111729661228407 -0.30354938304782952 0 0.29489356611124451 -0.31143960601415283 0 0.28111729661228407 -0.30354938304782952 0 0.29489356611124451 -0.31143960601415283 0 0.29655123630375602 -0.29776367667222259 0 0.29655123630375602 -0.29776367667222259 0 0.28606556647295289 -0.28805597281781059 0 0.30559157873718568 -0.28443811693023818 0 0.28111729661228407 -0.30354938304782952 0 0.29655123630375602 -0.29776367667222259 0 0.28606556647295289 -0.28805597281781059 0 0.29655123630375602 -0.29776367667222259 0 0.30559157873718568 -0.28443811693023818 0 0.3070829074477085 -0.29553280243446478 0 0.3171269857983513 -0.29408532215883898 0 0.30559157873718568 -0.28443811693023818 0 0.3070829074477085 -0.29553280243446478 0 0.3070829074477085 -0.29553280243446478 0 0.310675541971767 -0.30351265072822581 0 0.30267744054283308 -0.30601338360107311 0 0.3171269857983513 -0.29408532215883898 0 0.3070829074477085 -0.29553280243446478 0 0.310675541971767 -0.30351265072822581 0 0.3036281372809515 -0.31328804937586802 0 0.31104106739558329 -0.31107847763739349 0 0.30267744054283308 -0.30601338360107311 0 0.310675541971767 -0.30351265072822581 0 0.31104106739558329 -0.31107847763739349 0 0.30267744054283308 -0.30601338360107311 0 0.29489356611124451 -0.31143960601415283 0 0.29655123630375602 -0.29776367667222259 0 0.30267744054283308 -0.30601338360107311 0 0.3036281372809515 -0.31328804937586802 0 0.29489356611124451 -0.31143960601415283 0 0.30267744054283308 -0.30601338360107311 0 0.29655123630375602 -0.29776367667222259 0 0.3070829074477085 -0.29553280243446478 0 0.30267744054283308 -0.30601338360107311 0 0.30449497469334952 -0.2447051324796215 0 0.3153765102916456 -0.26643476358674117 0 0.29521570347884002 -0.26843926098426679 0 0.3153765102916456 -0.26643476358674117 0 0.30559157873718568 -0.28443811693023818 0 0.29521570347884002 -0.26843926098426679 0 0.28606556647295289 -0.28805597281781059 0 0.29521570347884002 -0.26843926098426679 0 0.27839246953248359 -0.27601509591591228 0 0.28606556647295289 -0.28805597281781059 0 0.30559157873718568 -0.28443811693023818 0 0.29521570347884002 -0.26843926098426679 0 0.29521570347884002 -0.26843926098426679 0 0.28415180174894522 -0.25402381697538889 0 0.27839246953248359 -0.27601509591591228 0 0.30449497469334952 -0.2447051324796215 0 0.29521570347884002 -0.26843926098426679 0 0.28415180174894522 -0.25402381697538889 0 0.270197361731774 -0.2421646047902016 0 0.28415180174894522 -0.25402381697538889 0 0.26711450114468599 -0.25954640938122919 0 0.28415180174894522 -0.25402381697538889 0 0.26711450114468599 -0.25954640938122919 0 0.27839246953248359 -0.27601509591591228 0 0.26711450114468599 -0.25954640938122919 0 0.27839246953248359 -0.27601509591591228 0 0.25106524756784299 -0.27168097660826329 0 0.26585675966784922 -0.29115761494845371 0 0.27839246953248359 -0.27601509591591228 0 0.25106524756784299 -0.27168097660826329 0 0.270197361731774 -0.2421646047902016 0 0.26711450114468599 -0.25954640938122919 0 0.24815797478188861 -0.25056618779044898 0 0.26711450114468599 -0.25954640938122919 0 0.25106524756784299 -0.27168097660826329 0 0.24815797478188861 -0.25056618779044898 0 0.25106524756784299 -0.27168097660826329 0 0.24815797478188861 -0.25056618779044898 0 0.2292933457878962 -0.26012685453796081 0 0.25106524756784299 -0.27168097660826329 0 0.2292933457878962 -0.26012685453796081 0 0.23170102355131461 -0.28523219762698471 0 0.25106524756784299 -0.27168097660826329 0 0.23170102355131461 -0.28523219762698471 0 0.2292933457878962 -0.26012685453796081 0 0.2156727871764601 -0.27609360363552099 0 0.23170102355131461 -0.28523219762698471 0 0.2292933457878962 -0.26012685453796081 0 0.2100974428790067 -0.25463343726352 0 0.22536414078034209 -0.23725142916796921 0 0.2292933457878962 -0.26012685453796081 0 0.2100974428790067 -0.25463343726352 0 0.2156727871764601 -0.27609360363552099 0 0.2100974428790067 -0.25463343726352 0 0.2156727871764601 -0.27609360363552099 0 0.1982654405860291 -0.27029714887302059 0 0.2156727871764601 -0.27609360363552099 0 0.1982654405860291 -0.27029714887302059 0 0.2018094412677994 -0.28543963560288799 0 0.1982654405860291 -0.27029714887302059 0 0.18875671609581501 -0.28330369317644011 0 0.18151506655776331 -0.26865424333447019 0 0.1982654405860291 -0.27029714887302059 0 0.18875671609581501 -0.28330369317644011 0 0.2018094412677994 -0.28543963560288799 0 0.1982654405860291 -0.27029714887302059 0 0.19137184656311779 -0.25311596479028031 0 0.18151506655776331 -0.26865424333447019 0 0.2100974428790067 -0.25463343726352 0 0.1982654405860291 -0.27029714887302059 0 0.19137184656311779 -0.25311596479028031 0 0.2005257461046763 -0.29814563885885548 0 0.19297257551825781 -0.31233463966442743 0 0.21233679953478621 -0.29878341864570601 0 0.20265131653422369 -0.30986610063801678 0 0.19297257551825781 -0.31233463966442743 0 0.21233679953478621 -0.29878341864570601 0 0.19297257551825781 -0.31233463966442743 0 0.21233679953478621 -0.29878341864570601 0 0.19297257551825781 -0.31233463966442743 0 0.1923036987860767 -0.29952944319016428 0 0.18165322104583009 -0.30638513301462222 0 0.2005257461046763 -0.29814563885885548 0 0.19297257551825781 -0.31233463966442743 0 0.1923036987860767 -0.29952944319016428 0 0.1923036987860767 -0.29952944319016428 0 0.18875671609581501 -0.28330369317644011 0 0.2018094412677994 -0.28543963560288799 0 0.2005257461046763 -0.29814563885885548 0 0.1923036987860767 -0.29952944319016428 0 0.2018094412677994 -0.28543963560288799 0 0.2005257461046763 -0.29814563885885548 0 0.2018094412677994 -0.28543963560288799 0 0.21233679953478621 -0.29878341864570601 0 0.2156727871764601 -0.27609360363552099 0 0.2018094412677994 -0.28543963560288799 0 0.21233679953478621 -0.29878341864570601 0 0.20265131653422369 -0.30986610063801678 0 0.21233679953478621 -0.29878341864570601 0 0.21862179936803119 -0.31404962133105341 0 0.21233679953478621 -0.29878341864570601 0 0.22480095950630341 -0.30118130693404949 0 0.21862179936803119 -0.31404962133105341 0 0.22480095950630341 -0.30118130693404949 0 0.23170102355131461 -0.28523219762698471 0 0.2365442155710816 -0.30665999013245432 0 0.22480095950630341 -0.30118130693404949 0 0.2365442155710816 -0.30665999013245432 0 0.21862179936803119 -0.31404962133105341 0 0.21233679953478621 -0.29878341864570601 0 0.22480095950630341 -0.30118130693404949 0 0.23170102355131461 -0.28523219762698471 0 0.2156727871764601 -0.27609360363552099 0 0.21233679953478621 -0.29878341864570601 0 0.23170102355131461 -0.28523219762698471 0 0.21233679953478621 -0.29878341864570601 0 0.23170102355131461 -0.28523219762698471 0 0.23170102355131461 -0.28523219762698471 0 0.24820386476913511 -0.29037438639922769 0 0.2365442155710816 -0.30665999013245432 0 0.25106524756784299 -0.27168097660826329 0 0.23170102355131461 -0.28523219762698471 0 0.24820386476913511 -0.29037438639922769 0 0.25232281431768622 -0.30541497191669892 0 0.24820386476913511 -0.29037438639922769 0 0.2365442155710816 -0.30665999013245432 0 0.25038245290156269 -0.32339209083415621 0 0.25232281431768622 -0.30541497191669892 0 0.2365442155710816 -0.30665999013245432 0 0.25038245290156269 -0.32339209083415621 0 0.2365442155710816 -0.30665999013245432 0 0.23039740739447509 -0.32601587438758062 0 0.25882512043895478 -0.34109327674488232 0 0.25038245290156269 -0.32339209083415621 0 0.23930150478793649 -0.34376064209243612 0 0.25038245290156269 -0.32339209083415621 0 0.23039740739447509 -0.32601587438758062 0 0.23930150478793649 -0.34376064209243612 0 0.22110583026221101 -0.3389035434454909 0 0.23039740739447509 -0.32601587438758062 0 0.23930150478793649 -0.34376064209243612 0 0.22110583026221101 -0.3389035434454909 0 0.21926524336058559 -0.32699197192040341 0 0.23039740739447509 -0.32601587438758062 0 0.21926524336058559 -0.32699197192040341 0 0.23039740739447509 -0.32601587438758062 0 0.21862179936803119 -0.31404962133105341 0 0.2365442155710816 -0.30665999013245432 0 0.23039740739447509 -0.32601587438758062 0 0.21862179936803119 -0.31404962133105341 0 0.24769687328441389 -0.37121947756343487 0 0.22627149846496089 -0.35985663311661742 0 0.24769687328441389 -0.37121947756343487 0 0.22627149846496089 -0.35985663311661742 0 0.23724533884993351 -0.3806243084682841 0 0.24769687328441389 -0.37121947756343487 0 0.24197962465894449 -0.35808267109632252 0 0.22627149846496089 -0.35985663311661742 0 0.25464862209846639 -0.3574939316128018 0 0.24769687328441389 -0.37121947756343487 0 0.24197962465894449 -0.35808267109632252 0 0.24197962465894449 -0.35808267109632252 0 0.23930150478793649 -0.34376064209243612 0 0.22627149846496089 -0.35985663311661742 0 0.25464862209846639 -0.3574939316128018 0 0.24197962465894449 -0.35808267109632252 0 0.23930150478793649 -0.34376064209243612 0 0.22110583026221101 -0.3389035434454909 0 0.23930150478793649 -0.34376064209243612 0 0.22627149846496089 -0.35985663311661742 0 0.22627149846496089 -0.35985663311661742 0 0.20893733997908831 -0.36872054750531358 0 0.2245849742304091 -0.37671718091382161 0 0.22627149846496089 -0.35985663311661742 0 0.23724533884993351 -0.3806243084682841 0 0.2245849742304091 -0.37671718091382161 0 0.20893733997908831 -0.36872054750531358 0 0.2245849742304091 -0.37671718091382161 0 0.2077014570468336 -0.37861962532958437 0 0.20893733997908831 -0.36872054750531358 0 0.19994276652821041 -0.37407601679608432 0 0.2077014570468336 -0.37861962532958437 0 0.22110583026221101 -0.3389035434454909 0 0.22627149846496089 -0.35985663311661742 0 0.204846123645508 -0.34849378866980002 0 0.22627149846496089 -0.35985663311661742 0 0.20893733997908831 -0.36872054750531358 0 0.204846123645508 -0.34849378866980002 0 0.22627149846496089 -0.35985663311661742 0 0.204846123645508 -0.34849378866980002 0 0.204846123645508 -0.34849378866980002 0 0.19032238818120151 -0.35208219302622251 0 0.19941102877570521 -0.33805167735432612 0 0.204846123645508 -0.34849378866980002 0 0.19032238818120151 -0.35208219302622251 0 0.1950010761906327 -0.36401860247570439 0 0.20893733997908831 -0.36872054750531358 0 0.204846123645508 -0.34849378866980002 0 0.1950010761906327 -0.36401860247570439 0 0.19032238818120151 -0.35208219302622251 0 0.1950010761906327 -0.36401860247570439 0 0.18087323107883921 -0.36794488495035738 0 0.1950010761906327 -0.36401860247570439 0 0.19994276652821041 -0.37407601679608432 0 0.18955158096281349 -0.37614720401005941 0 0.1950010761906327 -0.36401860247570439 0 0.18087323107883921 -0.36794488495035738 0 0.18955158096281349 -0.37614720401005941 0 0.20893733997908831 -0.36872054750531358 0 0.1950010761906327 -0.36401860247570439 0 0.19994276652821041 -0.37407601679608432 0 0.20265131653422369 -0.30986610063801678 0 0.21862179936803119 -0.31404962133105341 0 0.20693593641762539 -0.32899884851748912 0 0.21926524336058559 -0.32699197192040341 0 0.21862179936803119 -0.31404962133105341 0 0.20693593641762539 -0.32899884851748912 0 0.22110583026221101 -0.3389035434454909 0 0.21926524336058559 -0.32699197192040341 0 0.20693593641762539 -0.32899884851748912 0 0.22110583026221101 -0.3389035434454909 0 0.204846123645508 -0.34849378866980002 0 0.20693593641762539 -0.32899884851748912 0 0.204846123645508 -0.34849378866980002 0 0.20693593641762539 -0.32899884851748912 0 0.19941102877570521 -0.33805167735432612 0 0.20693593641762539 -0.32899884851748912 0 0.19941102877570521 -0.33805167735432612 0 0.18815139531024919 -0.33461676844838778 0 0.19032238818120151 -0.35208219302622251 0 0.19941102877570521 -0.33805167735432612 0 0.18815139531024919 -0.33461676844838778 0 0.20693593641762539 -0.32899884851748912 0 0.18815139531024919 -0.33461676844838778 0 0.19398297478979259 -0.32466254288547181 0 0.18815139531024919 -0.33461676844838778 0 0.19398297478979259 -0.32466254288547181 0 0.20265131653422369 -0.30986610063801678 0 0.20693593641762539 -0.32899884851748912 0 0.19398297478979259 -0.32466254288547181 0 0.20265131653422369 -0.30986610063801678 0 0.19398297478979259 -0.32466254288547181 0 0.20265131653422369 -0.30986610063801678 0 0.19297257551825781 -0.31233463966442743 0 0.19398297478979259 -0.32466254288547181 0 0.19297257551825781 -0.31233463966442743 0 0.1736083515017294 -0.32588586068314868 0 0.18165322104583009 -0.30638513301462222 0 0.19297257551825781 -0.31233463966442743 0 0.19398297478979259 -0.32466254288547181 0 0.1736083515017294 -0.32588586068314868 0 0.19297257551825781 -0.31233463966442743 0 0.1736083515017294 -0.32588586068314868 0 0.1736083515017294 -0.32588586068314868 0 0.18165322104583009 -0.30638513301462222 0 0.17020464800017321 -0.30684419356151771 0 0.19398297478979259 -0.32466254288547181 0 0.17583531310423051 -0.34384852146653772 0 0.19398297478979259 -0.32466254288547181 0 0.1736083515017294 -0.32588586068314868 0 0.17583531310423051 -0.34384852146653772 0 0.18815139531024919 -0.33461676844838778 0 0.19398297478979259 -0.32466254288547181 0 0.17583531310423051 -0.34384852146653772 0 0.1736083515017294 -0.32588586068314868 0 0.1590733496366171 -0.33471834359891139 0 0.17583531310423051 -0.34384852146653772 0 0.1590733496366171 -0.33471834359891139 0 0.17583531310423051 -0.34384852146653772 0 0.15498760998770689 -0.35009147157526449 0 0.1736083515017294 -0.32588586068314868 0 0.1575947116813099 -0.31597785738983691 0 0.17020464800017321 -0.30684419356151771 0 0.1736083515017294 -0.32588586068314868 0 0.1590733496366171 -0.33471834359891139 0 0.1575947116813099 -0.31597785738983691 0 0.18087323107883921 -0.36794488495035738 0 0.17365147408627471 -0.35936743625875889 0 0.17321297600446139 -0.37722510967601391 0 0.19032238818120151 -0.35208219302622251 0 0.18087323107883921 -0.36794488495035738 0 0.17365147408627471 -0.35936743625875889 0 0.19032238818120151 -0.35208219302622251 0 0.18815139531024919 -0.33461676844838778 0 0.17365147408627471 -0.35936743625875889 0 0.18815139531024919 -0.33461676844838778 0 0.17583531310423051 -0.34384852146653772 0 0.17365147408627471 -0.35936743625875889 0 0.18815139531024919 -0.33461676844838778 0 0.17365147408627471 -0.35936743625875889 0 0.17583531310423051 -0.34384852146653772 0 0.15818367037913739 -0.36332508759487708 0 0.17583531310423051 -0.34384852146653772 0 0.15818367037913739 -0.36332508759487708 0 0.15498760998770689 -0.35009147157526449 0 0.17583531310423051 -0.34384852146653772 0 0.17365147408627471 -0.35936743625875889 0 0.15818367037913739 -0.36332508759487708 0 0.17365147408627471 -0.35936743625875889 0 0.17321297600446139 -0.37722510967601391 0 0.15915155286230021 -0.38411810406912977 0 0.17365147408627471 -0.35936743625875889 0 0.15818367037913739 -0.36332508759487708 0 0.15628059522561041 -0.37417764194365388 0 0.17365147408627471 -0.35936743625875889 0 0.15915155286230021 -0.38411810406912977 0 0.17365147408627471 -0.35936743625875889 0 0.15628059522561041 -0.37417764194365388 0 0.15915155286230021 -0.38411810406912977 0 0.1465362988059779 -0.36332197543377281 0 0.1382238324067441 -0.36850675017636741 0 0.140520926175945 -0.38279159243603478 0 0.15818367037913739 -0.36332508759487708 0 0.15628059522561041 -0.37417764194365388 0 0.140520926175945 -0.38279159243603478 0 0.15818367037913739 -0.36332508759487708 0 0.1465362988059779 -0.36332197543377281 0 0.140520926175945 -0.38279159243603478 0 0.15818367037913739 -0.36332508759487708 0 0.140520926175945 -0.38279159243603478 0 0.1465362988059779 -0.36332197543377281 0 0.13936783073350081 -0.36013803580152431 0 0.1382238324067441 -0.36850675017636741 0 0.1465362988059779 -0.36332197543377281 0 0.14318918813968021 -0.35265718831326143 0 0.15498760998770689 -0.35009147157526449 0 0.1465362988059779 -0.36332197543377281 0 0.14318918813968021 -0.35265718831326143 0 0.13936783073350081 -0.36013803580152431 0 0.15818367037913739 -0.36332508759487708 0 0.1465362988059779 -0.36332197543377281 0 0.15498760998770689 -0.35009147157526449 0 0.14318918813968021 -0.35265718831326143 0 0.1471038518851186 -0.34156054664863023 0 0.13479468651919441 -0.34236098516891811 0 0.14318918813968021 -0.35265718831326143 0 0.15498760998770689 -0.35009147157526449 0 0.1471038518851186 -0.34156054664863023 0 0.14318918813968021 -0.35265718831326143 0 0.1316515000889126 -0.35370076448831189 0 0.13479468651919441 -0.34236098516891811 0 0.12518774061650581 -0.34784807581449628 0 0.1316515000889126 -0.35370076448831189 0 0.13479468651919441 -0.34236098516891811 0 0.1316515000889126 -0.35370076448831189 0 0.13255962322467801 -0.36148959825679489 0 0.1211555337221351 -0.3536932295608457 0 0.12518774061650581 -0.34784807581449628 0 0.1316515000889126 -0.35370076448831189 0 0.1211555337221351 -0.3536932295608457 0 0.14318918813968021 -0.35265718831326143 0 0.1316515000889126 -0.35370076448831189 0 0.13936783073350081 -0.36013803580152431 0 0.1316515000889126 -0.35370076448831189 0 0.13936783073350081 -0.36013803580152431 0 0.13255962322467801 -0.36148959825679489 0 0.13255962322467801 -0.36148959825679489 0 0.13186286974531819 -0.37129293805289848 0 0.1211555337221351 -0.3536932295608457 0 0.13936783073350081 -0.36013803580152431 0 0.13255962322467801 -0.36148959825679489 0 0.1382238324067441 -0.36850675017636741 0 0.13255962322467801 -0.36148959825679489 0 0.13186286974531819 -0.37129293805289848 0 0.1382238324067441 -0.36850675017636741 0 0.13186286974531819 -0.37129293805289848 0 0.12718315171119601 -0.37700863444159971 0 0.1177920896784069 -0.369350563504242 0 0.13186286974531819 -0.37129293805289848 0 0.1382238324067441 -0.36850675017636741 0 0.140520926175945 -0.38279159243603478 0 0.1590733496366171 -0.33471834359891139 0 0.1575947116813099 -0.31597785738983691 0 0.14347442514239439 -0.3279747445867956 0 0.1575947116813099 -0.31597785738983691 0 0.14347442514239439 -0.3279747445867956 0 0.1434906667465343 -0.31359378489774492 0 0.1590733496366171 -0.33471834359891139 0 0.14347442514239439 -0.3279747445867956 0 0.1471038518851186 -0.34156054664863023 0 0.1590733496366171 -0.33471834359891139 0 0.15498760998770689 -0.35009147157526449 0 0.1471038518851186 -0.34156054664863023 0 0.14347442514239439 -0.3279747445867956 0 0.1471038518851186 -0.34156054664863023 0 0.13479468651919441 -0.34236098516891811 0 0.14347442514239439 -0.3279747445867956 0 0.13479468651919441 -0.34236098516891811 0 0.1270103926211367 -0.32715249663183099 0 0.13479468651919441 -0.34236098516891811 0 0.1270103926211367 -0.32715249663183099 0 0.12209232105875049 -0.33947546401726969 0 0.12518774061650581 -0.34784807581449628 0 0.13479468651919441 -0.34236098516891811 0 0.12209232105875049 -0.33947546401726969 0 0.14347442514239439 -0.3279747445867956 0 0.1270103926211367 -0.32715249663183099 0 0.13045879401795471 -0.31333259010838249 0 0.14347442514239439 -0.3279747445867956 0 0.1434906667465343 -0.31359378489774492 0 0.13045879401795471 -0.31333259010838249 0 0.13045879401795471 -0.31333259010838249 0 0.1334492040513364 -0.30018744086140792 0 0.12049183524738991 -0.29646667554073858 0 0.1434906667465343 -0.31359378489774492 0 0.13045879401795471 -0.31333259010838249 0 0.1334492040513364 -0.30018744086140792 0 0.1434906667465343 -0.31359378489774492 0 0.1334492040513364 -0.30018744086140792 0 0.14681459481206741 -0.29761908194446401 0 0.1575947116813099 -0.31597785738983691 0 0.14681459481206741 -0.29761908194446401 0 0.16195324618869619 -0.29829352857619351 0 0.1575947116813099 -0.31597785738983691 0 0.1434906667465343 -0.31359378489774492 0 0.14681459481206741 -0.29761908194446401 0 0.14681459481206741 -0.29761908194446401 0 0.13171654355026169 -0.28270421183080041 0 0.1533638980880925 -0.27531345399529372 0 0.14681459481206741 -0.29761908194446401 0 0.1533638980880925 -0.27531345399529372 0 0.16195324618869619 -0.29829352857619351 0 0.1334492040513364 -0.30018744086140792 0 0.13171654355026169 -0.28270421183080041 0 0.12049183524738991 -0.29646667554073858 0 0.1334492040513364 -0.30018744086140792 0 0.14681459481206741 -0.29761908194446401 0 0.13171654355026169 -0.28270421183080041 0 0.13171654355026169 -0.28270421183080041 0 0.13389399773910041 -0.26320545939785839 0 0.1240131607041676 -0.27219848896563958 0 0.13171654355026169 -0.28270421183080041 0 0.13389399773910041 -0.26320545939785839 0 0.1533638980880925 -0.27531345399529372 0 0.13389399773910041 -0.26320545939785839 0 0.1171802395972777 -0.26345379623939541 0 0.1240131607041676 -0.27219848896563958 0 0.13389399773910041 -0.26320545939785839 0 0.12943740973989951 -0.25153406380662757 0 0.15055092948359111 -0.25493351994607383 0 0.13389399773910041 -0.26320545939785839 0 0.12943740973989951 -0.25153406380662757 0 0.1144240973901083 -0.25109746480042322 0 0.13389399773910041 -0.26320545939785839 0 0.15055092948359111 -0.25493351994607383 0 0.1533638980880925 -0.27531345399529372 0 0.13389399773910041 -0.26320545939785839 0 0.1533638980880925 -0.27531345399529372 0 0.1533638980880925 -0.27531345399529372 0 0.16542074465852519 -0.26464105920069281 0 0.17283379843708449 -0.287421448592729 0 0.15055092948359111 -0.25493351994607383 0 0.16542074465852519 -0.26464105920069281 0 0.1723859745661778 -0.25216783760487183 0 0.15055092948359111 -0.25493351994607383 0 0.1533638980880925 -0.27531345399529372 0 0.16542074465852519 -0.26464105920069281 0 0.16542074465852519 -0.26464105920069281 0 0.1723859745661778 -0.25216783760487183 0 0.18151506655776331 -0.26865424333447019 0 0.19137184656311779 -0.25311596479028031 0 0.1723859745661778 -0.25216783760487183 0 0.18151506655776331 -0.26865424333447019 0 0.16542074465852519 -0.26464105920069281 0 0.18151506655776331 -0.26865424333447019 0 0.17283379843708449 -0.287421448592729 0 0.18875671609581501 -0.28330369317644011 0 0.18151506655776331 -0.26865424333447019 0 0.17283379843708449 -0.287421448592729 0 0.1923036987860767 -0.29952944319016428 0 0.18875671609581501 -0.28330369317644011 0 0.17283379843708449 -0.287421448592729 0 0.1923036987860767 -0.29952944319016428 0 0.17283379843708449 -0.287421448592729 0 0.1923036987860767 -0.29952944319016428 0 0.17283379843708449 -0.287421448592729 0 0.18165322104583009 -0.30638513301462222 0 0.17283379843708449 -0.287421448592729 0 0.18165322104583009 -0.30638513301462222 0 0.17020464800017321 -0.30684419356151771 0 0.1575947116813099 -0.31597785738983691 0 0.16195324618869619 -0.29829352857619351 0 0.17020464800017321 -0.30684419356151771 0 0.17283379843708449 -0.287421448592729 0 0.16195324618869619 -0.29829352857619351 0 0.17020464800017321 -0.30684419356151771 0 0.1533638980880925 -0.27531345399529372 0 0.17283379843708449 -0.287421448592729 0 0.16195324618869619 -0.29829352857619351 0 0.1533638980880925 -0.27531345399529372 0 0.17283379843708449 -0.287421448592729 0 0.19952503463264101 -0.48261630585944931 0 0.2081584778475343 -0.5 0 0.1837496675477219 -0.5 0 0.19952503463264101 -0.48261630585944931 0 0.19344586929203139 -0.46758609910041721 0 0.17647616143970751 -0.47778581197437392 0 0.19952503463264101 -0.48261630585944931 0 0.2132520858922046 -0.46516846956588159 0 0.19344586929203139 -0.46758609910041721 0 0.19952503463264101 -0.48261630585944931 0 0.2243259044792881 -0.4827935909591633 0 0.2132520858922046 -0.46516846956588159 0 0.19952503463264101 -0.48261630585944931 0 0.2081584778475343 -0.5 0 0.2243259044792881 -0.4827935909591633 0 0.2325672881473467 -0.5 0 0.2446818756598719 -0.48942765687134032 0 0.2243259044792881 -0.4827935909591633 0 0.2081584778475343 -0.5 0 0.2325672881473467 -0.5 0 0.2243259044792881 -0.4827935909591633 0 0.2569760984471593 -0.5 0 0.2325672881473467 -0.5 0 0.2446818756598719 -0.48942765687134032 0 0.2446818756598719 -0.48942765687134032 0 0.2420017643367364 -0.47470191523119559 0 0.2243259044792881 -0.4827935909591633 0 0.25612007757677441 -0.48012807767429377 0 0.2446818756598719 -0.48942765687134032 0 0.2420017643367364 -0.47470191523119559 0 0.2420017643367364 -0.47470191523119559 0 0.2243259044792881 -0.4827935909591633 0 0.23048599656053609 -0.46768792712409718 0 0.2243259044792881 -0.4827935909591633 0 0.23048599656053609 -0.46768792712409718 0 0.2132520858922046 -0.46516846956588159 0 0.23121191282521331 -0.45328977902061968 0 0.23048599656053609 -0.46768792712409718 0 0.2132520858922046 -0.46516846956588159 0 0.23121191282521331 -0.45328977902061968 0 0.21726681456785379 -0.45060504697687209 0 0.2132520858922046 -0.46516846956588159 0 0.2420017643367364 -0.47470191523119559 0 0.23048599656053609 -0.46768792712409718 0 0.24163831526923829 -0.46248588084362557 0 0.23121191282521331 -0.45328977902061968 0 0.23048599656053609 -0.46768792712409718 0 0.24163831526923829 -0.46248588084362557 0 0.23121191282521331 -0.45328977902061968 0 0.24163831526923829 -0.46248588084362557 0 0.2405303757439709 -0.45113945672258521 0 0.25009545983798842 -0.45145162226376928 0 0.25553473109084213 -0.46618094880173211 0 0.24163831526923829 -0.46248588084362557 0 0.25009545983798842 -0.45145162226376928 0 0.24163831526923829 -0.46248588084362557 0 0.2405303757439709 -0.45113945672258521 0 0.25553473109084213 -0.46618094880173211 0 0.2420017643367364 -0.47470191523119559 0 0.24163831526923829 -0.46248588084362557 0 0.24450217511133679 -0.44398525576325287 0 0.23977976246746541 -0.4363617218209831 0 0.24814437523465621 -0.43666973794012998 0 0.25278837869677923 -0.44170434201590347 0 0.24450217511133679 -0.44398525576325287 0 0.24814437523465621 -0.43666973794012998 0 0.25009545983798842 -0.45145162226376928 0 0.25278837869677923 -0.44170434201590347 0 0.24450217511133679 -0.44398525576325287 0 0.25009545983798842 -0.45145162226376928 0 0.24450217511133679 -0.44398525576325287 0 0.2405303757439709 -0.45113945672258521 0 0.23121191282521331 -0.45328977902061968 0 0.2405303757439709 -0.45113945672258521 0 0.23520401567607779 -0.44448474572165791 0 0.24450217511133679 -0.44398525576325287 0 0.2405303757439709 -0.45113945672258521 0 0.23520401567607779 -0.44448474572165791 0 0.24450217511133679 -0.44398525576325287 0 0.23520401567607779 -0.44448474572165791 0 0.23977976246746541 -0.4363617218209831 0 0.23520401567607779 -0.44448474572165791 0 0.23122814145466669 -0.43180612753501141 0 0.23977976246746541 -0.4363617218209831 0 0.23520401567607779 -0.44448474572165791 0 0.22627952753210709 -0.44063952785915311 0 0.23122814145466669 -0.43180612753501141 0 0.23121191282521331 -0.45328977902061968 0 0.23520401567607779 -0.44448474572165791 0 0.22627952753210709 -0.44063952785915311 0 0.23121191282521331 -0.45328977902061968 0 0.22627952753210709 -0.44063952785915311 0 0.21726681456785379 -0.45060504697687209 0 0.22627952753210709 -0.44063952785915311 0 0.21065209776865659 -0.43944064887525169 0 0.21726681456785379 -0.45060504697687209 0 0.21065209776865659 -0.43944064887525169 0 0.21726681456785379 -0.45060504697687209 0 0.1992400860658822 -0.4540414847494687 0 0.21726681456785379 -0.45060504697687209 0 0.2132520858922046 -0.46516846956588159 0 0.1992400860658822 -0.4540414847494687 0 0.2132520858922046 -0.46516846956588159 0 0.19344586929203139 -0.46758609910041721 0 0.1992400860658822 -0.4540414847494687 0 0.19344586929203139 -0.46758609910041721 0 0.1992400860658822 -0.4540414847494687 0 0.18142408032799781 -0.46067785195012262 0 0.1992400860658822 -0.4540414847494687 0 0.185502292938896 -0.44694478402281002 0 0.18142408032799781 -0.46067785195012262 0 0.21065209776865659 -0.43944064887525169 0 0.1992400860658822 -0.4540414847494687 0 0.19457085964721429 -0.43766257149563248 0 0.1992400860658822 -0.4540414847494687 0 0.19457085964721429 -0.43766257149563248 0 0.185502292938896 -0.44694478402281002 0 0.19457085964721429 -0.43766257149563248 0 0.20485833284753249 -0.41981771979611993 0 0.1872303156875092 -0.42574326958450548 0 0.19457085964721429 -0.43766257149563248 0 0.1872303156875092 -0.42574326958450548 0 0.1818629370633166 -0.43664455312692951 0 0.18816527399651059 -0.40925919567173502 0 0.20485833284753249 -0.41981771979611993 0 0.1872303156875092 -0.42574326958450548 0 0.18816527399651059 -0.40925919567173502 0 0.20485833284753249 -0.41981771979611993 0 0.20718460282508791 -0.39226489655751312 0 0.20485833284753249 -0.41981771979611993 0 0.2213911796104511 -0.42677310976052979 0 0.22083786029494401 -0.40706651035171881 0 0.20485833284753249 -0.41981771979611993 0 0.22083786029494401 -0.40706651035171881 0 0.20718460282508791 -0.39226489655751312 0 0.21065209776865659 -0.43944064887525169 0 0.20485833284753249 -0.41981771979611993 0 0.2213911796104511 -0.42677310976052979 0 0.21065209776865659 -0.43944064887525169 0 0.19457085964721429 -0.43766257149563248 0 0.20485833284753249 -0.41981771979611993 0 0.22627952753210709 -0.44063952785915311 0 0.2213911796104511 -0.42677310976052979 0 0.23122814145466669 -0.43180612753501141 0 0.22627952753210709 -0.44063952785915311 0 0.21065209776865659 -0.43944064887525169 0 0.2213911796104511 -0.42677310976052979 0 0.2213911796104511 -0.42677310976052979 0 0.23122814145466669 -0.43180612753501141 0 0.2344911177648 -0.42186812414592451 0 0.23977976246746541 -0.4363617218209831 0 0.24814437523465621 -0.43666973794012998 0 0.2344911177648 -0.42186812414592451 0 0.23122814145466669 -0.43180612753501141 0 0.23977976246746541 -0.4363617218209831 0 0.2344911177648 -0.42186812414592451 0 0.24358468605797151 -0.42296461337348978 0 0.24814437523465621 -0.43666973794012998 0 0.2344911177648 -0.42186812414592451 0 0.24814437523465621 -0.43666973794012998 0 0.2344911177648 -0.42186812414592451 0 0.23977976246746541 -0.4363617218209831 0 0.24814437523465621 -0.43666973794012998 0 0.2541185306064625 -0.43688972853670599 0 0.24358468605797151 -0.42296461337348978 0 0.24814437523465621 -0.43666973794012998 0 0.25125777314891651 -0.40330977310569072 0 0.24892819567348121 -0.41260102830448281 0 0.24054266680500841 -0.40971453053164769 0 0.24358468605797151 -0.42296461337348978 0 0.24892819567348121 -0.41260102830448281 0 0.24054266680500841 -0.40971453053164769 0 0.24358468605797151 -0.42296461337348978 0 0.2344911177648 -0.42186812414592451 0 0.24054266680500841 -0.40971453053164769 0 0.2344911177648 -0.42186812414592451 0 0.24054266680500841 -0.40971453053164769 0 0.22083786029494401 -0.40706651035171881 0 0.2213911796104511 -0.42677310976052979 0 0.2344911177648 -0.42186812414592451 0 0.22083786029494401 -0.40706651035171881 0 0.2344911177648 -0.42186812414592451 0 0.22083786029494401 -0.40706651035171881 0 0.22083786029494401 -0.40706651035171881 0 0.22349478709071419 -0.39141448018979352 0 0.24166090362670159 -0.39392984341417031 0 0.24054266680500841 -0.40971453053164769 0 0.22083786029494401 -0.40706651035171881 0 0.24166090362670159 -0.39392984341417031 0 0.25125777314891651 -0.40330977310569072 0 0.24054266680500841 -0.40971453053164769 0 0.24166090362670159 -0.39392984341417031 0 0.2511572423839723 -0.38875302535496642 0 0.25125777314891651 -0.40330977310569072 0 0.24166090362670159 -0.39392984341417031 0 0.2511572423839723 -0.38875302535496642 0 0.24769687328441389 -0.37121947756343487 0 0.23724533884993351 -0.3806243084682841 0 0.2511572423839723 -0.38875302535496642 0 0.24166090362670159 -0.39392984341417031 0 0.23724533884993351 -0.3806243084682841 0 0.22349478709071419 -0.39141448018979352 0 0.24166090362670159 -0.39392984341417031 0 0.23724533884993351 -0.3806243084682841 0 0.22349478709071419 -0.39141448018979352 0 0.23724533884993351 -0.3806243084682841 0 0.2245849742304091 -0.37671718091382161 0 0.22349478709071419 -0.39141448018979352 0 0.2245849742304091 -0.37671718091382161 0 0.20718460282508791 -0.39226489655751312 0 0.2245849742304091 -0.37671718091382161 0 0.2077014570468336 -0.37861962532958437 0 0.20718460282508791 -0.39226489655751312 0 0.2245849742304091 -0.37671718091382161 0 0.20718460282508791 -0.39226489655751312 0 0.2077014570468336 -0.37861962532958437 0 0.20718460282508791 -0.39226489655751312 0 0.1985223784616838 -0.38287410465975952 0 0.22083786029494401 -0.40706651035171881 0 0.22349478709071419 -0.39141448018979352 0 0.20718460282508791 -0.39226489655751312 0 0.22083786029494401 -0.40706651035171881 0 0.20718460282508791 -0.39226489655751312 0 0.18816527399651059 -0.40925919567173502 0 0.20718460282508791 -0.39226489655751312 0 0.18816527399651059 -0.40925919567173502 0 0.20718460282508791 -0.39226489655751312 0 0.18791633141173489 -0.39041795810416602 0 0.18791633141173489 -0.39041795810416602 0 0.18955158096281349 -0.37614720401005941 0 0.1985223784616838 -0.38287410465975952 0 0.20718460282508791 -0.39226489655751312 0 0.18791633141173489 -0.39041795810416602 0 0.1985223784616838 -0.38287410465975952 0 0.19994276652821041 -0.37407601679608432 0 0.2077014570468336 -0.37861962532958437 0 0.1985223784616838 -0.38287410465975952 0 0.19994276652821041 -0.37407601679608432 0 0.18955158096281349 -0.37614720401005941 0 0.1985223784616838 -0.38287410465975952 0 0.20718460282508791 -0.39226489655751312 0 0.1985223784616838 -0.38287410465975952 0 0.17321297600446139 -0.37722510967601391 0 0.17948219855114289 -0.38178237558958961 0 0.17290642344374979 -0.39291274751223371 0 0.18087323107883921 -0.36794488495035738 0 0.17321297600446139 -0.37722510967601391 0 0.17948219855114289 -0.38178237558958961 0 0.18791633141173489 -0.39041795810416602 0 0.18955158096281349 -0.37614720401005941 0 0.17948219855114289 -0.38178237558958961 0 0.18087323107883921 -0.36794488495035738 0 0.18955158096281349 -0.37614720401005941 0 0.17948219855114289 -0.38178237558958961 0 0.18791633141173489 -0.39041795810416602 0 0.17948219855114289 -0.38178237558958961 0 0.17290642344374979 -0.39291274751223371 0 0.18816527399651059 -0.40925919567173502 0 0.17290642344374979 -0.39291274751223371 0 0.16697445325416621 -0.40695628482504009 0 0.18816527399651059 -0.40925919567173502 0 0.18791633141173489 -0.39041795810416602 0 0.17290642344374979 -0.39291274751223371 0 0.17290642344374979 -0.39291274751223371 0 0.16346034147936511 -0.39703449411163683 0 0.15915155286230021 -0.38411810406912977 0 0.15723835776052941 -0.40290708736571618 0 0.16346034147936511 -0.39703449411163683 0 0.15915155286230021 -0.38411810406912977 0 0.17290642344374979 -0.39291274751223371 0 0.16346034147936511 -0.39703449411163683 0 0.16697445325416621 -0.40695628482504009 0 0.15723835776052941 -0.40290708736571618 0 0.16346034147936511 -0.39703449411163683 0 0.16697445325416621 -0.40695628482504009 0 0.17321297600446139 -0.37722510967601391 0 0.17290642344374979 -0.39291274751223371 0 0.15915155286230021 -0.38411810406912977 0 0.15628059522561041 -0.37417764194365388 0 0.14961064557389819 -0.38200828034947992 0 0.140520926175945 -0.38279159243603478 0 0.15628059522561041 -0.37417764194365388 0 0.15915155286230021 -0.38411810406912977 0 0.14961064557389819 -0.38200828034947992 0 0.14961064557389819 -0.38200828034947992 0 0.140520926175945 -0.38279159243603478 0 0.1382238324067441 -0.36850675017636741 0 0.140520926175945 -0.38279159243603478 0 0.140520926175945 -0.38279159243603478 0 0.12718315171119601 -0.37700863444159971 0 0.118558326384698 -0.38461853893375991 0 0.140520926175945 -0.38279159243603478 0 0.13104716431336039 -0.39326711413107263 0 0.118558326384698 -0.38461853893375991 0 0.140520926175945 -0.38279159243603478 0 0.118558326384698 -0.38461853893375991 0 0.13186286974531819 -0.37129293805289848 0 0.140520926175945 -0.38279159243603478 0 0.12718315171119601 -0.37700863444159971 0 0.140520926175945 -0.38279159243603478 0 0.13104716431336039 -0.39326711413107263 0 0.13104716431336039 -0.39326711413107263 0 0.14465163163832701 -0.4088687718795016 0 0.13695750494107639 -0.4155628149123004 0 0.140520926175945 -0.38279159243603478 0 0.13104716431336039 -0.39326711413107263 0 0.14465163163832701 -0.4088687718795016 0 0.1266110548344879 -0.39816185287938161 0 0.13104716431336039 -0.39326711413107263 0 0.13695750494107639 -0.4155628149123004 0 0.13104716431336039 -0.39326711413107263 0 0.13695750494107639 -0.4155628149123004 0 0.1266110548344879 -0.39816185287938161 0 0.13104716431336039 -0.39326711413107263 0 0.118558326384698 -0.38461853893375991 0 0.1266110548344879 -0.39816185287938161 0 0.13104716431336039 -0.39326711413107263 0 0.14961064557389819 -0.38200828034947992 0 0.140520926175945 -0.38279159243603478 0 0.14465163163832701 -0.4088687718795016 0 0.15915155286230021 -0.38411810406912977 0 0.14465163163832701 -0.4088687718795016 0 0.15723835776052941 -0.40290708736571618 0 0.15915155286230021 -0.38411810406912977 0 0.14465163163832701 -0.4088687718795016 0 0.140520926175945 -0.38279159243603478 0 0.14465163163832701 -0.4088687718795016 0 0.15915155286230021 -0.38411810406912977 0 0.14961064557389819 -0.38200828034947992 0 0.14465163163832701 -0.4088687718795016 0 0.14465163163832701 -0.4088687718795016 0 0.14738912398884091 -0.42605828288983999 0 0.14465163163832701 -0.4088687718795016 0 0.1388577342062674 -0.41875867600057909 0 0.14738912398884091 -0.42605828288983999 0 0.14465163163832701 -0.4088687718795016 0 0.14738912398884091 -0.42605828288983999 0 0.1568126523750577 -0.41507027659441781 0 0.15723835776052941 -0.40290708736571618 0 0.14465163163832701 -0.4088687718795016 0 0.1568126523750577 -0.41507027659441781 0 0.14465163163832701 -0.4088687718795016 0 0.1388577342062674 -0.41875867600057909 0 0.1266110548344879 -0.39816185287938161 0 0.13695750494107639 -0.4155628149123004 0 0.1266110548344879 -0.39816185287938161 0 0.13695750494107639 -0.4155628149123004 0 0.12512510259956161 -0.42054242842324668 0 0.14465163163832701 -0.4088687718795016 0 0.13695750494107639 -0.4155628149123004 0 0.1388577342062674 -0.41875867600057909 0 0.13695750494107639 -0.4155628149123004 0 0.1388577342062674 -0.41875867600057909 0 0.12512510259956161 -0.42054242842324668 0 0.13695750494107639 -0.4155628149123004 0 0.1388577342062674 -0.41875867600057909 0 0.1388577342062674 -0.41875867600057909 0 0.14541297567560371 -0.44745956288943789 0 0.12504868698057531 -0.44233005513991269 0 0.1388577342062674 -0.41875867600057909 0 0.12512510259956161 -0.42054242842324668 0 0.12504868698057531 -0.44233005513991269 0 0.1388577342062674 -0.41875867600057909 0 0.12504868698057531 -0.44233005513991269 0 0.14738912398884091 -0.42605828288983999 0 0.14318710173866289 -0.42603993278736502 0 0.15012661633935531 -0.44324779390017832 0 0.1388577342062674 -0.41875867600057909 0 0.14541297567560371 -0.44745956288943789 0 0.14738912398884091 -0.42605828288983999 0 0.16914594516793319 -0.42625349478595692 0 0.15012661633935531 -0.44324779390017832 0 0.1388577342062674 -0.41875867600057909 0 0.14318710173866289 -0.42603993278736502 0 0.14541297567560371 -0.44745956288943789 0 0.14738912398884091 -0.42605828288983999 0 0.15012661633935531 -0.44324779390017832 0 0.1388577342062674 -0.41875867600057909 0 0.14738912398884091 -0.42605828288983999 0 0.14318710173866289 -0.42603993278736502 0 0.1388577342062674 -0.41875867600057909 0 0.14318710173866289 -0.42603993278736502 0 0.16914594516793319 -0.42625349478595692 0 0.15012661633935531 -0.44324779390017832 0 0.14738912398884091 -0.42605828288983999 0 0.16914594516793319 -0.42625349478595692 0 0.1568126523750577 -0.41507027659441781 0 0.16914594516793319 -0.42625349478595692 0 0.1568126523750577 -0.41507027659441781 0 0.16697445325416621 -0.40695628482504009 0 0.15723835776052941 -0.40290708736571618 0 0.1568126523750577 -0.41507027659441781 0 0.16697445325416621 -0.40695628482504009 0 0.18816527399651059 -0.40925919567173502 0 0.16914594516793319 -0.42625349478595692 0 0.1872303156875092 -0.42574326958450548 0 0.18816527399651059 -0.40925919567173502 0 0.16914594516793319 -0.42625349478595692 0 0.18816527399651059 -0.40925919567173502 0 0.16914594516793319 -0.42625349478595692 0 0.16697445325416621 -0.40695628482504009 0 0.16914594516793319 -0.42625349478595692 0 0.1818629370633166 -0.43664455312692951 0 0.1728652718750304 -0.44661864574574262 0 0.16914594516793319 -0.42625349478595692 0 0.1872303156875092 -0.42574326958450548 0 0.1818629370633166 -0.43664455312692951 0 0.1818629370633166 -0.43664455312692951 0 0.1728652718750304 -0.44661864574574262 0 0.185502292938896 -0.44694478402281002 0 0.19457085964721429 -0.43766257149563248 0 0.1818629370633166 -0.43664455312692951 0 0.185502292938896 -0.44694478402281002 0 0.1728652718750304 -0.44661864574574262 0 0.185502292938896 -0.44694478402281002 0 0.18142408032799781 -0.46067785195012262 0 0.19344586929203139 -0.46758609910041721 0 0.18142408032799781 -0.46067785195012262 0 0.17647616143970751 -0.47778581197437392 0 0.18142408032799781 -0.46067785195012262 0 0.16547070456789581 -0.45989064546591102 0 0.17647616143970751 -0.47778581197437392 0 0.1728652718750304 -0.44661864574574262 0 0.18142408032799781 -0.46067785195012262 0 0.16547070456789581 -0.45989064546591102 0 0.16547070456789581 -0.45989064546591102 0 0.1514456903008182 -0.45153064312158309 0 0.152376916461755 -0.47372978144471878 0 0.16914594516793319 -0.42625349478595692 0 0.1728652718750304 -0.44661864574574262 0 0.1618108456502067 -0.44550824460387461 0 0.16547070456789581 -0.45989064546591102 0 0.1618108456502067 -0.44550824460387461 0 0.1514456903008182 -0.45153064312158309 0 0.16914594516793319 -0.42625349478595692 0 0.1618108456502067 -0.44550824460387461 0 0.15012661633935531 -0.44324779390017832 0 0.1728652718750304 -0.44661864574574262 0 0.16547070456789581 -0.45989064546591102 0 0.1618108456502067 -0.44550824460387461 0 0.14318710173866289 -0.42603993278736502 0 0.15012661633935531 -0.44324779390017832 0 0.14541297567560371 -0.44745956288943789 0 0.15012661633935531 -0.44324779390017832 0 0.1514456903008182 -0.45153064312158309 0 0.14541297567560371 -0.44745956288943789 0 0.15012661633935531 -0.44324779390017832 0 0.1514456903008182 -0.45153064312158309 0 0.1618108456502067 -0.44550824460387461 0 0.15012661633935531 -0.44324779390017832 0 0.1514456903008182 -0.45153064312158309 0 0.15012661633935531 -0.44324779390017832 0 0.14541297567560371 -0.44745956288943789 0 0.14541297567560371 -0.44745956288943789 0 0.12504868698057531 -0.44233005513991269 0 0.12683609120053149 -0.46405852567225758 0 0.14541297567560371 -0.44745956288943789 0 0.12683609120053149 -0.46405852567225758 0 0.13910618146190551 -0.46839022136183628 0 0.14541297567560371 -0.44745956288943789 0 0.12683609120053149 -0.46405852567225758 0 0.14541297567560371 -0.44745956288943789 0 0.13910618146190551 -0.46839022136183628 0 0.152376916461755 -0.47372978144471878 0 0.1514456903008182 -0.45153064312158309 0 0.14541297567560371 -0.44745956288943789 0 0.152376916461755 -0.47372978144471878 0 0.14541297567560371 -0.44745956288943789 0 0.152376916461755 -0.47372978144471878 0 0.13910618146190551 -0.46839022136183628 0 0.152376916461755 -0.47372978144471878 0 0.14026054981572661 -0.48231512421210909 0 0.13910618146190551 -0.46839022136183628 0 0.14026054981572661 -0.48231512421210909 0 0.12927139404436899 -0.4749953215400109 0 0.14026054981572661 -0.48231512421210909 0 0.12927139404436899 -0.4749953215400109 0 0.12964676501812561 -0.48487292401041499 0 0.12927139404436899 -0.4749953215400109 0 0.12964676501812561 -0.48487292401041499 0 0.11913595228748219 -0.48004579971579192 0 0.12683609120053149 -0.46405852567225758 0 0.13910618146190551 -0.46839022136183628 0 0.12927139404436899 -0.4749953215400109 0 0.12683609120053149 -0.46405852567225758 0 0.12927139404436899 -0.4749953215400109 0 0.1218020166106475 -0.47094088990119692 0 0.12630727566475991 -0.49542768675485682 0 0.13664835476467521 -0.5 0 0.11395585228144089 -0.5 0 0.12630727566475991 -0.49542768675485682 0 0.12964676501812561 -0.48487292401041499 0 0.13844076050223941 -0.49252314699547589 0 0.12630727566475991 -0.49542768675485682 0 0.12964676501812561 -0.48487292401041499 0 0.11913595228748219 -0.48004579971579192 0 0.14026054981572661 -0.48231512421210909 0 0.12964676501812561 -0.48487292401041499 0 0.13844076050223941 -0.49252314699547589 0 0.12630727566475991 -0.49542768675485682 0 0.13664835476467521 -0.5 0 0.13844076050223941 -0.49252314699547589 0 0.152376916461755 -0.47372978144471878 0 0.1593408572479095 -0.49999999999999878 0 0.14026054981572661 -0.48231512421210909 0 0.13844076050223941 -0.49252314699547589 0 0.1593408572479095 -0.49999999999999878 0 0.152376916461755 -0.47372978144471878 0 0.14026054981572661 -0.48231512421210909 0 0.1593408572479095 -0.49999999999999878 0 0.13664835476467521 -0.5 0 0.13844076050223941 -0.49252314699547589 0 0.1593408572479095 -0.49999999999999878 0 0.152376916461755 -0.47372978144471878 0 0.1593408572479095 -0.49999999999999878 0 0.17647616143970751 -0.47778581197437392 0 0.16547070456789581 -0.45989064546591102 0 0.152376916461755 -0.47372978144471878 0 0.17647616143970751 -0.47778581197437392 0 0.1593408572479095 -0.49999999999999878 0 0.17647616143970751 -0.47778581197437392 0 0.1837496675477219 -0.5 0 0.19952503463264101 -0.48261630585944931 0 0.17647616143970751 -0.47778581197437392 0 0.1837496675477219 -0.5 0 0.072713786014782206 -0.49238031736283089 0 0.066664145104509576 -0.47491537970349529 0 0.052222889019258027 -0.4880743971040622 0 0.065199291699235884 -0.5 0 0.072713786014782206 -0.49238031736283089 0 0.052222889019258027 -0.4880743971040622 0 0.065199291699235884 -0.5 0 0.072713786014782206 -0.49238031736283089 0 0.091263349798206689 -0.49999999999999872 0 0.072713786014782206 -0.49238031736283089 0 0.066664145104509576 -0.47491537970349529 0 0.084544769010605911 -0.47930436562998829 0 0.066664145104509576 -0.47491537970349529 0 0.084544769010605911 -0.47930436562998829 0 0.081105401189759882 -0.4617563623029271 0 0.084544769010605911 -0.47930436562998829 0 0.09457436332287833 -0.46567162221924902 0 0.081105401189759882 -0.4617563623029271 0 0.084544769010605911 -0.47930436562998829 0 0.1014965576307072 -0.48253240663970171 0 0.09457436332287833 -0.46567162221924902 0 0.084544769010605911 -0.47930436562998829 0 0.0932046830103061 -0.49668623762160058 0 0.1014965576307072 -0.48253240663970171 0 0.072713786014782206 -0.49238031736283089 0 0.084544769010605911 -0.47930436562998829 0 0.0932046830103061 -0.49668623762160058 0 0.072713786014782206 -0.49238031736283089 0 0.091263349798206689 -0.49999999999999872 0 0.0932046830103061 -0.49668623762160058 0 0.072713786014782206 -0.49238031736283089 0 0.0932046830103061 -0.49668623762160058 0 0.091263349798206689 -0.49999999999999872 0 0.0932046830103061 -0.49668623762160058 0 0.096016569660989939 -0.49727712242753352 0 0.091263349798206689 -0.49999999999999872 0 0.0932046830103061 -0.49668623762160058 0 0.096016569660989939 -0.49727712242753352 0 0.10699102823796119 -0.49203130128331568 0 0.11395585228144089 -0.5 0 0.091263349798206689 -0.49999999999999872 0 0.096016569660989939 -0.49727712242753352 0 0.11395585228144089 -0.5 0 0.0932046830103061 -0.49668623762160058 0 0.096016569660989939 -0.49727712242753352 0 0.0932046830103061 -0.49668623762160058 0 0.1014965576307072 -0.48253240663970171 0 0.096016569660989939 -0.49727712242753352 0 0.10699102823796119 -0.49203130128331568 0 0.1014965576307072 -0.48253240663970171 0 0.0932046830103061 -0.49668623762160058 0 0.096016569660989939 -0.49727712242753352 0 0.1014965576307072 -0.48253240663970171 0 0.10699102823796119 -0.49203130128331568 0 0.1110952389658087 -0.48650378300689479 0 0.1014965576307072 -0.48253240663970171 0 0.10699102823796119 -0.49203130128331568 0 0.11395585228144089 -0.5 0 0.11761011381290511 -0.49090252123068212 0 0.10699102823796119 -0.49203130128331568 0 0.1110952389658087 -0.48650378300689479 0 0.11761011381290511 -0.49090252123068212 0 0.1110952389658087 -0.48650378300689479 0 0.1160112639777975 -0.48509658030919273 0 0.11761011381290511 -0.49090252123068212 0 0.12630727566475991 -0.49542768675485682 0 0.11913595228748219 -0.48004579971579192 0 0.1160112639777975 -0.48509658030919273 0 0.11761011381290511 -0.49090252123068212 0 0.11913595228748219 -0.48004579971579192 0 0.12630727566475991 -0.49542768675485682 0 0.11761011381290511 -0.49090252123068212 0 0.11913595228748219 -0.48004579971579192 0 0.12630727566475991 -0.49542768675485682 0 0.11395585228144089 -0.5 0 0.11761011381290511 -0.49090252123068212 0 0.12927139404436899 -0.4749953215400109 0 0.1218020166106475 -0.47094088990119692 0 0.11913595228748219 -0.48004579971579192 0 0.1218020166106475 -0.47094088990119692 0 0.11913595228748219 -0.48004579971579192 0 0.1119646289102056 -0.46466391267672652 0 0.1110952389658087 -0.48650378300689479 0 0.1160112639777975 -0.48509658030919273 0 0.1162097025380314 -0.48119908907707032 0 0.1160112639777975 -0.48509658030919273 0 0.11913595228748219 -0.48004579971579192 0 0.1162097025380314 -0.48119908907707032 0 0.1110952389658087 -0.48650378300689479 0 0.1162097025380314 -0.48119908907707032 0 0.10936020666421151 -0.47961993357379812 0 0.1162097025380314 -0.48119908907707032 0 0.10936020666421151 -0.47961993357379812 0 0.10978843225111461 -0.46837857565780638 0 0.11913595228748219 -0.48004579971579192 0 0.1162097025380314 -0.48119908907707032 0 0.10978843225111461 -0.46837857565780638 0 0.11913595228748219 -0.48004579971579192 0 0.1119646289102056 -0.46466391267672652 0 0.11913595228748219 -0.48004579971579192 0 0.10978843225111461 -0.46837857565780638 0 0.1119646289102056 -0.46466391267672652 0 0.1162097025380314 -0.48119908907707032 0 0.10978843225111461 -0.46837857565780638 0 0.1014965576307072 -0.48253240663970171 0 0.09457436332287833 -0.46567162221924902 0 0.10978843225111461 -0.46837857565780638 0 0.1014965576307072 -0.48253240663970171 0 0.10978843225111461 -0.46837857565780638 0 0.1110952389658087 -0.48650378300689479 0 0.10936020666421151 -0.47961993357379812 0 0.1014965576307072 -0.48253240663970171 0 0.10936020666421151 -0.47961993357379812 0 0.1014965576307072 -0.48253240663970171 0 0.10978843225111461 -0.46837857565780638 0 0.1119646289102056 -0.46466391267672652 0 0.1042157476917059 -0.44804321251980189 0 0.10978843225111461 -0.46837857565780638 0 0.1119646289102056 -0.46466391267672652 0 0.1014568785224023 -0.45174404828088799 0 0.09457436332287833 -0.46567162221924902 0 0.10978843225111461 -0.46837857565780638 0 0.1014568785224023 -0.45174404828088799 0 0.1119646289102056 -0.46466391267672652 0 0.1042157476917059 -0.44804321251980189 0 0.1014568785224023 -0.45174404828088799 0 0.10978843225111461 -0.46837857565780638 0 0.1014568785224023 -0.45174404828088799 0 0.09457436332287833 -0.46567162221924902 0 0.1014568785224023 -0.45174404828088799 0 0.089054141332680553 -0.45031397480418273 0 0.12504868698057531 -0.44233005513991269 0 0.1119646289102056 -0.46466391267672652 0 0.12504868698057531 -0.44233005513991269 0 0.12683609120053149 -0.46405852567225758 0 0.1119646289102056 -0.46466391267672652 0 0.10978843225111461 -0.46837857565780638 0 0.1119646289102056 -0.46466391267672652 0 0.12683609120053149 -0.46405852567225758 0 0.1218020166106475 -0.47094088990119692 0 0.1119646289102056 -0.46466391267672652 0 0.12504868698057531 -0.44233005513991269 0 0.1119646289102056 -0.46466391267672652 0 0.1042157476917059 -0.44804321251980189 0 0.12504868698057531 -0.44233005513991269 0 0.1042157476917059 -0.44804321251980189 0 0.1124790728797791 -0.43142607821339363 0 0.1042157476917059 -0.44804321251980189 0 0.1014568785224023 -0.45174404828088799 0 0.093125324793687569 -0.43510952090397093 0 0.1042157476917059 -0.44804321251980189 0 0.093125324793687569 -0.43510952090397093 0 0.09646686647320607 -0.43142251236287749 0 0.1014568785224023 -0.45174404828088799 0 0.089054141332680553 -0.45031397480418273 0 0.093125324793687569 -0.43510952090397093 0 0.1042157476917059 -0.44804321251980189 0 0.09646686647320607 -0.43142251236287749 0 0.1014568785224023 -0.45174404828088799 0 0.093125324793687569 -0.43510952090397093 0 0.083803088950871768 -0.44183588617024699 0 0.089054141332680553 -0.45031397480418273 0 0.093125324793687569 -0.43510952090397093 0 0.083803088950871768 -0.44183588617024699 0 0.075583512934569552 -0.44426172949366621 0 0.078211051511842211 -0.43687019965009088 0 0.083803088950871768 -0.44183588617024699 0 0.080736594831804287 -0.45026686003322031 0 0.089054141332680553 -0.45031397480418273 0 0.083803088950871768 -0.44183588617024699 0 0.080736594831804287 -0.45026686003322031 0 0.075583512934569552 -0.44426172949366621 0 0.09457436332287833 -0.46567162221924902 0 0.089054141332680553 -0.45031397480418273 0 0.081105401189759882 -0.4617563623029271 0 0.080736594831804287 -0.45026686003322031 0 0.089054141332680553 -0.45031397480418273 0 0.081105401189759882 -0.4617563623029271 0 0.080736594831804287 -0.45026686003322031 0 0.081105401189759882 -0.4617563623029271 0 0.074136829751139638 -0.45316634739507838 0 0.081105401189759882 -0.4617563623029271 0 0.074136829751139638 -0.45316634739507838 0 0.064399726985408662 -0.46083473222442989 0 0.066664145104509576 -0.47491537970349529 0 0.081105401189759882 -0.4617563623029271 0 0.064399726985408662 -0.46083473222442989 0 0.066664145104509576 -0.47491537970349529 0 0.081105401189759882 -0.4617563623029271 0 0.066664145104509576 -0.47491537970349529 0 0.064399726985408662 -0.46083473222442989 0 0.056542284966049711 -0.46872490926220928 0 0.074136829751139638 -0.45316634739507838 0 0.064399726985408662 -0.46083473222442989 0 0.068707057103825214 -0.44643879741694642 0 0.064399726985408662 -0.46083473222442989 0 0.060600314484665442 -0.43726623747647531 0 0.064399726985408662 -0.46083473222442989 0 0.068707057103825214 -0.44643879741694642 0 0.060600314484665442 -0.43726623747647531 0 0.068707057103825214 -0.44643879741694642 0 0.070922415014307127 -0.43596761976540488 0 0.060600314484665442 -0.43726623747647531 0 0.068707057103825214 -0.44643879741694642 0 0.075583512934569552 -0.44426172949366621 0 0.070922415014307127 -0.43596761976540488 0 0.075583512934569552 -0.44426172949366621 0 0.070922415014307127 -0.43596761976540488 0 0.078211051511842211 -0.43687019965009088 0 0.074136829751139638 -0.45316634739507838 0 0.068707057103825214 -0.44643879741694642 0 0.075583512934569552 -0.44426172949366621 0 0.080736594831804287 -0.45026686003322031 0 0.074136829751139638 -0.45316634739507838 0 0.075583512934569552 -0.44426172949366621 0 0.076030718611804424 -0.42850116490679668 0 0.070922415014307127 -0.43596761976540488 0 0.078211051511842211 -0.43687019965009088 0 0.076030718611804424 -0.42850116490679668 0 0.070922415014307127 -0.43596761976540488 0 0.066362026599050994 -0.42485718019026969 0 0.070922415014307127 -0.43596761976540488 0 0.066362026599050994 -0.42485718019026969 0 0.060600314484665442 -0.43726623747647531 0 0.081505505119606372 -0.41190974151381449 0 0.06239231138769312 -0.40070587311285022 0 0.056800901983922222 -0.41369774272852072 0 0.066362026599050994 -0.42485718019026969 0 0.081505505119606372 -0.41190974151381449 0 0.056800901983922222 -0.41369774272852072 0 0.076030718611804424 -0.42850116490679668 0 0.066362026599050994 -0.42485718019026969 0 0.081505505119606372 -0.41190974151381449 0 0.086384442472858564 -0.40979655870072401 0 0.09646686647320607 -0.43142251236287749 0 0.086384442472858564 -0.40979655870072401 0 0.081505505119606372 -0.41190974151381449 0 0.09646686647320607 -0.43142251236287749 0 0.081505505119606372 -0.41190974151381449 0 0.084812080933765854 -0.43271862520796828 0 0.093125324793687569 -0.43510952090397093 0 0.081505505119606372 -0.41190974151381449 0 0.093125324793687569 -0.43510952090397093 0 0.09646686647320607 -0.43142251236287749 0 0.076030718611804424 -0.42850116490679668 0 0.081505505119606372 -0.41190974151381449 0 0.084812080933765854 -0.43271862520796828 0 0.081505505119606372 -0.41190974151381449 0 0.093125324793687569 -0.43510952090397093 0 0.076030718611804424 -0.42850116490679668 0 0.084812080933765854 -0.43271862520796828 0 0.078211051511842211 -0.43687019965009088 0 0.083803088950871768 -0.44183588617024699 0 0.084812080933765854 -0.43271862520796828 0 0.078211051511842211 -0.43687019965009088 0 0.083803088950871768 -0.44183588617024699 0 0.084812080933765854 -0.43271862520796828 0 0.093125324793687569 -0.43510952090397093 0 0.09646686647320607 -0.43142251236287749 0 0.1124790728797791 -0.43142607821339363 0 0.1115389606538469 -0.41479218262112949 0 0.09646686647320607 -0.43142251236287749 0 0.1115389606538469 -0.41479218262112949 0 0.1042157476917059 -0.44804321251980189 0 0.09646686647320607 -0.43142251236287749 0 0.1124790728797791 -0.43142607821339363 0 0.093125324793687569 -0.43510952090397093 0 0.09646686647320607 -0.43142251236287749 0 0.12512510259956161 -0.42054242842324668 0 0.1124790728797791 -0.43142607821339363 0 0.1115389606538469 -0.41479218262112949 0 0.12512510259956161 -0.42054242842324668 0 0.12504868698057531 -0.44233005513991269 0 0.1124790728797791 -0.43142607821339363 0 0.1266110548344879 -0.39816185287938161 0 0.12512510259956161 -0.42054242842324668 0 0.1115389606538469 -0.41479218262112949 0 0.1266110548344879 -0.39816185287938161 0 0.1115389606538469 -0.41479218262112949 0 0.086384442472858564 -0.40979655870072401 0 0.1115389606538469 -0.41479218262112949 0 0.1081045913548994 -0.39875274102423131 0 0.086384442472858564 -0.40979655870072401 0 0.09646686647320607 -0.43142251236287749 0 0.1115389606538469 -0.41479218262112949 0 0.086384442472858564 -0.40979655870072401 0 0.1081045913548994 -0.39875274102423131 0 0.097430172428605508 -0.38639457198616312 0 0.1266110548344879 -0.39816185287938161 0 0.1115389606538469 -0.41479218262112949 0 0.1081045913548994 -0.39875274102423131 0 0.1266110548344879 -0.39816185287938161 0 0.1081045913548994 -0.39875274102423131 0 0.118558326384698 -0.38461853893375991 0 0.1266110548344879 -0.39816185287938161 0 0.118558326384698 -0.38461853893375991 0 0.12718315171119601 -0.37700863444159971 0 0.118558326384698 -0.38461853893375991 0 0.1177920896784069 -0.369350563504242 0 0.1081045913548994 -0.39875274102423131 0 0.118558326384698 -0.38461853893375991 0 0.097430172428605508 -0.38639457198616312 0 0.118558326384698 -0.38461853893375991 0 0.097430172428605508 -0.38639457198616312 0 0.118558326384698 -0.38461853893375991 0 0.097430172428605508 -0.38639457198616312 0 0.1044405028897943 -0.36087477096587078 0 0.097430172428605508 -0.38639457198616312 0 0.076302018472513264 -0.38817060503856921 0 0.097430172428605508 -0.38639457198616312 0 0.076302018472513264 -0.38817060503856921 0 0.086301321744686077 -0.37018219450581991 0 0.086384442472858564 -0.40979655870072401 0 0.081505505119606372 -0.41190974151381449 0 0.076302018472513264 -0.38817060503856921 0 0.086384442472858564 -0.40979655870072401 0 0.076302018472513264 -0.38817060503856921 0 0.086384442472858564 -0.40979655870072401 0 0.097430172428605508 -0.38639457198616312 0 0.076302018472513264 -0.38817060503856921 0 0.081505505119606372 -0.41190974151381449 0 0.06988568544552036 -0.38870996212366049 0 0.076302018472513264 -0.38817060503856921 0 0.081505505119606372 -0.41190974151381449 0 0.06988568544552036 -0.38870996212366049 0 0.06239231138769312 -0.40070587311285022 0 0.081505505119606372 -0.41190974151381449 0 0.06988568544552036 -0.38870996212366049 0 0.06988568544552036 -0.38870996212366049 0 0.059899998496519773 -0.36877284254918191 0 0.06988568544552036 -0.38870996212366049 0 0.076302018472513264 -0.38817060503856921 0 0.059899998496519773 -0.36877284254918191 0 0.076302018472513264 -0.38817060503856921 0 0.064120836908446929 -0.36204299246786498 0 0.06988568544552036 -0.38870996212366049 0 0.058058266623150709 -0.37997030443564622 0 0.059899998496519773 -0.36877284254918191 0 0.06988568544552036 -0.38870996212366049 0 0.076302018472513264 -0.38817060503856921 0 0.06988568544552036 -0.38870996212366049 0 0.053001489483178912 -0.39012924798056609 0 0.058058266623150709 -0.37997030443564622 0 0.053001489483178912 -0.39012924798056609 0 0.050065234139399201 -0.37191508496589187 0 0.06988568544552036 -0.38870996212366049 0 0.053001489483178912 -0.39012924798056609 0 0.053001489483178912 -0.39012924798056609 0 0.042541213354167801 -0.38139169446510329 0 0.050065234139399201 -0.37191508496589187 0 0.053001489483178912 -0.39012924798056609 0 0.058058266623150709 -0.37997030443564622 0 0.050065234139399201 -0.37191508496589187 0 0.053001489483178912 -0.39012924798056609 0 0.042753576510464478 -0.40561801690593208 0 0.056800901983922222 -0.41369774272852072 0 0.06988568544552036 -0.38870996212366049 0 0.053001489483178912 -0.39012924798056609 0 0.06239231138769312 -0.40070587311285022 0 0.053001489483178912 -0.39012924798056609 0 0.06239231138769312 -0.40070587311285022 0 0.056800901983922222 -0.41369774272852072 0 0.053001489483178912 -0.39012924798056609 0 0.056800901983922222 -0.41369774272852072 0 0.053001489483178912 -0.39012924798056609 0 0.042753576510464478 -0.40561801690593208 0 0.026173751926806162 -0.39238438814664028 0 0.042753576510464478 -0.40561801690593208 0 0.026173751926806162 -0.39238438814664028 0 0.029915388523864109 -0.41641908231573771 0 0.053001489483178912 -0.39012924798056609 0 0.026173751926806162 -0.39238438814664028 0 0.053001489483178912 -0.39012924798056609 0 0.042541213354167801 -0.38139169446510329 0 0.026173751926806162 -0.39238438814664028 0 0.042541213354167801 -0.38139169446510329 0 0.033767586563938017 -0.37707025265391692 0 0.026173751926806162 -0.39238438814664028 0 0.042541213354167801 -0.38139169446510329 0 0.033767586563938017 -0.37707025265391692 0 0.039701938661876997 -0.37135282479150222 0 0.033767586563938017 -0.37707025265391692 0 0.022265364458266861 -0.37627370891826728 0 0.026173751926806162 -0.39238438814664028 0 0.022265364458266861 -0.37627370891826728 0 0.0084172819527525873 -0.37997406703238851 0 0.026173751926806162 -0.39238438814664028 0 0.022265364458266861 -0.37627370891826728 0 0.0084172819527525873 -0.37997406703238851 0 0.01337623534410722 -0.37174821461002339 0 -0.00065398562956667239 -0.39463952831271337 0 0.0084172819527525873 -0.37997406703238851 0 0.026173751926806162 -0.39238438814664028 0 -0.006074205156008765 -0.3718711405643727 0 -0.00065398562956667239 -0.39463952831271337 0 0.0084172819527525873 -0.37997406703238851 0 -0.00065398562956667239 -0.39463952831271337 0 0.026173751926806162 -0.39238438814664028 0 0.013599145149236991 -0.40707354521856431 0 -0.00065398562956667239 -0.39463952831271337 0 -0.003412123355992188 -0.41350049880094047 0 0.013599145149236991 -0.40707354521856431 0 -0.00065398562956667239 -0.39463952831271337 0 0.026173751926806162 -0.39238438814664028 0 0.026173751926806162 -0.39238438814664028 0 0.029915388523864109 -0.41641908231573771 0 0.013599145149236991 -0.40707354521856431 0 0.029915388523864109 -0.41641908231573771 0 0.013599145149236991 -0.40707354521856431 0 0.010202372808157121 -0.42487402836342159 0 -0.003412123355992188 -0.41350049880094047 0 0.013599145149236991 -0.40707354521856431 0 0.010202372808157121 -0.42487402836342159 0 -0.0069941690171042344 -0.43223093226146592 0 0.010202372808157121 -0.42487402836342159 0 0.0049373900052483276 -0.4404990250137506 0 0.010202372808157121 -0.42487402836342159 0 0.0216772333163976 -0.43985854161037008 0 0.0049373900052483276 -0.4404990250137506 0 0.029915388523864109 -0.41641908231573771 0 0.010202372808157121 -0.42487402836342159 0 0.0216772333163976 -0.43985854161037008 0 0.029915388523864109 -0.41641908231573771 0 0.037373601238351969 -0.43107381184903809 0 0.0216772333163976 -0.43985854161037008 0 0.037373601238351969 -0.43107381184903809 0 0.052700604380371822 -0.42966106272062471 0 0.039285417463929967 -0.44634659300162888 0 0.037373601238351969 -0.43107381184903809 0 0.043908814527394917 -0.41929394330397057 0 0.052700604380371822 -0.42966106272062471 0 0.029915388523864109 -0.41641908231573771 0 0.037373601238351969 -0.43107381184903809 0 0.043908814527394917 -0.41929394330397057 0 0.042753576510464478 -0.40561801690593208 0 0.029915388523864109 -0.41641908231573771 0 0.043908814527394917 -0.41929394330397057 0 0.043908814527394917 -0.41929394330397057 0 0.056800901983922222 -0.41369774272852072 0 0.052700604380371822 -0.42966106272062471 0 0.042753576510464478 -0.40561801690593208 0 0.043908814527394917 -0.41929394330397057 0 0.056800901983922222 -0.41369774272852072 0 0.066362026599050994 -0.42485718019026969 0 0.056800901983922222 -0.41369774272852072 0 0.060600314484665442 -0.43726623747647531 0 0.056800901983922222 -0.41369774272852072 0 0.060600314484665442 -0.43726623747647531 0 0.052700604380371822 -0.42966106272062471 0 0.056800901983922222 -0.41369774272852072 0 0.060600314484665442 -0.43726623747647531 0 0.060600314484665442 -0.43726623747647531 0 0.052700604380371822 -0.42966106272062471 0 0.053637548825589423 -0.45047917967888079 0 0.064399726985408662 -0.46083473222442989 0 0.060600314484665442 -0.43726623747647531 0 0.053637548825589423 -0.45047917967888079 0 0.052700604380371822 -0.42966106272062471 0 0.053637548825589423 -0.45047917967888079 0 0.039285417463929967 -0.44634659300162888 0 0.053637548825589423 -0.45047917967888079 0 0.056542284966049711 -0.46872490926220928 0 0.043399138698098312 -0.46684484397261161 0 0.064399726985408662 -0.46083473222442989 0 0.053637548825589423 -0.45047917967888079 0 0.056542284966049711 -0.46872490926220928 0 0.053637548825589423 -0.45047917967888079 0 0.043399138698098312 -0.46684484397261161 0 0.039285417463929967 -0.44634659300162888 0 0.043399138698098312 -0.46684484397261161 0 0.039285417463929967 -0.44634659300162888 0 0.02587023054748808 -0.4630321232826331 0 0.039285417463929967 -0.44634659300162888 0 0.02587023054748808 -0.4630321232826331 0 0.037373601238351969 -0.43107381184903809 0 0.039285417463929967 -0.44634659300162888 0 0.0216772333163976 -0.43985854161037008 0 0.052700604380371822 -0.42966106272062471 0 0.039285417463929967 -0.44634659300162888 0 0.0216772333163976 -0.43985854161037008 0 0.0083718544506426358 -0.45432770698729469 0 0.02587023054748808 -0.4630321232826331 0 0.039285417463929967 -0.44634659300162888 0 0.0216772333163976 -0.43985854161037008 0 0.02587023054748808 -0.4630321232826331 0 -0.0085703415318514817 -0.45120391584620068 0 0.0049373900052483276 -0.4404990250137506 0 0.0083718544506426358 -0.45432770698729469 0 0.0216772333163976 -0.43985854161037008 0 0.0049373900052483276 -0.4404990250137506 0 0.0083718544506426358 -0.45432770698729469 0 0.0083718544506426358 -0.45432770698729469 0 0.01047090829443416 -0.46757032203377807 0 0.02587023054748808 -0.4630321232826331 0 -0.001646952939765318 -0.4647065348169781 0 0.0083718544506426358 -0.45432770698729469 0 0.01047090829443416 -0.46757032203377807 0 0.01245504363104594 -0.47971765356363721 0 0.020001441106393281 -0.48921214829244858 0 0.032338966325152332 -0.4838960253338479 0 0.01047090829443416 -0.46757032203377807 0 0.02587023054748808 -0.4630321232826331 0 0.01245504363104594 -0.47971765356363721 0 0.01245504363104594 -0.47971765356363721 0 0.032338966325152332 -0.4838960253338479 0 0.02587023054748808 -0.4630321232826331 0 0.01245504363104594 -0.47971765356363721 0 0.032338966325152332 -0.4838960253338479 0 0.02587023054748808 -0.4630321232826331 0 0.01245504363104594 -0.47971765356363721 0 0.01047090829443416 -0.46757032203377807 0 0.01245504363104594 -0.47971765356363721 0 0.0052764356523212503 -0.4782091537877553 0 0.01245504363104594 -0.47971765356363721 0 0.0085440860196800885 -0.48458202124323801 0 0.01245504363104594 -0.47971765356363721 0 0.0052764356523212503 -0.4782091537877553 0 0.0085440860196800885 -0.48458202124323801 0 0.01245504363104594 -0.47971765356363721 0 0.0052764356523212503 -0.4782091537877553 0 -0.0062630960320489851 -0.48710628856233651 0 0.0052764356523212503 -0.4782091537877553 0 0.0085440860196800885 -0.48458202124323801 0 0.0052764356523212503 -0.4782091537877553 0 0.0085440860196800885 -0.48458202124323801 0 -0.001646952939765318 -0.4647065348169781 0 0.0052764356523212503 -0.4782091537877553 0 -0.001646952939765318 -0.4647065348169781 0 0.01047090829443416 -0.46757032203377807 0 0.0052764356523212503 -0.4782091537877553 0 -0.0038519879085910369 -0.50000000000000266 0 0.0085440860196800885 -0.48458202124323801 0 0.016449564095349482 -0.50000000000000111 0 -0.0038519879085910369 -0.50000000000000266 0 0.0085440860196800885 -0.48458202124323801 0 0.0085440860196800885 -0.48458202124323801 0 0.016449564095349482 -0.50000000000000111 0 0.020001441106393281 -0.48921214829244858 0 0.01245504363104594 -0.47971765356363721 0 0.0085440860196800885 -0.48458202124323801 0 0.020001441106393281 -0.48921214829244858 0 0.0085440860196800885 -0.48458202124323801 0 0.016449564095349482 -0.50000000000000111 0 0.016449564095349482 -0.50000000000000111 0 0.020001441106393281 -0.48921214829244858 0 0.039135233600265183 -0.49999999999999872 0 0.020001441106393281 -0.48921214829244858 0 0.039135233600265183 -0.49999999999999872 0 0.032338966325152332 -0.4838960253338479 0 0.039135233600265183 -0.49999999999999872 0 0.032338966325152332 -0.4838960253338479 0 0.052222889019258027 -0.4880743971040622 0 0.032338966325152332 -0.4838960253338479 0 0.052222889019258027 -0.4880743971040622 0 0.039135233600265183 -0.49999999999999872 0 0.052222889019258027 -0.4880743971040622 0 0.043399138698098312 -0.46684484397261161 0 0.032338966325152332 -0.4838960253338479 0 0.052222889019258027 -0.4880743971040622 0 0.043399138698098312 -0.46684484397261161 0 0.02587023054748808 -0.4630321232826331 0 0.032338966325152332 -0.4838960253338479 0 0.066664145104509576 -0.47491537970349529 0 0.056542284966049711 -0.46872490926220928 0 0.052222889019258027 -0.4880743971040622 0 0.056542284966049711 -0.46872490926220928 0 0.043399138698098312 -0.46684484397261161 0 0.052222889019258027 -0.4880743971040622 0 0.066664145104509576 -0.47491537970349529 0 0.052222889019258027 -0.4880743971040622 0 0.065199291699235884 -0.5 0 0.039135233600265183 -0.49999999999999872 0 0.052222889019258027 -0.4880743971040622 0 0.072713786014782206 -0.49238031736283089 0 0.052222889019258027 -0.4880743971040622 0 0.092541314469886518 -0.29566724658407012 0 0.07691800287715235 -0.29097725984879291 0 0.089967850754082174 -0.27253285895235291 0 0.07691800287715235 -0.29097725984879291 0 0.068453105102350531 -0.28048913406633069 0 0.089967850754082174 -0.27253285895235291 0 0.092541314469886518 -0.29566724658407012 0 0.082427018474702463 -0.30050641780139281 0 0.07691800287715235 -0.29097725984879291 0 0.092541314469886518 -0.29566724658407012 0 0.088830510211035135 -0.30637418017153828 0 0.099051506346608004 -0.30860066038468348 0 0.082621524336293689 -0.30704842847634878 0 0.072859731418881371 -0.30776130695895798 0 0.093175340893079245 -0.31969888583051781 0 0.092541314469886518 -0.29566724658407012 0 0.088830510211035135 -0.30637418017153828 0 0.082427018474702463 -0.30050641780139281 0 0.088830510211035135 -0.30637418017153828 0 0.082621524336293689 -0.30704842847634878 0 0.093175340893079245 -0.31969888583051781 0 0.088830510211035135 -0.30637418017153828 0 0.099051506346608004 -0.30860066038468348 0 0.093175340893079245 -0.31969888583051781 0 0.082427018474702463 -0.30050641780139281 0 0.075815020683770204 -0.30090135161933701 0 0.07691800287715235 -0.29097725984879291 0 0.088830510211035135 -0.30637418017153828 0 0.082621524336293689 -0.30704842847634878 0 0.082427018474702463 -0.30050641780139281 0 0.082621524336293689 -0.30704842847634878 0 0.082427018474702463 -0.30050641780139281 0 0.075815020683770204 -0.30090135161933701 0 0.075815020683770204 -0.30090135161933701 0 0.072859731418881371 -0.30776130695895798 0 0.070500562447764023 -0.29541072239787419 0 0.072859731418881371 -0.30776130695895798 0 0.069714328948843357 -0.30591304884410492 0 0.060233733360696512 -0.28652653459019523 0 0.072859731418881371 -0.30776130695895798 0 0.060233733360696512 -0.28652653459019523 0 0.082621524336293689 -0.30704842847634878 0 0.075815020683770204 -0.30090135161933701 0 0.072859731418881371 -0.30776130695895798 0 0.074812807141340837 -0.31104604676283398 0 0.069714328948843357 -0.30591304884410492 0 0.074812807141340837 -0.31104604676283398 0 0.072859731418881371 -0.30776130695895798 0 0.069714328948843357 -0.30591304884410492 0 0.072859731418881371 -0.30776130695895798 0 0.069714328948843357 -0.30591304884410492 0 0.074812807141340837 -0.31104604676283398 0 0.072859731418881371 -0.30776130695895798 0 0.074812807141340837 -0.31104604676283398 0 0.069714328948843357 -0.30591304884410492 0 0.065182128565432262 -0.31645584822772371 0 0.069714328948843357 -0.30591304884410492 0 0.065182128565432262 -0.31645584822772371 0 0.055075471282406009 -0.31378085839986503 0 0.069714328948843357 -0.30591304884410492 0 0.055422079950039137 -0.29152403282893952 0 0.070500562447764023 -0.29541072239787419 0 0.068793579992906417 -0.28823924778010002 0 0.060233733360696512 -0.28652653459019523 0 0.072859731418881371 -0.30776130695895798 0 0.070500562447764023 -0.29541072239787419 0 0.060233733360696512 -0.28652653459019523 0 0.07691800287715235 -0.29097725984879291 0 0.070500562447764023 -0.29541072239787419 0 0.068793579992906417 -0.28823924778010002 0 0.075815020683770204 -0.30090135161933701 0 0.07691800287715235 -0.29097725984879291 0 0.070500562447764023 -0.29541072239787419 0 0.07691800287715235 -0.29097725984879291 0 0.068793579992906417 -0.28823924778010002 0 0.068453105102350531 -0.28048913406633069 0 0.068793579992906417 -0.28823924778010002 0 0.068453105102350531 -0.28048913406633069 0 0.060233733360696512 -0.28652653459019523 0 0.076464077460393409 -0.25713633793455409 0 0.089967850754082174 -0.27253285895235291 0 0.061594144076871332 -0.26797362548483411 0 0.068453105102350531 -0.28048913406633069 0 0.089967850754082174 -0.27253285895235291 0 0.061594144076871332 -0.26797362548483411 0 0.089967850754082174 -0.27253285895235291 0 0.061594144076871332 -0.26797362548483411 0 0.076464077460393409 -0.25713633793455409 0 0.061594144076871332 -0.26797362548483411 0 0.064967675558787977 -0.24867278264963649 0 0.076464077460393409 -0.25713633793455409 0 0.091476043835059168 -0.25387675272351812 0 0.089967850754082174 -0.27253285895235291 0 0.089967850754082174 -0.27253285895235291 0 0.1053164420824159 -0.26235643471216769 0 0.1134864425312488 -0.27431322698030469 0 0.089967850754082174 -0.27253285895235291 0 0.1134864425312488 -0.27431322698030469 0 0.1071034662018143 -0.2885160117133802 0 0.091476043835059168 -0.25387675272351812 0 0.089967850754082174 -0.27253285895235291 0 0.1053164420824159 -0.26235643471216769 0 0.091476043835059168 -0.25387675272351812 0 0.1053164420824159 -0.26235643471216769 0 0.1036914690561344 -0.25074857552317892 0 0.1036914690561344 -0.25074857552317892 0 0.11155761251374249 -0.25809188247426851 0 0.1094746658282473 -0.24906523608983699 0 0.1053164420824159 -0.26235643471216769 0 0.1036914690561344 -0.25074857552317892 0 0.11155761251374249 -0.25809188247426851 0 0.13389399773910041 -0.26320545939785839 0 0.1144240973901083 -0.25109746480042322 0 0.13389399773910041 -0.26320545939785839 0 0.1144240973901083 -0.25109746480042322 0 0.1171802395972777 -0.26345379623939541 0 0.1144240973901083 -0.25109746480042322 0 0.1171802395972777 -0.26345379623939541 0 0.11155761251374249 -0.25809188247426851 0 0.1144240973901083 -0.25109746480042322 0 0.11155761251374249 -0.25809188247426851 0 0.1094746658282473 -0.24906523608983699 0 0.1053164420824159 -0.26235643471216769 0 0.1171802395972777 -0.26345379623939541 0 0.11155761251374249 -0.25809188247426851 0 0.12943740973989951 -0.25153406380662757 0 0.1144240973901083 -0.25109746480042322 0 0.1171174268552873 -0.24946025731505581 0 0.1053164420824159 -0.26235643471216769 0 0.1171802395972777 -0.26345379623939541 0 0.1134864425312488 -0.27431322698030469 0 0.1171802395972777 -0.26345379623939541 0 0.1134864425312488 -0.27431322698030469 0 0.1240131607041676 -0.27219848896563958 0 0.13171654355026169 -0.28270421183080041 0 0.1240131607041676 -0.27219848896563958 0 0.1188184454024305 -0.28389322666906142 0 0.1134864425312488 -0.27431322698030469 0 0.1240131607041676 -0.27219848896563958 0 0.1188184454024305 -0.28389322666906142 0 0.13171654355026169 -0.28270421183080041 0 0.1188184454024305 -0.28389322666906142 0 0.12049183524738991 -0.29646667554073858 0 0.12049183524738991 -0.29646667554073858 0 0.1071034662018143 -0.2885160117133802 0 0.1071035259602664 -0.30059301209445971 0 0.1188184454024305 -0.28389322666906142 0 0.12049183524738991 -0.29646667554073858 0 0.1071034662018143 -0.2885160117133802 0 0.1134864425312488 -0.27431322698030469 0 0.1188184454024305 -0.28389322666906142 0 0.1071034662018143 -0.2885160117133802 0 0.092541314469886518 -0.29566724658407012 0 0.089967850754082174 -0.27253285895235291 0 0.1071034662018143 -0.2885160117133802 0 0.092541314469886518 -0.29566724658407012 0 0.1071034662018143 -0.2885160117133802 0 0.1071035259602664 -0.30059301209445971 0 0.092541314469886518 -0.29566724658407012 0 0.099051506346608004 -0.30860066038468348 0 0.1071035259602664 -0.30059301209445971 0 0.099051506346608004 -0.30860066038468348 0 0.1071035259602664 -0.30059301209445971 0 0.1134698414948031 -0.31340928645510302 0 0.12049183524738991 -0.29646667554073858 0 0.1071035259602664 -0.30059301209445971 0 0.1134698414948031 -0.31340928645510302 0 0.13045879401795471 -0.31333259010838249 0 0.12049183524738991 -0.29646667554073858 0 0.1134698414948031 -0.31340928645510302 0 0.1270103926211367 -0.32715249663183099 0 0.13045879401795471 -0.31333259010838249 0 0.1134698414948031 -0.31340928645510302 0 0.1134698414948031 -0.31340928645510302 0 0.11349095036727699 -0.3316364647020773 0 0.1047969097754418 -0.31833632434309539 0 0.1270103926211367 -0.32715249663183099 0 0.1134698414948031 -0.31340928645510302 0 0.11349095036727699 -0.3316364647020773 0 0.1270103926211367 -0.32715249663183099 0 0.12209232105875049 -0.33947546401726969 0 0.11349095036727699 -0.3316364647020773 0 0.12209232105875049 -0.33947546401726969 0 0.11377202201539489 -0.34014213141725891 0 0.11812311414152329 -0.34663994639174878 0 0.12209232105875049 -0.33947546401726969 0 0.11377202201539489 -0.34014213141725891 0 0.11349095036727699 -0.3316364647020773 0 0.11377202201539489 -0.34014213141725891 0 0.1051806150287838 -0.33395735745253841 0 0.1120389055316648 -0.34852418795428058 0 0.11377202201539489 -0.34014213141725891 0 0.11349095036727699 -0.3316364647020773 0 0.1051806150287838 -0.33395735745253841 0 0.1120389055316648 -0.34852418795428058 0 0.093425856336502813 -0.32978511735855731 0 0.1120389055316648 -0.34852418795428058 0 0.093425856336502813 -0.32978511735855731 0 0.090322679394893773 -0.33713100299797999 0 0.1051806150287838 -0.33395735745253841 0 0.1120389055316648 -0.34852418795428058 0 0.093425856336502813 -0.32978511735855731 0 0.11349095036727699 -0.3316364647020773 0 0.1051806150287838 -0.33395735745253841 0 0.093175340893079245 -0.31969888583051781 0 0.11349095036727699 -0.3316364647020773 0 0.093175340893079245 -0.31969888583051781 0 0.11349095036727699 -0.3316364647020773 0 0.1047969097754418 -0.31833632434309539 0 0.093175340893079245 -0.31969888583051781 0 0.1051806150287838 -0.33395735745253841 0 0.093175340893079245 -0.31969888583051781 0 0.093425856336502813 -0.32978511735855731 0 0.099051506346608004 -0.30860066038468348 0 0.1047969097754418 -0.31833632434309539 0 0.093175340893079245 -0.31969888583051781 0 0.099051506346608004 -0.30860066038468348 0 0.1134698414948031 -0.31340928645510302 0 0.1047969097754418 -0.31833632434309539 0 0.13186286974531819 -0.37129293805289848 0 0.1110927745701059 -0.35421197052543918 0 0.118558326384698 -0.38461853893375991 0 0.1177920896784069 -0.369350563504242 0 0.1044405028897943 -0.36087477096587078 0 0.13186286974531819 -0.37129293805289848 0 0.1177920896784069 -0.369350563504242 0 0.1110927745701059 -0.35421197052543918 0 0.13186286974531819 -0.37129293805289848 0 0.1110927745701059 -0.35421197052543918 0 0.1211555337221351 -0.3536932295608457 0 0.118558326384698 -0.38461853893375991 0 0.1044405028897943 -0.36087477096587078 0 0.1177920896784069 -0.369350563504242 0 0.1110927745701059 -0.35421197052543918 0 0.1044405028897943 -0.36087477096587078 0 0.1110927745701059 -0.35421197052543918 0 0.1211555337221351 -0.3536932295608457 0 0.1156025819913573 -0.35076733360807849 0 0.12518774061650581 -0.34784807581449628 0 0.12209232105875049 -0.33947546401726969 0 0.11812311414152329 -0.34663994639174878 0 0.1211555337221351 -0.3536932295608457 0 0.11812311414152329 -0.34663994639174878 0 0.1156025819913573 -0.35076733360807849 0 0.12518774061650581 -0.34784807581449628 0 0.1211555337221351 -0.3536932295608457 0 0.11812311414152329 -0.34663994639174878 0 0.11377202201539489 -0.34014213141725891 0 0.11812311414152329 -0.34663994639174878 0 0.1120389055316648 -0.34852418795428058 0 0.11812311414152329 -0.34663994639174878 0 0.1156025819913573 -0.35076733360807849 0 0.1120389055316648 -0.34852418795428058 0 0.1110927745701059 -0.35421197052543918 0 0.1156025819913573 -0.35076733360807849 0 0.1120389055316648 -0.34852418795428058 0 0.1110927745701059 -0.35421197052543918 0 0.090322679394893773 -0.33713100299797999 0 0.1110927745701059 -0.35421197052543918 0 0.1120389055316648 -0.34852418795428058 0 0.090322679394893773 -0.33713100299797999 0 0.1110927745701059 -0.35421197052543918 0 0.1044405028897943 -0.36087477096587078 0 0.090322679394893773 -0.33713100299797999 0 0.1044405028897943 -0.36087477096587078 0 0.090322679394893773 -0.33713100299797999 0 0.097430172428605508 -0.38639457198616312 0 0.1044405028897943 -0.36087477096587078 0 0.086301321744686077 -0.37018219450581991 0 0.076302018472513264 -0.38817060503856921 0 0.086301321744686077 -0.37018219450581991 0 0.075573241898678312 -0.36514135203365228 0 0.1044405028897943 -0.36087477096587078 0 0.086301321744686077 -0.37018219450581991 0 0.083964059520448678 -0.35404443670107161 0 0.086301321744686077 -0.37018219450581991 0 0.083964059520448678 -0.35404443670107161 0 0.075573241898678312 -0.36514135203365228 0 0.083964059520448678 -0.35404443670107161 0 0.090322679394893773 -0.33713100299797999 0 0.078907295972191316 -0.34250914046131109 0 0.1044405028897943 -0.36087477096587078 0 0.083964059520448678 -0.35404443670107161 0 0.090322679394893773 -0.33713100299797999 0 0.083964059520448678 -0.35404443670107161 0 0.067177972847296721 -0.3512665314549368 0 0.075573241898678312 -0.36514135203365228 0 0.083964059520448678 -0.35404443670107161 0 0.067177972847296721 -0.3512665314549368 0 0.078907295972191316 -0.34250914046131109 0 0.067177972847296721 -0.3512665314549368 0 0.078907295972191316 -0.34250914046131109 0 0.066588490527944494 -0.34008034789185548 0 0.076302018472513264 -0.38817060503856921 0 0.064120836908446929 -0.36204299246786498 0 0.059899998496519773 -0.36877284254918191 0 0.076302018472513264 -0.38817060503856921 0 0.075573241898678312 -0.36514135203365228 0 0.064120836908446929 -0.36204299246786498 0 0.067177972847296721 -0.3512665314549368 0 0.075573241898678312 -0.36514135203365228 0 0.064120836908446929 -0.36204299246786498 0 0.074812807141340837 -0.31104604676283398 0 0.086012073343782608 -0.32988129981848191 0 0.072859731418881371 -0.30776130695895798 0 0.093175340893079245 -0.31969888583051781 0 0.074812807141340837 -0.31104604676283398 0 0.093175340893079245 -0.31969888583051781 0 0.093425856336502813 -0.32978511735855731 0 0.074812807141340837 -0.31104604676283398 0 0.086012073343782608 -0.32988129981848191 0 0.083262669508377074 -0.33132497280900602 0 0.074812807141340837 -0.31104604676283398 0 0.08981724502844364 -0.32788325809223162 0 0.086012073343782608 -0.32988129981848191 0 0.074812807141340837 -0.31104604676283398 0 0.08981724502844364 -0.32788325809223162 0 0.093425856336502813 -0.32978511735855731 0 0.074812807141340837 -0.31104604676283398 0 0.072859731418881371 -0.30776130695895798 0 0.093175340893079245 -0.31969888583051781 0 0.074812807141340837 -0.31104604676283398 0 0.093425856336502813 -0.32978511735855731 0 0.093425856336502813 -0.32978511735855731 0 0.086012073343782608 -0.32988129981848191 0 0.090322679394893773 -0.33713100299797999 0 0.086012073343782608 -0.32988129981848191 0 0.090322679394893773 -0.33713100299797999 0 0.090322679394893773 -0.33713100299797999 0 0.083262669508377074 -0.33132497280900602 0 0.086012073343782608 -0.32988129981848191 0 0.090322679394893773 -0.33713100299797999 0 0.083262669508377074 -0.33132497280900602 0 0.08981724502844364 -0.32788325809223162 0 0.093425856336502813 -0.32978511735855731 0 0.086012073343782608 -0.32988129981848191 0 0.08981724502844364 -0.32788325809223162 0 0.086012073343782608 -0.32988129981848191 0 0.090322679394893773 -0.33713100299797999 0 0.078907295972191316 -0.34250914046131109 0 0.083262669508377074 -0.33132497280900602 0 0.086012073343782608 -0.32988129981848191 0 0.083262669508377074 -0.33132497280900602 0 0.083262669508377074 -0.33132497280900602 0 0.066588490527944494 -0.34008034789185548 0 0.078907295972191316 -0.34250914046131109 0 0.083262669508377074 -0.33132497280900602 0 0.066588490527944494 -0.34008034789185548 0 0.083262669508377074 -0.33132497280900602 0 0.066588490527944494 -0.34008034789185548 0 0.065182128565432262 -0.31645584822772371 0 0.083262669508377074 -0.33132497280900602 0 0.065182128565432262 -0.31645584822772371 0 0.074812807141340837 -0.31104604676283398 0 0.083262669508377074 -0.33132497280900602 0 0.065182128565432262 -0.31645584822772371 0 0.055075471282406009 -0.31378085839986503 0 0.054753504115627058 -0.32844367815444342 0 0.03700711865483991 -0.32306561327806638 0 0.065182128565432262 -0.31645584822772371 0 0.055075471282406009 -0.31378085839986503 0 0.054753504115627058 -0.32844367815444342 0 0.066588490527944494 -0.34008034789185548 0 0.054753504115627058 -0.32844367815444342 0 0.049914311547512649 -0.34883572297470639 0 0.054753504115627058 -0.32844367815444342 0 0.03700711865483991 -0.32306561327806638 0 0.049914311547512649 -0.34883572297470639 0 0.066588490527944494 -0.34008034789185548 0 0.065182128565432262 -0.31645584822772371 0 0.054753504115627058 -0.32844367815444342 0 0.03700711865483991 -0.32306561327806638 0 0.049914311547512649 -0.34883572297470639 0 0.027837204624857559 -0.33652312370266119 0 0.03700711865483991 -0.32306561327806638 0 0.049914311547512649 -0.34883572297470639 0 0.059899998496519773 -0.36877284254918191 0 0.047061705663116897 -0.36484334320924799 0 0.049914311547512649 -0.34883572297470639 0 0.064120836908446929 -0.36204299246786498 0 0.059899998496519773 -0.36877284254918191 0 0.049914311547512649 -0.34883572297470639 0 0.050065234139399201 -0.37191508496589187 0 0.059899998496519773 -0.36877284254918191 0 0.047061705663116897 -0.36484334320924799 0 0.058058266623150709 -0.37997030443564622 0 0.050065234139399201 -0.37191508496589187 0 0.059899998496519773 -0.36877284254918191 0 0.067177972847296721 -0.3512665314549368 0 0.064120836908446929 -0.36204299246786498 0 0.049914311547512649 -0.34883572297470639 0 0.066588490527944494 -0.34008034789185548 0 0.049914311547512649 -0.34883572297470639 0 0.059899998496519773 -0.36877284254918191 0 0.049914311547512649 -0.34883572297470639 0 0.067177972847296721 -0.3512665314549368 0 0.066588490527944494 -0.34008034789185548 0 0.049914311547512649 -0.34883572297470639 0 0.049914311547512649 -0.34883572297470639 0 0.023114395121177141 -0.36290797929250912 0 0.025778577705062741 -0.34876084881742653 0 0.049914311547512649 -0.34883572297470639 0 0.023114395121177141 -0.36290797929250912 0 0.049914311547512649 -0.34883572297470639 0 0.035727045470275921 -0.36334024076495758 0 0.023114395121177141 -0.36290797929250912 0 0.047061705663116897 -0.36484334320924799 0 0.049914311547512649 -0.34883572297470639 0 0.035727045470275921 -0.36334024076495758 0 0.049914311547512649 -0.34883572297470639 0 0.025778577705062741 -0.34876084881742653 0 0.027837204624857559 -0.33652312370266119 0 0.047061705663116897 -0.36484334320924799 0 0.035727045470275921 -0.36334024076495758 0 0.039701938661876997 -0.37135282479150222 0 0.033767586563938017 -0.37707025265391692 0 0.039701938661876997 -0.37135282479150222 0 0.030395919182809959 -0.36895256849326452 0 0.035727045470275921 -0.36334024076495758 0 0.039701938661876997 -0.37135282479150222 0 0.030395919182809959 -0.36895256849326452 0 0.050065234139399201 -0.37191508496589187 0 0.047061705663116897 -0.36484334320924799 0 0.039701938661876997 -0.37135282479150222 0 0.042541213354167801 -0.38139169446510329 0 0.050065234139399201 -0.37191508496589187 0 0.039701938661876997 -0.37135282479150222 0 0.021202053037316738 -0.36921502641700321 0 0.017962997355180411 -0.36561290525589579 0 0.01337623534410722 -0.37174821461002339 0 0.022265364458266861 -0.37627370891826728 0 0.021202053037316738 -0.36921502641700321 0 0.01337623534410722 -0.37174821461002339 0 0.022265364458266861 -0.37627370891826728 0 0.021202053037316738 -0.36921502641700321 0 0.030395919182809959 -0.36895256849326452 0 0.033767586563938017 -0.37707025265391692 0 0.022265364458266861 -0.37627370891826728 0 0.030395919182809959 -0.36895256849326452 0 0.021202053037316738 -0.36921502641700321 0 0.030395919182809959 -0.36895256849326452 0 0.023114395121177141 -0.36290797929250912 0 0.035727045470275921 -0.36334024076495758 0 0.030395919182809959 -0.36895256849326452 0 0.023114395121177141 -0.36290797929250912 0 0.023114395121177141 -0.36290797929250912 0 0.017962997355180411 -0.36561290525589579 0 0.021202053037316738 -0.36921502641700321 0 0.023114395121177141 -0.36290797929250912 0 0.017962997355180411 -0.36561290525589579 0 0.023114395121177141 -0.36290797929250912 0 0.017962997355180411 -0.36561290525589579 0 0.0067967574488307318 -0.34683363350329471 0 0.023114395121177141 -0.36290797929250912 0 0.025778577705062741 -0.34876084881742653 0 0.01298154954374549 -0.34762313479951068 0 0.025778577705062741 -0.34876084881742653 0 0.01298154954374549 -0.34762313479951068 0 0.018286152906217139 -0.34034526179051561 0 0.023114395121177141 -0.36290797929250912 0 0.0067967574488307318 -0.34683363350329471 0 0.023114395121177141 -0.36290797929250912 0 0.01298154954374549 -0.34762313479951068 0 0.0067967574488307318 -0.34683363350329471 0 -0.0070507761596772566 -0.35767157363222069 0 0.0067967574488307318 -0.34683363350329471 0 0.0045085873892973171 -0.36702294832418081 0 0.01298154954374549 -0.34762313479951068 0 0.0067967574488307318 -0.34683363350329471 0 0.0086938004027002184 -0.33802188753053009 0 0.01298154954374549 -0.34762313479951068 0 0.0067967574488307318 -0.34683363350329471 0 0.017962997355180411 -0.36561290525589579 0 0.0067967574488307318 -0.34683363350329471 0 0.0045085873892973171 -0.36702294832418081 0 -0.006074205156008765 -0.3718711405643727 0 0.0084172819527525873 -0.37997406703238851 0 0.0045085873892973171 -0.36702294832418081 0 0.017962997355180411 -0.36561290525589579 0 0.0045085873892973171 -0.36702294832418081 0 0.01337623534410722 -0.37174821461002339 0 0.0084172819527525873 -0.37997406703238851 0 0.0045085873892973171 -0.36702294832418081 0 0.01337623534410722 -0.37174821461002339 0 0.03700711865483991 -0.32306561327806638 0 0.019091383992994589 -0.3183549814425134 0 0.027837204624857559 -0.33652312370266119 0 0.03700711865483991 -0.32306561327806638 0 0.019091383992994589 -0.3183549814425134 0 0.024099925762163899 -0.29729550358142798 0 0.019091383992994589 -0.3183549814425134 0 0.027837204624857559 -0.33652312370266119 0 0.01411935606565263 -0.33082718760474977 0 0.025778577705062741 -0.34876084881742653 0 0.027837204624857559 -0.33652312370266119 0 0.018286152906217139 -0.34034526179051561 0 0.027837204624857559 -0.33652312370266119 0 0.018286152906217139 -0.34034526179051561 0 0.01411935606565263 -0.33082718760474977 0 0.01411935606565263 -0.33082718760474977 0 0.0086938004027002184 -0.33802188753053009 0 0.0042418853049126922 -0.33021436338067178 0 0.018286152906217139 -0.34034526179051561 0 0.01411935606565263 -0.33082718760474977 0 0.0086938004027002184 -0.33802188753053009 0 0.01298154954374549 -0.34762313479951068 0 0.018286152906217139 -0.34034526179051561 0 0.0086938004027002184 -0.33802188753053009 0 -0.0042628988531581702 -0.33228774410443862 0 0.0067967574488307318 -0.34683363350329471 0 0.0086938004027002184 -0.33802188753053009 0 -0.0042628988531581702 -0.33228774410443862 0 0.0086938004027002184 -0.33802188753053009 0 0.0042418853049126922 -0.33021436338067178 0 0.01411935606565263 -0.33082718760474977 0 0.0042418853049126922 -0.33021436338067178 0 0.0037172934237153449 -0.32146348826377841 0 -0.0031298632793290261 -0.32613043934447938 0 0.0042418853049126922 -0.33021436338067178 0 0.0037172934237153449 -0.32146348826377841 0 0.019091383992994589 -0.3183549814425134 0 0.01411935606565263 -0.33082718760474977 0 0.0037172934237153449 -0.32146348826377841 0 0.019091383992994589 -0.3183549814425134 0 0.0037172934237153449 -0.32146348826377841 0 0.0045075079626795923 -0.30824275826121761 0 0.0045075079626795923 -0.30824275826121761 0 0.0016856820358308101 -0.2957047111440802 0 0.024099925762163899 -0.29729550358142798 0 0.002416987500766314 -0.28245869293965048 0 0.0016856820358308101 -0.2957047111440802 0 0.024099925762163899 -0.29729550358142798 0 0.002416987500766314 -0.28245869293965048 0 0.024099925762163899 -0.29729550358142798 0 0.01119273286948662 -0.27152539388479008 0 0.024099925762163899 -0.29729550358142798 0 0.01119273286948662 -0.27152539388479008 0 0.030699931562605171 -0.28298794553789569 0 0.024099925762163899 -0.29729550358142798 0 0.01119273286948662 -0.27152539388479008 0 0.03700711865483991 -0.32306561327806638 0 0.024099925762163899 -0.29729550358142798 0 0.019091383992994589 -0.3183549814425134 0 0.0045075079626795923 -0.30824275826121761 0 0.024099925762163899 -0.29729550358142798 0 0.03700711865483991 -0.32306561327806638 0 0.024099925762163899 -0.29729550358142798 0 0.050207130255724312 -0.29445049719100019 0 0.030699931562605171 -0.28298794553789569 0 0.050207130255724312 -0.29445049719100019 0 0.041129830951234923 -0.27713501681377412 0 0.030699931562605171 -0.28298794553789569 0 0.050207130255724312 -0.29445049719100019 0 0.030699931562605171 -0.28298794553789569 0 0.024099925762163899 -0.29729550358142798 0 0.050207130255724312 -0.29445049719100019 0 0.050207130255724312 -0.29445049719100019 0 0.055422079950039137 -0.29152403282893952 0 0.041129830951234923 -0.27713501681377412 0 0.069714328948843357 -0.30591304884410492 0 0.060233733360696512 -0.28652653459019523 0 0.055422079950039137 -0.29152403282893952 0 0.055422079950039137 -0.29152403282893952 0 0.041129830951234923 -0.27713501681377412 0 0.055422079950039137 -0.29152403282893952 0 0.053278106416891603 -0.27727635506748599 0 0.041129830951234923 -0.27713501681377412 0 0.068453105102350531 -0.28048913406633069 0 0.060233733360696512 -0.28652653459019523 0 0.053278106416891603 -0.27727635506748599 0 0.060233733360696512 -0.28652653459019523 0 0.055422079950039137 -0.29152403282893952 0 0.053278106416891603 -0.27727635506748599 0 0.069714328948843357 -0.30591304884410492 0 0.050207130255724312 -0.29445049719100019 0 0.055422079950039137 -0.29152403282893952 0 0.069714328948843357 -0.30591304884410492 0 0.050207130255724312 -0.29445049719100019 0 0.055075471282406009 -0.31378085839986503 0 0.03700711865483991 -0.32306561327806638 0 0.050207130255724312 -0.29445049719100019 0 0.069714328948843357 -0.30591304884410492 0 0.055075471282406009 -0.31378085839986503 0 0.050207130255724312 -0.29445049719100019 0 0.061594144076871332 -0.26797362548483411 0 0.049726966489851573 -0.2488499815569227 0 0.064967675558787977 -0.24867278264963649 0 0.061594144076871332 -0.26797362548483411 0 0.033220437399660477 -0.26341439201731531 0 0.049726966489851573 -0.2488499815569227 0 0.061594144076871332 -0.26797362548483411 0 0.033220437399660477 -0.26341439201731531 0 0.061594144076871332 -0.26797362548483411 0 0.053278106416891603 -0.27727635506748599 0 0.033220437399660477 -0.26341439201731531 0 0.068453105102350531 -0.28048913406633069 0 0.061594144076871332 -0.26797362548483411 0 0.053278106416891603 -0.27727635506748599 0 0.053278106416891603 -0.27727635506748599 0 0.041129830951234923 -0.27713501681377412 0 0.033220437399660477 -0.26341439201731531 0 0.030699931562605171 -0.28298794553789569 0 0.041129830951234923 -0.27713501681377412 0 0.032246673835185369 -0.27392632619374641 0 0.041129830951234923 -0.27713501681377412 0 0.032246673835185369 -0.27392632619374641 0 0.033220437399660477 -0.26341439201731531 0 0.033220437399660477 -0.26341439201731531 0 0.033825384150659853 -0.24720181495489399 0 0.049726966489851573 -0.2488499815569227 0 0.033220437399660477 -0.26341439201731531 0 0.01864698307331061 -0.2517582310591302 0 0.033825384150659853 -0.24720181495489399 0 0.033220437399660477 -0.26341439201731531 0 0.023936495427240901 -0.27216795040600072 0 0.0048467307224494601 -0.25885515854979768 0 0.033220437399660477 -0.26341439201731531 0 0.01864698307331061 -0.2517582310591302 0 0.0048467307224494601 -0.25885515854979768 0 0.033220437399660477 -0.26341439201731531 0 0.0048467307224494601 -0.25885515854979768 0 0.030699931562605171 -0.28298794553789569 0 0.023936495427240901 -0.27216795040600072 0 0.01119273286948662 -0.27152539388479008 0 0.030699931562605171 -0.28298794553789569 0 0.01119273286948662 -0.27152539388479008 0 0.030699931562605171 -0.28298794553789569 0 0.032246673835185369 -0.27392632619374641 0 0.023936495427240901 -0.27216795040600072 0 0.032246673835185369 -0.27392632619374641 0 0.033220437399660477 -0.26341439201731531 0 0.023936495427240901 -0.27216795040600072 0 0.023936495427240901 -0.27216795040600072 0 0.01119273286948662 -0.27152539388479008 0 0.0048467307224494601 -0.25885515854979768 0 0.0093691668741270745 -0.27045385512909981 0 0.01119273286948662 -0.27152539388479008 0 0.0048467307224494601 -0.25885515854979768 0 0.0093691668741270745 -0.27045385512909981 0 0.01119273286948662 -0.27152539388479008 0 0.0031689510316897989 -0.27340261691581769 0 0.0093691668741270745 -0.27045385512909981 0 0.01119273286948662 -0.27152539388479008 0 0.0093691668741270745 -0.27045385512909981 0 0.0034746900467922258 -0.26868431338715337 0 0.0019556784967545318 -0.26359056266407188 0 -0.00083297773098638193 -0.26843895633517389 0 0.0034746900467922258 -0.26868431338715337 0 0.0019556784967545318 -0.26359056266407188 0 -0.00083297773098638193 -0.26843895633517389 0 0.0034746900467922258 -0.26868431338715337 0 0.0031689510316897989 -0.27340261691581769 0 0.0093691668741270745 -0.27045385512909981 0 0.0034746900467922258 -0.26868431338715337 0 0.0031689510316897989 -0.27340261691581769 0 0.002416987500766314 -0.28245869293965048 0 0.01119273286948662 -0.27152539388479008 0 0.0031689510316897989 -0.27340261691581769 0 0.01864698307331061 -0.2517582310591302 0 0.0048467307224494601 -0.25885515854979768 0 0.00049293899552194792 -0.25016251009151491 0 0.01119273286948662 -0.27152539388479008 0 0.0048467307224494601 -0.25885515854979768 0 0.0093691668741270745 -0.27045385512909981 0 0.0048467307224494601 -0.25885515854979768 0 0.0019556784967545318 -0.26359056266407188 0 0.0048467307224494601 -0.25885515854979768 0 0.0019556784967545318 -0.26359056266407188 0 0.00079770224661259576 -0.25820453977982111 0 0.0048467307224494601 -0.25885515854979768 0 0.00079770224661259576 -0.25820453977982111 0 0.0048467307224494601 -0.25885515854979768 0 0.00049293899552194792 -0.25016251009151491 0 0.0048467307224494601 -0.25885515854979768 0 0.00079770224661259576 -0.25820453977982111 0 0.00049293899552194792 -0.25016251009151491 0 0.00049293899552194792 -0.25016251009151491 0 0.020360737402048908 -0.23873997586465409 0 0.01864698307331061 -0.2517582310591302 0 0.00049293899552194792 -0.25016251009151491 0 0.020360737402048908 -0.23873997586465409 0 0.00049293899552194792 -0.25016251009151491 0 0.0065814447112018176 -0.23125056494165791 0 0.020360737402048908 -0.23873997586465409 0 -0.00033785732622192138 -0.21724277336945 0 0.0065814447112018176 -0.23125056494165791 0 0.019530510300872689 -0.2151829643890722 0 0.0065814447112018176 -0.23125056494165791 0 0.020360737402048908 -0.23873997586465409 0 0.019530510300872689 -0.2151829643890722 0 0.020360737402048908 -0.23873997586465409 0 0.019530510300872689 -0.2151829643890722 0 0.040228535808575827 -0.22731744163779299 0 0.020360737402048908 -0.23873997586465409 0 0.040228535808575827 -0.22731744163779299 0 0.01864698307331061 -0.2517582310591302 0 0.020360737402048908 -0.23873997586465409 0 0.033825384150659853 -0.24720181495489399 0 -0.0006495613821282404 -0.19771821390074781 0 -0.0046387155639124036 -0.19264294657292649 0 0.01164811054573266 -0.1879208352776339 0 0.01164811054573266 -0.1879208352776339 0 0.019530510300872689 -0.2151829643890722 0 0.01164811054573266 -0.1879208352776339 0 0.0063785365434250729 -0.20575025647756601 0 0.019530510300872689 -0.2151829643890722 0 -0.0006495613821282404 -0.19771821390074781 0 0.01164811054573266 -0.1879208352776339 0 0.0063785365434250729 -0.20575025647756601 0 -0.0006495613821282404 -0.19771821390074781 0 0.01164811054573266 -0.1879208352776339 0 -0.00033785732622192138 -0.21724277336945 0 0.0063785365434250729 -0.20575025647756601 0 0.019530510300872689 -0.2151829643890722 0 -0.0026317519027113669 -0.2073985136837625 0 -0.0006495613821282404 -0.19771821390074781 0 0.0063785365434250729 -0.20575025647756601 0 -0.00033785732622192138 -0.21724277336945 0 -0.0026317519027113669 -0.2073985136837625 0 0.0063785365434250729 -0.20575025647756601 0 0.019530510300872689 -0.2151829643890722 0 0.031970938693073173 -0.1901747460267921 0 0.041795076853394918 -0.20853491526584869 0 0.01164811054573266 -0.1879208352776339 0 0.019530510300872689 -0.2151829643890722 0 0.031970938693073173 -0.1901747460267921 0 0.031970938693073173 -0.1901747460267921 0 0.052259786995023663 -0.19271641716050469 0 0.037992768780507537 -0.1805781832579563 0 0.031970938693073173 -0.1901747460267921 0 0.041795076853394918 -0.20853491526584869 0 0.052259786995023663 -0.19271641716050469 0 0.019530510300872689 -0.2151829643890722 0 0.041795076853394918 -0.20853491526584869 0 0.040228535808575827 -0.22731744163779299 0 0.052259786995023663 -0.19271641716050469 0 0.063485320984965982 -0.21576821273144561 0 0.060096334215102749 -0.21589490741093201 0 0.052259786995023663 -0.19271641716050469 0 0.063485320984965982 -0.21576821273144561 0 0.041795076853394918 -0.20853491526584869 0 0.060096334215102749 -0.21589490741093201 0 0.040228535808575827 -0.22731744163779299 0 0.041795076853394918 -0.20853491526584869 0 0.060096334215102749 -0.21589490741093201 0 0.052259786995023663 -0.19271641716050469 0 0.052259786995023663 -0.19271641716050469 0 0.063485320984965982 -0.21576821273144561 0 0.065437092699663024 -0.20075009088254681 0 0.052259786995023663 -0.19271641716050469 0 0.065437092699663024 -0.20075009088254681 0 0.066495335540593961 -0.18476128820643289 0 0.033825384150659853 -0.24720181495489399 0 0.040228535808575827 -0.22731744163779299 0 0.049726966489851573 -0.2488499815569227 0 0.020360737402048908 -0.23873997586465409 0 0.033825384150659853 -0.24720181495489399 0 0.040228535808575827 -0.22731744163779299 0 0.060096334215102749 -0.21589490741093201 0 0.040228535808575827 -0.22731744163779299 0 0.060096334215102749 -0.21589490741093201 0 0.040228535808575827 -0.22731744163779299 0 0.062342334791915303 -0.2305839599694853 0 0.060096334215102749 -0.21589490741093201 0 0.062342334791915303 -0.2305839599694853 0 0.063485320984965982 -0.21576821273144561 0 0.040228535808575827 -0.22731744163779299 0 0.062342334791915303 -0.2305839599694853 0 0.049726966489851573 -0.2488499815569227 0 0.062342334791915303 -0.2305839599694853 0 0.049726966489851573 -0.2488499815569227 0 0.064967675558787977 -0.24867278264963649 0 0.062342334791915303 -0.2305839599694853 0 0.064967675558787977 -0.24867278264963649 0 0.074710854974908286 -0.23882000830238631 0 0.076464077460393409 -0.25713633793455409 0 0.064967675558787977 -0.24867278264963649 0 0.074710854974908286 -0.23882000830238631 0 0.091476043835059168 -0.25387675272351812 0 0.074710854974908286 -0.23882000830238631 0 0.096595708435588123 -0.24194462696729119 0 0.074710854974908286 -0.23882000830238631 0 0.093632851697922764 -0.22978959690275699 0 0.096595708435588123 -0.24194462696729119 0 0.076464077460393409 -0.25713633793455409 0 0.091476043835059168 -0.25387675272351812 0 0.074710854974908286 -0.23882000830238631 0 0.093632851697922764 -0.22978959690275699 0 0.079020994771629272 -0.2186331105928129 0 0.094990409021317446 -0.2104603941684631 0 0.074710854974908286 -0.23882000830238631 0 0.093632851697922764 -0.22978959690275699 0 0.079020994771629272 -0.2186331105928129 0 0.074710854974908286 -0.23882000830238631 0 0.063485320984965982 -0.21576821273144561 0 0.079020994771629272 -0.2186331105928129 0 0.062342334791915303 -0.2305839599694853 0 0.074710854974908286 -0.23882000830238631 0 0.063485320984965982 -0.21576821273144561 0 0.074710854974908286 -0.23882000830238631 0 0.063485320984965982 -0.21576821273144561 0 0.063485320984965982 -0.21576821273144561 0 0.070463580045014435 -0.20957753683521871 0 0.065437092699663024 -0.20075009088254681 0 0.070463580045014435 -0.20957753683521871 0 0.065437092699663024 -0.20075009088254681 0 0.078241922565691485 -0.20642035262635849 0 0.070463580045014435 -0.20957753683521871 0 0.079020994771629272 -0.2186331105928129 0 0.078241922565691485 -0.20642035262635849 0 0.063485320984965982 -0.21576821273144561 0 0.070463580045014435 -0.20957753683521871 0 0.079020994771629272 -0.2186331105928129 0 0.065437092699663024 -0.20075009088254681 0 0.083893459359255379 -0.18917774977651861 0 0.066495335540593961 -0.18476128820643289 0 0.065437092699663024 -0.20075009088254681 0 0.083893459359255379 -0.18917774977651861 0 0.078241922565691485 -0.20642035262635849 0 0.083893459359255379 -0.18917774977651861 0 0.094990409021317446 -0.2104603941684631 0 0.1012877164601455 -0.18766665141570249 0 0.083893459359255379 -0.18917774977651861 0 0.094990409021317446 -0.2104603941684631 0 0.083893459359255379 -0.18917774977651861 0 0.078241922565691485 -0.20642035262635849 0 0.094990409021317446 -0.2104603941684631 0 0.079020994771629272 -0.2186331105928129 0 0.078241922565691485 -0.20642035262635849 0 0.094990409021317446 -0.2104603941684631 0 0.094990409021317446 -0.2104603941684631 0 0.1139326921856802 -0.2031067454439078 0 0.1093354023951852 -0.22546788466146131 0 0.094990409021317446 -0.2104603941684631 0 0.1012877164601455 -0.18766665141570249 0 0.1139326921856802 -0.2031067454439078 0 0.1139326921856802 -0.2031067454439078 0 0.1185299819761752 -0.1807456062263543 0 0.1012877164601455 -0.18766665141570249 0 0.1139326921856802 -0.2031067454439078 0 0.1185299819761752 -0.1807456062263543 0 0.1139326921856802 -0.2031067454439078 0 0.1185299819761752 -0.1807456062263543 0 0.1312340864480781 -0.200017505297447 0 0.1139326921856802 -0.2031067454439078 0 0.12417575665168271 -0.22473888130625139 0 0.1312340864480781 -0.200017505297447 0 0.1139326921856802 -0.2031067454439078 0 0.12417575665168271 -0.22473888130625139 0 0.1093354023951852 -0.22546788466146131 0 0.1139326921856802 -0.2031067454439078 0 0.1093354023951852 -0.22546788466146131 0 0.1138534256759148 -0.23674501307148341 0 0.1062823502858119 -0.23939640539959481 0 0.1093354023951852 -0.22546788466146131 0 0.12417575665168271 -0.22473888130625139 0 0.1138534256759148 -0.23674501307148341 0 0.1093354023951852 -0.22546788466146131 0 0.12417575665168271 -0.22473888130625139 0 0.1171174268552873 -0.24946025731505581 0 0.1138534256759148 -0.23674501307148341 0 0.12417575665168271 -0.22473888130625139 0 0.1171174268552873 -0.24946025731505581 0 0.12417575665168271 -0.22473888130625139 0 0.1171174268552873 -0.24946025731505581 0 0.1296663917732018 -0.23923084750425119 0 0.1171174268552873 -0.24946025731505581 0 0.1123561921916069 -0.24466163667505339 0 0.1138534256759148 -0.23674501307148341 0 0.1144240973901083 -0.25109746480042322 0 0.1171174268552873 -0.24946025731505581 0 0.1123561921916069 -0.24466163667505339 0 0.1144240973901083 -0.25109746480042322 0 0.1123561921916069 -0.24466163667505339 0 0.1094746658282473 -0.24906523608983699 0 0.1123561921916069 -0.24466163667505339 0 0.1138534256759148 -0.23674501307148341 0 0.1062823502858119 -0.23939640539959481 0 0.1123561921916069 -0.24466163667505339 0 0.1094746658282473 -0.24906523608983699 0 0.1062823502858119 -0.23939640539959481 0 0.1036914690561344 -0.25074857552317892 0 0.1062823502858119 -0.23939640539959481 0 0.096595708435588123 -0.24194462696729119 0 0.1036914690561344 -0.25074857552317892 0 0.1094746658282473 -0.24906523608983699 0 0.1062823502858119 -0.23939640539959481 0 0.091476043835059168 -0.25387675272351812 0 0.1036914690561344 -0.25074857552317892 0 0.096595708435588123 -0.24194462696729119 0 0.093632851697922764 -0.22978959690275699 0 0.1062823502858119 -0.23939640539959481 0 0.096595708435588123 -0.24194462696729119 0 0.093632851697922764 -0.22978959690275699 0 0.094990409021317446 -0.2104603941684631 0 0.1093354023951852 -0.22546788466146131 0 0.093632851697922764 -0.22978959690275699 0 0.1062823502858119 -0.23939640539959481 0 0.1093354023951852 -0.22546788466146131 0 0.10934208761843189 -0.1608504607650931 0 0.089762261869976712 -0.1490102460436247 0 0.1067659179550234 -0.14103977525987291 0 0.089762261869976712 -0.1490102460436247 0 0.087114703540876332 -0.13401927716061129 0 0.1067659179550234 -0.14103977525987291 0 0.10934208761843189 -0.1608504607650931 0 0.089762261869976712 -0.1490102460436247 0 0.1067659179550234 -0.14103977525987291 0 0.10379020406396031 -0.12890120093165669 0 0.087114703540876332 -0.13401927716061129 0 0.1067659179550234 -0.14103977525987291 0 0.087114703540876332 -0.13401927716061129 0 0.10379020406396031 -0.12890120093165669 0 0.087114703540876332 -0.13401927716061129 0 0.097910066845268762 -0.1177122255232446 0 0.1067659179550234 -0.14103977525987291 0 0.10379020406396031 -0.12890120093165669 0 0.1156372616144149 -0.13267565967874409 0 0.1067659179550234 -0.14103977525987291 0 0.1156372616144149 -0.13267565967874409 0 0.1172745543152281 -0.14588488944032471 0 0.10379020406396031 -0.12890120093165669 0 0.1156372616144149 -0.13267565967874409 0 0.111523070364218 -0.119059067035811 0 0.1156372616144149 -0.13267565967874409 0 0.12521228579641749 -0.12530429299126539 0 0.12772456155716511 -0.13602332779124751 0 0.1156372616144149 -0.13267565967874409 0 0.111523070364218 -0.119059067035811 0 0.12521228579641749 -0.12530429299126539 0 0.1156372616144149 -0.13267565967874409 0 0.1172745543152281 -0.14588488944032471 0 0.12772456155716511 -0.13602332779124751 0 0.1172745543152281 -0.14588488944032471 0 0.1231272717666702 -0.15838446700880079 0 0.12772456155716511 -0.13602332779124751 0 0.1067659179550234 -0.14103977525987291 0 0.1172745543152281 -0.14588488944032471 0 0.10934208761843189 -0.1608504607650931 0 0.1172745543152281 -0.14588488944032471 0 0.1231272717666702 -0.15838446700880079 0 0.10934208761843189 -0.1608504607650931 0 0.1231272717666702 -0.15838446700880079 0 0.1185299819761752 -0.1807456062263543 0 0.1231272717666702 -0.15838446700880079 0 0.1185299819761752 -0.1807456062263543 0 0.10934208761843189 -0.1608504607650931 0 0.1185299819761752 -0.1807456062263543 0 0.1052248345711496 -0.17427814576903361 0 0.10934208761843189 -0.1608504607650931 0 0.1012877164601455 -0.18766665141570249 0 0.1052248345711496 -0.17427814576903361 0 0.091739552229845894 -0.16784986466898441 0 0.1012877164601455 -0.18766665141570249 0 0.1185299819761752 -0.1807456062263543 0 0.1052248345711496 -0.17427814576903361 0 0.10934208761843189 -0.1608504607650931 0 0.091739552229845894 -0.16784986466898441 0 0.089762261869976712 -0.1490102460436247 0 0.1052248345711496 -0.17427814576903361 0 0.10934208761843189 -0.1608504607650931 0 0.091739552229845894 -0.16784986466898441 0 0.091739552229845894 -0.16784986466898441 0 0.083029838685285573 -0.15918110048083081 0 0.072796509697193312 -0.167895105384574 0 0.091739552229845894 -0.16784986466898441 0 0.083029838685285573 -0.15918110048083081 0 0.089762261869976712 -0.1490102460436247 0 0.083893459359255379 -0.18917774977651861 0 0.1012877164601455 -0.18766665141570249 0 0.091739552229845894 -0.16784986466898441 0 0.083893459359255379 -0.18917774977651861 0 0.072796509697193312 -0.167895105384574 0 0.083893459359255379 -0.18917774977651861 0 0.091739552229845894 -0.16784986466898441 0 0.072796509697193312 -0.167895105384574 0 0.066495335540593961 -0.18476128820643289 0 0.072796509697193312 -0.167895105384574 0 0.058089828951834448 -0.1732670778280205 0 0.083893459359255379 -0.18917774977651861 0 0.066495335540593961 -0.18476128820643289 0 0.072796509697193312 -0.167895105384574 0 0.072796509697193312 -0.167895105384574 0 0.061699560035131273 -0.14661246099262951 0 0.083029838685285573 -0.15918110048083081 0 0.072796509697193312 -0.167895105384574 0 0.075609314829460539 -0.15197356097255399 0 0.072796509697193312 -0.167895105384574 0 0.056982616108338213 -0.1518034857261108 0 0.058089828951834448 -0.1732670778280205 0 0.072796509697193312 -0.167895105384574 0 0.075609314829460539 -0.15197356097255399 0 0.061699560035131273 -0.14661246099262951 0 0.072796509697193312 -0.167895105384574 0 0.061699560035131273 -0.14661246099262951 0 0.056982616108338213 -0.1518034857261108 0 0.075609314829460539 -0.15197356097255399 0 0.070182436121521544 -0.13717003132215619 0 0.061699560035131273 -0.14661246099262951 0 0.075609314829460539 -0.15197356097255399 0 0.089762261869976712 -0.1490102460436247 0 0.070182436121521544 -0.13717003132215619 0 0.089762261869976712 -0.1490102460436247 0 0.070182436121521544 -0.13717003132215619 0 0.083029838685285573 -0.15918110048083081 0 0.075609314829460539 -0.15197356097255399 0 0.089762261869976712 -0.1490102460436247 0 0.087114703540876332 -0.13401927716061129 0 0.067463489126729351 -0.1269987790613496 0 0.082497803347222898 -0.1189327867221916 0 0.089762261869976712 -0.1490102460436247 0 0.087114703540876332 -0.13401927716061129 0 0.070182436121521544 -0.13717003132215619 0 0.087114703540876332 -0.13401927716061129 0 0.067463489126729351 -0.1269987790613496 0 0.067463489126729351 -0.1269987790613496 0 0.070182436121521544 -0.13717003132215619 0 0.050602610373067528 -0.1253298166006859 0 0.087114703540876332 -0.13401927716061129 0 0.067463489126729351 -0.1269987790613496 0 0.070182436121521544 -0.13717003132215619 0 0.050602610373067528 -0.1253298166006859 0 0.051118480812701539 -0.13859518102430279 0 0.061699560035131273 -0.14661246099262951 0 0.070182436121521544 -0.13717003132215619 0 0.050602610373067528 -0.1253298166006859 0 0.061699560035131273 -0.14661246099262951 0 0.050602610373067528 -0.1253298166006859 0 0.061699560035131273 -0.14661246099262951 0 0.070182436121521544 -0.13717003132215619 0 0.050602610373067528 -0.1253298166006859 0 0.04733372629608721 -0.13205162316502611 0 0.050602610373067528 -0.1253298166006859 0 0.051118480812701539 -0.13859518102430279 0 0.04733372629608721 -0.13205162316502611 0 0.050602610373067528 -0.1253298166006859 0 0.045823823306772933 -0.12759752071771871 0 0.051118480812701539 -0.13859518102430279 0 0.044891162792248959 -0.14083238322355329 0 0.045282289474050823 -0.13619385922317201 0 0.04733372629608721 -0.13205162316502611 0 0.051118480812701539 -0.13859518102430279 0 0.045282289474050823 -0.13619385922317201 0 0.051118480812701539 -0.13859518102430279 0 0.061699560035131273 -0.14661246099262951 0 0.052874075896733971 -0.1462903838898614 0 0.061699560035131273 -0.14661246099262951 0 0.056982616108338213 -0.1518034857261108 0 0.052874075896733971 -0.1462903838898614 0 0.056982616108338213 -0.1518034857261108 0 0.052874075896733971 -0.1462903838898614 0 0.046669547808469568 -0.1538872672046441 0 0.052874075896733971 -0.1462903838898614 0 0.046614579093409263 -0.1469119142668977 0 0.046669547808469568 -0.1538872672046441 0 0.051118480812701539 -0.13859518102430279 0 0.052874075896733971 -0.1462903838898614 0 0.048874574648773428 -0.1431574656011538 0 0.052874075896733971 -0.1462903838898614 0 0.048874574648773428 -0.1431574656011538 0 0.046614579093409263 -0.1469119142668977 0 0.051118480812701539 -0.13859518102430279 0 0.048874574648773428 -0.1431574656011538 0 0.044891162792248959 -0.14083238322355329 0 0.044891162792248959 -0.14083238322355329 0 0.046614579093409263 -0.1469119142668977 0 0.042101551869243997 -0.1442737181268986 0 0.048874574648773428 -0.1431574656011538 0 0.044891162792248959 -0.14083238322355329 0 0.046614579093409263 -0.1469119142668977 0 0.046614579093409263 -0.1469119142668977 0 0.040538471640398067 -0.14807725980750519 0 0.042101551869243997 -0.1442737181268986 0 0.040538471640398067 -0.14807725980750519 0 0.042101551869243997 -0.1442737181268986 0 0.037135078257726772 -0.14587752909443591 0 0.042101551869243997 -0.1442737181268986 0 0.038705809950942263 -0.1418547187524021 0 0.037135078257726772 -0.14587752909443591 0 0.044891162792248959 -0.14083238322355329 0 0.042101551869243997 -0.1442737181268986 0 0.038705809950942263 -0.1418547187524021 0 0.046669547808469568 -0.1538872672046441 0 0.042893919818903323 -0.15148141597411141 0 0.042747784860411323 -0.1544429269211936 0 0.046614579093409263 -0.1469119142668977 0 0.046669547808469568 -0.1538872672046441 0 0.042893919818903323 -0.15148141597411141 0 0.046614579093409263 -0.1469119142668977 0 0.040538471640398067 -0.14807725980750519 0 0.042893919818903323 -0.15148141597411141 0 0.040538471640398067 -0.14807725980750519 0 0.042893919818903323 -0.15148141597411141 0 0.037899215691828379 -0.15408771167031629 0 0.042747784860411323 -0.1544429269211936 0 0.037899215691828379 -0.15408771167031629 0 0.039397208724625543 -0.15867415089393949 0 0.046669547808469568 -0.1538872672046441 0 0.042747784860411323 -0.1544429269211936 0 0.039397208724625543 -0.15867415089393949 0 0.042893919818903323 -0.15148141597411141 0 0.042747784860411323 -0.1544429269211936 0 0.037899215691828379 -0.15408771167031629 0 0.040538471640398067 -0.14807725980750519 0 0.037899215691828379 -0.15408771167031629 0 0.034937340328295173 -0.14927609211628559 0 0.037899215691828379 -0.15408771167031629 0 0.034937340328295173 -0.14927609211628559 0 0.032621428508159647 -0.15299640184137001 0 0.034937340328295173 -0.14927609211628559 0 0.032621428508159647 -0.15299640184137001 0 0.02916742893397457 -0.1496787764963835 0 0.037899215691828379 -0.15408771167031629 0 0.032621428508159647 -0.15299640184137001 0 0.032641027641498767 -0.1578299027508073 0 0.038705809950942263 -0.1418547187524021 0 0.037135078257726772 -0.14587752909443591 0 0.03335255959408405 -0.1440405597677491 0 0.038705809950942263 -0.1418547187524021 0 0.03335255959408405 -0.1440405597677491 0 0.03531581070075588 -0.1380838809642497 0 0.040538471640398067 -0.14807725980750519 0 0.034937340328295173 -0.14927609211628559 0 0.037135078257726772 -0.14587752909443591 0 0.034937340328295173 -0.14927609211628559 0 0.037135078257726772 -0.14587752909443591 0 0.03335255959408405 -0.1440405597677491 0 0.034937340328295173 -0.14927609211628559 0 0.03335255959408405 -0.1440405597677491 0 0.02916742893397457 -0.1496787764963835 0 0.031663085182789368 -0.13314237242899299 0 0.021104041815601129 -0.129663056660798 0 0.042973782197637311 -0.1207165496170769 0 0.03531581070075588 -0.1380838809642497 0 0.031663085182789368 -0.13314237242899299 0 0.030601900566081419 -0.1397201348248201 0 0.03335255959408405 -0.1440405597677491 0 0.03531581070075588 -0.1380838809642497 0 0.030601900566081419 -0.1397201348248201 0 0.021104041815601129 -0.129663056660798 0 0.042973782197637311 -0.1207165496170769 0 0.038705809950942263 -0.1418547187524021 0 0.03531581070075588 -0.1380838809642497 0 0.040682903108919019 -0.13719801521489289 0 0.03531581070075588 -0.1380838809642497 0 0.037921084730273703 -0.132726666612941 0 0.040682903108919019 -0.13719801521489289 0 0.03531581070075588 -0.1380838809642497 0 0.031663085182789368 -0.13314237242899299 0 0.037921084730273703 -0.132726666612941 0 0.031663085182789368 -0.13314237242899299 0 0.037921084730273703 -0.132726666612941 0 0.042973782197637311 -0.1207165496170769 0 0.037921084730273703 -0.132726666612941 0 0.042385174360297401 -0.13229209348808521 0 0.042973782197637311 -0.1207165496170769 0 0.042385174360297401 -0.13229209348808521 0 0.045823823306772933 -0.12759752071771871 0 0.042973782197637311 -0.1207165496170769 0 0.04733372629608721 -0.13205162316502611 0 0.042385174360297401 -0.13229209348808521 0 0.045823823306772933 -0.12759752071771871 0 0.04733372629608721 -0.13205162316502611 0 0.042385174360297401 -0.13229209348808521 0 0.045282289474050823 -0.13619385922317201 0 0.044891162792248959 -0.14083238322355329 0 0.045282289474050823 -0.13619385922317201 0 0.040682903108919019 -0.13719801521489289 0 0.044891162792248959 -0.14083238322355329 0 0.038705809950942263 -0.1418547187524021 0 0.040682903108919019 -0.13719801521489289 0 0.037921084730273703 -0.132726666612941 0 0.042385174360297401 -0.13229209348808521 0 0.040682903108919019 -0.13719801521489289 0 0.042385174360297401 -0.13229209348808521 0 0.045282289474050823 -0.13619385922317201 0 0.040682903108919019 -0.13719801521489289 0 0.052259786995023663 -0.19271641716050469 0 0.058089828951834448 -0.1732670778280205 0 0.04103425300508131 -0.16966462158956391 0 0.052259786995023663 -0.19271641716050469 0 0.066495335540593961 -0.18476128820643289 0 0.058089828951834448 -0.1732670778280205 0 0.056982616108338213 -0.1518034857261108 0 0.058089828951834448 -0.1732670778280205 0 0.04103425300508131 -0.16966462158956391 0 0.056982616108338213 -0.1518034857261108 0 0.034315363327035428 -0.16986216050187239 0 0.04103425300508131 -0.16966462158956391 0 0.056982616108338213 -0.1518034857261108 0 0.034315363327035428 -0.16986216050187239 0 0.046669547808469568 -0.1538872672046441 0 0.039397208724625543 -0.15867415089393949 0 0.034315363327035428 -0.16986216050187239 0 0.056982616108338213 -0.1518034857261108 0 0.046669547808469568 -0.1538872672046441 0 0.034315363327035428 -0.16986216050187239 0 0.039397208724625543 -0.15867415089393949 0 0.035354131935382949 -0.16109068817167141 0 0.034315363327035428 -0.16986216050187239 0 0.037899215691828379 -0.15408771167031629 0 0.032641027641498767 -0.1578299027508073 0 0.035354131935382949 -0.16109068817167141 0 0.037899215691828379 -0.15408771167031629 0 0.039397208724625543 -0.15867415089393949 0 0.035354131935382949 -0.16109068817167141 0 0.032641027641498767 -0.1578299027508073 0 0.035354131935382949 -0.16109068817167141 0 0.031570457572521089 -0.1640796110044932 0 0.035354131935382949 -0.16109068817167141 0 0.034315363327035428 -0.16986216050187239 0 0.031570457572521089 -0.1640796110044932 0 0.052259786995023663 -0.19271641716050469 0 0.04103425300508131 -0.16966462158956391 0 0.052259786995023663 -0.19271641716050469 0 0.04103425300508131 -0.16966462158956391 0 0.037992768780507537 -0.1805781832579563 0 0.031970938693073173 -0.1901747460267921 0 0.034315363327035428 -0.16986216050187239 0 0.037992768780507537 -0.1805781832579563 0 0.034315363327035428 -0.16986216050187239 0 0.04103425300508131 -0.16966462158956391 0 0.037992768780507537 -0.1805781832579563 0 0.01164811054573266 -0.1879208352776339 0 0.031970938693073173 -0.1901747460267921 0 0.034315363327035428 -0.16986216050187239 0 0.01164811054573266 -0.1879208352776339 0 0.034315363327035428 -0.16986216050187239 0 0.01164811054573266 -0.1879208352776339 0 0.01821694889240974 -0.16784674475734901 0 0.02458787243687437 -0.17042607975291171 0 0.01164811054573266 -0.1879208352776339 0 0.034315363327035428 -0.16986216050187239 0 0.02458787243687437 -0.17042607975291171 0 0.01821694889240974 -0.16784674475734901 0 0.02458787243687437 -0.17042607975291171 0 0.02718848184667293 -0.16242104722320991 0 0.031570457572521089 -0.1640796110044932 0 0.02458787243687437 -0.17042607975291171 0 0.02718848184667293 -0.16242104722320991 0 0.034315363327035428 -0.16986216050187239 0 0.031570457572521089 -0.1640796110044932 0 0.02458787243687437 -0.17042607975291171 0 0.032641027641498767 -0.1578299027508073 0 0.031570457572521089 -0.1640796110044932 0 0.02718848184667293 -0.16242104722320991 0 0.032641027641498767 -0.1578299027508073 0 0.02718848184667293 -0.16242104722320991 0 0.027797316991411639 -0.1552432985806716 0 0.02718848184667293 -0.16242104722320991 0 0.02121051890613462 -0.15854303004438849 0 0.027797316991411639 -0.1552432985806716 0 0.01821694889240974 -0.16784674475734901 0 0.02121051890613462 -0.15854303004438849 0 0.015163361359222541 -0.15939377986986031 0 0.01821694889240974 -0.16784674475734901 0 0.02718848184667293 -0.16242104722320991 0 0.02121051890613462 -0.15854303004438849 0 0.02121051890613462 -0.15854303004438849 0 0.015163361359222541 -0.15939377986986031 0 0.01843623778538277 -0.15301068469561571 0 -0.0070525166353859027 -0.17618373527454809 0 0.0057000899391789241 -0.16734896493730381 0 0.0022978301567557458 -0.15558188278715421 0 0.0057000899391789241 -0.16734896493730381 0 0.014200008916642271 -0.14655383590079299 0 0.015163361359222541 -0.15939377986986031 0 0.0057000899391789241 -0.16734896493730381 0 0.014200008916642271 -0.14655383590079299 0 0.0057000899391789241 -0.16734896493730381 0 0.014200008916642271 -0.14655383590079299 0 0.0022978301567557458 -0.15558188278715421 0 0.0057000899391789241 -0.16734896493730381 0 0.0022978301567557458 -0.15558188278715421 0 0.01821694889240974 -0.16784674475734901 0 0.015163361359222541 -0.15939377986986031 0 0.0057000899391789241 -0.16734896493730381 0 -0.0046387155639124036 -0.19264294657292649 0 0.01164811054573266 -0.1879208352776339 0 0.0057000899391789241 -0.16734896493730381 0 0.01164811054573266 -0.1879208352776339 0 0.01821694889240974 -0.16784674475734901 0 0.0057000899391789241 -0.16734896493730381 0 -0.0046387155639124036 -0.19264294657292649 0 0.0057000899391789241 -0.16734896493730381 0 0.01164811054573266 -0.1879208352776339 0 0.0057000899391789241 -0.16734896493730381 0 0.021104041815601129 -0.129663056660798 0 0.014200008916642271 -0.14655383590079299 0 0.021104041815601129 -0.129663056660798 0 0.01752970686806082 -0.14402819166125611 0 0.014200008916642271 -0.14655383590079299 0 0.021104041815601129 -0.129663056660798 0 0.02461911167978538 -0.13885027184661461 0 0.01752970686806082 -0.14402819166125611 0 0.031663085182789368 -0.13314237242899299 0 0.021104041815601129 -0.129663056660798 0 0.02461911167978538 -0.13885027184661461 0 0.031663085182789368 -0.13314237242899299 0 0.02461911167978538 -0.13885027184661461 0 0.030601900566081419 -0.1397201348248201 0 0.02461911167978538 -0.13885027184661461 0 0.030601900566081419 -0.1397201348248201 0 0.028058935672992419 -0.14448358911649431 0 0.03335255959408405 -0.1440405597677491 0 0.030601900566081419 -0.1397201348248201 0 0.028058935672992419 -0.14448358911649431 0 0.028058935672992419 -0.14448358911649431 0 0.0258137844781871 -0.1476289214407529 0 0.02916742893397457 -0.1496787764963835 0 0.03335255959408405 -0.1440405597677491 0 0.028058935672992419 -0.14448358911649431 0 0.02916742893397457 -0.1496787764963835 0 0.028058935672992419 -0.14448358911649431 0 0.0258137844781871 -0.1476289214407529 0 0.022955017378039941 -0.1452603871224826 0 0.0258137844781871 -0.1476289214407529 0 0.023313970190227209 -0.15096237181869951 0 0.022955017378039941 -0.1452603871224826 0 0.02461911167978538 -0.13885027184661461 0 0.028058935672992419 -0.14448358911649431 0 0.022955017378039941 -0.1452603871224826 0 0.032621428508159647 -0.15299640184137001 0 0.032641027641498767 -0.1578299027508073 0 0.027797316991411639 -0.1552432985806716 0 0.032621428508159647 -0.15299640184137001 0 0.027797316991411639 -0.1552432985806716 0 0.02916742893397457 -0.1496787764963835 0 0.027797316991411639 -0.1552432985806716 0 0.02916742893397457 -0.1496787764963835 0 0.023313970190227209 -0.15096237181869951 0 0.0258137844781871 -0.1476289214407529 0 0.02916742893397457 -0.1496787764963835 0 0.023313970190227209 -0.15096237181869951 0 0.02121051890613462 -0.15854303004438849 0 0.027797316991411639 -0.1552432985806716 0 0.023313970190227209 -0.15096237181869951 0 0.015163361359222541 -0.15939377986986031 0 0.01843623778538277 -0.15301068469561571 0 0.014200008916642271 -0.14655383590079299 0 0.02121051890613462 -0.15854303004438849 0 0.023313970190227209 -0.15096237181869951 0 0.01843623778538277 -0.15301068469561571 0 0.023313970190227209 -0.15096237181869951 0 0.01843623778538277 -0.15301068469561571 0 0.019266828376504109 -0.14776758633741141 0 0.01843623778538277 -0.15301068469561571 0 0.019266828376504109 -0.14776758633741141 0 0.014200008916642271 -0.14655383590079299 0 0.02461911167978538 -0.13885027184661461 0 0.022955017378039941 -0.1452603871224826 0 0.01752970686806082 -0.14402819166125611 0 0.023313970190227209 -0.15096237181869951 0 0.022955017378039941 -0.1452603871224826 0 0.019266828376504109 -0.14776758633741141 0 0.022955017378039941 -0.1452603871224826 0 0.019266828376504109 -0.14776758633741141 0 0.01752970686806082 -0.14402819166125611 0 0.019266828376504109 -0.14776758633741141 0 0.01752970686806082 -0.14402819166125611 0 0.014200008916642271 -0.14655383590079299 0 0.01752970686806082 -0.14402819166125611 0 0.014200008916642271 -0.14655383590079299 0 -0.0024144284113497201 -0.1392840286461689 0 0.014200008916642271 -0.14655383590079299 0 0.0022978301567557458 -0.15558188278715421 0 0.014200008916642271 -0.14655383590079299 0 0.0022978301567557458 -0.15558188278715421 0 -0.0024144284113497201 -0.1392840286461689 0 0.021104041815601129 -0.129663056660798 0 0.00582690782722824 -0.127803406652089 0 -0.0024144284113497201 -0.1392840286461689 0 0.021104041815601129 -0.129663056660798 0 0.014200008916642271 -0.14655383590079299 0 -0.0024144284113497201 -0.1392840286461689 0 0.021104041815601129 -0.129663056660798 0 0.021104041815601129 -0.129663056660798 0 0.00582690782722824 -0.127803406652089 0 0.015136187477295291 -0.11924062811599111 0 -0.00085551499931944093 -0.12554303272294789 0 -0.0041070743575563878 -0.133429830209292 0 0.00582690782722824 -0.127803406652089 0 -0.00085551499931944093 -0.12554303272294789 0 0.00582690782722824 -0.127803406652089 0 0.0055281932006795821 -0.1165902836910206 0 -0.0040327225020871573 -0.11980853711188851 0 -0.00085551499931944093 -0.12554303272294789 0 0.0055281932006795821 -0.1165902836910206 0 0.0055281932006795821 -0.1165902836910206 0 0.01513991565784837 -0.1095546787293452 0 0.015136187477295291 -0.11924062811599111 0 0.00582690782722824 -0.127803406652089 0 0.0055281932006795821 -0.1165902836910206 0 0.015136187477295291 -0.11924062811599111 0 0.021104041815601129 -0.129663056660798 0 0.015136187477295291 -0.11924062811599111 0 0.028795496789239611 -0.1131844385841434 0 0.021104041815601129 -0.129663056660798 0 0.028795496789239611 -0.1131844385841434 0 0.033005113603341532 -0.1146883459874815 0 0.021104041815601129 -0.129663056660798 0 0.028795496789239611 -0.1131844385841434 0 0.01513991565784837 -0.1095546787293452 0 0.015136187477295291 -0.11924062811599111 0 0.028795496789239611 -0.1131844385841434 0 0.028795496789239611 -0.1131844385841434 0 0.033005113603341532 -0.1146883459874815 0 0.028795496789239611 -0.1131844385841434 0 0.019797717809557681 -0.096220498435651308 0 0.035059715954636909 -0.095520373032607464 0 0.01513991565784837 -0.1095546787293452 0 0.028795496789239611 -0.1131844385841434 0 0.019797717809557681 -0.096220498435651308 0 0.019797717809557681 -0.096220498435651308 0 0.0072176439397689486 -0.10191505279702941 0 0.0093783789161308376 -0.08617408675257679 0 -0.0045302970299483276 -0.096455079387621726 0 0.0072176439397689486 -0.10191505279702941 0 0.0093783789161308376 -0.08617408675257679 0 0.0055281932006795821 -0.1165902836910206 0 0.01513991565784837 -0.1095546787293452 0 0.0072176439397689486 -0.10191505279702941 0 0.01513991565784837 -0.1095546787293452 0 0.019797717809557681 -0.096220498435651308 0 0.0072176439397689486 -0.10191505279702941 0 -0.0049971017344059886 -0.1089256185876992 0 0.0055281932006795821 -0.1165902836910206 0 0.0072176439397689486 -0.10191505279702941 0 -0.0045302970299483276 -0.096455079387621726 0 0.0093783789161308376 -0.08617408675257679 0 -0.0041618443689724564 -0.075031136194595727 0 0.0093783789161308376 -0.08617408675257679 0 0.0053968919818204036 -0.06721819662794673 0 0.0093783789161308376 -0.08617408675257679 0 0.0053968919818204036 -0.06721819662794673 0 0.022393352677249592 -0.071227777897799521 0 0.022393352677249592 -0.071227777897799521 0 0.023463767750295069 -0.062678028930224866 0 0.033796646479139311 -0.069634315573699673 0 0.022393352677249592 -0.071227777897799521 0 0.033796646479139311 -0.069634315573699673 0 0.035059715954636909 -0.095520373032607464 0 0.019797717809557681 -0.096220498435651308 0 0.0093783789161308376 -0.08617408675257679 0 0.022393352677249592 -0.071227777897799521 0 0.019797717809557681 -0.096220498435651308 0 0.022393352677249592 -0.071227777897799521 0 0.035059715954636909 -0.095520373032607464 0 0.022393352677249592 -0.071227777897799521 0 0.035059715954636909 -0.095520373032607464 0 0.033796646479139311 -0.069634315573699673 0 0.043810269359822872 -0.074112064590584004 0 0.035059715954636909 -0.095520373032607464 0 0.043810269359822872 -0.074112064590584004 0 0.035059715954636909 -0.095520373032607464 0 0.043810269359822872 -0.074112064590584004 0 0.053246988006111953 -0.099725426406293435 0 0.035059715954636909 -0.095520373032607464 0 0.043810269359822872 -0.074112064590584004 0 0.043629267185614898 -0.064978811782890694 0 0.05256082276501102 -0.052703756148561362 0 0.023463767750295069 -0.062678028930224866 0 0.033796646479139311 -0.069634315573699673 0 0.038750030364977393 -0.057438001956573392 0 0.033796646479139311 -0.069634315573699673 0 0.043629267185614898 -0.064978811782890694 0 0.038750030364977393 -0.057438001956573392 0 0.033796646479139311 -0.069634315573699673 0 0.043810269359822872 -0.074112064590584004 0 0.043629267185614898 -0.064978811782890694 0 0.043810269359822872 -0.074112064590584004 0 0.065618693745920484 -0.085367605624426718 0 0.065676929222078212 -0.065484836212138089 0 0.043810269359822872 -0.074112064590584004 0 0.05256082276501102 -0.052703756148561362 0 0.043810269359822872 -0.074112064590584004 0 0.05256082276501102 -0.052703756148561362 0 0.065676929222078212 -0.065484836212138089 0 0.043810269359822872 -0.074112064590584004 0 0.053246988006111953 -0.099725426406293435 0 0.065618693745920484 -0.085367605624426718 0 0.053246988006111953 -0.099725426406293435 0 0.046192791682583403 -0.11939971226428631 0 0.070683662242852871 -0.1093809492544533 0 0.046192791682583403 -0.11939971226428631 0 0.070683662242852871 -0.1093809492544533 0 0.067463489126729351 -0.1269987790613496 0 0.047812274712582911 -0.11997828096208631 0 0.070683662242852871 -0.1093809492544533 0 0.067463489126729351 -0.1269987790613496 0 0.047812274712582911 -0.11997828096208631 0 0.067463489126729351 -0.1269987790613496 0 0.050602610373067528 -0.1253298166006859 0 0.047812274712582911 -0.11997828096208631 0 0.047812274712582911 -0.11997828096208631 0 0.046192791682583403 -0.11939971226428631 0 0.070683662242852871 -0.1093809492544533 0 0.047812274712582911 -0.11997828096208631 0 0.046192791682583403 -0.11939971226428631 0 0.050602610373067528 -0.1253298166006859 0 0.047812274712582911 -0.11997828096208631 0 0.042973782197637311 -0.1207165496170769 0 0.050602610373067528 -0.1253298166006859 0 0.047812274712582911 -0.11997828096208631 0 0.021104041815601129 -0.129663056660798 0 0.042973782197637311 -0.1207165496170769 0 0.033005113603341532 -0.1146883459874815 0 0.046192791682583403 -0.11939971226428631 0 0.033005113603341532 -0.1146883459874815 0 0.035059715954636909 -0.095520373032607464 0 0.046192791682583403 -0.11939971226428631 0 0.033005113603341532 -0.1146883459874815 0 0.042973782197637311 -0.1207165496170769 0 0.046192791682583403 -0.11939971226428631 0 0.033005113603341532 -0.1146883459874815 0 0.050602610373067528 -0.1253298166006859 0 0.045823823306772933 -0.12759752071771871 0 0.042973782197637311 -0.1207165496170769 0 0.050602610373067528 -0.1253298166006859 0 0.042973782197637311 -0.1207165496170769 0 0.047812274712582911 -0.11997828096208631 0 0.042973782197637311 -0.1207165496170769 0 0.046192791682583403 -0.11939971226428631 0 0.042973782197637311 -0.1207165496170769 0 0.046192791682583403 -0.11939971226428631 0 0.042973782197637311 -0.1207165496170769 0 0.033005113603341532 -0.1146883459874815 0 0.053246988006111953 -0.099725426406293435 0 0.046192791682583403 -0.11939971226428631 0 0.035059715954636909 -0.095520373032607464 0 0.046192791682583403 -0.11939971226428631 0 0.035059715954636909 -0.095520373032607464 0 0.028795496789239611 -0.1131844385841434 0 0.035059715954636909 -0.095520373032607464 0 0.028795496789239611 -0.1131844385841434 0 0.033005113603341532 -0.1146883459874815 0 0.035059715954636909 -0.095520373032607464 0 0.019656681405177651 0.0005691286581931132 0 0.026970948177684671 -0.010089163115013769 0 0.041622505889894648 -0.012577864945681441 0 0.019656681405177651 0.0005691286581931132 0 0.041622505889894648 -0.012577864945681441 0 0.015005884870503319 -0.0078151775690132319 0 0.031598720545163057 -0.020532738603553511 0 0.026970948177684671 -0.010089163115013769 0 0.015005884870503319 -0.0078151775690132319 0 0.031598720545163057 -0.020532738603553511 0 0.015005884870503319 -0.0078151775690132319 0 0.01185870958555538 -0.015877745008506059 0 0.031598720545163057 -0.020532738603553511 0 0.019656681405177651 0.0005691286581931132 0 0.026970948177684671 -0.010089163115013769 0 0.015005884870503319 -0.0078151775690132319 0 -0.00090933940267264371 -0.0086130736903058808 0 -0.001586950804156211 0.0049023834655272172 0 0.01185870958555538 -0.015877745008506059 0 -0.001586950804156211 0.0049023834655272172 0 0.01185870958555538 -0.015877745008506059 0 0.009916948469526822 0.0046729025718050448 0 0.019656681405177651 0.0005691286581931132 0 0.015005884870503319 -0.0078151775690132319 0 -0.001586950804156211 0.0049023834655272172 0 0.015005884870503319 -0.0078151775690132319 0 -0.001586950804156211 0.0049023834655272172 0 0.015005884870503319 -0.0078151775690132319 0 0.01185870958555538 -0.015877745008506059 0 -0.0029393738775248951 -0.022642587628183591 0 -0.00090933940267264371 -0.0086130736903058808 0 0.01185870958555538 -0.015877745008506059 0 -0.0029393738775248951 -0.022642587628183591 0 0.01185870958555538 -0.015877745008506059 0 0.01098767377078989 -0.030528347220555179 0 0.025304369975266739 -0.036657873482539502 0 0.036312727699373798 -0.03318931762765838 0 0.031598720545163057 -0.020532738603553511 0 0.01185870958555538 -0.015877745008506059 0 0.025304369975266739 -0.036657873482539502 0 0.031598720545163057 -0.020532738603553511 0 0.01185870958555538 -0.015877745008506059 0 0.01098767377078989 -0.030528347220555179 0 0.025304369975266739 -0.036657873482539502 0 0.01185870958555538 -0.015877745008506059 0 0.025304369975266739 -0.036657873482539502 0 0.025304369975266739 -0.036657873482539502 0 0.022026393255846651 -0.050490907872503342 0 0.028021656211272471 -0.052923729704402338 0 0.025304369975266739 -0.036657873482539502 0 0.009726989399862343 -0.046935182762991558 0 0.022026393255846651 -0.050490907872503342 0 0.01098767377078989 -0.030528347220555179 0 0.025304369975266739 -0.036657873482539502 0 0.009726989399862343 -0.046935182762991558 0 -0.0029393738775248951 -0.022642587628183591 0 0.01098767377078989 -0.030528347220555179 0 0.009726989399862343 -0.046935182762991558 0 -0.0029393738775248951 -0.022642587628183591 0 0.009726989399862343 -0.046935182762991558 0 0.0053968919818204036 -0.06721819662794673 0 0.022393352677249592 -0.071227777897799521 0 0.009726989399862343 -0.046935182762991558 0 -0.0054618806809071888 -0.058551256850748329 0 0.0053968919818204036 -0.06721819662794673 0 0.009726989399862343 -0.046935182762991558 0 0.022393352677249592 -0.071227777897799521 0 0.023463767750295069 -0.062678028930224866 0 0.009726989399862343 -0.046935182762991558 0 0.023463767750295069 -0.062678028930224866 0 0.009726989399862343 -0.046935182762991558 0 0.022026393255846651 -0.050490907872503342 0 0.022393352677249592 -0.071227777897799521 0 0.009726989399862343 -0.046935182762991558 0 0.025304369975266739 -0.036657873482539502 0 0.028021656211272471 -0.052923729704402338 0 0.038750030364977393 -0.057438001956573392 0 0.023463767750295069 -0.062678028930224866 0 0.022026393255846651 -0.050490907872503342 0 0.028021656211272471 -0.052923729704402338 0 0.023463767750295069 -0.062678028930224866 0 0.038750030364977393 -0.057438001956573392 0 0.023463767750295069 -0.062678028930224866 0 0.028021656211272471 -0.052923729704402338 0 0.038750030364977393 -0.057438001956573392 0 0.025304369975266739 -0.036657873482539502 0 0.038750030364977393 -0.057438001956573392 0 0.038750030364977393 -0.057438001956573392 0 0.05256082276501102 -0.052703756148561362 0 0.040156264057242583 -0.042316358786446698 0 0.038750030364977393 -0.057438001956573392 0 0.05256082276501102 -0.052703756148561362 0 0.043629267185614898 -0.064978811782890694 0 0.038750030364977393 -0.057438001956573392 0 0.05256082276501102 -0.052703756148561362 0 0.043629267185614898 -0.064978811782890694 0 0.038750030364977393 -0.057438001956573392 0 0.05256082276501102 -0.052703756148561362 0 0.070397113534086064 -0.046589596847777741 0 0.05256082276501102 -0.052703756148561362 0 0.048191556219822823 -0.033250299638093811 0 0.040156264057242583 -0.042316358786446698 0 0.05256082276501102 -0.052703756148561362 0 0.063588330374610799 -0.02572485854955758 0 0.05256082276501102 -0.052703756148561362 0 0.063588330374610799 -0.02572485854955758 0 0.070397113534086064 -0.046589596847777741 0 0.05256082276501102 -0.052703756148561362 0 0.048191556219822823 -0.033250299638093811 0 0.063588330374610799 -0.02572485854955758 0 0.048191556219822823 -0.033250299638093811 0 0.040156264057242583 -0.042316358786446698 0 0.036312727699373798 -0.03318931762765838 0 0.025304369975266739 -0.036657873482539502 0 0.038750030364977393 -0.057438001956573392 0 0.040156264057242583 -0.042316358786446698 0 0.025304369975266739 -0.036657873482539502 0 0.040156264057242583 -0.042316358786446698 0 0.036312727699373798 -0.03318931762765838 0 0.048191556219822823 -0.033250299638093811 0 0.031598720545163057 -0.020532738603553511 0 0.048191556219822823 -0.033250299638093811 0 0.031598720545163057 -0.020532738603553511 0 0.041622505889894648 -0.012577864945681441 0 0.048191556219822823 -0.033250299638093811 0 0.036312727699373798 -0.03318931762765838 0 0.031598720545163057 -0.020532738603553511 0 0.048191556219822823 -0.033250299638093811 0 0.041622505889894648 -0.012577864945681441 0 0.063588330374610799 -0.02572485854955758 0 0.041622505889894648 -0.012577864945681441 0 0.063588330374610799 -0.02572485854955758 0 0.057375078004098953 -0.010296143655146681 0 0.041622505889894648 -0.012577864945681441 0 0.063588330374610799 -0.02572485854955758 0 0.057375078004098953 -0.010296143655146681 0 0.047209258901309593 -0.0043892931979426864 0 0.041622505889894648 -0.012577864945681441 0 0.060213974170578471 0.0024817100691974501 0 0.057375078004098953 -0.010296143655146681 0 0.047209258901309593 -0.0043892931979426864 0 0.033788142786988572 0.001392929892674669 0 0.047209258901309593 -0.0043892931979426864 0 0.041622505889894648 -0.012577864945681441 0 0.019656681405177651 0.0005691286581931132 0 0.033788142786988572 0.001392929892674669 0 0.041622505889894648 -0.012577864945681441 0 0.026970948177684671 -0.010089163115013769 0 0.031598720545163057 -0.020532738603553511 0 0.041622505889894648 -0.012577864945681441 0 0.071573094007478549 -0.0061900617459878134 0 0.092010808278224734 -0.017587610592053621 0 0.078851409240868406 -0.022494492108647391 0 0.090390962655939322 -0.00034289475079352609 0 0.071573094007478549 -0.0061900617459878134 0 0.092010808278224734 -0.017587610592053621 0 0.057375078004098953 -0.010296143655146681 0 0.071573094007478549 -0.0061900617459878134 0 0.063588330374610799 -0.02572485854955758 0 0.060213974170578471 0.0024817100691974501 0 0.057375078004098953 -0.010296143655146681 0 0.071573094007478549 -0.0061900617459878134 0 0.071573094007478549 -0.0061900617459878134 0 0.063588330374610799 -0.02572485854955758 0 0.071573094007478549 -0.0061900617459878134 0 0.063588330374610799 -0.02572485854955758 0 0.078851409240868406 -0.022494492108647391 0 0.063588330374610799 -0.02572485854955758 0 0.078851409240868406 -0.022494492108647391 0 0.08823340430316004 -0.040475437546991268 0 0.092010808278224734 -0.017587610592053621 0 0.078851409240868406 -0.022494492108647391 0 0.08823340430316004 -0.040475437546991268 0 0.08823340430316004 -0.040475437546991268 0 0.070397113534086064 -0.046589596847777741 0 0.063588330374610799 -0.02572485854955758 0 0.08823340430316004 -0.040475437546991268 0 0.063588330374610799 -0.02572485854955758 0 0.08823340430316004 -0.040475437546991268 0 0.070397113534086064 -0.046589596847777741 0 0.070397113534086064 -0.046589596847777741 0 0.078884503092230301 -0.057834827341571741 0 0.065676929222078212 -0.065484836212138089 0 0.05256082276501102 -0.052703756148561362 0 0.070397113534086064 -0.046589596847777741 0 0.065676929222078212 -0.065484836212138089 0 0.08823340430316004 -0.040475437546991268 0 0.092846910945153183 -0.059136627752681067 0 0.078884503092230301 -0.057834827341571741 0 0.08823340430316004 -0.040475437546991268 0 0.070397113534086064 -0.046589596847777741 0 0.078884503092230301 -0.057834827341571741 0 0.092846910945153183 -0.059136627752681067 0 0.1082621547173198 -0.052463052843279838 0 0.10716270572058501 -0.074060849871586787 0 0.08823340430316004 -0.040475437546991268 0 0.092846910945153183 -0.059136627752681067 0 0.1082621547173198 -0.052463052843279838 0 0.1082621547173198 -0.052463052843279838 0 0.12829090513148009 -0.064450668139567568 0 0.1082621547173198 -0.052463052843279838 0 0.12829090513148009 -0.064450668139567568 0 0.12577667515268129 -0.045477132329646931 0 0.1078200396767541 -0.033761272007133573 0 0.12740667505034831 -0.027047106467276451 0 0.12577667515268129 -0.045477132329646931 0 0.1082621547173198 -0.052463052843279838 0 0.1078200396767541 -0.033761272007133573 0 0.12577667515268129 -0.045477132329646931 0 0.08823340430316004 -0.040475437546991268 0 0.1078200396767541 -0.033761272007133573 0 0.08823340430316004 -0.040475437546991268 0 0.1082621547173198 -0.052463052843279838 0 0.08823340430316004 -0.040475437546991268 0 0.1082621547173198 -0.052463052843279838 0 0.1078200396767541 -0.033761272007133573 0 0.092010808278224734 -0.017587610592053621 0 0.1078200396767541 -0.033761272007133573 0 0.11613906317918531 -0.016596890075001092 0 0.092010808278224734 -0.017587610592053621 0 0.08823340430316004 -0.040475437546991268 0 0.1078200396767541 -0.033761272007133573 0 0.1078200396767541 -0.033761272007133573 0 0.11613906317918531 -0.016596890075001092 0 0.12740667505034831 -0.027047106467276451 0 0.1078200396767541 -0.033761272007133573 0 0.12740667505034831 -0.027047106467276451 0 0.11613906317918531 -0.016596890075001092 0 0.1081198131278969 -0.0011898653779008181 0 0.12671729673547841 -0.003424175532665474 0 0.090390962655939322 -0.00034289475079352609 0 0.092010808278224734 -0.017587610592053621 0 0.1081198131278969 -0.0011898653779008181 0 0.092010808278224734 -0.017587610592053621 0 0.11613906317918531 -0.016596890075001092 0 0.1081198131278969 -0.0011898653779008181 0 0.082497803347222898 -0.1189327867221916 0 0.070683662242852871 -0.1093809492544533 0 0.094088392507679822 -0.099806506187785027 0 0.078486716137550247 -0.094275535742243621 0 0.070683662242852871 -0.1093809492544533 0 0.094088392507679822 -0.099806506187785027 0 0.070683662242852871 -0.1093809492544533 0 0.094088392507679822 -0.099806506187785027 0 0.087114703540876332 -0.13401927716061129 0 0.082497803347222898 -0.1189327867221916 0 0.097910066845268762 -0.1177122255232446 0 0.082497803347222898 -0.1189327867221916 0 0.094088392507679822 -0.099806506187785027 0 0.097910066845268762 -0.1177122255232446 0 0.067463489126729351 -0.1269987790613496 0 0.082497803347222898 -0.1189327867221916 0 0.070683662242852871 -0.1093809492544533 0 0.053246988006111953 -0.099725426406293435 0 0.070683662242852871 -0.1093809492544533 0 0.065618693745920484 -0.085367605624426718 0 0.078486716137550247 -0.094275535742243621 0 0.070683662242852871 -0.1093809492544533 0 0.065618693745920484 -0.085367605624426718 0 0.078486716137550247 -0.094275535742243621 0 0.065618693745920484 -0.085367605624426718 0 0.083208253951294747 -0.076211336947924049 0 0.078884503092230301 -0.057834827341571741 0 0.065676929222078212 -0.065484836212138089 0 0.083208253951294747 -0.076211336947924049 0 0.065618693745920484 -0.085367605624426718 0 0.065676929222078212 -0.065484836212138089 0 0.083208253951294747 -0.076211336947924049 0 0.092846910945153183 -0.059136627752681067 0 0.078884503092230301 -0.057834827341571741 0 0.083208253951294747 -0.076211336947924049 0 0.078486716137550247 -0.094275535742243621 0 0.083208253951294747 -0.076211336947924049 0 0.094088392507679822 -0.099806506187785027 0 0.10716270572058501 -0.074060849871586787 0 0.1174931227725067 -0.090232063121116812 0 0.094088392507679822 -0.099806506187785027 0 0.083208253951294747 -0.076211336947924049 0 0.10716270572058501 -0.074060849871586787 0 0.094088392507679822 -0.099806506187785027 0 0.092846910945153183 -0.059136627752681067 0 0.083208253951294747 -0.076211336947924049 0 0.10716270572058501 -0.074060849871586787 0 0.1082621547173198 -0.052463052843279838 0 0.10716270572058501 -0.074060849871586787 0 0.12829090513148009 -0.064450668139567568 0 0.10716270572058501 -0.074060849871586787 0 0.12346114666547631 -0.077350300296679941 0 0.12829090513148009 -0.064450668139567568 0 0.10716270572058501 -0.074060849871586787 0 0.12346114666547631 -0.077350300296679941 0 0.1174931227725067 -0.090232063121116812 0 0.12120899626370051 -0.1021976174233816 0 0.111523070364218 -0.119059067035811 0 0.13703035467396041 -0.1037576854852139 0 0.12120899626370051 -0.1021976174233816 0 0.1084447297506748 -0.1058014958582678 0 0.111523070364218 -0.119059067035811 0 0.1174931227725067 -0.090232063121116812 0 0.12120899626370051 -0.1021976174233816 0 0.13308518189463939 -0.092226160995640516 0 0.1174931227725067 -0.090232063121116812 0 0.12120899626370051 -0.1021976174233816 0 0.1084447297506748 -0.1058014958582678 0 0.094088392507679822 -0.099806506187785027 0 0.1084447297506748 -0.1058014958582678 0 0.097910066845268762 -0.1177122255232446 0 0.1174931227725067 -0.090232063121116812 0 0.094088392507679822 -0.099806506187785027 0 0.1084447297506748 -0.1058014958582678 0 0.1174931227725067 -0.090232063121116812 0 0.094088392507679822 -0.099806506187785027 0 0.1084447297506748 -0.1058014958582678 0 0.097910066845268762 -0.1177122255232446 0 0.111523070364218 -0.119059067035811 0 0.10379020406396031 -0.12890120093165669 0 0.097910066845268762 -0.1177122255232446 0 0.111523070364218 -0.119059067035811 0 0.111523070364218 -0.119059067035811 0 0.13703035467396041 -0.1037576854852139 0 0.111523070364218 -0.119059067035811 0 0.13703035467396041 -0.1037576854852139 0 0.12521228579641749 -0.12530429299126539 0 0.1467486267493458 -0.1131594803772677 0 0.12521228579641749 -0.12530429299126539 0 0.14056414602281481 -0.12736012286332679 0 0.1467486267493458 -0.1131594803772677 0 0.13703035467396041 -0.1037576854852139 0 0.12521228579641749 -0.12530429299126539 0 0.1467486267493458 -0.1131594803772677 0 0.12521228579641749 -0.12530429299126539 0 0.1467486267493458 -0.1131594803772677 0 0.14056414602281481 -0.12736012286332679 0 0.15726064358341341 -0.12567709145695749 0 0.1467486267493458 -0.1131594803772677 0 0.161668049755545 -0.113258892522382 0 0.15726064358341341 -0.12567709145695749 0 0.1467486267493458 -0.1131594803772677 0 0.1536503970273207 -0.1015970343900921 0 0.16828496770227411 -0.10101466776326989 0 0.13703035467396041 -0.1037576854852139 0 0.14593578159217341 -0.09175538923515883 0 0.1625376389837026 -0.088456303934616981 0 0.1536503970273207 -0.1015970343900921 0 0.13703035467396041 -0.1037576854852139 0 0.1625376389837026 -0.088456303934616981 0 0.1467486267493458 -0.1131594803772677 0 0.1536503970273207 -0.1015970343900921 0 0.13703035467396041 -0.1037576854852139 0 0.13703035467396041 -0.1037576854852139 0 0.1625376389837026 -0.088456303934616981 0 0.13703035467396041 -0.1037576854852139 0 0.13308518189463939 -0.092226160995640516 0 0.14593578159217341 -0.09175538923515883 0 0.12120899626370051 -0.1021976174233816 0 0.13703035467396041 -0.1037576854852139 0 0.13308518189463939 -0.092226160995640516 0 0.12346114666547631 -0.077350300296679941 0 0.1174931227725067 -0.090232063121116812 0 0.1408978530373336 -0.080657620054448625 0 0.1174931227725067 -0.090232063121116812 0 0.13308518189463939 -0.092226160995640516 0 0.1408978530373336 -0.080657620054448625 0 0.1174931227725067 -0.090232063121116812 0 0.1408978530373336 -0.080657620054448625 0 0.13308518189463939 -0.092226160995640516 0 0.14147927883082251 -0.08763056975252187 0 0.1408978530373336 -0.080657620054448625 0 0.13308518189463939 -0.092226160995640516 0 0.14593578159217341 -0.09175538923515883 0 0.14147927883082251 -0.08763056975252187 0 0.12829090513148009 -0.064450668139567568 0 0.1433880409645035 -0.063229548110219705 0 0.14831965554564039 -0.07643828343585532 0 0.12829090513148009 -0.064450668139567568 0 0.14831965554564039 -0.07643828343585532 0 0.12829090513148009 -0.064450668139567568 0 0.14831965554564039 -0.07643828343585532 0 0.1408978530373336 -0.080657620054448625 0 0.12346114666547631 -0.077350300296679941 0 0.12829090513148009 -0.064450668139567568 0 0.1408978530373336 -0.080657620054448625 0 0.14831965554564039 -0.07643828343585532 0 0.1408978530373336 -0.080657620054448625 0 0.1643025833021613 -0.07108317698778216 0 0.1408978530373336 -0.080657620054448625 0 0.1643025833021613 -0.07108317698778216 0 0.14831965554564039 -0.07643828343585532 0 0.15328983882989869 -0.066669417854526833 0 0.1643025833021613 -0.07108317698778216 0 0.1433880409645035 -0.063229548110219705 0 0.14831965554564039 -0.07643828343585532 0 0.15328983882989869 -0.066669417854526833 0 0.14593578159217341 -0.09175538923515883 0 0.1625376389837026 -0.088456303934616981 0 0.15651502873235451 -0.085441014639055318 0 0.1408978530373336 -0.080657620054448625 0 0.14804453707975149 -0.085210349190246198 0 0.1643025833021613 -0.07108317698778216 0 0.14593578159217341 -0.09175538923515883 0 0.14147927883082251 -0.08763056975252187 0 0.14804453707975149 -0.085210349190246198 0 0.14147927883082251 -0.08763056975252187 0 0.1408978530373336 -0.080657620054448625 0 0.14804453707975149 -0.085210349190246198 0 0.14593578159217341 -0.09175538923515883 0 0.14804453707975149 -0.085210349190246198 0 0.15651502873235451 -0.085441014639055318 0 0.14804453707975149 -0.085210349190246198 0 0.15651502873235451 -0.085441014639055318 0 0.1643025833021613 -0.07108317698778216 0 0.1625376389837026 -0.088456303934616981 0 0.15651502873235451 -0.085441014639055318 0 0.1651824864085209 -0.080006414108085566 0 0.15651502873235451 -0.085441014639055318 0 0.1643025833021613 -0.07108317698778216 0 0.15651502873235451 -0.085441014639055318 0 0.1651824864085209 -0.080006414108085566 0 0.1643025833021613 -0.07108317698778216 0 0.1625376389837026 -0.088456303934616981 0 0.1651824864085209 -0.080006414108085566 0 0.174141198555961 -0.079006148434725199 0 0.1625376389837026 -0.088456303934616981 0 0.17588727231211729 -0.089962318239956748 0 0.16828496770227411 -0.10101466776326989 0 0.15328983882989869 -0.066669417854526833 0 0.1643025833021613 -0.07108317698778216 0 0.1601445795923446 -0.061956571861278217 0 0.16864848728445189 -0.074995151631482987 0 0.17133968857680759 -0.068204427134914369 0 0.174141198555961 -0.079006148434725199 0 0.1651824864085209 -0.080006414108085566 0 0.16864848728445189 -0.074995151631482987 0 0.1643025833021613 -0.07108317698778216 0 0.1651824864085209 -0.080006414108085566 0 0.16864848728445189 -0.074995151631482987 0 0.174141198555961 -0.079006148434725199 0 0.16864848728445189 -0.074995151631482987 0 0.1643025833021613 -0.07108317698778216 0 0.17133968857680759 -0.068204427134914369 0 0.1643025833021613 -0.07108317698778216 0 0.1695683534065684 -0.061374728515259588 0 0.1643025833021613 -0.07108317698778216 0 0.1601445795923446 -0.061956571861278217 0 0.1695683534065684 -0.061374728515259588 0 0.1643025833021613 -0.07108317698778216 0 0.17133968857680759 -0.068204427134914369 0 0.1695683534065684 -0.061374728515259588 0 0.1643025833021613 -0.07108317698778216 0 0.17133968857680759 -0.068204427134914369 0 0.17133968857680759 -0.068204427134914369 0 0.1695683534065684 -0.061374728515259588 0 0.17133968857680759 -0.068204427134914369 0 0.18991055094391621 -0.060607430185112228 0 0.17133968857680759 -0.068204427134914369 0 0.17933193422725441 -0.07189573369141318 0 0.18991055094391621 -0.060607430185112228 0 0.17133968857680759 -0.068204427134914369 0 0.174141198555961 -0.079006148434725199 0 0.17133968857680759 -0.068204427134914369 0 0.17933193422725441 -0.07189573369141318 0 0.174141198555961 -0.079006148434725199 0 0.17933193422725441 -0.07189573369141318 0 0.174141198555961 -0.079006148434725199 0 0.1880449232934451 -0.07315492238401991 0 0.17933193422725441 -0.07189573369141318 0 0.18991055094391621 -0.060607430185112228 0 0.1880449232934451 -0.07315492238401991 0 0.17588727231211729 -0.089962318239956748 0 0.16828496770227411 -0.10101466776326989 0 0.18982130865520239 -0.088869855149272148 0 0.1625376389837026 -0.088456303934616981 0 0.174141198555961 -0.079006148434725199 0 0.1880449232934451 -0.07315492238401991 0 0.1625376389837026 -0.088456303934616981 0 0.1880449232934451 -0.07315492238401991 0 0.1625376389837026 -0.088456303934616981 0 0.17588727231211729 -0.089962318239956748 0 0.17907278581111691 -0.08511084992696645 0 0.17907278581111691 -0.08511084992696645 0 0.18982130865520239 -0.088869855149272148 0 0.1880449232934451 -0.07315492238401991 0 0.1625376389837026 -0.088456303934616981 0 0.17907278581111691 -0.08511084992696645 0 0.1880449232934451 -0.07315492238401991 0 0.17588727231211729 -0.089962318239956748 0 0.17907278581111691 -0.08511084992696645 0 0.18982130865520239 -0.088869855149272148 0 0.16828496770227411 -0.10101466776326989 0 0.18982130865520239 -0.088869855149272148 0 0.1743779609871467 -0.1131843304920328 0 0.16828496770227411 -0.10101466776326989 0 0.1876559273390149 -0.1101975483339238 0 0.16828496770227411 -0.10101466776326989 0 0.1876559273390149 -0.1101975483339238 0 0.18982130865520239 -0.088869855149272148 0 0.1743779609871467 -0.1131843304920328 0 0.1876559273390149 -0.1101975483339238 0 0.17620074764339799 -0.1283176540445497 0 0.1743779609871467 -0.1131843304920328 0 0.161668049755545 -0.113258892522382 0 0.15726064358341341 -0.12567709145695749 0 0.1743779609871467 -0.1131843304920328 0 0.15726064358341341 -0.12567709145695749 0 0.17620074764339799 -0.1283176540445497 0 0.1467486267493458 -0.1131594803772677 0 0.16828496770227411 -0.10101466776326989 0 0.1467486267493458 -0.1131594803772677 0 0.161668049755545 -0.113258892522382 0 0.16828496770227411 -0.10101466776326989 0 0.1536503970273207 -0.1015970343900921 0 0.1625376389837026 -0.088456303934616981 0 0.16828496770227411 -0.10101466776326989 0 0.1743779609871467 -0.1131843304920328 0 0.161668049755545 -0.113258892522382 0 0.16828496770227411 -0.10101466776326989 0 0.15311471459814399 0.0020652099819181628 0 0.14357274752784871 -0.007517168118714535 0 0.158599260867619 -0.01908143618380774 0 0.15311471459814399 0.0020652099819181628 0 0.158599260867619 -0.01908143618380774 0 0.14357274752784871 -0.007517168118714535 0 0.13216581858336071 -0.01498365622421538 0 0.14699331042394251 -0.02033294092741935 0 0.1394547285336902 0.010096512266777279 0 0.14357274752784871 -0.007517168118714535 0 0.12671729673547841 -0.003424175532665474 0 0.14357274752784871 -0.007517168118714535 0 0.12671729673547841 -0.003424175532665474 0 0.13216581858336071 -0.01498365622421538 0 0.11613906317918531 -0.016596890075001092 0 0.12671729673547841 -0.003424175532665474 0 0.13216581858336071 -0.01498365622421538 0 0.12740667505034831 -0.027047106467276451 0 0.14699331042394251 -0.02033294092741935 0 0.12740667505034831 -0.027047106467276451 0 0.14296346295892171 -0.029758160890626311 0 0.14699331042394251 -0.02033294092741935 0 0.13216581858336071 -0.01498365622421538 0 0.12740667505034831 -0.027047106467276451 0 0.14699331042394251 -0.02033294092741935 0 0.11613906317918531 -0.016596890075001092 0 0.13216581858336071 -0.01498365622421538 0 0.12740667505034831 -0.027047106467276451 0 0.14296346295892171 -0.029758160890626311 0 0.14699331042394251 -0.02033294092741935 0 0.15242764144669191 -0.030286698719732361 0 0.14699331042394251 -0.02033294092741935 0 0.15242764144669191 -0.030286698719732361 0 0.158599260867619 -0.01908143618380774 0 0.14357274752784871 -0.007517168118714535 0 0.14699331042394251 -0.02033294092741935 0 0.158599260867619 -0.01908143618380774 0 0.14502622491470421 -0.041365897448077067 0 0.1586885741821602 -0.052080298885642778 0 0.16408380713709389 -0.040228082349533623 0 0.15242764144669191 -0.030286698719732361 0 0.14502622491470421 -0.041365897448077067 0 0.16408380713709389 -0.040228082349533623 0 0.14296346295892171 -0.029758160890626311 0 0.15242764144669191 -0.030286698719732361 0 0.14502622491470421 -0.041365897448077067 0 0.12740667505034831 -0.027047106467276451 0 0.14296346295892171 -0.029758160890626311 0 0.14502622491470421 -0.041365897448077067 0 0.12740667505034831 -0.027047106467276451 0 0.14502622491470421 -0.041365897448077067 0 0.12577667515268129 -0.045477132329646931 0 0.14502622491470421 -0.041365897448077067 0 0.12577667515268129 -0.045477132329646931 0 0.1378540514254819 -0.053774797072547113 0 0.12829090513148009 -0.064450668139567568 0 0.12577667515268129 -0.045477132329646931 0 0.1378540514254819 -0.053774797072547113 0 0.12829090513148009 -0.064450668139567568 0 0.1433880409645035 -0.063229548110219705 0 0.1378540514254819 -0.053774797072547113 0 0.1433880409645035 -0.063229548110219705 0 0.1378540514254819 -0.053774797072547113 0 0.15013103223167479 -0.056608121401598308 0 0.14502622491470421 -0.041365897448077067 0 0.1378540514254819 -0.053774797072547113 0 0.15013103223167479 -0.056608121401598308 0 0.14502622491470421 -0.041365897448077067 0 0.15013103223167479 -0.056608121401598308 0 0.1586885741821602 -0.052080298885642778 0 0.15328983882989869 -0.066669417854526833 0 0.15013103223167479 -0.056608121401598308 0 0.1601445795923446 -0.061956571861278217 0 0.1433880409645035 -0.063229548110219705 0 0.15328983882989869 -0.066669417854526833 0 0.15013103223167479 -0.056608121401598308 0 0.1695683534065684 -0.061374728515259588 0 0.16408380713709389 -0.040228082349533623 0 0.1695683534065684 -0.061374728515259588 0 0.1813487615286353 -0.0396553061001532 0 0.16408380713709389 -0.040228082349533623 0 0.1586885741821602 -0.052080298885642778 0 0.1695683534065684 -0.061374728515259588 0 0.16408380713709389 -0.040228082349533623 0 0.1601445795923446 -0.061956571861278217 0 0.1586885741821602 -0.052080298885642778 0 0.1695683534065684 -0.061374728515259588 0 0.15013103223167479 -0.056608121401598308 0 0.1601445795923446 -0.061956571861278217 0 0.1586885741821602 -0.052080298885642778 0 0.1695683534065684 -0.061374728515259588 0 0.1805207303448321 -0.056224324015072248 0 0.1813487615286353 -0.0396553061001532 0 0.1695683534065684 -0.061374728515259588 0 0.1813487615286353 -0.0396553061001532 0 0.1805207303448321 -0.056224324015072248 0 0.1813487615286353 -0.0396553061001532 0 0.19043629726823269 -0.051279728139922667 0 0.17133968857680759 -0.068204427134914369 0 0.1695683534065684 -0.061374728515259588 0 0.1805207303448321 -0.056224324015072248 0 0.17133968857680759 -0.068204427134914369 0 0.1805207303448321 -0.056224324015072248 0 0.18991055094391621 -0.060607430185112228 0 0.1805207303448321 -0.056224324015072248 0 0.19043629726823269 -0.051279728139922667 0 0.18991055094391621 -0.060607430185112228 0 0.1813487615286353 -0.0396553061001532 0 0.16408380713709389 -0.040228082349533623 0 0.1722808823461513 -0.026817554649009399 0 0.16408380713709389 -0.040228082349533623 0 0.158599260867619 -0.01908143618380774 0 0.15242764144669191 -0.030286698719732361 0 0.16408380713709389 -0.040228082349533623 0 0.158599260867619 -0.01908143618380774 0 0.16408380713709389 -0.040228082349533623 0 0.158599260867619 -0.01908143618380774 0 0.1722808823461513 -0.026817554649009399 0 0.158599260867619 -0.01908143618380774 0 0.1722808823461513 -0.026817554649009399 0 0.1708135802984046 -0.013446239712702659 0 0.1722808823461513 -0.026817554649009399 0 0.1708135802984046 -0.013446239712702659 0 0.1931291696507029 -0.01793588368504704 0 0.1813487615286353 -0.0396553061001532 0 0.1722808823461513 -0.026817554649009399 0 0.1931291696507029 -0.01793588368504704 0 0.1813487615286353 -0.0396553061001532 0 0.1931291696507029 -0.01793588368504704 0 0.18599838952803729 -0.0048000680136285109 0 0.1708135802984046 -0.013446239712702659 0 0.1931291696507029 -0.01793588368504704 0 0.17104959496431091 3.2708918768636912e-06 0 0.18599838952803729 -0.0048000680136285109 0 0.1708135802984046 -0.013446239712702659 0 0.17104959496431091 3.2708918768636912e-06 0 0.15311471459814399 0.0020652099819181628 0 0.1708135802984046 -0.013446239712702659 0 0.15311471459814399 0.0020652099819181628 0 0.158599260867619 -0.01908143618380774 0 0.1708135802984046 -0.013446239712702659 0 0.21319980087819551 0.0076296788402828719 0 0.2118114652171427 -0.01144829621321489 0 0.22251789875973821 -0.0009434813539314263 0 0.21319980087819551 0.0076296788402828719 0 0.2118114652171427 -0.01144829621321489 0 0.1995975287372618 -0.0032828171976979118 0 0.2118114652171427 -0.01144829621321489 0 0.1995975287372618 -0.0032828171976979118 0 0.1931291696507029 -0.01793588368504704 0 0.18599838952803729 -0.0048000680136285109 0 0.1995975287372618 -0.0032828171976979118 0 0.1931291696507029 -0.01793588368504704 0 0.1931291696507029 -0.01793588368504704 0 0.2114609646308252 -0.02780958387615819 0 0.19998801705574609 -0.044264026903795058 0 0.2118114652171427 -0.01144829621321489 0 0.2114609646308252 -0.02780958387615819 0 0.22830089932546571 -0.022107615314165011 0 0.2118114652171427 -0.01144829621321489 0 0.1931291696507029 -0.01793588368504704 0 0.2114609646308252 -0.02780958387615819 0 0.2114609646308252 -0.02780958387615819 0 0.19998801705574609 -0.044264026903795058 0 0.22407527190506871 -0.043292097264568917 0 0.1813487615286353 -0.0396553061001532 0 0.1931291696507029 -0.01793588368504704 0 0.19998801705574609 -0.044264026903795058 0 0.1813487615286353 -0.0396553061001532 0 0.19998801705574609 -0.044264026903795058 0 0.19043629726823269 -0.051279728139922667 0 0.19998801705574609 -0.044264026903795058 0 0.19043629726823269 -0.051279728139922667 0 0.19884373918723339 -0.05693405102577162 0 0.19043629726823269 -0.051279728139922667 0 0.18991055094391621 -0.060607430185112228 0 0.19884373918723339 -0.05693405102577162 0 0.19998801705574609 -0.044264026903795058 0 0.2135522076031876 -0.05785354083342284 0 0.22407527190506871 -0.043292097264568917 0 0.19998801705574609 -0.044264026903795058 0 0.19884373918723339 -0.05693405102577162 0 0.2135522076031876 -0.05785354083342284 0 0.2440693048792196 -0.043621659509538023 0 0.22407527190506871 -0.043292097264568917 0 0.232893990561059 -0.064580229921276641 0 0.2135522076031876 -0.05785354083342284 0 0.22407527190506871 -0.043292097264568917 0 0.232893990561059 -0.064580229921276641 0 0.25115979355813689 -0.064850258293955507 0 0.2440693048792196 -0.043621659509538023 0 0.232893990561059 -0.064580229921276641 0 0.2440693048792196 -0.043621659509538023 0 0.22407527190506871 -0.043292097264568917 0 0.22830089932546571 -0.022107615314165011 0 0.2114609646308252 -0.02780958387615819 0 0.22407527190506871 -0.043292097264568917 0 0.22830089932546571 -0.022107615314165011 0 0.25004730038205031 -0.02239448951804349 0 0.2440693048792196 -0.043621659509538023 0 0.22830089932546571 -0.022107615314165011 0 0.2460242461399256 0.0072150772703729093 0 0.25849374409069992 -0.005900680933409494 0 0.23587209536315579 -0.0017034803014950709 0 0.25004730038205031 -0.02239448951804349 0 0.25849374409069992 -0.005900680933409494 0 0.23587209536315579 -0.0017034803014950709 0 0.25004730038205031 -0.02239448951804349 0 0.22830089932546571 -0.022107615314165011 0 0.23587209536315579 -0.0017034803014950709 0 0.2118114652171427 -0.01144829621321489 0 0.22830089932546571 -0.022107615314165011 0 0.22251789875973821 -0.0009434813539314263 0 0.22830089932546571 -0.022107615314165011 0 0.23587209536315579 -0.0017034803014950709 0 0.22251789875973821 -0.0009434813539314263 0 0.20321654277830159 -0.097392381687350205 0 0.2122469172437948 -0.1075272025242075 0 0.20101315516627011 -0.1173980274251491 0 0.20321654277830159 -0.097392381687350205 0 0.2122469172437948 -0.1075272025242075 0 0.21762140335226071 -0.09195812278490606 0 0.2122469172437948 -0.1075272025242075 0 0.21762140335226071 -0.09195812278490606 0 0.22438602960451501 -0.099897802666270005 0 0.20101315516627011 -0.1173980274251491 0 0.21909544879483259 -0.1180612872230366 0 0.2074410870739726 -0.13369279721772059 0 0.2122469172437948 -0.1075272025242075 0 0.20101315516627011 -0.1173980274251491 0 0.21909544879483259 -0.1180612872230366 0 0.1876559273390149 -0.1101975483339238 0 0.20101315516627011 -0.1173980274251491 0 0.17620074764339799 -0.1283176540445497 0 0.20321654277830159 -0.097392381687350205 0 0.1876559273390149 -0.1101975483339238 0 0.20101315516627011 -0.1173980274251491 0 0.20321654277830159 -0.097392381687350205 0 0.1876559273390149 -0.1101975483339238 0 0.18982130865520239 -0.088869855149272148 0 0.18982130865520239 -0.088869855149272148 0 0.1880449232934451 -0.07315492238401991 0 0.21135764960813069 -0.076725042535274388 0 0.20321654277830159 -0.097392381687350205 0 0.18982130865520239 -0.088869855149272148 0 0.21135764960813069 -0.076725042535274388 0 0.18982130865520239 -0.088869855149272148 0 0.21135764960813069 -0.076725042535274388 0 0.19884373918723339 -0.05693405102577162 0 0.2135522076031876 -0.05785354083342284 0 0.1880449232934451 -0.07315492238401991 0 0.18991055094391621 -0.060607430185112228 0 0.19884373918723339 -0.05693405102577162 0 0.1880449232934451 -0.07315492238401991 0 0.2135522076031876 -0.05785354083342284 0 0.1880449232934451 -0.07315492238401991 0 0.2135522076031876 -0.05785354083342284 0 0.1880449232934451 -0.07315492238401991 0 0.21135764960813069 -0.076725042535274388 0 0.20321654277830159 -0.097392381687350205 0 0.21135764960813069 -0.076725042535274388 0 0.21762140335226071 -0.09195812278490606 0 0.21135764960813069 -0.076725042535274388 0 0.21762140335226071 -0.09195812278490606 0 0.22755364205453649 -0.081010232288213815 0 0.21762140335226071 -0.09195812278490606 0 0.22755364205453649 -0.081010232288213815 0 0.23405453960371611 -0.093068698221299984 0 0.21135764960813069 -0.076725042535274388 0 0.22755364205453649 -0.081010232288213815 0 0.232893990561059 -0.064580229921276641 0 0.22755364205453649 -0.081010232288213815 0 0.232893990561059 -0.064580229921276641 0 0.24184062714751611 -0.078719067978312018 0 0.21135764960813069 -0.076725042535274388 0 0.232893990561059 -0.064580229921276641 0 0.2135522076031876 -0.05785354083342284 0 0.21135764960813069 -0.076725042535274388 0 0.232893990561059 -0.064580229921276641 0 0.25115979355813689 -0.064850258293955507 0 0.232893990561059 -0.064580229921276641 0 0.24184062714751611 -0.078719067978312018 0 0.25754713702488752 -0.078577877024033932 0 0.24184062714751611 -0.078719067978312018 0 0.2486579036838901 -0.091929136903625044 0 0.23405453960371611 -0.093068698221299984 0 0.24184062714751611 -0.078719067978312018 0 0.2486579036838901 -0.091929136903625044 0 0.22755364205453649 -0.081010232288213815 0 0.23405453960371611 -0.093068698221299984 0 0.24184062714751611 -0.078719067978312018 0 0.26064002380225593 -0.1064177710339146 0 0.23362125821828819 -0.10703718713466651 0 0.26064002380225593 -0.1064177710339146 0 0.2486579036838901 -0.091929136903625044 0 0.23362125821828819 -0.10703718713466651 0 0.23405453960371611 -0.093068698221299984 0 0.2486579036838901 -0.091929136903625044 0 0.23362125821828819 -0.10703718713466651 0 0.2122469172437948 -0.1075272025242075 0 0.23362125821828819 -0.10703718713466651 0 0.23405453960371611 -0.093068698221299984 0 0.23362125821828819 -0.10703718713466651 0 0.21762140335226071 -0.09195812278490606 0 0.23405453960371611 -0.093068698221299984 0 0.22438602960451501 -0.099897802666270005 0 0.2122469172437948 -0.1075272025242075 0 0.23362125821828819 -0.10703718713466651 0 0.22438602960451501 -0.099897802666270005 0 0.23405453960371611 -0.093068698221299984 0 0.23362125821828819 -0.10703718713466651 0 0.22438602960451501 -0.099897802666270005 0 0.23362125821828819 -0.10703718713466651 0 0.23302110388950639 -0.1263854660357234 0 0.23362125821828819 -0.10703718713466651 0 0.21909544879483259 -0.1180612872230366 0 0.23302110388950639 -0.1263854660357234 0 0.2122469172437948 -0.1075272025242075 0 0.23362125821828819 -0.10703718713466651 0 0.21909544879483259 -0.1180612872230366 0 0.26064002380225593 -0.1064177710339146 0 0.23362125821828819 -0.10703718713466651 0 0.24647198365887141 -0.1171192445788671 0 0.2576308175514026 -0.1290469204973482 0 0.24647198365887141 -0.1171192445788671 0 0.23302110388950639 -0.1263854660357234 0 0.23362125821828819 -0.10703718713466651 0 0.24647198365887141 -0.1171192445788671 0 0.23302110388950639 -0.1263854660357234 0 0.2576308175514026 -0.1290469204973482 0 0.23242094956072479 -0.1457337449367804 0 0.23302110388950639 -0.1263854660357234 0 0.2576308175514026 -0.1290469204973482 0 0.23242094956072479 -0.1457337449367804 0 0.2576308175514026 -0.1290469204973482 0 0.25351911100064528 -0.15563607498305279 0 0.23242094956072479 -0.1457337449367804 0 0.25351911100064528 -0.15563607498305279 0 0.23242094956072479 -0.1457337449367804 0 0.23178123831113451 -0.16635729304704261 0 0.23242094956072479 -0.1457337449367804 0 0.23178123831113451 -0.16635729304704261 0 0.23242094956072479 -0.1457337449367804 0 0.21694212552556669 -0.1459139566601779 0 0.2107287889539381 -0.16009214125568591 0 0.23242094956072479 -0.1457337449367804 0 0.2107287889539381 -0.16009214125568591 0 0.23242094956072479 -0.1457337449367804 0 0.23302110388950639 -0.1263854660357234 0 0.21694212552556669 -0.1459139566601779 0 0.21909544879483259 -0.1180612872230366 0 0.23302110388950639 -0.1263854660357234 0 0.2074410870739726 -0.13369279721772059 0 0.23302110388950639 -0.1263854660357234 0 0.2074410870739726 -0.13369279721772059 0 0.21694212552556669 -0.1459139566601779 0 0.23242094956072479 -0.1457337449367804 0 0.23302110388950639 -0.1263854660357234 0 0.2074410870739726 -0.13369279721772059 0 0.21694212552556669 -0.1459139566601779 0 0.19343833692958171 -0.1497224952649229 0 0.21694212552556669 -0.1459139566601779 0 0.19343833692958171 -0.1497224952649229 0 0.2107287889539381 -0.16009214125568591 0 0.2074410870739726 -0.13369279721772059 0 0.19343833692958171 -0.1497224952649229 0 0.17620074764339799 -0.1283176540445497 0 0.20101315516627011 -0.1173980274251491 0 0.2074410870739726 -0.13369279721772059 0 0.17620074764339799 -0.1283176540445497 0 0.18903662834715121 -0.17445053757459089 0 0.21163739338580059 -0.1815663210819502 0 0.19954035249783589 -0.200450295295971 0 0.18903662834715121 -0.17445053757459089 0 0.2107287889539381 -0.16009214125568591 0 0.19343833692958171 -0.1497224952649229 0 0.18903662834715121 -0.17445053757459089 0 0.2107287889539381 -0.16009214125568591 0 0.2107287889539381 -0.16009214125568591 0 0.21163739338580059 -0.1815663210819502 0 0.23178123831113451 -0.16635729304704261 0 0.18903662834715121 -0.17445053757459089 0 0.2107287889539381 -0.16009214125568591 0 0.21163739338580059 -0.1815663210819502 0 0.23114152706154439 -0.18698084115730471 0 0.23178123831113451 -0.16635729304704261 0 0.21163739338580059 -0.1815663210819502 0 0.23114152706154439 -0.18698084115730471 0 0.23178123831113451 -0.16635729304704261 0 0.23242094956072479 -0.1457337449367804 0 0.2107287889539381 -0.16009214125568591 0 0.23178123831113451 -0.16635729304704261 0 0.25351911100064528 -0.15563607498305279 0 0.23178123831113451 -0.16635729304704261 0 0.24938427448736231 -0.17995260973904689 0 0.23114152706154439 -0.18698084115730471 0 0.23178123831113451 -0.16635729304704261 0 0.24938427448736231 -0.17995260973904689 0 0.23114152706154439 -0.18698084115730471 0 0.24517642982242949 -0.2020165801774072 0 0.229878239510481 -0.21152423554500729 0 0.23114152706154439 -0.18698084115730471 0 0.24938427448736231 -0.17995260973904689 0 0.24517642982242949 -0.2020165801774072 0 0.24517642982242949 -0.2020165801774072 0 0.229878239510481 -0.21152423554500729 0 0.24862663255775119 -0.2275323122507785 0 0.23114152706154439 -0.18698084115730471 0 0.229878239510481 -0.21152423554500729 0 0.2163736709901018 -0.1997560813030165 0 0.21163739338580059 -0.1815663210819502 0 0.23114152706154439 -0.18698084115730471 0 0.2163736709901018 -0.1997560813030165 0 0.24815797478188861 -0.25056618779044898 0 0.24862663255775119 -0.2275323122507785 0 0.22536414078034209 -0.23725142916796921 0 0.229878239510481 -0.21152423554500729 0 0.24862663255775119 -0.2275323122507785 0 0.22536414078034209 -0.23725142916796921 0 0.229878239510481 -0.21152423554500729 0 0.22536414078034209 -0.23725142916796921 0 0.2096708424948471 -0.21825871343484929 0 0.24815797478188861 -0.25056618779044898 0 0.2292933457878962 -0.26012685453796081 0 0.22536414078034209 -0.23725142916796921 0 0.2100974428790067 -0.25463343726352 0 0.22536414078034209 -0.23725142916796921 0 0.20144202186437221 -0.236449315535148 0 0.22536414078034209 -0.23725142916796921 0 0.20144202186437221 -0.236449315535148 0 0.2096708424948471 -0.21825871343484929 0 0.20144202186437221 -0.236449315535148 0 0.18185310283637851 -0.23918154895330959 0 0.1794939687380461 -0.2220135196026379 0 0.20144202186437221 -0.236449315535148 0 0.2096708424948471 -0.21825871343484929 0 0.1794939687380461 -0.2220135196026379 0 0.2100974428790067 -0.25463343726352 0 0.19137184656311779 -0.25311596479028031 0 0.20144202186437221 -0.236449315535148 0 0.19137184656311779 -0.25311596479028031 0 0.20144202186437221 -0.236449315535148 0 0.18185310283637851 -0.23918154895330959 0 0.21163739338580059 -0.1815663210819502 0 0.2163736709901018 -0.1997560813030165 0 0.19954035249783589 -0.200450295295971 0 0.2163736709901018 -0.1997560813030165 0 0.2096708424948471 -0.21825871343484929 0 0.19954035249783589 -0.200450295295971 0 0.229878239510481 -0.21152423554500729 0 0.2163736709901018 -0.1997560813030165 0 0.2096708424948471 -0.21825871343484929 0 0.2096708424948471 -0.21825871343484929 0 0.19954035249783589 -0.200450295295971 0 0.1794939687380461 -0.2220135196026379 0 0.18903662834715121 -0.17445053757459089 0 0.19954035249783589 -0.200450295295971 0 0.17869474816105019 -0.19873010434388341 0 0.19954035249783589 -0.200450295295971 0 0.17869474816105019 -0.19873010434388341 0 0.1794939687380461 -0.2220135196026379 0 0.17869474816105019 -0.19873010434388341 0 0.1794939687380461 -0.2220135196026379 0 0.15219199679816661 -0.2143567693433398 0 0.17869474816105019 -0.19873010434388341 0 0.15219199679816661 -0.2143567693433398 0 0.1601949137465771 -0.18567706424374311 0 0.19137184656311779 -0.25311596479028031 0 0.1723859745661778 -0.25216783760487183 0 0.18185310283637851 -0.23918154895330959 0 0.18185310283637851 -0.23918154895330959 0 0.1794939687380461 -0.2220135196026379 0 0.15894120981243531 -0.2356151717126822 0 0.1794939687380461 -0.2220135196026379 0 0.15894120981243531 -0.2356151717126822 0 0.15219199679816661 -0.2143567693433398 0 0.1723859745661778 -0.25216783760487183 0 0.18185310283637851 -0.23918154895330959 0 0.15894120981243531 -0.2356151717126822 0 0.15055092948359111 -0.25493351994607383 0 0.1723859745661778 -0.25216783760487183 0 0.15894120981243531 -0.2356151717126822 0 0.15894120981243531 -0.2356151717126822 0 0.14030685955375921 -0.22847917213523691 0 0.1404132717809069 -0.24205759390449011 0 0.15055092948359111 -0.25493351994607383 0 0.15894120981243531 -0.2356151717126822 0 0.1404132717809069 -0.24205759390449011 0 0.14030685955375921 -0.22847917213523691 0 0.15219199679816661 -0.2143567693433398 0 0.1364525305061623 -0.21487576904040651 0 0.15894120981243531 -0.2356151717126822 0 0.14030685955375921 -0.22847917213523691 0 0.15219199679816661 -0.2143567693433398 0 0.12417575665168271 -0.22473888130625139 0 0.14030685955375921 -0.22847917213523691 0 0.1296663917732018 -0.23923084750425119 0 0.12417575665168271 -0.22473888130625139 0 0.14030685955375921 -0.22847917213523691 0 0.1364525305061623 -0.21487576904040651 0 0.12943740973989951 -0.25153406380662757 0 0.15055092948359111 -0.25493351994607383 0 0.1404132717809069 -0.24205759390449011 0 0.14030685955375921 -0.22847917213523691 0 0.1404132717809069 -0.24205759390449011 0 0.1296663917732018 -0.23923084750425119 0 0.12943740973989951 -0.25153406380662757 0 0.1171174268552873 -0.24946025731505581 0 0.1296663917732018 -0.23923084750425119 0 0.12943740973989951 -0.25153406380662757 0 0.1404132717809069 -0.24205759390449011 0 0.1296663917732018 -0.23923084750425119 0 0.14547835330932379 -0.19383686704329309 0 0.15219199679816661 -0.2143567693433398 0 0.1312340864480781 -0.200017505297447 0 0.15219199679816661 -0.2143567693433398 0 0.1601949137465771 -0.18567706424374311 0 0.14547835330932379 -0.19383686704329309 0 0.15219199679816661 -0.2143567693433398 0 0.1601949137465771 -0.18567706424374311 0 0.12417575665168271 -0.22473888130625139 0 0.1312340864480781 -0.200017505297447 0 0.12417575665168271 -0.22473888130625139 0 0.1364525305061623 -0.21487576904040651 0 0.1312340864480781 -0.200017505297447 0 0.15219199679816661 -0.2143567693433398 0 0.1364525305061623 -0.21487576904040651 0 0.1312340864480781 -0.200017505297447 0 0.1312340864480781 -0.200017505297447 0 0.1382924162444735 -0.1752961292886426 0 0.14547835330932379 -0.19383686704329309 0 0.1312340864480781 -0.200017505297447 0 0.1382924162444735 -0.1752961292886426 0 0.1185299819761752 -0.1807456062263543 0 0.1312340864480781 -0.200017505297447 0 0.1382924162444735 -0.1752961292886426 0 0.14547835330932379 -0.19383686704329309 0 0.1382924162444735 -0.1752961292886426 0 0.1601949137465771 -0.18567706424374311 0 0.1382924162444735 -0.1752961292886426 0 0.1530089766817268 -0.16713632648909249 0 0.1601949137465771 -0.18567706424374311 0 0.1382924162444735 -0.1752961292886426 0 0.1530089766817268 -0.16713632648909249 0 0.14535074604086901 -0.15057475327983821 0 0.1382924162444735 -0.1752961292886426 0 0.14535074604086901 -0.15057475327983821 0 0.1530089766817268 -0.16713632648909249 0 0.14535074604086901 -0.15057475327983821 0 0.16819783069498759 -0.15699735914414631 0 0.1382924162444735 -0.1752961292886426 0 0.1321694070682676 -0.14859031064560149 0 0.14535074604086901 -0.15057475327983821 0 0.1231272717666702 -0.15838446700880079 0 0.1382924162444735 -0.1752961292886426 0 0.1321694070682676 -0.14859031064560149 0 0.1231272717666702 -0.15838446700880079 0 0.1185299819761752 -0.1807456062263543 0 0.1382924162444735 -0.1752961292886426 0 0.1321694070682676 -0.14859031064560149 0 0.12772456155716511 -0.13602332779124751 0 0.14381411488140319 -0.1385323841397593 0 0.1231272717666702 -0.15838446700880079 0 0.1321694070682676 -0.14859031064560149 0 0.12772456155716511 -0.13602332779124751 0 0.1231272717666702 -0.15838446700880079 0 0.12772456155716511 -0.13602332779124751 0 0.1321694070682676 -0.14859031064560149 0 0.14381411488140319 -0.1385323841397593 0 0.14535074604086901 -0.15057475327983821 0 0.12772456155716511 -0.13602332779124751 0 0.14056414602281481 -0.12736012286332679 0 0.14381411488140319 -0.1385323841397593 0 0.12521228579641749 -0.12530429299126539 0 0.12772456155716511 -0.13602332779124751 0 0.14056414602281481 -0.12736012286332679 0 0.14056414602281481 -0.12736012286332679 0 0.14381411488140319 -0.1385323841397593 0 0.15726064358341341 -0.12567709145695749 0 0.14381411488140319 -0.1385323841397593 0 0.15726064358341341 -0.12567709145695749 0 0.15816481656881429 -0.14001984841305021 0 0.14381411488140319 -0.1385323841397593 0 0.14535074604086901 -0.15057475327983821 0 0.15816481656881429 -0.14001984841305021 0 0.14535074604086901 -0.15057475327983821 0 0.15816481656881429 -0.14001984841305021 0 0.16819783069498759 -0.15699735914414631 0 0.15816481656881429 -0.14001984841305021 0 0.17620074764339799 -0.1283176540445497 0 0.16819783069498759 -0.15699735914414631 0 0.15726064358341341 -0.12567709145695749 0 0.15816481656881429 -0.14001984841305021 0 0.17620074764339799 -0.1283176540445497 0 0.19343833692958171 -0.1497224952649229 0 0.17620074764339799 -0.1283176540445497 0 0.16819783069498759 -0.15699735914414631 0 0.17620074764339799 -0.1283176540445497 0 0.16819783069498759 -0.15699735914414631 0 0.19343833692958171 -0.1497224952649229 0 0.18903662834715121 -0.17445053757459089 0 0.16819783069498759 -0.15699735914414631 0 0.18903662834715121 -0.17445053757459089 0 0.17869474816105019 -0.19873010434388341 0 0.1601949137465771 -0.18567706424374311 0 0.18903662834715121 -0.17445053757459089 0 0.1601949137465771 -0.18567706424374311 0 0.16819783069498759 -0.15699735914414631 0 0.1530089766817268 -0.16713632648909249 0 0.1601949137465771 -0.18567706424374311 0 0.16819783069498759 -0.15699735914414631 0 0.1601949137465771 -0.18567706424374311 0 0.16819783069498759 -0.15699735914414631 0 
</DataArray>
</Points>
<Cells>
<DataArray type="UInt32" Name="connectivity" format="ascii">
0 1 2 3 4 5 6 7 8 9 10 11 12 13 14 15 16 17 18 19 20 21 22 23 24 25 26 27 28 29 30 31 32 33 34 35 36 37 38 39 40 41 42 43 44 45 46 47 48 49 50 51 52 53 54 55 56 57 58 59 60 61 62 63 64 65 66 67 68 69 70 71 72 73 74 75 76 77 78 79 80 81 82 83 84 85 86 87 88 89 90 91 92 93 94 95 96 97 98 99 100 101 102 103 104 105 106 107 108 109 110 111 112 113 114 115 116 117 118 119 120 121 122 123 124 125 126 127 128 129 130 131 132 133 134 135 136 137 138 139 140 141 142 143 144 145 146 147 148 149 150 151 152 153 154 155 156 157 158 159 160 161 162 163 164 165 166 167 168 169 170 171 172 173 174 175 176 177 178 179 180 181 182 183 184 185 186 187 188 189 190 191 192 193 194 195 196 197 198 199 200 201 202 203 204 205 206 207 208 209 210 211 212 213 214 215 216 217 218 219 220 221 222 223 224 225 226 227 228 229 230 231 232 233 234 235 236 237 238 239 240 241 242 243 244 245 246 247 248 249 250 251 252 253 254 255 256 257 258 259 260 261 262 263 264 265 266 267 268 269 270 271 272 273 274 275 276 277 278 279 280 281 282 283 284 285 286 287 288 289 290 291 292 293 294 295 296 297 298 299 300 301 302 303 304 305 306 307 308 309 310 311 312 313 314 315 316 317 318 319 320 321 322 323 324 325 326 327 328 329 330 331 332 333 334 335 336 337 338 339 340 341 342 343 344 345 346 347 348 349 350 351 352 353 354 355 356 357 358 359 360 361 362 363 364 365 366 367 368 369 370 371 372 373 374 375 376 377 378 379 380 381 382 383 384 385 386 387 388 389 390 391 392 393 394 395 396 397 398 399 400 401 402 403 404 405 406 407 408 409 410 411 412 413 414 415 416 417 418 419 420 421 422 423 424 425 426 427 428 429 430 431 432 433 434 435 436 437 438 439 440 441 442 443 444 445 446 447 448 449 450 451 452 453 454 455 456 457 458 459 460 461 462 463 464 465 466 467 468 469 470 471 472 473 474 475 476 477 478 479 480 481 482 483 484 485 486 487 488 489 490 491 492 493 494 495 496 497 498 499 500 501 502 503 504 505 506 507 508 509 510 511 512 513 514 515 516 517 518 519 520 521 522 523 524 525 526 527 528 529 530 531 532 533 534 535 536 537 538 539 540 541 542 543 544 545 546 547 548 549 550 551 552 553 554 555 556 557 558 559 560 561 562 563 564 565 566 567 568 569 570 571 572 573 574 575 576 577 578 579 580 581 582 583 584 585 586 587 588 589 590 591 592 593 594 595 596 597 598 599 600 601 602 603 604 605 606 607 608 609 610 611 612 613 614 615 616 617 618 619 620 621 622 623 624 625 626 627 628 629 630 631 632 633 634 635 636 637 638 639 640 641 642 643 644 645 646 647 648 649 650 651 652 653 654 655 656 657 658 659 660 661 662 663 664 665 666 667 668 669 670 671 672 673 674 675 676 677 678 679 680 681 682 683 684 685 686 687 688 689 690 691 692 693 694 695 696 697 698 699 700 701 702 703 704 705 706 707 708 709 710 711 712 713 714 715 716 717 718 719 720 721 722 723 724 725 726 727 728 729 730 731 732 733 734 735 736 737 738 739 740 741 742 743 744 745 746 747 748 749 750 751 752 753 754 755 756 757 758 759 760 761 762 763 764 765 766 767 768 769 770 771 772 773 774 775 776 777 778 779 780 781 782 783 784 785 786 787 788 789 790 791 792 793 794 795 796 797 798 799 800 801 802 803 804 805 806 807 808 809 810 811 812 813 814 815 816 817 818 819 820 821 822 823 824 825 826 827 828 829 830 831 832 833 834 835 836 837 838 839 840 841 842 843 844 845 846 847 848 849 850 851 852 853 854 855 856 857 858 859 860 861 862 863 864 865 866 867 868 869 870 871 872 873 874 875 876 877 878 879 880 881 882 883 884 885 886 887 888 889 890 891 892 893 894 895 896 897 898 899 900 901 902 903 904 905 906 907 908 909 910 911 912 913 914 915 916 917 918 919 920 921 922 923 924 925 926 927 928 929 930 931 932 933 934 935 936 937 938 939 940 941 942 943 944 945 946 947 948 949 950 951 952 953 954 955 956 957 958 959 960 961 962 963 964 965 966 967 968 969 970 971 972 973 974 975 976 977 978 979 980 981 982 983 984 985 986 987 988 989 990 991 992 993 994 995 996 997 998 999 1000 1001 1002 1003 1004 1005 1006 1007 1008 1009 1010 1011 1012 1013 1014 1015 1016 1017 1018 1019 1020 1021 1022 1023 1024 1025 1026 1027 1028 1029 1030 1031 1032 1033 1034 1035 1036 1037 1038 1039 1040 1041 1042 1043 1044 1045 1046 1047 1048 1049 1050 1051 1052 1053 1054 1055 1056 1057 1058 1059 1060 1061 1062 1063 1064 1065 1066 1067 1068 1069 1070 1071 1072 1073 1074 1075 1076 1077 1078 1079 1080 1081 1082 1083 1084 1085 1086 1087 1088 1089 1090 1091 1092 1093 1094 1095 1096 1097 1098 1099 1100 1101 1102 1103 1104 1105 1106 1107 1108 1109 1110 1111 1112 1113 1114 1115 1116 1117 1118 1119 1120 1121 1122 1123 1124 1125 1126 1127 1128 1129 1130 1131 1132 1133 1134 1135 1136 1137 1138 1139 1140 1141 1142 1143 1144 1145 1146 1147 1148 1149 1150 1151 1152 1153 1154 1155 1156 1157 1158 1159 1160 1161 1162 1163 1164 1165 1166 1167 1168 1169 1170 1171 1172 1173 1174 1175 1176 1177 1178 1179 1180 1181 1182 1183 1184 1185 1186 1187 1188 1189 1190 1191 1192 1193 1194 1195 1196 1197 1198 1199 1200 1201 1202 1203 1204 1205 1206 1207 1208 1209 1210 1211 1212 1213 1214 1215 1216 1217 1218 1219 1220 1221 1222 1223 1224 1225 1226 1227 1228 1229 1230 1231 1232 1233 1234 1235 1236 1237 1238 1239 1240 1241 1242 1243 1244 1245 1246 1247 1248 1249 1250 1251 1252 1253 1254 1255 1256 1257 1258 1259 1260 1261 1262 1263 1264 1265 1266 1267 1268 1269 1270 1271 1272 1273 1274 1275 1276 1277 1278 1279 1280 1281 1282 1283 1284 1285 1286 1287 1288 1289 1290 1291 1292 1293 1294 1295 1296 1297 1298 1299 1300 1301 1302 1303 1304 1305 1306 1307 1308 1309 1310 1311 1312 1313 1314 1315 1316 1317 1318 1319 1320 1321 1322 1323 1324 1325 1326 1327 1328 1329 1330 1331 1332 1333 1334 1335 1336 1337 1338 1339 1340 1341 1342 1343 1344 1345 1346 1347 1348 1349 1350 1351 1352 1353 1354 1355 1356 1357 1358 1359 1360 1361 1362 1363 1364 1365 1366 1367 1368 1369 1370 1371 1372 1373 1374 1375 1376 1377 1378 1379 1380 1381 1382 1383 1384 1385 1386 1387 1388 1389 1390 1391 1392 1393 1394 1395 1396 1397 1398 1399 1400 1401 1402 1403 1404 1405 1406 1407 1408 1409 1410 1411 1412 1413 1414 1415 1416 1417 1418 1419 1420 1421 1422 1423 1424 1425 1426 1427 1428 1429 1430 1431 1432 1433 1434 1435 1436 1437 1438 1439 1440 1441 1442 1443 1444 1445 1446 1447 1448 1449 1450 1451 1452 1453 1454 1455 1456 1457 1458 1459 1460 1461 1462 1463 1464 1465 1466 1467 1468 1469 1470 1471 1472 1473 1474 1475 1476 1477 1478 1479 1480 1481 1482 1483 1484 1485 1486 1487 1488 1489 1490 1491 1492 1493 1494 1495 1496 1497 1498 1499 1500 1501 1502 1503 1504 1505 1506 1507 1508 1509 1510 1511 1512 1513 1514 1515 1516 1517 1518 1519 1520 1521 1522 1523 1524 1525 1526 1527 1528 1529 1530 1531 1532 1533 1534 1535 1536 1537 1538 1539 1540 1541 1542 1543 1544 1545 1546 1547 1548 1549 1550 1551 1552 1553 1554 1555 1556 1557 1558 1559 1560 1561 1562 1563 1564 1565 1566 1567 1568 1569 1570 1571 1572 1573 1574 1575 1576 1577 1578 1579 1580 1581 1582 1583 1584 1585 1586 1587 1588 1589 1590 1591 1592 1593 1594 1595 1596 1597 1598 1599 1600 1601 1602 1603 1604 1605 1606 1607 1608 1609 1610 1611 1612 1613 1614 1615 1616 1617 1618 1619 1620 1621 1622 1623 1624 1625 1626 1627 1628 1629 1630 1631 1632 1633 1634 1635 1636 1637 1638 1639 1640 1641 1642 1643 1644 1645 1646 1647 1648 1649 1650 1651 1652 1653 1654 1655 1656 1657 1658 1659 1660 1661 1662 1663 1664 1665 1666 1667 1668 1669 1670 1671 1672 1673 1674 1675 1676 1677 1678 1679 1680 1681 1682 1683 1684 1685 1686 1687 1688 1689 1690 1691 1692 1693 1694 1695 1696 1697 1698 1699 1700 1701 1702 1703 1704 1705 1706 1707 1708 1709 1710 1711 1712 1713 1714 1715 1716 1717 1718 1719 1720 1721 1722 1723 1724 1725 1726 1727 1728 1729 1730 1731 1732 1733 1734 1735 1736 1737 1738 1739 1740 1741 1742 1743 1744 1745 1746 1747 1748 1749 1750 1751 1752 1753 1754 1755 1756 1757 1758 1759 1760 1761 1762 1763 1764 1765 1766 1767 1768 1769 1770 1771 1772 1773 1774 1775 1776 1777 1778 1779 1780 1781 1782 1783 1784 1785 1786 1787 1788 1789 1790 1791 1792 1793 1794 1795 1796 1797 1798 1799 1800 1801 1802 1803 1804 1805 1806 1807 1808 1809 1810 1811 1812 1813 1814 1815 1816 1817 1818 1819 1820 1821 1822 1823 1824 1825 1826 1827 1828 1829 1830 1831 1832 1833 1834 1835 1836 1837 1838 1839 1840 1841 1842 1843 1844 1845 1846 1847 1848 1849 1850 1851 1852 1853 1854 1855 1856 1857 1858 1859 1860 1861 1862 1863 1864 1865 1866 1867 1868 1869 1870 1871 1872 1873 1874 1875 1876 1877 1878 1879 1880 1881 1882 1883 1884 1885 1886 1887 1888 1889 1890 1891 1892 1893 1894 1895 1896 1897 1898 1899 1900 1901 1902 1903 1904 1905 1906 1907 1908 1909 1910 1911 1912 1913 1914 1915 1916 1917 1918 1919 1920 1921 1922 1923 1924 1925 1926 1927 1928 1929 1930 1931 1932 1933 1934 1935 1936 1937 1938 1939 1940 1941 1942 1943 1944 1945 1946 1947 1948 1949 1950 1951 1952 1953 1954 1955 1956 1957 1958 1959 1960 1961 1962 1963 1964 1965 1966 1967 1968 1969 1970 1971 1972 1973 1974 1975 1976 1977 1978 1979 1980 1981 1982 1983 1984 1985 1986 1987 1988 1989 1990 1991 1992 1993 1994 1995 1996 1997 1998 1999 2000 2001 2002 2003 2004 2005 2006 2007 2008 2009 2010 2011 2012 2013 2014 2015 2016 2017 2018 2019 2020 2021 2022 2023 2024 2025 2026 2027 2028 2029 2030 2031 2032 2033 2034 2035 2036 2037 2038 2039 2040 2041 2042 2043 2044 2045 2046 2047 2048 2049 2050 2051 2052 2053 2054 2055 2056 2057 2058 2059 2060 2061 2062 2063 2064 2065 2066 2067 2068 2069 2070 2071 2072 2073 2074 2075 2076 2077 2078 2079 2080 2081 2082 2083 2084 2085 2086 2087 2088 2089 2090 2091 2092 2093 2094 2095 2096 2097 2098 2099 2100 2101 2102 2103 2104 2105 2106 2107 2108 2109 2110 2111 2112 2113 2114 2115 2116 2117 2118 2119 2120 2121 2122 2123 2124 2125 2126 2127 2128 2129 2130 2131 2132 2133 2134 2135 2136 2137 2138 2139 2140 2141 2142 2143 2144 2145 2146 2147 2148 2149 2150 2151 2152 2153 2154 2155 2156 2157 2158 2159 2160 2161 2162 2163 2164 2165 2166 2167 2168 2169 2170 2171 2172 2173 2174 2175 2176 2177 2178 2179 2180 2181 2182 2183 2184 2185 2186 2187 2188 2189 2190 2191 2192 2193 2194 2195 2196 2197 2198 2199 2200 2201 2202 2203 2204 2205 2206 2207 2208 2209 2210 2211 2212 2213 2214 2215 2216 2217 2218 2219 2220 2221 2222 2223 2224 2225 2226 2227 2228 2229 2230 2231 2232 2233 2234 2235 2236 2237 2238 2239 2240 2241 2242 2243 2244 2245 2246 2247 2248 2249 2250 2251 2252 2253 2254 2255 2256 2257 2258 2259 2260 2261 2262 2263 2264 2265 2266 2267 2268 2269 2270 2271 2272 2273 2274 2275 2276 2277 2278 2279 2280 2281 2282 2283 2284 2285 2286 2287 2288 2289 2290 2291 2292 2293 2294 2295 2296 2297 2298 2299 2300 2301 2302 2303 2304 2305 2306 2307 2308 2309 2310 2311 2312 2313 2314 2315 2316 2317 2318 2319 2320 2321 2322 2323 2324 2325 2326 2327 2328 2329 2330 2331 2332 2333 2334 2335 2336 2337 2338 2339 2340 2341 2342 2343 2344 2345 2346 2347 2348 2349 2350 2351 2352 2353 2354 2355 2356 2357 2358 2359 2360 2361 2362 2363 2364 2365 2366 2367 2368 2369 2370 2371 2372 2373 2374 2375 2376 2377 2378 2379 2380 2381 2382 2383 2384 2385 2386 2387 2388 2389 2390 2391 2392 2393 2394 2395 2396 2397 2398 2399 2400 2401 2402 2403 2404 2405 2406 2407 2408 2409 2410 2411 2412 2413 2414 2415 2416 2417 2418 2419 2420 2421 2422 2423 2424 2425 2426 2427 2428 2429 2430 2431 2432 2433 2434 2435 2436 2437 2438 2439 2440 2441 2442 2443 2444 2445 2446 2447 2448 2449 2450 2451 2452 2453 2454 2455 2456 2457 2458 2459 2460 2461 2462 2463 2464 2465 2466 2467 2468 2469 2470 2471 2472 2473 2474 2475 2476 2477 2478 2479 2480 2481 2482 2483 2484 2485 2486 2487 2488 2489 2490 2491 2492 2493 2494 2495 2496 2497 2498 2499 2500 2501 2502 2503 2504 2505 2506 2507 2508 2509 2510 2511 2512 2513 2514 2515 2516 2517 2518 2519 2520 2521 2522 2523 2524 2525 2526 2527 2528 2529 2530 2531 2532 2533 2534 2535 2536 2537 2538 2539 2540 2541 2542 2543 2544 2545 2546 2547 2548 2549 2550 2551 2552 2553 2554 2555 2556 2557 2558 2559 2560 2561 2562 2563 2564 2565 2566 2567 2568 2569 2570 2571 2572 2573 2574 2575 2576 2577 2578 2579 2580 2581 2582 2583 2584 2585 2586 2587 2588 2589 2590 2591 2592 2593 2594 2595 2596 2597 2598 2599 2600 2601 2602 2603 2604 2605 2606 2607 2608 2609 2610 2611 2612 2613 2614 2615 2616 2617 2618 2619 2620 2621 2622 2623 2624 2625 2626 2627 2628 2629 2630 2631 2632 2633 2634 2635 2636 2637 2638 2639 2640 2641 2642 2643 2644 2645 2646 2647 2648 2649 2650 2651 2652 2653 2654 2655 2656 2657 2658 2659 2660 2661 2662 2663 2664 2665 2666 2667 2668 2669 2670 2671 2672 2673 2674 2675 2676 2677 2678 2679 2680 2681 2682 2683 2684 2685 2686 2687 2688 2689 2690 2691 2692 2693 2694 2695 2696 2697 2698 2699 2700 2701 2702 2703 2704 2705 2706 2707 2708 2709 2710 2711 2712 2713 2714 2715 2716 2717 2718 2719 2720 2721 2722 2723 2724 2725 2726 2727 2728 2729 2730 2731 2732 2733 2734 2735 2736 2737 2738 2739 2740 2741 2742 2743 2744 2745 2746 2747 2748 2749 2750 2751 2752 2753 2754 2755 2756 2757 2758 2759 2760 2761 2762 2763 2764 2765 2766 2767 2768 2769 2770 2771 2772 2773 2774 2775 2776 2777 2778 2779 2780 2781 2782 2783 2784 2785 2786 2787 2788 2789 2790 2791 2792 2793 2794 2795 2796 2797 2798 2799 2800 2801 2802 2803 2804 2805 2806 2807 2808 2809 2810 2811 2812 2813 2814 2815 2816 2817 2818 2819 2820 2821 2822 2823 2824 2825 2826 2827 2828 2829 2830 2831 2832 2833 2834 2835 2836 2837 2838 2839 2840 2841 2842 2843 2844 2845 2846 2847 2848 2849 2850 2851 2852 2853 2854 2855 2856 2857 2858 2859 2860 2861 2862 2863 2864 2865 2866 2867 2868 2869 2870 2871 2872 2873 2874 2875 2876 2877 2878 2879 2880 2881 2882 2883 2884 2885 2886 2887 2888 2889 2890 2891 2892 2893 2894 2895 2896 2897 2898 2899 2900 2901 2902 2903 2904 2905 2906 2907 2908 2909 2910 2911 2912 2913 2914 2915 2916 2917 2918 2919 2920 2921 2922 2923 2924 2925 2926 2927 2928 2929 2930 2931 2932 2933 2934 2935 2936 2937 2938 2939 2940 2941 2942 2943 2944 2945 2946 2947 2948 2949 2950 2951 2952 2953 2954 2955 2956 2957 2958 2959 2960 2961 2962 2963 2964 2965 2966 2967 2968 2969 2970 2971 2972 2973 2974 2975 2976 2977 2978 2979 2980 2981 2982 2983 2984 2985 2986 2987 2988 2989 2990 2991 2992 2993 2994 2995 2996 2997 2998 2999 3000 3001 3002 3003 3004 3005 3006 3007 3008 3009 3010 3011 3012 3013 3014 3015 3016 3017 3018 3019 3020 3021 3022 3023 3024 3025 3026 3027 3028 3029 3030 3031 3032 3033 3034 3035 3036 3037 3038 3039 3040 3041 3042 3043 3044 3045 3046 3047 3048 3049 3050 3051 3052 3053 3054 3055 3056 3057 3058 3059 3060 3061 3062 3063 3064 3065 3066 3067 3068 3069 3070 3071 3072 3073 3074 3075 3076 3077 3078 3079 3080 3081 3082 3083 3084 3085 3086 3087 3088 3089 3090 3091 3092 3093 3094 3095 3096 3097 3098 3099 3100 3101 3102 3103 3104 3105 3106 3107 3108 3109 3110 3111 3112 3113 3114 3115 3116 3117 3118 3119 3120 3121 3122 3123 3124 3125 3126 3127 3128 3129 3130 3131 3132 3133 3134 3135 3136 3137 3138 3139 3140 3141 3142 3143 3144 3145 3146 3147 3148 3149 3150 3151 3152 3153 3154 3155 3156 3157 3158 3159 3160 3161 3162 3163 3164 3165 3166 3167 3168 3169 3170 3171 3172 3173 3174 3175 3176 3177 3178 3179 3180 3181 3182 3183 3184 3185 3186 3187 3188 3189 3190 3191 3192 3193 3194 3195 3196 3197 3198 3199 3200 3201 3202 3203 3204 3205 3206 3207 3208 3209 3210 3211 3212 3213 3214 3215 3216 3217 3218 3219 3220 3221 3222 3223 3224 3225 3226 3227 3228 3229 3230 3231 3232 3233 3234 3235 3236 3237 3238 3239 3240 3241 3242 3243 3244 3245 3246 3247 3248 3249 3250 3251 3252 3253 3254 3255 3256 3257 3258 3259 3260 3261 3262 3263 3264 3265 3266 3267 3268 3269 3270 3271 3272 3273 3274 3275 3276 3277 3278 3279 3280 3281 3282 3283 3284 3285 3286 3287 3288 3289 3290 3291 3292 3293 3294 3295 3296 3297 3298 3299 3300 3301 3302 3303 3304 3305 3306 3307 3308 3309 3310 3311 3312 3313 3314 3315 3316 3317 3318 3319 3320 3321 3322 3323 3324 3325 3326 3327 3328 3329 3330 3331 3332 3333 3334 3335 3336 3337 3338 3339 3340 3341 3342 3343 3344 3345 3346 3347 3348 3349 3350 3351 3352 3353 3354 3355 3356 3357 3358 3359 3360 3361 3362 3363 3364 3365 3366 3367 3368 3369 3370 3371 3372 3373 3374 3375 3376 3377 3378 3379 3380 3381 3382 3383 3384 3385 3386 3387 3388 3389 3390 3391 3392 3393 3394 3395 3396 3397 3398 3399 3400 3401 3402 3403 3404 3405 3406 3407 3408 3409 3410 3411 3412 3413 3414 3415 3416 3417 3418 3419 3420 3421 3422 3423 3424 3425 3426 3427 3428 3429 3430 3431 3432 3433 3434 3435 3436 3437 3438 3439 3440 3441 3442 3443 3444 3445 3446 3447 3448 3449 3450 3451 3452 3453 3454 3455 3456 3457 3458 3459 3460 3461 3462 3463 3464 3465 3466 3467 3468 3469 3470 3471 3472 3473 3474 3475 3476 3477 3478 3479 3480 3481 3482 3483 3484 3485 3486 3487 3488 3489 3490 3491 3492 3493 3494 3495 3496 3497 3498 3499 3500 3501 3502 3503 3504 3505 3506 3507 3508 3509 3510 3511 3512 3513 3514 3515 3516 3517 3518 3519 3520 3521 3522 3523 3524 3525 3526 3527 3528 3529 3530 3531 3532 3533 3534 3535 3536 3537 3538 3539 3540 3541 3542 3543 3544 3545 3546 3547 3548 3549 3550 3551 3552 3553 3554 3555 3556 3557 3558 3559 3560 3561 3562 3563 3564 3565 3566 3567 3568 3569 3570 3571 3572 3573 3574 3575 3576 3577 3578 3579 3580 3581 3582 3583 3584 3585 3586 3587 3588 3589 3590 3591 3592 3593 3594 3595 3596 3597 3598 3599 3600 3601 3602 3603 3604 3605 3606 3607 3608 3609 3610 3611 3612 3613 3614 3615 3616 3617 3618 3619 3620 3621 3622 3623 3624 3625 3626 3627 3628 3629 3630 3631 3632 3633 3634 3635 3636 3637 3638 3639 3640 3641 3642 3643 3644 3645 3646 3647 3648 3649 3650 3651 3652 3653 3654 3655 3656 3657 3658 3659 3660 3661 3662 3663 3664 3665 3666 3667 3668 3669 3670 3671 3672 3673 3674 3675 3676 3677 3678 3679 3680 3681 3682 3683 3684 3685 3686 3687 3688 3689 3690 3691 3692 3693 3694 3695 3696 3697 3698 3699 3700 3701 3702 3703 3704 3705 3706 3707 3708 3709 3710 3711 3712 3713 3714 3715 3716 3717 3718 3719 3720 3721 3722 3723 3724 3725 3726 3727 3728 3729 3730 3731 3732 3733 3734 3735 3736 3737 3738 3739 3740 3741 3742 3743 3744 3745 3746 3747 3748 3749 3750 3751 3752 3753 3754 3755 3756 3757 3758 3759 3760 3761 3762 3763 3764 3765 3766 3767 3768 3769 3770 3771 3772 3773 3774 3775 3776 3777 3778 3779 3780 3781 3782 3783 3784 3785 3786 3787 3788 3789 3790 3791 3792 3793 3794 3795 3796 3797 3798 3799 3800 3801 3802 3803 3804 3805 3806 3807 3808 3809 3810 3811 3812 3813 3814 3815 3816 3817 3818 3819 3820 3821 3822 3823 3824 3825 3826 3827 3828 3829 3830 3831 3832 3833 3834 3835 3836 3837 3838 3839 3840 3841 3842 3843 3844 3845 3846 3847 3848 3849 3850 3851 3852 3853 3854 3855 3856 3857 3858 3859 3860 3861 3862 3863 3864 3865 3866 3867 3868 3869 3870 3871 3872 3873 3874 3875 3876 3877 3878 3879 3880 3881 3882 3883 3884 3885 3886 3887 3888 3889 3890 3891 3892 3893 3894 3895 3896 3897 3898 3899 3900 3901 3902 3903 3904 3905 3906 3907 3908 3909 3910 3911 3912 3913 3914 3915 3916 3917 3918 3919 3920 3921 3922 3923 3924 3925 3926 3927 3928 3929 3930 3931 3932 3933 3934 3935 3936 3937 3938 3939 3940 3941 3942 3943 3944 3945 3946 3947 3948 3949 3950 3951 3952 3953 3954 3955 3956 3957 3958 3959 3960 3961 3962 3963 3964 3965 3966 3967 3968 3969 3970 3971 3972 3973 3974 3975 3976 3977 3978 3979 3980 3981 3982 3983 3984 3985 3986 3987 3988 3989 3990 3991 3992 3993 3994 3995 3996 3997 3998 3999 4000 4001 4002 4003 4004 4005 4006 4007 4008 4009 4010 4011 4012 4013 4014 4015 4016 4017 4018 4019 4020 4021 4022 4023 4024 4025 4026 4027 4028 4029 4030 4031 4032 4033 4034 4035 4036 4037 4038 4039 4040 4041 4042 4043 4044 4045 4046 4047 4048 4049 4050 4051 4052 4053 4054 4055 4056 4057 4058 4059 4060 4061 4062 4063 4064 4065 4066 4067 4068 4069 4070 4071 4072 4073 4074 4075 4076 4077 4078 4079 4080 4081 4082 4083 4084 4085 4086 4087 4088 4089 4090 4091 4092 4093 4094 4095 4096 4097 4098 4099 4100 4101 4102 4103 4104 4105 4106 4107 4108 4109 4110 4111 4112 4113 4114 4115 4116 4117 4118 4119 4120 4121 4122 4123 4124 4125 4126 4127 4128 4129 4130 4131 4132 4133 4134 4135 4136 4137 4138 4139 4140 4141 4142 4143 4144 4145 4146 4147 4148 4149 4150 4151 4152 4153 4154 4155 4156 4157 4158 4159 4160 4161 4162 4163 4164 4165 4166 4167 4168 4169 4170 4171 4172 4173 4174 4175 4176 4177 4178 4179 4180 4181 4182 4183 4184 4185 4186 4187 4188 4189 4190 4191 4192 4193 4194 4195 4196 4197 4198 4199 4200 4201 4202 4203 4204 4205 4206 4207 4208 4209 4210 4211 4212 4213 4214 4215 4216 4217 4218 4219 4220 4221 4222 4223 4224 4225 4226 4227 4228 4229 4230 4231 4232 4233 4234 4235 4236 4237 4238 4239 4240 4241 4242 4243 4244 4245 4246 4247 4248 4249 4250 4251 4252 4253 4254 4255 4256 4257 4258 4259 4260 4261 4262 4263 4264 4265 4266 4267 4268 4269 4270 4271 4272 4273 4274 4275 4276 4277 4278 4279 4280 4281 4282 4283 4284 4285 4286 4287 4288 4289 4290 4291 4292 4293 4294 4295 4296 4297 4298 4299 4300 4301 4302 4303 4304 4305 4306 4307 4308 4309 4310 4311 4312 4313 4314 4315 4316 4317 4318 4319 4320 4321 4322 4323 4324 4325 4326 4327 4328 4329 4330 4331 4332 4333 4334 4335 4336 4337 4338 4339 4340 4341 4342 4343 4344 4345 4346 4347 4348 4349 4350 4351 4352 4353 4354 4355 4356 4357 4358 4359 4360 4361 4362 4363 4364 4365 4366 4367 4368 4369 4370 4371 4372 4373 4374 4375 4376 4377 4378 4379 4380 4381 4382 4383 4384 4385 4386 4387 4388 4389 4390 4391 4392 4393 4394 4395 4396 4397 4398 4399 4400 4401 4402 4403 4404 4405 4406 4407 4408 4409 4410 4411 4412 4413 4414 4415 4416 4417 4418 4419 4420 4421 4422 4423 4424 4425 4426 4427 4428 4429 4430 4431 4432 4433 4434 4435 4436 4437 4438 4439 4440 4441 4442 4443 4444 4445 4446 4447 4448 4449 4450 4451 4452 4453 4454 4455 4456 4457 4458 4459 4460 4461 4462 4463 4464 4465 4466 4467 4468 4469 4470 4471 4472 4473 4474 4475 4476 4477 4478 4479 4480 4481 4482 4483 4484 4485 4486 4487 4488 4489 4490 4491 4492 4493 4494 4495 4496 4497 4498 4499 4500 4501 4502 4503 4504 4505 4506 4507 4508 4509 4510 4511 4512 4513 4514 4515 4516 4517 4518 4519 4520 4521 4522 4523 4524 4525 4526 4527 4528 4529 4530 4531 4532 4533 4534 4535 4536 4537 4538 4539 4540 4541 4542 4543 4544 4545 4546 4547 4548 4549 4550 4551 4552 4553 4554 4555 4556 4557 4558 4559 4560 4561 4562 4563 4564 4565 4566 4567 4568 4569 4570 4571 4572 4573 4574 4575 4576 4577 4578 4579 4580 4581 4582 4583 4584 4585 4586 4587 4588 4589 4590 4591 4592 4593 4594 4595 4596 4597 4598 4599 4600 4601 4602 4603 4604 4605 4606 4607 4608 4609 4610 4611 4612 4613 4614 4615 4616 4617 4618 4619 4620 4621 4622 4623 4624 4625 4626 4627 4628 4629 4630 4631 4632 4633 4634 4635 4636 4637 4638 4639 4640 4641 4642 4643 4644 4645 4646 4647 4648 4649 4650 4651 4652 4653 4654 4655 4656 4657 4658 4659 4660 4661 4662 4663 4664 4665 4666 4667 4668 4669 4670 4671 4672 4673 4674 4675 4676 4677 4678 4679 4680 4681 4682 4683 4684 4685 4686 4687 4688 4689 4690 4691 4692 4693 4694 4695 4696 4697 4698 4699 4700 4701 4702 4703 4704 4705 4706 4707 4708 4709 4710 4711 4712 4713 4714 4715 4716 4717 4718 4719 4720 4721 4722 4723 4724 4725 4726 4727 4728 4729 4730 4731 4732 4733 4734 4735 4736 4737 4738 4739 4740 4741 4742 4743 4744 4745 4746 4747 4748 4749 4750 4751 4752 4753 4754 4755 4756 4757 4758 4759 4760 4761 4762 4763 4764 4765 4766 4767 4768 4769 4770 4771 4772 4773 4774 4775 4776 4777 4778 4779 4780 4781 4782 4783 4784 4785 4786 4787 4788 4789 4790 4791 4792 4793 4794 4795 4796 4797 4798 4799 4800 4801 4802 4803 4804 4805 4806 4807 4808 4809 4810 4811 4812 4813 4814 4815 4816 4817 4818 4819 4820 4821 4822 4823 4824 4825 4826 4827 4828 4829 4830 4831 4832 4833 4834 4835 4836 4837 4838 4839 4840 4841 4842 4843 4844 4845 4846 4847 4848 4849 4850 4851 4852 4853 4854 4855 4856 4857 4858 4859 4860 4861 4862 4863 4864 4865 4866 4867 4868 4869 4870 4871 4872 4873 4874 4875 4876 4877 4878 4879 4880 4881 4882 4883 4884 4885 4886 4887 4888 4889 4890 4891 4892 4893 4894 4895 4896 4897 4898 4899 4900 4901 4902 4903 4904 4905 4906 4907 4908 4909 4910 4911 4912 4913 4914 4915 4916 4917 4918 4919 4920 4921 4922 4923 4924 4925 4926 4927 4928 4929 4930 4931 4932 4933 4934 4935 4936 4937 4938 4939 4940 4941 4942 4943 4944 4945 4946 4947 4948 4949 4950 4951 4952 4953 4954 4955 4956 4957 4958 4959 4960 4961 4962 4963 4964 4965 4966 4967 4968 4969 4970 4971 4972 4973 4974 4975 4976 4977 4978 4979 4980 4981 4982 4983 4984 4985 4986 4987 4988 4989 4990 4991 4992 4993 4994 4995 4996 4997 4998 4999 5000 5001 5002 5003 5004 5005 5006 5007 5008 5009 5010 5011 5012 5013 5014 5015 5016 5017 5018 5019 5020 5021 5022 5023 5024 5025 5026 5027 5028 5029 5030 5031 5032 5033 5034 5035 5036 5037 5038 5039 5040 5041 5042 5043 5044 5045 5046 5047 5048 5049 5050 5051 5052 5053 5054 5055 5056 5057 5058 5059 5060 5061 5062 5063 5064 5065 5066 5067 5068 5069 5070 5071 5072 5073 5074 5075 5076 5077 5078 5079 5080 5081 5082 5083 5084 5085 5086 5087 5088 5089 5090 5091 5092 5093 5094 5095 5096 5097 5098 5099 5100 5101 5102 5103 5104 5105 5106 5107 5108 5109 5110 5111 5112 5113 5114 5115 5116 5117 5118 5119 5120 5121 5122 5123 5124 5125 5126 5127 5128 5129 5130 5131 5132 5133 5134 5135 5136 5137 5138 5139 5140 5141 5142 5143 5144 5145 5146 5147 5148 5149 5150 5151 5152 5153 5154 5155 5156 5157 5158 5159 5160 5161 5162 5163 5164 5165 5166 5167 5168 5169 5170 5171 5172 5173 5174 5175 5176 5177 5178 5179 5180 5181 5182 5183 5184 5185 5186 5187 5188 5189 5190 5191 5192 5193 5194 5195 5196 5197 5198 5199 5200 5201 5202 5203 5204 5205 5206 5207 5208 5209 5210 5211 5212 5213 5214 5215 5216 5217 5218 5219 5220 5221 5222 5223 5224 5225 5226 5227 5228 5229 5230 5231 5232 5233 5234 5235 5236 5237 5238 5239 5240 5241 5242 5243 5244 5245 5246 5247 5248 5249 5250 5251 5252 5253 5254 5255 5256 5257 5258 5259 5260 5261 5262 5263 5264 5265 5266 5267 5268 5269 5270 5271 5272 5273 5274 5275 5276 5277 5278 5279 5280 5281 5282 5283 5284 5285 5286 5287 5288 5289 5290 5291 5292 5293 5294 5295 5296 5297 5298 5299 5300 5301 5302 5303 5304 5305 5306 5307 5308 5309 5310 5311 5312 5313 5314 5315 5316 5317 5318 5319 5320 5321 5322 5323 5324 5325 5326 5327 5328 5329 5330 5331 5332 5333 5334 5335 5336 5337 5338 5339 5340 5341 5342 5343 5344 5345 5346 5347 5348 5349 5350 5351 5352 5353 5354 5355 5356 5357 5358 5359 5360 5361 5362 5363 5364 5365 5366 5367 5368 5369 5370 5371 5372 5373 5374 5375 5376 5377 5378 5379 5380 5381 5382 5383 5384 5385 5386 5387 5388 5389 5390 5391 5392 5393 5394 5395 5396 5397 5398 5399 5400 5401 5402 5403 5404 5405 5406 5407 5408 5409 5410 5411 5412 5413 5414 5415 5416 5417 5418 5419 5420 5421 5422 5423 5424 5425 5426 5427 5428 5429 5430 5431 5432 5433 5434 5435 5436 5437 5438 5439 5440 5441 5442 5443 5444 5445 5446 5447 5448 5449 5450 5451 5452 5453 5454 5455 5456 5457 5458 5459 5460 5461 5462 5463 5464 5465 5466 5467 5468 5469 5470 5471 5472 5473 5474 5475 5476 5477 5478 5479 5480 5481 5482 5483 5484 5485 5486 5487 5488 5489 5490 5491 5492 5493 5494 5495 5496 5497 5498 5499 5500 5501 5502 5503 5504 5505 5506 5507 5508 5509 5510 5511 5512 5513 5514 5515 5516 5517 5518 5519 5520 5521 5522 5523 5524 5525 5526 5527 5528 5529 5530 5531 5532 5533 5534 5535 5536 5537 5538 5539 5540 5541 5542 5543 5544 5545 5546 5547 5548 5549 5550 5551 5552 5553 5554 5555 5556 5557 5558 5559 5560 5561 5562 5563 5564 5565 5566 5567 5568 5569 5570 5571 5572 5573 5574 5575 5576 5577 5578 5579 5580 5581 5582 5583 5584 5585 5586 5587 5588 5589 5590 5591 5592 5593 5594 5595 5596 5597 5598 5599 5600 5601 5602 5603 5604 5605 5606 5607 5608 5609 5610 5611 5612 5613 5614 5615 5616 5617 5618 5619 5620 5621 5622 5623 5624 5625 5626 5627 5628 5629 5630 5631 5632 5633 5634 5635 5636 5637 5638 5639 5640 5641 5642 5643 5644 5645 5646 5647 5648 5649 5650 5651 5652 5653 5654 5655 5656 5657 5658 5659 5660 5661 5662 5663 5664 5665 5666 5667 5668 5669 5670 5671 5672 5673 5674 5675 5676 5677 5678 5679 5680 5681 5682 5683 5684 5685 5686 5687 5688 5689 5690 5691 5692 5693 5694 5695 5696 5697 5698 5699 5700 5701 5702 5703 5704 5705 5706 5707 5708 5709 5710 5711 5712 5713 5714 5715 5716 5717 5718 5719 5720 5721 5722 5723 5724 5725 5726 5727 5728 5729 5730 5731 5732 5733 5734 5735 5736 5737 5738 5739 5740 5741 5742 5743 5744 5745 5746 5747 5748 5749 5750 5751 5752 5753 5754 5755 5756 5757 5758 5759 5760 5761 5762 5763 5764 5765 5766 5767 5768 5769 5770 5771 5772 5773 5774 5775 5776 5777 5778 5779 5780 5781 5782 5783 5784 5785 5786 5787 5788 5789 5790 5791 5792 5793 5794 5795 5796 5797 5798 5799 5800 5801 5802 5803 5804 5805 5806 5807 5808 5809 5810 5811 5812 5813 5814 5815 5816 5817 5818 5819 5820 5821 5822 5823 5824 5825 5826 5827 5828 5829 5830 5831 5832 5833 5834 5835 5836 5837 5838 5839 5840 5841 5842 5843 5844 5845 5846 5847 5848 5849 5850 5851 5852 5853 5854 5855 5856 5857 5858 5859 5860 5861 5862 5863 5864 5865 5866 5867 5868 5869 5870 5871 5872 5873 5874 5875 5876 5877 5878 5879 5880 5881 5882 5883 5884 5885 5886 5887 5888 5889 5890 5891 5892 5893 5894 5895 5896 5897 5898 5899 5900 5901 5902 5903 5904 5905 5906 5907 5908 5909 5910 5911 5912 5913 5914 5915 5916 5917 5918 5919 5920 5921 5922 5923 5924 5925 5926 5927 5928 5929 5930 5931 5932 5933 5934 5935 5936 5937 5938 5939 5940 5941 5942 5943 5944 5945 5946 5947 5948 5949 5950 5951 5952 5953 5954 5955 5956 5957 5958 5959 5960 5961 5962 5963 5964 5965 5966 5967 5968 5969 5970 5971 5972 5973 5974 5975 5976 5977 5978 5979 5980 5981 5982 5983 5984 5985 5986 5987 5988 5989 5990 5991 5992 5993 5994 5995 5996 5997 5998 5999 6000 6001 6002 6003 6004 6005 6006 6007 6008 6009 6010 6011 6012 6013 6014 6015 6016 6017 6018 6019 6020 6021 6022 6023 6024 6025 6026 6027 6028 6029 6030 6031 6032 6033 6034 6035 6036 6037 6038 6039 6040 6041 6042 6043 6044 6045 6046 6047 6048 6049 6050 6051 6052 6053 6054 6055 6056 6057 6058 6059 6060 6061 6062 6063 6064 6065 6066 6067 6068 6069 6070 6071 6072 6073 6074 6075 6076 6077 6078 6079 6080 6081 6082 6083 6084 6085 6086 6087 6088 6089 6090 6091 6092 6093 6094 6095 6096 6097 6098 6099 6100 6101 6102 6103 6104 6105 6106 6107 6108 6109 6110 6111 6112 6113 6114 6115 6116 6117 6118 6119 6120 6121 6122 6123 6124 6125 6126 6127 6128 6129 6130 6131 6132 6133 6134 6135 6136 6137 6138 6139 6140 6141 6142 6143 6144 6145 6146 6147 6148 6149 6150 6151 6152 6153 6154 6155 6156 6157 6158 6159 6160 6161 6162 6163 6164 6165 6166 6167 6168 6169 6170 6171 6172 6173 6174 6175 6176 6177 6178 6179 6180 6181 6182 6183 6184 6185 6186 6187 6188 6189 6190 6191 6192 6193 6194 6195 6196 6197 6198 6199 6200 6201 6202 6203 6204 6205 6206 6207 6208 6209 6210 6211 6212 6213 6214 6215 6216 6217 6218 6219 6220 6221 6222 6223 6224 6225 6226 6227 6228 6229 6230 6231 6232 6233 6234 6235 6236 6237 6238 6239 6240 6241 6242 6243 6244 6245 6246 6247 6248 6249 6250 6251 6252 6253 6254 6255 6256 6257 6258 6259 6260 6261 6262 6263 6264 6265 6266 6267 6268 6269 6270 6271 6272 6273 6274 6275 6276 6277 6278 6279 6280 6281 6282 6283 6284 6285 6286 6287 6288 6289 6290 6291 6292 6293 6294 6295 6296 6297 6298 6299 6300 6301 6302 6303 6304 6305 6306 6307 6308 6309 6310 6311 6312 6313 6314 6315 6316 6317 6318 6319 6320 6321 6322 6323 6324 6325 6326 6327 6328 6329 6330 6331 6332 6333 6334 6335 6336 6337 6338 6339 6340 6341 6342 6343 6344 6345 6346 6347 6348 6349 6350 6351 6352 6353 6354 6355 6356 6357 6358 6359 6360 6361 6362 6363 6364 6365 6366 6367 6368 6369 6370 6371 6372 6373 6374 6375 6376 6377 6378 6379 6380 6381 6382 6383 6384 6385 6386 6387 6388 6389 6390 6391 6392 6393 6394 6395 6396 6397 6398 6399 6400 6401 6402 6403 6404 6405 6406 6407 6408 6409 6410 6411 6412 6413 6414 6415 6416 6417 6418 6419 6420 6421 6422 6423 6424 6425 6426 6427 6428 6429 6430 6431 6432 6433 6434 6435 6436 6437 6438 6439 6440 6441 6442 6443 6444 6445 6446 6447 6448 6449 6450 6451 6452 6453 6454 6455 6456 6457 6458 6459 6460 6461 6462 6463 6464 6465 6466 6467 6468 6469 6470 6471 6472 6473 6474 6475 6476 6477 6478 6479 6480 6481 6482 6483 6484 6485 6486 6487 6488 6489 6490 6491 6492 6493 6494 6495 6496 6497 6498 6499 6500 6501 6502 6503 6504 6505 6506 6507 6508 6509 6510 6511 6512 6513 6514 6515 6516 6517 6518 6519 6520 6521 6522 6523 6524 6525 6526 6527 6528 6529 6530 6531 6532 6533 6534 6535 6536 6537 6538 6539 6540 6541 6542 6543 6544 6545 6546 6547 6548 6549 6550 6551 6552 6553 6554 6555 6556 6557 6558 6559 6560 6561 6562 6563 6564 6565 6566 6567 6568 6569 6570 6571 6572 6573 6574 6575 6576 6577 6578 6579 6580 6581 6582 6583 6584 6585 6586 6587 6588 6589 6590 6591 6592 6593 6594 6595 6596 6597 6598 6599 6600 6601 6602 6603 6604 6605 6606 6607 6608 6609 6610 6611 6612 6613 6614 6615 6616 6617 6618 6619 6620 6621 6622 6623 6624 6625 6626 6627 6628 6629 6630 6631 6632 6633 6634 6635 6636 6637 6638 6639 6640 6641 6642 6643 6644 6645 6646 6647 6648 6649 6650 6651 6652 6653 6654 6655 6656 6657 6658 6659 6660 6661 6662 6663 6664 6665 6666 6667 6668 6669 6670 6671 6672 6673 6674 6675 6676 6677 6678 6679 6680 6681 6682 6683 6684 6685 6686 6687 6688 6689 6690 6691 6692 6693 6694 6695 6696 6697 6698 6699 6700 6701 6702 6703 6704 6705 6706 6707 6708 6709 6710 6711 6712 6713 6714 6715 6716 6717 6718 6719 6720 6721 6722 6723 6724 6725 6726 6727 6728 6729 6730 6731 6732 6733 6734 6735 6736 6737 6738 6739 6740 6741 6742 6743 6744 6745 6746 6747 6748 6749 6750 6751 6752 6753 6754 6755 6756 6757 6758 6759 6760 6761 6762 6763 6764 6765 6766 6767 6768 6769 6770 6771 6772 6773 6774 6775 6776 6777 6778 6779 6780 6781 6782 6783 6784 6785 6786 6787 6788 6789 6790 6791 6792 6793 6794 6795 6796 6797 6798 6799 6800 6801 6802 6803 6804 6805 6806 6807 6808 6809 6810 6811 6812 6813 6814 6815 6816 6817 6818 6819 6820 6821 6822 6823 6824 6825 6826 6827 6828 6829 6830 6831 6832 6833 6834 6835 6836 6837 6838 6839 6840 6841 6842 6843 6844 6845 6846 6847 6848 6849 6850 6851 6852 6853 6854 6855 6856 6857 6858 6859 6860 6861 6862 6863 6864 6865 6866 6867 6868 6869 6870 6871 6872 6873 6874 6875 6876 6877 6878 6879 6880 6881 6882 6883 6884 6885 6886 6887 6888 6889 6890 6891 6892 6893 6894 6895 6896 6897 6898 6899 6900 6901 6902 6903 6904 6905 6906 6907 6908 6909 6910 6911 6912 6913 6914 6915 6916 6917 6918 6919 6920 6921 6922 6923 6924 6925 6926 6927 6928 6929 6930 6931 6932 6933 6934 6935 6936 6937 6938 6939 6940 6941 6942 6943 6944 6945 6946 6947 6948 6949 6950 6951 6952 6953 6954 6955 6956 6957 6958 6959 6960 6961 6962 6963 6964 6965 6966 6967 6968 6969 6970 6971 6972 6973 6974 6975 6976 6977 6978 6979 6980 6981 6982 6983 6984 6985 6986 6987 6988 6989 6990 6991 6992 6993 6994 6995 6996 6997 6998 6999 7000 7001 7002 7003 7004 7005 7006 7007 7008 7009 7010 7011 7012 7013 7014 7015 7016 7017 7018 7019 7020 7021 7022 7023 7024 7025 7026 7027 7028 7029 7030 7031 7032 7033 7034 7035 7036 7037 7038 7039 7040 7041 7042 7043 7044 7045 7046 7047 7048 7049 7050 7051 7052 7053 7054 7055 7056 7057 7058 7059 7060 7061 7062 7063 7064 7065 7066 7067 7068 7069 7070 7071 7072 7073 7074 7075 7076 7077 7078 7079 7080 7081 7082 7083 7084 7085 7086 7087 7088 7089 7090 7091 7092 7093 7094 7095 7096 7097 7098 7099 7100 7101 7102 7103 7104 7105 7106 7107 7108 7109 7110 7111 7112 7113 7114 7115 7116 7117 7118 7119 7120 7121 7122 7123 7124 7125 7126 7127 7128 7129 7130 7131 7132 7133 7134 7135 7136 7137 7138 7139 7140 7141 7142 7143 7144 7145 7146 7147 7148 7149 7150 7151 7152 7153 7154 7155 7156 7157 7158 7159 7160 7161 7162 7163 7164 7165 7166 7167 7168 7169 7170 7171 7172 7173 7174 7175 7176 7177 7178 7179 7180 7181 7182 7183 7184 7185 7186 7187 7188 7189 7190 7191 7192 7193 7194 7195 7196 7197 7198 7199 7200 7201 7202 7203 7204 7205 7206 7207 7208 7209 7210 7211 7212 7213 7214 7215 7216 7217 7218 7219 7220 7221 7222 7223 7224 7225 7226 7227 7228 7229 7230 7231 7232 7233 7234 7235 7236 7237 7238 7239 7240 7241 7242 7243 7244 7245 7246 7247 7248 7249 7250 7251 7252 7253 7254 7255 7256 7257 7258 7259 7260 7261 7262 7263 7264 7265 7266 7267 7268 7269 7270 7271 7272 7273 7274 7275 7276 7277 7278 7279 7280 7281 7282 7283 7284 7285 7286 7287 7288 7289 7290 7291 7292 7293 7294 7295 7296 7297 7298 7299 7300 7301 7302 7303 7304 7305 7306 7307 7308 7309 7310 7311 7312 7313 7314 7315 7316 7317 7318 7319 7320 7321 7322 7323 7324 7325 7326 7327 7328 7329 7330 7331 7332 7333 7334 7335 7336 7337 7338 7339 7340 7341 7342 7343 7344 7345 7346 7347 7348 7349 7350 7351 7352 7353 7354 7355 7356 7357 7358 7359 7360 7361 7362 7363 7364 7365 7366 7367 7368 7369 7370 7371 7372 7373 7374 7375 7376 7377 7378 7379 7380 7381 7382 7383 7384 7385 7386 7387 7388 7389 7390 7391 7392 7393 7394 7395 7396 7397 7398 7399 7400 7401 7402 7403 7404 7405 7406 7407 7408 7409 7410 7411 7412 7413 7414 7415 7416 7417 7418 7419 7420 7421 7422 7423 7424 7425 7426 7427 7428 7429 7430 7431 7432 7433 7434 7435 7436 7437 7438 7439 7440 7441 7442 7443 7444 7445 7446 7447 7448 7449 7450 7451 7452 7453 7454 7455 7456 7457 7458 7459 7460 7461 7462 7463 7464 7465 7466 7467 7468 7469 7470 7471 7472 7473 7474 7475 7476 7477 7478 7479 7480 7481 7482 7483 7484 7485 7486 7487 7488 7489 7490 7491 7492 7493 7494 7495 7496 7497 7498 7499 7500 7501 7502 7503 7504 7505 7506 7507 7508 7509 7510 7511 7512 7513 7514 7515 7516 7517 7518 7519 7520 7521 7522 7523 7524 7525 7526 7527 7528 7529 7530 7531 7532 7533 7534 7535 7536 7537 7538 7539 7540 7541 7542 7543 7544 7545 7546 7547 7548 7549 7550 7551 7552 7553 7554 7555 7556 7557 7558 7559 7560 7561 7562 7563 7564 7565 7566 7567 7568 7569 7570 7571 7572 7573 7574 7575 7576 7577 7578 7579 7580 7581 7582 7583 7584 7585 7586 7587 7588 7589 7590 7591 7592 7593 7594 7595 7596 7597 7598 7599 7600 7601 7602 7603 7604 7605 7606 7607 7608 7609 7610 7611 7612 7613 7614 7615 7616 7617 7618 7619 7620 7621 7622 7623 7624 7625 7626 7627 7628 7629 7630 7631 7632 7633 7634 7635 7636 7637 7638 7639 7640 7641 7642 7643 7644 7645 7646 7647 7648 7649 7650 7651 7652 7653 7654 7655 7656 7657 7658 7659 7660 7661 7662 7663 7664 7665 7666 7667 7668 7669 7670 7671 7672 7673 7674 7675 7676 7677 7678 7679 7680 7681 7682 7683 7684 7685 7686 7687 7688 7689 7690 7691 7692 7693 7694 7695 7696 7697 7698 7699 7700 7701 7702 7703 7704 7705 7706 7707 7708 7709 7710 7711 7712 7713 7714 7715 7716 7717 7718 7719 7720 7721 7722 7723 7724 7725 7726 7727 7728 7729 7730 7731 7732 7733 7734 7735 7736 7737 7738 7739 7740 7741 7742 7743 7744 7745 7746 7747 7748 7749 7750 7751 7752 7753 7754 7755 7756 7757 7758 7759 7760 7761 7762 7763 7764 7765 7766 7767 7768 7769 7770 7771 7772 7773 7774 7775 7776 7777 7778 7779 7780 7781 7782 7783 7784 7785 7786 7787 7788 7789 7790 7791 7792 7793 7794 7795 7796 7797 7798 7799 7800 7801 7802 7803 7804 7805 7806 7807 7808 7809 7810 7811 7812 7813 7814 7815 7816 7817 7818 7819 7820 7821 7822 7823 7824 7825 7826 7827 7828 7829 7830 7831 7832 7833 7834 7835 7836 7837 7838 7839 7840 7841 7842 7843 7844 7845 7846 7847 7848 7849 7850 7851 7852 7853 7854 7855 7856 7857 7858 7859 7860 7861 7862 7863 7864 7865 7866 7867 7868 7869 7870 7871 7872 7873 7874 7875 7876 7877 7878 7879 7880 7881 7882 7883 7884 7885 7886 7887 7888 7889 7890 7891 7892 7893 7894 7895 7896 7897 7898 7899 7900 7901 7902 7903 7904 7905 7906 7907 7908 7909 7910 7911 7912 7913 7914 7915 7916 7917 7918 7919 7920 7921 7922 7923 7924 7925 7926 7927 7928 7929 7930 7931 7932 7933 7934 7935 7936 7937 7938 7939 7940 7941 7942 7943 7944 7945 7946 7947 7948 7949 7950 7951 7952 7953 7954 7955 7956 7957 7958 7959 7960 7961 7962 7963 7964 7965 7966 7967 7968 7969 7970 7971 7972 7973 7974 7975 7976 7977 7978 7979 7980 7981 7982 7983 7984 7985 7986 7987 7988 7989 7990 7991 7992 7993 7994 7995 7996 7997 7998 7999 8000 8001 8002 8003 8004 8005 8006 8007 8008 8009 8010 8011 8012 8013 8014 8015 8016 8017 8018 8019 8020 8021 8022 8023 8024 8025 8026 8027 8028 8029 8030 8031 8032 8033 8034 8035 8036 8037 8038 8039 8040 8041 8042 8043 8044 8045 8046 8047 8048 8049 8050 8051 8052 8053 8054 8055 8056 8057 8058 8059 8060 8061 8062 8063 8064 8065 8066 8067 8068 8069 8070 8071 8072 8073 8074 8075 8076 8077 8078 8079 8080 8081 8082 8083 8084 8085 8086 8087 8088 8089 8090 8091 8092 8093 8094 8095 8096 8097 8098 8099 8100 8101 8102 8103 8104 8105 8106 8107 8108 8109 8110 8111 8112 8113 8114 8115 8116 8117 8118 8119 8120 8121 8122 8123 8124 8125 8126 8127 8128 8129 8130 8131 8132 8133 8134 8135 8136 8137 8138 8139 8140 8141 8142 8143 8144 8145 8146 8147 8148 8149 8150 8151 8152 8153 8154 8155 8156 8157 8158 8159 8160 8161 8162 8163 8164 8165 8166 8167 8168 8169 8170 8171 8172 8173 8174 8175 8176 8177 8178 8179 8180 8181 8182 8183 8184 8185 8186 8187 8188 8189 8190 8191 8192 8193 8194 8195 8196 8197 8198 8199 8200 8201 8202 8203 8204 8205 8206 8207 8208 8209 8210 8211 8212 8213 8214 8215 8216 8217 8218 8219 8220 8221 8222 8223 8224 8225 8226 8227 8228 8229 8230 8231 8232 8233 8234 8235 8236 8237 8238 8239 8240 8241 8242 8243 8244 8245 8246 8247 8248 8249 8250 8251 8252 8253 8254 8255 8256 8257 8258 8259 8260 8261 8262 8263 8264 8265 8266 8267 8268 8269 8270 8271 8272 8273 8274 8275 8276 8277 8278 8279 8280 8281 8282 8283 8284 8285 8286 8287 8288 8289 8290 8291 8292 8293 8294 8295 8296 8297 8298 8299 8300 8301 8302 8303 8304 8305 8306 8307 8308 8309 8310 8311 8312 8313 8314 8315 8316 8317 8318 8319 8320 8321 8322 8323 8324 8325 8326 8327 8328 8329 8330 8331 8332 8333 8334 8335 8336 8337 8338 8339 8340 8341 8342 8343 8344 8345 8346 8347 8348 8349 8350 8351 8352 8353 8354 8355 8356 8357 8358 8359 8360 8361 8362 8363 8364 8365 8366 8367 8368 8369 8370 8371 8372 8373 8374 8375 8376 8377 8378 8379 8380 8381 8382 8383 8384 8385 8386 8387 8388 8389 8390 8391 8392 8393 8394 8395 8396 8397 8398 8399 8400 8401 8402 8403 8404 8405 8406 8407 8408 8409 8410 8411 8412 8413 8414 8415 8416 8417 8418 8419 8420 8421 8422 8423 8424 8425 8426 8427 8428 8429 8430 8431 8432 8433 8434 8435 8436 8437 8438 8439 8440 8441 8442 8443 8444 8445 8446 8447 8448 8449 8450 8451 8452 8453 8454 8455 8456 8457 8458 8459 8460 8461 8462 8463 8464 8465 8466 8467 8468 8469 8470 8471 8472 8473 8474 8475 8476 8477 8478 8479 8480 8481 8482 8483 8484 8485 8486 8487 8488 8489 8490 8491 8492 8493 8494 8495 8496 8497 8498 8499 8500 8501 8502 8503 8504 8505 8506 8507 8508 8509 8510 8511 8512 8513 8514 8515 8516 8517 8518 8519 8520 8521 8522 8523 8524 8525 8526 8527 8528 8529 8530 8531 8532 8533 8534 8535 8536 8537 8538 8539 8540 8541 8542 8543 8544 8545 8546 8547 8548 8549 8550 8551 8552 8553 8554 8555 8556 8557 8558 8559 8560 8561 8562 8563 8564 8565 8566 8567 8568 8569 8570 8571 8572 8573 8574 8575 8576 8577 8578 8579 8580 8581 8582 8583 8584 8585 8586 8587 8588 8589 8590 8591 8592 8593 8594 8595 8596 8597 8598 8599 8600 8601 8602 8603 8604 8605 8606 8607 8608 8609 8610 8611 8612 8613 8614 8615 8616 8617 8618 8619 8620 8621 8622 8623 8624 8625 8626 8627 8628 8629 8630 8631 8632 8633 8634 8635 8636 8637 8638 8639 8640 8641 8642 8643 8644 8645 8646 8647 8648 8649 8650 8651 8652 8653 8654 8655 8656 8657 8658 8659 8660 8661 8662 8663 8664 8665 8666 8667 8668 8669 8670 8671 8672 8673 8674 8675 8676 8677 8678 8679 8680 8681 8682 8683 8684 8685 8686 8687 8688 8689 8690 8691 8692 8693 8694 8695 8696 8697 8698 8699 8700 8701 8702 8703 8704 8705 8706 8707 8708 8709 8710 8711 8712 8713 8714 8715 8716 8717 8718 8719 8720 8721 8722 8723 8724 8725 8726 8727 8728 8729 8730 8731 8732 8733 8734 8735 8736 8737 8738 8739 8740 8741 8742 8743 8744 8745 8746 8747 8748 8749 8750 8751 8752 8753 8754 8755 8756 8757 8758 8759 8760 8761 8762 8763 8764 8765 8766 8767 8768 8769 8770 8771 8772 8773 8774 8775 8776 8777 8778 8779 8780 8781 8782 8783 8784 8785 8786 8787 8788 8789 8790 8791 8792 8793 8794 8795 8796 8797 8798 8799 8800 8801 8802 8803 8804 8805 8806 8807 8808 8809 8810 8811 8812 8813 8814 8815 8816 8817 8818 8819 8820 8821 8822 8823 8824 8825 8826 8827 8828 8829 8830 8831 8832 8833 8834 8835 8836 8837 8838 8839 8840 8841 8842 8843 8844 8845 8846 8847 8848 8849 8850 8851 8852 8853 8854 8855 8856 8857 8858 8859 8860 8861 8862 8863 8864 8865 8866 8867 8868 8869 8870 8871 8872 8873 8874 8875 8876 8877 8878 8879 8880 8881 8882 8883 8884 8885 8886 8887 8888 8889 8890 8891 8892 8893 8894 8895 8896 8897 8898 8899 8900 8901 8902 8903 8904 8905 8906 8907 8908 8909 8910 8911 8912 8913 8914 8915 8916 8917 8918 8919 8920 8921 8922 8923 8924 8925 8926 8927 8928 8929 8930 8931 8932 8933 8934 8935 8936 8937 8938 8939 8940 8941 8942 8943 8944 8945 8946 8947 8948 8949 8950 8951 8952 8953 8954 8955 8956 8957 8958 8959 8960 8961 8962 8963 8964 8965 8966 8967 8968 8969 8970 8971 8972 8973 8974 8975 8976 8977 8978 8979 8980 8981 8982 8983 8984 8985 8986 8987 8988 8989 8990 8991 8992 8993 8994 8995 8996 8997 8998 8999 9000 9001 9002 9003 9004 9005 9006 9007 9008 9009 9010 9011 9012 9013 9014 9015 9016 9017 9018 9019 9020 9021 9022 9023 9024 9025 9026 9027 9028 9029 9030 9031 9032 9033 9034 9035 9036 9037 9038 9039 9040 9041 9042 9043 9044 9045 9046 9047 9048 9049 9050 9051 9052 9053 9054 9055 9056 9057 9058 9059 9060 9061 9062 9063 9064 9065 9066 9067 9068 9069 9070 9071 9072 9073 9074 9075 9076 9077 9078 9079 9080 9081 9082 9083 9084 9085 9086 9087 9088 9089 9090 9091 9092 9093 9094 9095 9096 9097 9098 9099 9100 9101 9102 9103 9104 9105 9106 9107 9108 9109 9110 9111 9112 9113 9114 9115 9116 9117 9118 9119 9120 9121 9122 9123 9124 9125 9126 9127 9128 9129 9130 9131 9132 9133 9134 9135 9136 9137 9138 9139 9140 9141 9142 9143 9144 9145 9146 9147 9148 9149 9150 9151 9152 9153 9154 9155 9156 9157 9158 9159 9160 9161 9162 9163 9164 9165 9166 9167 9168 9169 9170 9171 9172 9173 9174 9175 9176 9177 9178 9179 9180 9181 9182 9183 9184 9185 9186 9187 9188 9189 9190 9191 9192 9193 9194 9195 9196 9197 9198 9199 9200 9201 9202 9203 9204 9205 9206 9207 9208 9209 9210 9211 9212 9213 9214 9215 9216 9217 9218 9219 9220 9221 9222 9223 9224 9225 9226 9227 9228 9229 9230 9231 9232 9233 9234 9235 9236 9237 9238 9239 9240 9241 9242 9243 9244 9245 9246 9247 9248 9249 9250 9251 9252 9253 9254 9255 9256 9257 9258 9259 9260 9261 9262 9263 9264 9265 9266 9267 9268 9269 9270 9271 9272 9273 9274 9275 9276 9277 9278 9279 9280 9281 9282 9283 9284 9285 9286 9287 9288 9289 9290 9291 9292 9293 9294 9295 9296 9297 9298 9299 9300 9301 9302 9303 9304 9305 9306 9307 9308 9309 9310 9311 9312 9313 9314 9315 9316 9317 9318 9319 9320 9321 9322 9323 9324 9325 9326 9327 9328 9329 9330 9331 9332 9333 9334 9335 9336 9337 9338 9339 9340 9341 9342 9343 9344 9345 9346 9347 9348 9349 9350 9351 9352 9353 9354 9355 9356 9357 9358 9359 9360 9361 9362 9363 9364 9365 9366 9367 9368 9369 9370 9371 9372 9373 9374 9375 9376 9377 9378 9379 9380 9381 9382 9383 9384 9385 9386 9387 9388 9389 9390 9391 9392 9393 9394 9395 9396 9397 9398 9399 9400 9401 9402 9403 9404 9405 9406 9407 9408 9409 9410 9411 9412 9413 9414 9415 9416 9417 9418 9419 9420 9421 9422 9423 9424 9425 9426 9427 9428 9429 9430 9431 9432 9433 9434 9435 9436 9437 9438 9439 9440 9441 9442 9443 9444 9445 9446 9447 9448 9449 9450 9451 9452 9453 9454 9455 9456 9457 9458 9459 9460 9461 9462 9463 9464 9465 9466 9467 9468 9469 9470 9471 9472 9473 9474 9475 9476 9477 9478 9479 9480 9481 9482 9483 9484 9485 9486 9487 9488 9489 9490 9491 9492 9493 9494 9495 9496 9497 9498 9499 9500 9501 9502 9503 9504 9505 9506 9507 9508 9509 9510 9511 9512 9513 9514 9515 9516 9517 9518 9519 9520 9521 9522 9523 9524 9525 9526 9527 9528 9529 9530 9531 9532 9533 9534 9535 9536 9537 9538 9539 9540 9541 9542 9543 9544 9545 9546 9547 9548 9549 9550 9551 9552 9553 9554 9555 9556 9557 9558 9559 9560 9561 9562 9563 9564 9565 9566 9567 9568 9569 9570 9571 9572 9573 9574 9575 9576 9577 9578 9579 9580 9581 9582 9583 9584 9585 9586 9587 9588 9589 9590 9591 9592 9593 9594 9595 9596 9597 9598 9599 9600 9601 9602 9603 9604 9605 9606 9607 9608 9609 9610 9611 9612 9613 9614 9615 9616 9617 9618 9619 9620 9621 9622 9623 9624 9625 9626 9627 9628 9629 9630 9631 9632 9633 9634 9635 9636 9637 9638 9639 9640 9641 9642 9643 9644 9645 9646 9647 9648 9649 9650 9651 9652 9653 9654 9655 9656 9657 9658 9659 9660 9661 9662 9663 9664 9665 9666 9667 9668 9669 9670 9671 9672 9673 9674 9675 9676 9677 9678 9679 9680 9681 9682 9683 9684 9685 9686 9687 9688 9689 9690 9691 9692 9693 9694 9695 9696 9697 9698 9699 9700 9701 9702 9703 9704 9705 9706 9707 9708 9709 9710 9711 9712 9713 9714 9715 9716 9717 9718 9719 9720 9721 9722 9723 9724 9725 9726 9727 9728 9729 9730 9731 9732 9733 9734 9735 9736 9737 9738 9739 9740 9741 9742 9743 9744 9745 9746 9747 9748 9749 9750 9751 9752 9753 9754 9755 9756 9757 9758 9759 9760 9761 9762 9763 9764 9765 9766 9767 9768 9769 9770 9771 9772 9773 9774 9775 9776 9777 9778 9779 9780 9781 9782 9783 9784 9785 9786 9787 9788 9789 9790 9791 9792 9793 9794 9795 9796 9797 9798 9799 9800 9801 9802 9803 9804 9805 9806 9807 9808 9809 9810 9811 9812 9813 9814 9815 9816 9817 9818 9819 9820 9821 9822 9823 9824 9825 9826 9827 9828 9829 9830 9831 9832 9833 9834 9835 9836 9837 9838 9839 9840 9841 9842 9843 9844 9845 9846 9847 9848 9849 9850 9851 9852 9853 9854 9855 9856 9857 9858 9859 9860 9861 9862 9863 9864 9865 9866 9867 9868 9869 9870 9871 9872 9873 9874 9875 9876 9877 9878 9879 9880 9881 9882 9883 9884 9885 9886 9887 9888 9889 9890 9891 9892 9893 9894 9895 9896 9897 9898 9899 9900 9901 9902 9903 9904 9905 9906 9907 9908 9909 9910 9911 9912 9913 9914 9915 9916 9917 9918 9919 9920 9921 9922 9923 9924 9925 9926 9927 9928 9929 9930 9931 9932 9933 9934 9935 9936 9937 9938 9939 9940 9941 9942 9943 9944 9945 9946 9947 9948 9949 9950 9951 9952 9953 9954 9955 9956 9957 9958 9959 9960 9961 9962 9963 9964 9965 9966 9967 9968 9969 9970 9971 9972 9973 9974 9975 9976 9977 9978 9979 9980 9981 9982 9983 9984 9985 9986 9987 9988 9989 9990 9991 9992 9993 9994 9995 9996 9997 9998 9999 10000 10001 10002 10003 10004 10005 10006 10007 10008 10009 10010 10011 10012 10013 10014 10015 10016 10017 10018 10019 10020 10021 10022 10023 10024 10025 10026 10027 10028 10029 10030 10031 10032 10033 10034 10035 10036 10037 10038 10039 10040 10041 10042 10043 10044 10045 10046 10047 10048 10049 10050 10051 10052 10053 10054 10055 10056 10057 10058 10059 10060 10061 10062 10063 10064 10065 10066 10067 10068 10069 10070 10071 10072 10073 10074 10075 10076 10077 10078 10079 10080 10081 10082 10083 10084 10085 10086 10087 10088 10089 10090 10091 10092 10093 10094 10095 10096 10097 10098 10099 10100 10101 10102 10103 10104 10105 10106 10107 10108 10109 10110 10111 10112 10113 10114 10115 10116 10117 10118 10119 10120 10121 10122 10123 10124 10125 10126 10127 10128 10129 10130 10131 10132 10133 10134 10135 10136 10137 10138 10139 10140 10141 10142 10143 10144 10145 10146 10147 10148 10149 10150 10151 10152 10153 10154 10155 10156 10157 10158 10159 10160 10161 10162 10163 10164 10165 10166 10167 10168 10169 10170 10171 10172 10173 10174 10175 10176 10177 10178 10179 10180 10181 10182 10183 10184 10185 10186 10187 10188 10189 10190 10191 10192 10193 10194 10195 10196 10197 10198 10199 10200 10201 10202 10203 10204 10205 10206 10207 10208 10209 10210 10211 10212 10213 10214 10215 10216 10217 10218 10219 10220 10221 10222 10223 10224 10225 10226 10227 10228 10229 10230 10231 10232 10233 10234 10235 10236 10237 10238 10239 10240 10241 10242 10243 10244 10245 10246 10247 10248 10249 10250 10251 10252 10253 10254 10255 10256 10257 10258 10259 10260 10261 10262 10263 10264 10265 10266 10267 10268 10269 10270 10271 10272 10273 10274 10275 10276 10277 10278 10279 10280 10281 10282 10283 10284 10285 10286 10287 10288 10289 10290 10291 10292 10293 10294 10295 10296 10297 10298 10299 10300 10301 10302 10303 10304 10305 10306 10307 10308 10309 10310 10311 10312 10313 10314 10315 10316 10317 10318 10319 10320 10321 10322 10323 10324 10325 10326 10327 10328 10329 10330 10331 10332 10333 10334 10335 10336 10337 10338 10339 10340 10341 10342 10343 10344 10345 10346 10347 10348 10349 10350 10351 10352 10353 10354 10355 10356 10357 10358 10359 10360 10361 10362 10363 10364 10365 10366 10367 10368 10369 10370 10371 10372 10373 10374 10375 10376 10377 10378 10379 10380 10381 10382 10383 10384 10385 10386 10387 10388 10389 10390 10391 10392 10393 10394 10395 10396 10397 10398 10399 10400 10401 10402 10403 10404 10405 10406 10407 10408 10409 10410 10411 10412 10413 10414 10415 10416 10417 10418 10419 10420 10421 10422 10423 10424 10425 10426 10427 10428 10429 10430 10431 10432 10433 10434 10435 10436 10437 10438 10439 10440 10441 10442 10443 10444 10445 10446 10447 10448 10449 10450 10451 10452 10453 10454 10455 10456 10457 10458 10459 10460 10461 10462 10463 10464 10465 10466 10467 10468 10469 10470 10471 10472 10473 10474 10475 10476 10477 10478 10479 10480 10481 10482 10483 10484 10485 10486 10487 10488 10489 10490 10491 10492 10493 10494 10495 10496 10497 10498 10499 10500 10501 10502 10503 10504 10505 10506 10507 10508 10509 10510 10511 10512 10513 10514 10515 10516 10517 10518 10519 10520 10521 10522 10523 10524 10525 10526 10527 10528 10529 10530 10531 10532 10533 10534 10535 10536 10537 10538 10539 10540 10541 10542 10543 10544 10545 10546 10547 10548 10549 10550 10551 10552 10553 10554 10555 10556 10557 10558 10559 10560 10561 10562 10563 10564 10565 10566 10567 10568 10569 10570 10571 10572 10573 10574 10575 10576 10577 10578 10579 10580 10581 10582 10583 10584 10585 10586 10587 10588 10589 10590 10591 10592 10593 10594 10595 10596 10597 10598 10599 10600 10601 10602 10603 10604 10605 10606 10607 10608 10609 10610 10611 10612 10613 10614 10615 10616 10617 10618 10619 10620 10621 10622 10623 10624 10625 10626 10627 10628 10629 10630 10631 10632 10633 10634 10635 10636 10637 10638 10639 10640 10641 10642 10643 10644 10645 10646 10647 10648 10649 10650 10651 10652 10653 10654 10655 10656 10657 10658 10659 10660 10661 10662 10663 10664 10665 10666 10667 10668 10669 10670 10671 10672 10673 10674 10675 10676 10677 10678 10679 10680 10681 10682 10683 10684 10685 10686 10687 10688 10689 10690 10691 10692 10693 10694 10695 10696 10697 10698 10699 10700 10701 10702 10703 10704 10705 10706 10707 10708 10709 10710 10711 10712 10713 10714 10715 10716 10717 10718 10719 10720 10721 10722 10723 10724 10725 10726 10727 10728 10729 10730 10731 10732 10733 10734 10735 10736 10737 10738 10739 10740 10741 10742 10743 10744 10745 10746 10747 10748 10749 10750 10751 10752 10753 10754 10755 10756 10757 10758 10759 10760 10761 10762 10763 10764 10765 10766 10767 10768 10769 10770 10771 10772 10773 10774 10775 10776 10777 10778 10779 10780 10781 10782 10783 10784 10785 10786 10787 10788 10789 10790 10791 10792 10793 10794 10795 10796 10797 10798 10799 10800 10801 10802 10803 10804 10805 10806 10807 10808 10809 10810 10811 10812 10813 10814 10815 10816 10817 10818 10819 10820 10821 10822 10823 10824 10825 10826 10827 10828 10829 10830 10831 10832 10833 10834 10835 10836 10837 10838 10839 10840 10841 10842 10843 10844 10845 10846 10847 10848 10849 10850 10851 10852 10853 10854 10855 10856 10857 10858 10859 10860 10861 10862 10863 10864 10865 10866 10867 10868 10869 10870 10871 10872 10873 10874 10875 10876 10877 10878 10879 10880 10881 10882 10883 10884 10885 10886 10887 10888 10889 10890 10891 10892 10893 10894 10895 10896 10897 10898 10899 10900 10901 10902 10903 10904 10905 10906 10907 10908 10909 10910 10911 10912 10913 10914 10915 10916 10917 10918 10919 10920 10921 10922 10923 10924 10925 10926 10927 10928 10929 10930 10931 10932 10933 10934 10935 10936 10937 10938 10939 10940 10941 10942 10943 10944 10945 10946 10947 10948 10949 10950 10951 10952 10953 10954 10955 10956 10957 10958 10959 10960 10961 10962 10963 10964 10965 10966 10967 10968 10969 10970 10971 10972 10973 10974 10975 10976 10977 10978 10979 10980 10981 10982 10983 10984 10985 10986 10987 10988 10989 10990 10991 10992 10993 10994 10995 10996 10997 10998 10999 11000 11001 11002 11003 11004 11005 11006 11007 11008 11009 11010 11011 11012 11013 11014 11015 11016 11017 11018 11019 11020 11021 11022 11023 11024 11025 11026 11027 11028 11029 11030 11031 11032 11033 11034 11035 11036 11037 11038 11039 11040 11041 11042 11043 11044 11045 11046 11047 11048 11049 11050 11051 11052 11053 11054 11055 11056 11057 11058 11059 11060 11061 11062 11063 11064 11065 11066 11067 11068 11069 11070 11071 11072 11073 11074 11075 11076 11077 11078 11079 11080 11081 11082 11083 11084 11085 11086 11087 11088 11089 11090 11091 11092 11093 11094 11095 11096 11097 11098 11099 11100 11101 11102 11103 11104 11105 11106 11107 11108 11109 11110 11111 11112 11113 11114 11115 11116 11117 11118 11119 11120 11121 11122 11123 11124 11125 11126 11127 11128 11129 11130 11131 11132 11133 11134 11135 11136 11137 11138 11139 11140 11141 11142 11143 11144 11145 11146 11147 11148 11149 11150 11151 11152 11153 11154 11155 11156 11157 11158 11159 11160 11161 11162 11163 11164 11165 11166 11167 11168 11169 11170 11171 11172 11173 11174 11175 11176 11177 11178 11179 11180 11181 11182 11183 11184 11185 11186 11187 11188 11189 11190 11191 11192 11193 11194 11195 11196 11197 11198 11199 11200 11201 11202 11203 11204 11205 11206 11207 11208 11209 11210 11211 11212 11213 11214 11215 11216 11217 11218 11219 11220 11221 11222 11223 11224 11225 11226 11227 11228 11229 11230 11231 11232 11233 11234 11235 11236 11237 11238 11239 11240 11241 11242 11243 11244 11245 11246 11247 11248 11249 11250 11251 11252 11253 11254 11255 11256 11257 11258 11259 11260 11261 11262 11263 11264 11265 11266 11267 11268 11269 11270 11271 11272 11273 11274 11275 11276 11277 11278 11279 11280 11281 11282 11283 11284 11285 11286 11287 11288 11289 11290 11291 11292 11293 11294 11295 11296 11297 11298 11299 11300 11301 11302 11303 11304 11305 11306 11307 11308 11309 11310 11311 11312 11313 11314 11315 11316 11317 11318 11319 11320 11321 11322 11323 11324 11325 11326 11327 11328 11329 11330 11331 11332 11333 11334 11335 11336 11337 11338 11339 11340 11341 11342 11343 11344 11345 11346 11347 11348 11349 11350 11351 11352 11353 11354 11355 11356 11357 11358 11359 11360 11361 11362 11363 11364 11365 11366 11367 11368 11369 11370 11371 11372 11373 11374 11375 11376 11377 11378 11379 11380 11381 11382 11383 11384 11385 11386 11387 11388 11389 11390 11391 11392 11393 11394 11395 11396 11397 11398 11399 11400 11401 11402 11403 11404 11405 11406 11407 11408 11409 11410 11411 11412 11413 11414 11415 11416 11417 11418 11419 11420 11421 11422 11423 11424 11425 11426 11427 11428 11429 11430 11431 11432 11433 11434 11435 11436 11437 11438 11439 11440 11441 11442 11443 11444 11445 11446 11447 11448 11449 11450 11451 11452 11453 11454 11455 11456 11457 11458 11459 11460 11461 11462 11463 11464 11465 11466 11467 11468 11469 11470 11471 11472 11473 11474 11475 11476 11477 11478 11479 11480 11481 11482 11483 11484 11485 11486 11487 11488 11489 11490 11491 11492 11493 11494 11495 11496 11497 11498 11499 11500 11501 11502 11503 11504 11505 11506 11507 11508 11509 11510 11511 11512 11513 11514 11515 11516 11517 11518 11519 11520 11521 11522 11523 11524 11525 11526 11527 11528 11529 11530 11531 11532 11533 11534 11535 11536 11537 11538 11539 11540 11541 11542 11543 11544 11545 11546 11547 11548 11549 11550 11551 11552 11553 11554 11555 11556 11557 11558 11559 11560 11561 11562 11563 11564 11565 11566 11567 11568 11569 11570 11571 11572 11573 11574 11575 11576 11577 11578 11579 11580 11581 11582 11583 11584 11585 11586 11587 11588 11589 11590 11591 11592 11593 11594 11595 11596 11597 11598 11599 11600 11601 11602 11603 11604 11605 11606 11607 11608 11609 11610 11611 11612 11613 11614 11615 11616 11617 11618 11619 11620 11621 11622 11623 11624 11625 11626 11627 11628 11629 11630 11631 11632 11633 11634 11635 11636 11637 11638 11639 11640 11641 11642 11643 11644 11645 11646 11647 11648 11649 11650 11651 11652 11653 11654 11655 11656 11657 11658 11659 11660 11661 11662 11663 11664 11665 11666 11667 11668 11669 11670 11671 11672 11673 11674 11675 11676 11677 11678 11679 11680 11681 11682 11683 11684 11685 11686 11687 11688 11689 11690 11691 11692 11693 11694 11695 11696 11697 11698 11699 11700 11701 11702 11703 11704 11705 11706 11707 11708 11709 11710 11711 11712 11713 11714 11715 11716 11717 11718 11719 11720 11721 11722 11723 11724 11725 11726 11727 11728 11729 11730 11731 11732 11733 11734 11735 11736 11737 11738 11739 11740 11741 11742 11743 11744 11745 11746 11747 11748 11749 11750 11751 11752 11753 11754 11755 11756 11757 11758 11759 11760 11761 11762 11763 11764 11765 11766 11767 11768 11769 11770 11771 11772 11773 11774 11775 11776 11777 11778 11779 11780 11781 11782 11783 11784 11785 11786 11787 11788 11789 11790 11791 11792 11793 11794 11795 11796 11797 11798 11799 11800 11801 11802 11803 11804 11805 11806 11807 11808 11809 11810 11811 11812 11813 11814 11815 11816 11817 11818 11819 11820 11821 11822 11823 11824 11825 11826 11827 11828 11829 11830 11831 11832 11833 11834 11835 11836 11837 11838 11839 11840 11841 11842 11843 11844 11845 11846 11847 11848 11849 11850 11851 11852 11853 11854 11855 11856 11857 11858 11859 11860 11861 11862 11863 11864 11865 11866 11867 11868 11869 11870 11871 11872 11873 11874 11875 11876 11877 11878 11879 11880 11881 11882 11883 11884 11885 11886 11887 11888 11889 11890 11891 11892 11893 11894 11895 11896 11897 11898 11899 11900 11901 11902 11903 11904 11905 11906 11907 11908 11909 11910 11911 11912 11913 11914 11915 11916 11917 11918 11919 11920 11921 11922 11923 11924 11925 11926 11927 11928 11929 11930 11931 11932 11933 11934 11935 11936 11937 11938 11939 11940 11941 11942 11943 11944 11945 11946 11947 11948 11949 11950 11951 11952 11953 11954 11955 11956 11957 11958 11959 11960 11961 11962 11963 11964 11965 11966 11967 11968 11969 11970 11971 11972 11973 11974 11975 11976 11977 11978 11979 11980 11981 11982 11983 11984 11985 11986 11987 11988 11989 11990 11991 11992 11993 11994 11995 11996 11997 11998 11999 12000 12001 12002 12003 12004 12005 12006 12007 12008 12009 12010 12011 12012 12013 12014 12015 12016 12017 12018 12019 12020 12021 12022 12023 12024 12025 12026 12027 12028 12029 12030 12031 12032 12033 12034 12035 12036 12037 12038 12039 12040 12041 12042 12043 12044 12045 12046 12047 12048 12049 12050 12051 12052 12053 12054 12055 12056 12057 12058 12059 12060 12061 12062 12063 12064 12065 12066 12067 12068 12069 12070 12071 12072 12073 12074 12075 12076 12077 12078 12079 12080 12081 12082 12083 12084 12085 12086 12087 12088 12089 12090 12091 12092 12093 12094 12095 12096 12097 12098 12099 12100 12101 12102 12103 12104 12105 12106 12107 12108 12109 12110 12111 12112 12113 12114 12115 12116 12117 12118 12119 12120 12121 12122 12123 12124 12125 12126 12127 12128 12129 12130 12131 12132 12133 12134 12135 12136 12137 12138 12139 12140 12141 12142 12143 12144 12145 12146 12147 12148 12149 12150 12151 12152 12153 12154 12155 12156 12157 12158 12159 12160 12161 12162 12163 12164 12165 12166 12167 12168 12169 12170 12171 12172 12173 12174 12175 12176 12177 12178 12179 12180 12181 12182 12183 12184 12185 12186 12187 12188 12189 12190 12191 12192 12193 12194 12195 12196 12197 12198 12199 12200 12201 12202 12203 12204 12205 12206 12207 12208 12209 12210 12211 12212 12213 12214 12215 12216 12217 12218 12219 12220 12221 12222 12223 12224 12225 12226 12227 12228 12229 12230 12231 12232 12233 12234 12235 12236 12237 12238 12239 12240 12241 12242 12243 12244 12245 12246 12247 12248 12249 12250 12251 12252 12253 12254 12255 12256 12257 12258 12259 12260 12261 12262 12263 12264 12265 12266 12267 12268 12269 12270 12271 12272 12273 12274 12275 12276 12277 12278 12279 12280 12281 12282 12283 12284 12285 12286 12287 12288 12289 12290 12291 12292 12293 12294 12295 12296 12297 12298 12299 12300 12301 12302 12303 12304 12305 12306 12307 12308 12309 12310 12311 12312 12313 12314 12315 12316 12317 12318 12319 12320 12321 12322 12323 12324 12325 12326 12327 12328 12329 12330 12331 12332 12333 12334 12335 12336 12337 12338 12339 12340 12341 12342 12343 12344 12345 12346 12347 12348 12349 12350 12351 12352 12353 12354 12355 12356 12357 12358 12359 12360 12361 12362 12363 12364 12365 12366 12367 12368 12369 12370 12371 12372 12373 12374 12375 12376 12377 12378 12379 12380 12381 12382 12383 12384 12385 12386 12387 12388 12389 12390 12391 12392 12393 12394 12395 12396 12397 12398 12399 12400 12401 12402 12403 12404 12405 12406 12407 12408 12409 12410 12411 12412 12413 12414 12415 12416 12417 12418 12419 12420 12421 12422 12423 12424 12425 12426 12427 12428 12429 12430 12431 12432 12433 12434 12435 12436 12437 12438 12439 12440 12441 12442 12443 12444 12445 12446 12447 12448 12449 12450 12451 12452 12453 12454 12455 12456 12457 12458 12459 12460 12461 12462 12463 12464 12465 12466 12467 12468 12469 12470 12471 12472 12473 12474 12475 12476 12477 12478 12479 12480 12481 12482 12483 12484 12485 12486 12487 12488 12489 12490 12491 12492 12493 12494 12495 12496 12497 12498 12499 12500 12501 12502 12503 12504 12505 12506 12507 12508 12509 12510 12511 12512 12513 12514 12515 12516 12517 12518 12519 12520 12521 12522 12523 12524 12525 12526 12527 12528 12529 12530 12531 12532 12533 12534 12535 12536 12537 12538 12539 12540 12541 12542 12543 12544 12545 12546 12547 12548 12549 12550 12551 12552 12553 12554 12555 12556 12557 12558 12559 12560 12561 12562 12563 12564 12565 12566 12567 12568 12569 12570 12571 12572 12573 12574 12575 12576 12577 12578 12579 12580 12581 12582 12583 12584 12585 12586 12587 12588 12589 12590 12591 12592 12593 12594 12595 12596 12597 12598 12599 12600 12601 12602 12603 12604 12605 12606 12607 12608 12609 12610 12611 12612 12613 12614 12615 12616 12617 12618 12619 12620 12621 12622 12623 12624 12625 12626 12627 12628 12629 12630 12631 12632 12633 12634 12635 12636 12637 12638 12639 12640 12641 12642 12643 12644 12645 12646 12647 12648 12649 12650 12651 12652 12653 12654 12655 12656 12657 12658 12659 12660 12661 12662 12663 12664 12665 12666 12667 12668 12669 12670 12671 12672 12673 12674 12675 12676 12677 12678 12679 12680 12681 12682 12683 12684 12685 12686 12687 12688 12689 12690 12691 12692 12693 12694 12695 12696 12697 12698 12699 12700 12701 12702 12703 12704 12705 12706 12707 12708 12709 12710 12711 12712 12713 12714 12715 12716 12717 12718 12719 12720 12721 12722 12723 12724 12725 12726 12727 12728 12729 12730 12731 12732 12733 12734 12735 12736 12737 12738 12739 12740 12741 12742 12743 12744 12745 12746 12747 12748 12749 12750 12751 12752 12753 12754 12755 12756 12757 12758 12759 12760 12761 12762 12763 12764 12765 12766 12767 12768 12769 12770 12771 12772 12773 12774 12775 12776 12777 12778 12779 12780 12781 12782 12783 12784 12785 12786 12787 12788 12789 12790 12791 12792 12793 12794 12795 12796 12797 12798 12799 12800 12801 12802 12803 12804 12805 12806 12807 12808 12809 12810 12811 12812 12813 12814 12815 12816 12817 12818 12819 12820 12821 12822 12823 12824 12825 12826 12827 12828 12829 12830 12831 12832 12833 12834 12835 12836 12837 12838 12839 12840 12841 12842 12843 12844 12845 12846 12847 12848 12849 12850 12851 12852 12853 12854 12855 12856 12857 12858 12859 12860 12861 12862 12863 12864 12865 12866 12867 12868 12869 12870 12871 12872 12873 12874 12875 12876 12877 12878 12879 12880 12881 12882 12883 12884 12885 12886 12887 12888 12889 12890 12891 12892 12893 12894 12895 12896 12897 12898 12899 12900 12901 12902 12903 12904 12905 12906 12907 12908 12909 12910 12911 12912 12913 12914 12915 12916 12917 12918 12919 12920 12921 12922 12923 12924 12925 12926 12927 12928 12929 12930 12931 12932 12933 12934 12935 12936 12937 12938 12939 12940 12941 12942 12943 12944 12945 12946 12947 12948 12949 12950 12951 12952 12953 12954 12955 12956 12957 12958 12959 12960 12961 12962 12963 12964 12965 12966 12967 12968 12969 12970 12971 12972 12973 12974 12975 12976 12977 12978 12979 12980 12981 12982 12983 12984 12985 12986 12987 12988 12989 12990 12991 12992 12993 12994 12995 12996 12997 12998 12999 13000 13001 13002 13003 13004 13005 13006 13007 13008 13009 13010 13011 13012 13013 13014 13015 13016 13017 13018 13019 13020 13021 13022 13023 13024 13025 13026 13027 13028 13029 13030 13031 13032 13033 13034 13035 13036 13037 13038 13039 13040 13041 13042 13043 13044 13045 13046 13047 13048 13049 13050 13051 13052 13053 13054 13055 13056 13057 13058 13059 13060 13061 13062 13063 13064 13065 13066 13067 13068 13069 13070 13071 13072 13073 13074 13075 13076 13077 13078 13079 13080 13081 13082 13083 13084 13085 13086 13087 13088 13089 13090 13091 13092 13093 13094 13095 13096 13097 13098 13099 13100 13101 13102 13103 13104 13105 13106 13107 13108 13109 13110 13111 13112 13113 13114 13115 13116 13117 13118 13119 13120 13121 13122 13123 13124 13125 13126 13127 13128 13129 13130 13131 13132 13133 13134 13135 13136 13137 13138 13139 13140 13141 13142 13143 13144 13145 13146 13147 13148 13149 13150 13151 13152 13153 13154 13155 13156 13157 13158 13159 13160 13161 13162 13163 13164 13165 13166 13167 13168 13169 13170 13171 13172 13173 13174 13175 13176 13177 13178 13179 13180 13181 13182 13183 13184 13185 13186 13187 13188 13189 13190 13191 13192 13193 13194 13195 13196 13197 13198 13199 13200 13201 13202 13203 13204 13205 13206 13207 13208 13209 13210 13211 13212 13213 13214 13215 13216 13217 13218 13219 13220 13221 13222 13223 13224 13225 13226 13227 13228 13229 13230 13231 13232 13233 13234 13235 13236 13237 13238 13239 13240 13241 13242 13243 13244 13245 13246 13247 13248 13249 13250 13251 13252 13253 13254 13255 13256 13257 13258 13259 13260 13261 13262 13263 13264 13265 13266 13267 13268 13269 13270 13271 13272 13273 13274 13275 13276 13277 13278 13279 13280 13281 13282 13283 13284 13285 13286 13287 13288 13289 13290 13291 13292 13293 13294 13295 13296 13297 13298 13299 13300 13301 13302 13303 13304 13305 13306 13307 13308 13309 13310 13311 13312 13313 13314 13315 13316 13317 13318 13319 13320 13321 13322 13323 13324 13325 13326 13327 13328 13329 13330 13331 13332 13333 13334 13335 13336 13337 13338 13339 13340 13341 13342 13343 13344 13345 13346 13347 13348 13349 13350 13351 13352 13353 13354 13355 13356 13357 13358 13359 13360 13361 13362 13363 13364 13365 13366 13367 13368 13369 13370 13371 13372 13373 13374 13375 13376 13377 13378 13379 13380 13381 13382 13383 13384 13385 13386 13387 13388 13389 13390 13391 13392 13393 13394 13395 13396 13397 13398 13399 13400 13401 13402 13403 13404 13405 13406 13407 13408 13409 13410 13411 13412 13413 13414 13415 13416 13417 13418 13419 13420 13421 13422 13423 13424 13425 13426 13427 13428 13429 13430 13431 13432 13433 13434 13435 13436 13437 13438 13439 13440 13441 13442 13443 13444 13445 13446 13447 13448 13449 13450 13451 13452 13453 13454 13455 13456 13457 13458 13459 13460 13461 13462 13463 13464 13465 13466 13467 13468 13469 13470 13471 13472 13473 13474 13475 13476 13477 13478 13479 13480 13481 13482 13483 13484 13485 13486 13487 13488 13489 13490 13491 13492 13493 13494 13495 13496 13497 13498 13499 13500 13501 13502 13503 13504 13505 13506 13507 13508 13509 13510 13511 13512 13513 13514 13515 13516 13517 13518 13519 13520 13521 13522 13523 13524 13525 13526 13527 13528 13529 13530 13531 13532 13533 13534 13535 13536 13537 13538 13539 13540 13541 13542 13543 13544 13545 13546 13547 13548 13549 13550 13551 13552 13553 13554 13555 13556 13557 13558 13559 13560 13561 13562 13563 13564 13565 13566 13567 13568 13569 13570 13571 13572 13573 13574 13575 13576 13577 13578 13579 13580 13581 13582 13583 13584 13585 13586 13587 13588 13589 13590 13591 13592 13593 13594 13595 13596 13597 13598 13599 13600 13601 13602 13603 13604 13605 13606 13607 13608 13609 13610 13611 13612 13613 13614 13615 13616 13617 13618 13619 13620 13621 13622 13623 13624 13625 13626 13627 13628 13629 13630 13631 13632 13633 13634 13635 13636 13637 13638 13639 13640 13641 13642 13643 13644 13645 13646 13647 13648 13649 13650 13651 13652 13653 13654 13655 13656 13657 13658 13659 13660 13661 13662 13663 13664 13665 13666 13667 13668 13669 13670 13671 13672 13673 13674 13675 13676 13677 13678 13679 13680 13681 13682 13683 13684 13685 13686 13687 13688 13689 13690 13691 13692 13693 13694 13695 13696 13697 13698 13699 13700 13701 13702 13703 13704 13705 13706 13707 13708 13709 13710 13711 13712 13713 13714 13715 13716 13717 13718 13719 13720 13721 13722 13723 13724 13725 13726 13727 13728 13729 13730 13731 13732 13733 13734 13735 13736 13737 13738 13739 13740 13741 13742 13743 13744 13745 13746 13747 13748 13749 13750 13751 13752 13753 13754 13755 13756 13757 13758 13759 13760 13761 13762 13763 13764 13765 13766 13767 13768 13769 13770 13771 13772 13773 13774 13775 13776 13777 13778 13779 13780 13781 13782 13783 13784 13785 13786 13787 13788 13789 13790 13791 13792 13793 13794 13795 13796 13797 13798 13799 13800 13801 13802 13803 13804 13805 13806 13807 13808 13809 13810 13811 13812 13813 13814 13815 13816 13817 13818 13819 13820 13821 13822 13823 13824 13825 13826 13827 13828 13829 13830 13831 13832 13833 13834 13835 13836 13837 13838 13839 13840 13841 13842 13843 13844 13845 13846 13847 13848 13849 13850 13851 13852 13853 13854 13855 13856 13857 13858 13859 13860 13861 13862 13863 13864 13865 13866 13867 13868 13869 13870 13871 13872 13873 13874 13875 13876 13877 13878 13879 13880 13881 13882 13883 13884 13885 13886 13887 13888 13889 13890 13891 13892 13893 13894 13895 13896 13897 13898 13899 13900 13901 13902 13903 13904 13905 13906 13907 13908 13909 13910 13911 13912 13913 13914 13915 13916 13917 13918 13919 13920 13921 13922 13923 13924 13925 13926 13927 13928 13929 13930 13931 13932 13933 13934 13935 13936 13937 13938 13939 13940 13941 13942 13943 13944 13945 13946 13947 13948 13949 13950 13951 13952 13953 13954 13955 13956 13957 13958 13959 13960 13961 13962 13963 13964 13965 13966 13967 13968 13969 13970 13971 13972 13973 13974 13975 13976 13977 13978 13979 13980 13981 13982 13983 13984 13985 13986 13987 13988 13989 13990 13991 13992 13993 13994 13995 13996 13997 13998 13999 14000 14001 14002 14003 14004 14005 14006 14007 14008 14009 14010 14011 14012 14013 14014 14015 14016 14017 14018 14019 14020 14021 14022 14023 14024 14025 14026 14027 14028 14029 14030 14031 14032 14033 14034 14035 14036 14037 14038 14039 14040 14041 14042 14043 14044 14045 14046 14047 14048 14049 14050 14051 14052 14053 14054 14055 14056 14057 14058 14059 14060 14061 14062 14063 14064 14065 14066 14067 14068 14069 14070 14071 14072 14073 14074 14075 14076 14077 14078 14079 14080 14081 14082 14083 14084 14085 14086 14087 14088 14089 14090 14091 14092 14093 14094 14095 14096 14097 14098 14099 14100 14101 14102 14103 14104 14105 14106 14107 14108 14109 14110 14111 14112 14113 14114 14115 14116 14117 14118 14119 14120 14121 14122 14123 14124 14125 14126 14127 14128 14129 14130 14131 14132 14133 14134 14135 14136 14137 14138 14139 14140 14141 14142 14143 14144 14145 14146 14147 14148 14149 14150 14151 14152 14153 14154 14155 14156 14157 14158 14159 14160 14161 14162 14163 14164 14165 14166 14167 14168 14169 14170 14171 14172 14173 14174 14175 14176 14177 14178 14179 14180 14181 14182 14183 14184 14185 14186 14187 14188 14189 14190 14191 14192 14193 14194 14195 14196 14197 14198 14199 14200 14201 14202 14203 14204 14205 14206 14207 14208 14209 14210 14211 14212 14213 14214 14215 14216 14217 14218 14219 14220 14221 14222 14223 14224 14225 14226 14227 14228 14229 14230 14231 14232 14233 14234 14235 14236 14237 14238 14239 14240 14241 14242 14243 14244 14245 14246 14247 14248 14249 14250 14251 14252 14253 14254 14255 14256 14257 14258 14259 14260 14261 14262 14263 14264 14265 14266 14267 14268 14269 14270 14271 14272 14273 14274 14275 14276 14277 14278 14279 14280 14281 14282 14283 14284 14285 14286 14287 14288 14289 14290 14291 14292 14293 14294 14295 14296 14297 14298 14299 14300 14301 14302 14303 14304 14305 14306 14307 14308 14309 14310 14311 14312 14313 14314 14315 14316 14317 14318 14319 14320 14321 14322 14323 14324 14325 14326 14327 14328 14329 14330 14331 14332 14333 14334 14335 14336 14337 14338 14339 14340 14341 14342 14343 14344 14345 14346 14347 14348 14349 14350 14351 14352 14353 14354 14355 14356 14357 14358 14359 14360 14361 14362 14363 14364 14365 14366 14367 14368 14369 14370 14371 14372 14373 14374 14375 14376 14377 14378 14379 14380 14381 14382 14383 14384 14385 14386 14387 14388 14389 14390 14391 14392 14393 14394 14395 14396 14397 14398 14399 14400 14401 14402 14403 14404 14405 14406 14407 14408 14409 14410 14411 14412 14413 14414 14415 14416 14417 14418 14419 14420 14421 14422 14423 14424 14425 14426 14427 14428 14429 14430 14431 14432 14433 14434 14435 14436 14437 14438 14439 14440 14441 14442 14443 14444 14445 14446 14447 14448 14449 14450 14451 14452 14453 14454 14455 14456 14457 14458 14459 14460 14461 14462 14463 14464 14465 14466 14467 14468 14469 14470 14471 14472 14473 14474 14475 14476 14477 14478 14479 14480 14481 14482 14483 14484 14485 14486 14487 14488 14489 14490 14491 14492 14493 14494 14495 14496 14497 14498 14499 14500 14501 14502 14503 14504 14505 14506 14507 14508 14509 14510 14511 14512 14513 14514 14515 14516 14517 14518 14519 14520 14521 14522 14523 14524 14525 14526 14527 14528 14529 14530 14531 14532 14533 14534 14535 14536 14537 14538 14539 14540 14541 14542 14543 14544 14545 14546 14547 14548 14549 14550 14551 14552 14553 14554 14555 14556 14557 14558 14559 14560 14561 14562 14563 14564 14565 14566 14567 14568 14569 14570 14571 14572 14573 14574 14575 14576 14577 14578 14579 14580 14581 14582 14583 14584 14585 14586 14587 14588 14589 14590 14591 14592 14593 14594 14595 14596 14597 14598 14599 14600 14601 14602 14603 14604 14605 14606 14607 14608 14609 14610 14611 14612 14613 14614 14615 14616 14617 14618 14619 14620 14621 14622 14623 14624 14625 14626 14627 14628 14629 14630 14631 14632 14633 14634 14635 14636 14637 14638 14639 14640 14641 14642 14643 14644 14645 14646 14647 14648 14649 14650 14651 14652 14653 14654 14655 14656 14657 14658 14659 14660 14661 14662 14663 14664 14665 14666 14667 14668 14669 14670 14671 14672 14673 14674 14675 14676 14677 14678 14679 14680 14681 14682 14683 14684 14685 14686 14687 14688 14689 14690 14691 14692 14693 14694 14695 14696 14697 14698 14699 14700 14701 14702 14703 14704 14705 14706 14707 14708 14709 14710 14711 14712 14713 14714 14715 14716 14717 14718 14719 14720 14721 14722 14723 14724 14725 14726 14727 14728 14729 14730 14731 14732 14733 14734 14735 14736 14737 14738 14739 14740 14741 14742 14743 14744 14745 14746 14747 14748 14749 14750 14751 14752 14753 14754 14755 14756 14757 14758 14759 14760 14761 14762 14763 14764 14765 14766 14767 14768 14769 14770 14771 14772 14773 14774 14775 14776 14777 14778 14779 14780 14781 14782 14783 14784 14785 14786 14787 14788 14789 14790 14791 14792 14793 14794 14795 14796 14797 14798 14799 14800 14801 14802 14803 14804 14805 14806 14807 14808 14809 14810 14811 14812 14813 14814 14815 14816 14817 14818 14819 14820 14821 14822 14823 14824 14825 14826 14827 14828 14829 14830 14831 14832 14833 14834 14835 14836 14837 14838 14839 14840 14841 14842 14843 14844 14845 14846 14847 14848 14849 14850 14851 14852 14853 14854 14855 14856 14857 14858 14859 14860 14861 14862 14863 14864 14865 14866 14867 14868 14869 14870 14871 14872 14873 14874 14875 14876 14877 14878 14879 14880 14881 14882 14883 14884 14885 14886 14887 14888 14889 14890 14891 14892 14893 14894 14895 14896 14897 14898 14899 14900 14901 14902 14903 14904 14905 14906 14907 14908 14909 14910 14911 14912 14913 14914 14915 14916 14917 14918 14919 14920 14921 14922 14923 14924 14925 14926 14927 14928 14929 14930 14931 14932 14933 14934 14935 14936 14937 14938 14939 14940 14941 14942 14943 14944 14945 14946 14947 14948 14949 14950 14951 14952 14953 14954 14955 14956 14957 14958 14959 14960 14961 14962 14963 14964 14965 14966 14967 14968 14969 14970 14971 14972 14973 14974 14975 14976 14977 14978 14979 14980 14981 14982 14983 14984 14985 14986 14987 14988 14989 14990 14991 14992 14993 14994 14995 14996 14997 14998 14999 15000 15001 15002 15003 15004 15005 15006 15007 15008 15009 15010 15011 15012 15013 15014 15015 15016 15017 15018 15019 15020 15021 15022 15023 15024 15025 15026 15027 15028 15029 15030 15031 15032 15033 15034 15035 15036 15037 15038 15039 15040 15041 15042 15043 15044 15045 15046 15047 15048 15049 15050 15051 15052 15053 15054 15055 15056 15057 15058 15059 15060 15061 15062 15063 15064 15065 15066 15067 15068 15069 15070 15071 15072 15073 15074 15075 15076 15077 15078 15079 15080 15081 15082 15083 15084 15085 15086 15087 15088 15089 15090 15091 15092 15093 15094 15095 15096 15097 15098 15099 15100 15101 15102 15103 15104 15105 15106 15107 15108 15109 15110 15111 15112 15113 15114 15115 15116 15117 15118 15119 15120 15121 15122 15123 15124 15125 15126 15127 15128 15129 15130 15131 15132 15133 15134 15135 15136 15137 15138 15139 15140 15141 15142 15143 15144 15145 15146 15147 15148 15149 15150 15151 15152 15153 15154 15155 15156 15157 15158 15159 15160 15161 15162 15163 15164 15165 15166 15167 15168 15169 15170 15171 15172 15173 15174 15175 15176 15177 15178 15179 15180 15181 15182 15183 15184 15185 15186 15187 15188 15189 15190 15191 15192 15193 15194 15195 15196 15197 15198 15199 15200 15201 15202 15203 15204 15205 15206 15207 15208 15209 15210 15211 15212 15213 15214 15215 15216 15217 15218 15219 15220 15221 15222 15223 15224 15225 15226 15227 15228 15229 15230 15231 15232 15233 15234 15235 15236 15237 15238 15239 15240 15241 15242 15243 15244 15245 15246 15247 15248 15249 15250 15251 15252 15253 15254 15255 15256 15257 15258 15259 15260 15261 15262 15263 15264 15265 15266 15267 15268 15269 15270 15271 15272 15273 15274 15275 15276 15277 15278 15279 15280 15281 15282 15283 15284 15285 15286 15287 15288 15289 15290 15291 15292 15293 15294 15295 15296 15297 15298 15299 15300 15301 15302 15303 15304 15305 15306 15307 15308 15309 15310 15311 15312 15313 15314 15315 15316 15317 15318 15319 15320 15321 15322 15323 15324 15325 15326 15327 15328 15329 15330 15331 15332 15333 15334 15335 15336 15337 15338 15339 15340 15341 15342 15343 15344 15345 15346 15347 15348 15349 15350 15351 15352 15353 15354 15355 15356 15357 15358 15359 15360 15361 15362 15363 15364 15365 15366 15367 15368 15369 15370 15371 15372 15373 15374 15375 15376 15377 15378 15379 15380 15381 15382 15383 15384 15385 15386 15387 15388 15389 15390 15391 15392 15393 15394 15395 15396 15397 15398 15399 15400 15401 15402 15403 15404 15405 15406 15407 15408 15409 15410 15411 15412 15413 15414 15415 15416 15417 15418 15419 15420 15421 15422 15423 15424 15425 15426 15427 15428 15429 15430 15431 15432 15433 15434 15435 15436 15437 15438 15439 15440 15441 15442 15443 15444 15445 15446 15447 15448 15449 15450 15451 15452 15453 15454 15455 15456 15457 15458 15459 15460 15461 15462 15463 15464 15465 15466 15467 15468 15469 15470 15471 15472 15473 15474 15475 15476 15477 15478 15479 15480 15481 15482 15483 15484 15485 15486 15487 15488 15489 15490 15491 15492 15493 15494 15495 15496 15497 15498 15499 15500 15501 15502 15503 15504 15505 15506 15507 15508 15509 15510 15511 15512 15513 15514 15515 15516 15517 15518 15519 15520 15521 15522 15523 15524 15525 15526 15527 15528 15529 15530 15531 15532 15533 15534 15535 15536 15537 15538 15539 15540 15541 15542 15543 15544 15545 15546 15547 15548 15549 15550 15551 15552 15553 15554 15555 15556 15557 15558 15559 15560 15561 15562 15563 15564 15565 15566 15567 15568 15569 15570 15571 15572 15573 15574 15575 15576 15577 15578 15579 15580 15581 15582 15583 15584 15585 15586 15587 15588 15589 15590 15591 15592 15593 15594 15595 15596 15597 15598 15599 15600 15601 15602 15603 15604 15605 15606 15607 15608 15609 15610 15611 15612 15613 15614 15615 15616 15617 15618 15619 15620 15621 15622 15623 15624 15625 15626 15627 15628 15629 15630 15631 15632 15633 15634 15635 15636 15637 15638 15639 15640 15641 15642 15643 15644 15645 15646 15647 15648 15649 15650 15651 15652 15653 15654 15655 15656 15657 15658 15659 15660 15661 15662 15663 15664 15665 15666 15667 15668 15669 15670 15671 15672 15673 15674 15675 15676 15677 15678 15679 15680 15681 15682 15683 15684 15685 15686 15687 15688 15689 15690 15691 15692 15693 15694 15695 15696 15697 15698 15699 15700 15701 15702 15703 15704 15705 15706 15707 15708 15709 15710 15711 15712 15713 15714 15715 15716 15717 15718 15719 15720 15721 15722 15723 15724 15725 15726 15727 15728 15729 15730 15731 15732 15733 15734 15735 15736 15737 15738 15739 15740 15741 15742 15743 15744 15745 15746 15747 15748 15749 15750 15751 15752 15753 15754 15755 15756 15757 15758 15759 15760 15761 15762 15763 15764 15765 15766 15767 15768 15769 15770 15771 15772 15773 15774 15775 15776 15777 15778 15779 15780 15781 15782 15783 15784 15785 15786 15787 15788 15789 15790 15791 15792 15793 15794 15795 15796 15797 15798 15799 15800 15801 15802 15803 15804 15805 15806 15807 15808 15809 15810 15811 15812 15813 15814 15815 15816 15817 15818 15819 15820 15821 15822 15823 15824 15825 15826 15827 15828 15829 15830 15831 15832 15833 15834 15835 15836 15837 15838 15839 15840 15841 15842 15843 15844 15845 15846 15847 15848 15849 15850 15851 15852 15853 15854 15855 15856 15857 15858 15859 15860 15861 15862 15863 15864 15865 15866 15867 15868 15869 15870 15871 15872 15873 15874 15875 15876 15877 15878 15879 15880 15881 15882 15883 15884 15885 15886 15887 15888 15889 15890 15891 15892 15893 15894 15895 15896 15897 15898 15899 15900 15901 15902 15903 15904 15905 15906 15907 15908 15909 15910 15911 15912 15913 15914 15915 15916 15917 15918 15919 15920 15921 15922 15923 15924 15925 15926 15927 15928 15929 15930 15931 15932 15933 15934 15935 15936 15937 15938 15939 15940 15941 15942 15943 15944 15945 15946 15947 15948 15949 15950 15951 15952 15953 15954 15955 15956 15957 15958 15959 15960 15961 15962 15963 15964 15965 15966 15967 15968 15969 15970 15971 15972 15973 15974 15975 15976 15977 15978 15979 15980 15981 15982 15983 15984 15985 15986 15987 15988 15989 15990 15991 15992 15993 15994 15995 15996 15997 15998 15999 16000 16001 16002 16003 16004 16005 16006 16007 16008 16009 16010 16011 16012 16013 16014 16015 16016 16017 16018 16019 16020 16021 16022 16023 16024 16025 16026 16027 16028 16029 16030 16031 16032 16033 16034 16035 16036 16037 16038 16039 16040 16041 16042 16043 16044 16045 16046 16047 16048 16049 16050 16051 16052 16053 16054 16055 16056 16057 16058 16059 16060 16061 16062 16063 16064 16065 16066 16067 16068 16069 16070 16071 16072 16073 16074 16075 16076 16077 16078 16079 16080 16081 16082 16083 16084 16085 16086 16087 16088 16089 16090 16091 16092 16093 16094 16095 16096 16097 16098 16099 16100 16101 16102 16103 16104 16105 16106 16107 16108 16109 16110 16111 16112 16113 16114 16115 16116 16117 16118 16119 16120 16121 16122 16123 16124 16125 16126 16127 16128 16129 16130 16131 16132 16133 16134 16135 16136 16137 16138 16139 16140 16141 16142 16143 16144 16145 16146 16147 16148 16149 16150 16151 16152 16153 16154 16155 16156 16157 16158 16159 16160 16161 16162 16163 16164 16165 16166 16167 16168 16169 16170 16171 16172 16173 16174 16175 16176 16177 16178 16179 16180 16181 16182 16183 16184 16185 16186 16187 16188 16189 16190 16191 16192 16193 16194 16195 16196 16197 16198 16199 16200 16201 16202 16203 16204 16205 16206 16207 16208 16209 16210 16211 16212 16213 16214 16215 16216 16217 16218 16219 16220 16221 16222 16223 16224 16225 16226 16227 16228 16229 16230 16231 16232 16233 16234 16235 16236 16237 16238 16239 16240 16241 16242 16243 16244 16245 16246 16247 16248 16249 16250 16251 16252 16253 16254 16255 16256 16257 16258 16259 16260 16261 16262 16263 16264 16265 16266 16267 16268 16269 16270 16271 16272 16273 16274 16275 16276 16277 16278 16279 16280 16281 16282 16283 16284 16285 16286 16287 16288 16289 16290 16291 16292 16293 16294 16295 16296 16297 16298 16299 16300 16301 16302 16303 16304 16305 16306 16307 16308 16309 16310 16311 16312 16313 16314 16315 16316 16317 16318 16319 16320 16321 16322 16323 16324 16325 16326 16327 16328 16329 16330 16331 16332 16333 16334 16335 16336 16337 16338 16339 16340 16341 16342 16343 16344 16345 16346 16347 16348 16349 16350 16351 16352 16353 16354 16355 16356 16357 16358 16359 16360 16361 16362 16363 16364 16365 16366 16367 16368 16369 16370 16371 16372 16373 16374 16375 16376 16377 16378 16379 16380 16381 16382 16383 16384 16385 16386 16387 16388 16389 16390 16391 16392 16393 16394 16395 16396 16397 16398 16399 16400 16401 16402 16403 16404 16405 16406 16407 16408 16409 16410 16411 16412 16413 16414 16415 16416 16417 16418 16419 16420 16421 16422 16423 16424 16425 16426 16427 16428 16429 16430 16431 16432 16433 16434 16435 16436 16437 16438 16439 16440 16441 16442 16443 16444 16445 16446 16447 16448 16449 16450 16451 16452 16453 16454 16455 16456 16457 16458 16459 16460 16461 16462 16463 16464 16465 16466 16467 16468 16469 16470 16471 16472 16473 16474 16475 16476 16477 16478 16479 16480 16481 16482 16483 16484 16485 16486 16487 16488 16489 16490 16491 16492 16493 16494 16495 16496 16497 16498 16499 16500 16501 16502 16503 16504 16505 16506 16507 16508 16509 16510 16511 16512 16513 16514 16515 16516 16517 16518 16519 16520 16521 16522 16523 16524 16525 16526 16527 16528 16529 16530 16531 16532 16533 16534 16535 16536 16537 16538 16539 16540 16541 16542 16543 16544 16545 16546 16547 16548 16549 16550 16551 16552 16553 16554 16555 16556 16557 16558 16559 16560 16561 16562 16563 16564 16565 16566 16567 16568 16569 16570 16571 16572 16573 16574 16575 16576 16577 16578 16579 16580 16581 16582 16583 16584 16585 16586 16587 16588 16589 16590 16591 16592 16593 16594 16595 16596 16597 16598 16599 16600 16601 16602 16603 16604 16605 16606 16607 16608 16609 16610 16611 16612 16613 16614 16615 16616 16617 16618 16619 16620 16621 16622 16623 16624 16625 16626 16627 16628 16629 16630 16631 16632 16633 16634 16635 16636 16637 16638 16639 16640 16641 16642 16643 16644 16645 16646 16647 16648 16649 16650 16651 16652 16653 16654 16655 16656 16657 16658 16659 16660 16661 16662 16663 16664 16665 16666 16667 16668 16669 16670 16671 16672 16673 16674 16675 16676 16677 16678 16679 16680 16681 16682 16683 16684 16685 16686 16687 16688 16689 16690 16691 16692 16693 16694 16695 16696 16697 16698 16699 16700 16701 16702 16703 16704 16705 16706 16707 16708 16709 16710 16711 16712 16713 16714 16715 16716 16717 16718 16719 16720 16721 16722 16723 16724 16725 16726 16727 16728 16729 16730 16731 16732 16733 16734 16735 16736 16737 16738 16739 16740 16741 16742 16743 16744 16745 16746 16747 16748 16749 16750 16751 16752 16753 16754 16755 16756 16757 16758 16759 16760 16761 16762 16763 16764 16765 16766 16767 16768 16769 16770 16771 16772 16773 16774 16775 16776 16777 16778 16779 16780 16781 16782 16783 16784 16785 16786 16787 16788 16789 16790 16791 16792 16793 16794 16795 16796 16797 16798 16799 16800 16801 16802 16803 16804 16805 16806 16807 16808 16809 16810 16811 16812 16813 16814 16815 16816 16817 16818 16819 16820 16821 16822 16823 16824 16825 16826 16827 16828 16829 16830 16831 16832 16833 16834 16835 16836 16837 16838 16839 16840 16841 16842 16843 16844 16845 16846 16847 16848 16849 16850 16851 16852 16853 16854 16855 16856 16857 16858 16859 16860 16861 16862 16863 16864 16865 16866 16867 16868 16869 16870 16871 16872 16873 16874 16875 16876 16877 16878 16879 16880 16881 16882 16883 16884 16885 16886 16887 16888 16889 16890 16891 16892 16893 16894 16895 16896 16897 16898 16899 16900 16901 16902 16903 16904 16905 16906 16907 16908 16909 16910 16911 16912 16913 16914 16915 16916 16917 16918 16919 16920 16921 16922 16923 16924 16925 16926 16927 16928 16929 16930 16931 16932 16933 16934 16935 16936 16937 16938 16939 16940 16941 16942 16943 16944 16945 16946 16947 16948 16949 16950 16951 16952 16953 16954 16955 16956 16957 16958 16959 16960 16961 16962 16963 16964 16965 16966 16967 16968 16969 16970 16971 16972 16973 16974 16975 16976 16977 16978 16979 16980 16981 16982 16983 16984 16985 16986 16987 16988 16989 16990 16991 16992 16993 16994 16995 16996 16997 16998 16999 17000 17001 17002 17003 17004 17005 17006 17007 17008 17009 17010 17011 17012 17013 17014 17015 17016 17017 17018 17019 17020 17021 17022 17023 17024 17025 17026 17027 17028 17029 17030 17031 17032 17033 17034 17035 17036 17037 17038 17039 17040 17041 17042 17043 17044 17045 17046 17047 17048 17049 17050 17051 17052 17053 17054 17055 17056 17057 17058 17059 17060 17061 17062 17063 17064 17065 17066 17067 17068 17069 17070 17071 17072 17073 17074 17075 17076 17077 17078 17079 17080 17081 17082 17083 17084 17085 17086 17087 17088 17089 17090 17091 17092 17093 17094 17095 17096 17097 17098 17099 17100 17101 17102 17103 17104 17105 17106 17107 17108 17109 17110 17111 17112 17113 17114 17115 17116 17117 17118 17119 17120 17121 17122 17123 17124 17125 17126 17127 17128 17129 17130 17131 17132 17133 17134 17135 17136 17137 17138 17139 17140 17141 17142 17143 17144 17145 17146 17147 17148 17149 17150 17151 17152 17153 17154 17155 17156 17157 17158 17159 17160 17161 17162 17163 17164 17165 17166 17167 17168 17169 17170 17171 17172 17173 17174 17175 17176 17177 17178 17179 17180 17181 17182 17183 17184 17185 17186 17187 17188 17189 17190 17191 17192 17193 17194 17195 17196 17197 17198 17199 17200 17201 17202 17203 17204 17205 17206 17207 17208 17209 17210 17211 17212 17213 17214 17215 17216 17217 17218 17219 17220 17221 17222 17223 17224 17225 17226 17227 17228 17229 17230 17231 17232 17233 17234 17235 17236 17237 17238 17239 17240 17241 17242 17243 17244 17245 17246 17247 17248 17249 17250 17251 17252 17253 17254 17255 17256 17257 17258 17259 17260 17261 17262 17263 17264 17265 17266 17267 17268 17269 17270 17271 17272 17273 17274 17275 17276 17277 17278 17279 17280 17281 17282 17283 17284 17285 17286 17287 17288 17289 17290 17291 17292 17293 17294 17295 17296 17297 17298 17299 17300 17301 17302 17303 17304 17305 17306 17307 17308 17309 17310 17311 17312 17313 17314 17315 17316 17317 17318 17319 17320 17321 17322 17323 17324 17325 17326 17327 17328 17329 17330 17331 17332 17333 17334 17335 17336 17337 17338 17339 17340 17341 17342 17343 17344 17345 17346 17347 17348 17349 17350 17351 17352 17353 17354 17355 17356 17357 17358 17359 17360 17361 17362 17363 17364 17365 17366 17367 17368 17369 17370 17371 17372 17373 17374 17375 17376 17377 17378 17379 17380 17381 17382 17383 17384 17385 17386 17387 17388 17389 17390 17391 17392 17393 17394 17395 17396 17397 17398 17399 17400 17401 17402 17403 17404 17405 17406 17407 17408 17409 17410 17411 17412 17413 17414 17415 17416 17417 17418 17419 17420 17421 17422 17423 17424 17425 17426 17427 17428 17429 17430 17431 17432 17433 17434 17435 17436 17437 17438 17439 17440 17441 17442 17443 17444 17445 17446 17447 17448 17449 17450 17451 17452 17453 17454 17455 17456 17457 17458 17459 17460 17461 17462 17463 17464 17465 17466 17467 17468 17469 17470 17471 17472 17473 17474 17475 17476 17477 17478 17479 17480 17481 17482 17483 17484 17485 17486 17487 17488 17489 17490 17491 17492 17493 17494 17495 17496 17497 17498 17499 17500 17501 17502 17503 17504 17505 17506 17507 17508 17509 17510 17511 17512 17513 17514 17515 17516 17517 17518 17519 17520 17521 17522 17523 17524 17525 17526 17527 17528 17529 17530 17531 17532 17533 17534 17535 17536 17537 17538 17539 17540 17541 17542 17543 17544 17545 17546 17547 17548 17549 17550 17551 17552 17553 17554 17555 17556 17557 17558 17559 17560 17561 17562 17563 17564 17565 17566 17567 17568 17569 17570 17571 17572 17573 17574 17575 17576 17577 17578 17579 17580 17581 17582 17583 17584 17585 17586 17587 17588 17589 17590 17591 17592 17593 17594 17595 17596 17597 17598 17599 17600 17601 17602 17603 17604 17605 17606 17607 17608 17609 17610 17611 17612 17613 17614 17615 17616 17617 17618 17619 17620 17621 17622 17623 17624 17625 17626 17627 17628 17629 17630 17631 17632 17633 17634 17635 17636 17637 17638 17639 17640 17641 17642 17643 17644 17645 17646 17647 17648 17649 17650 17651 17652 17653 17654 17655 17656 17657 17658 17659 17660 17661 17662 17663 17664 17665 17666 17667 17668 17669 17670 17671 17672 17673 17674 17675 17676 17677 17678 17679 17680 17681 17682 17683 17684 17685 17686 17687 17688 17689 17690 17691 17692 17693 17694 17695 17696 17697 17698 17699 17700 17701 17702 17703 17704 17705 17706 17707 17708 17709 17710 17711 17712 17713 17714 17715 17716 17717 17718 17719 17720 17721 17722 17723 17724 17725 17726 17727 17728 17729 17730 17731 17732 17733 17734 17735 17736 17737 17738 17739 17740 17741 17742 17743 17744 17745 17746 17747 17748 17749 17750 17751 17752 17753 17754 17755 17756 17757 17758 17759 17760 17761 17762 17763 17764 17765 17766 17767 17768 17769 17770 17771 17772 17773 17774 17775 17776 17777 17778 17779 17780 17781 17782 17783 17784 17785 17786 17787 17788 17789 17790 17791 17792 17793 17794 17795 17796 17797 17798 17799 17800 17801 17802 17803 17804 17805 17806 17807 17808 17809 17810 17811 17812 17813 17814 17815 17816 17817 17818 17819 17820 17821 17822 17823 17824 17825 17826 17827 17828 17829 17830 17831 17832 17833 17834 17835 17836 17837 17838 17839 17840 17841 17842 17843 17844 17845 17846 17847 17848 17849 17850 17851 17852 17853 17854 17855 17856 17857 17858 17859 17860 17861 17862 17863 17864 17865 17866 17867 17868 17869 17870 17871 17872 17873 17874 17875 17876 17877 17878 17879 17880 17881 17882 17883 17884 17885 17886 17887 17888 17889 17890 17891 17892 17893 17894 17895 17896 17897 17898 17899 17900 17901 17902 17903 17904 17905 17906 17907 17908 17909 17910 17911 17912 17913 17914 17915 17916 17917 17918 17919 17920 17921 17922 17923 17924 17925 17926 17927 17928 17929 17930 17931 17932 17933 17934 17935 17936 17937 17938 17939 17940 17941 17942 17943 17944 17945 17946 17947 17948 17949 17950 17951 17952 17953 17954 17955 17956 17957 17958 17959 17960 17961 17962 17963 17964 17965 17966 17967 17968 17969 17970 17971 17972 17973 17974 17975 17976 17977 17978 17979 17980 17981 17982 17983 17984 17985 17986 17987 17988 17989 17990 17991 17992 17993 17994 17995 17996 17997 17998 17999 18000 18001 18002 18003 18004 18005 18006 18007 18008 18009 18010 18011 18012 18013 18014 18015 18016 18017 18018 18019 18020 18021 18022 18023 18024 18025 18026 18027 18028 18029 18030 18031 18032 18033 18034 18035 18036 18037 18038 18039 18040 18041 18042 18043 18044 18045 18046 18047 18048 18049 18050 18051 18052 18053 18054 18055 18056 18057 18058 18059 18060 18061 18062 18063 18064 18065 18066 18067 18068 18069 18070 18071 18072 18073 18074 18075 18076 18077 18078 18079 18080 18081 18082 18083 18084 18085 18086 18087 18088 18089 18090 18091 18092 18093 18094 18095 18096 18097 18098 18099 18100 18101 18102 18103 18104 18105 18106 18107 18108 18109 18110 18111 18112 18113 18114 18115 18116 18117 18118 18119 18120 18121 18122 18123 18124 18125 18126 18127 18128 18129 18130 18131 18132 18133 18134 18135 18136 18137 18138 18139 18140 18141 18142 18143 18144 18145 18146 18147 18148 18149 18150 18151 18152 18153 18154 18155 18156 18157 18158 18159 18160 18161 18162 18163 18164 18165 18166 18167 18168 18169 18170 18171 18172 18173 18174 18175 18176 18177 18178 18179 18180 18181 18182 18183 18184 18185 18186 18187 18188 18189 18190 18191 18192 18193 18194 18195 18196 18197 18198 18199 18200 18201 18202 18203 18204 18205 18206 18207 18208 18209 18210 18211 18212 18213 18214 18215 18216 18217 18218 18219 18220 18221 18222 18223 18224 18225 18226 18227 18228 18229 18230 18231 18232 18233 18234 18235 18236 18237 18238 18239 18240 18241 18242 18243 18244 18245 18246 18247 18248 18249 18250 18251 18252 18253 18254 18255 18256 18257 18258 18259 18260 18261 18262 18263 18264 18265 18266 18267 18268 18269 18270 18271 18272 18273 18274 18275 18276 18277 18278 18279 18280 18281 18282 18283 18284 18285 18286 18287 18288 18289 18290 18291 18292 18293 18294 18295 18296 18297 18298 18299 18300 18301 18302 18303 18304 18305 18306 18307 18308 18309 18310 18311 18312 18313 18314 18315 18316 18317 18318 18319 18320 18321 18322 18323 18324 18325 18326 18327 18328 18329 18330 18331 18332 18333 18334 18335 18336 18337 18338 18339 18340 18341 18342 18343 18344 18345 18346 18347 18348 18349 18350 18351 18352 18353 18354 18355 18356 18357 18358 18359 18360 18361 18362 18363 18364 18365 18366 18367 18368 18369 18370 18371 18372 18373 18374 18375 18376 18377 18378 18379 18380 18381 18382 18383 18384 18385 18386 18387 18388 18389 18390 18391 18392 18393 18394 18395 18396 18397 18398 18399 18400 18401 18402 18403 18404 18405 18406 18407 18408 18409 18410 18411 18412 18413 18414 18415 18416 18417 18418 18419 18420 18421 18422 18423 18424 18425 18426 18427 18428 18429 18430 18431 18432 18433 18434 18435 18436 18437 18438 18439 18440 18441 18442 18443 18444 18445 18446 18447 18448 18449 18450 18451 18452 18453 18454 18455 18456 18457 18458 18459 18460 18461 18462 18463 18464 18465 18466 18467 18468 18469 18470 18471 18472 18473 18474 18475 18476 18477 18478 18479 18480 18481 18482 18483 18484 18485 18486 18487 18488 18489 18490 18491 18492 18493 18494 18495 18496 18497 18498 18499 18500 18501 18502 18503 18504 18505 18506 18507 18508 18509 18510 18511 18512 18513 18514 18515 18516 18517 18518 18519 18520 18521 18522 18523 18524 18525 18526 18527 18528 18529 18530 18531 18532 18533 18534 18535 18536 18537 18538 18539 18540 18541 18542 18543 18544 18545 18546 18547 18548 18549 18550 18551 18552 18553 18554 18555 18556 18557 18558 18559 18560 18561 18562 18563 18564 18565 18566 18567 18568 18569 18570 18571 18572 18573 18574 18575 18576 18577 18578 18579 18580 18581 18582 18583 18584 18585 18586 18587 18588 18589 18590 18591 18592 18593 18594 18595 18596 18597 18598 18599 18600 18601 18602 18603 18604 18605 18606 18607 18608 18609 18610 18611 18612 18613 18614 18615 18616 18617 18618 18619 18620 18621 18622 18623 18624 18625 18626 18627 18628 18629 18630 18631 18632 18633 18634 18635 18636 18637 18638 18639 18640 18641 18642 18643 18644 18645 18646 18647 18648 18649 18650 18651 18652 18653 18654 18655 18656 18657 18658 18659 18660 18661 18662 18663 18664 18665 18666 18667 18668 18669 18670 18671 18672 18673 18674 18675 18676 18677 18678 18679 18680 18681 18682 18683 18684 18685 18686 18687 18688 18689 18690 18691 18692 18693 18694 18695 18696 18697 18698 18699 18700 18701 18702 18703 18704 18705 18706 18707 18708 18709 18710 18711 18712 18713 18714 18715 18716 18717 18718 18719 18720 18721 18722 18723 18724 18725 18726 18727 18728 18729 18730 18731 18732 18733 18734 18735 18736 18737 18738 18739 18740 18741 18742 18743 18744 18745 18746 18747 18748 18749 18750 18751 18752 18753 18754 18755 18756 18757 18758 18759 18760 18761 18762 18763 18764 18765 18766 18767 18768 18769 18770 18771 18772 18773 18774 18775 18776 18777 18778 18779 18780 18781 18782 18783 18784 18785 18786 18787 18788 18789 18790 18791 18792 18793 18794 18795 18796 18797 18798 18799 18800 18801 18802 18803 18804 18805 18806 18807 18808 18809 18810 18811 18812 18813 18814 18815 18816 18817 18818 18819 18820 18821 18822 18823 18824 18825 18826 18827 18828 18829 18830 18831 18832 18833 18834 18835 18836 18837 18838 18839 18840 18841 18842 18843 18844 18845 18846 18847 18848 18849 18850 18851 18852 18853 18854 18855 18856 18857 18858 18859 18860 18861 18862 18863 18864 18865 18866 18867 18868 18869 18870 18871 18872 18873 18874 18875 18876 18877 18878 18879 18880 18881 18882 18883 18884 18885 18886 18887 18888 18889 18890 18891 18892 18893 18894 18895 18896 18897 18898 18899 18900 18901 18902 18903 18904 18905 18906 18907 18908 18909 18910 18911 18912 18913 18914 18915 18916 18917 18918 18919 18920 18921 18922 18923 18924 18925 18926 18927 18928 18929 18930 18931 18932 18933 18934 18935 18936 18937 18938 18939 18940 18941 18942 18943 18944 18945 18946 18947 18948 18949 18950 18951 18952 18953 18954 18955 18956 18957 18958 18959 18960 18961 18962 18963 18964 18965 18966 18967 18968 18969 18970 18971 18972 18973 18974 18975 18976 18977 18978 18979 18980 18981 18982 18983 18984 18985 18986 18987 18988 18989 18990 18991 18992 18993 18994 18995 18996 18997 18998 18999 19000 19001 19002 19003 19004 19005 19006 19007 19008 19009 19010 19011 19012 19013 19014 19015 19016 19017 19018 19019 19020 19021 19022 19023 19024 19025 19026 19027 19028 19029 19030 19031 19032 19033 19034 19035 19036 19037 19038 19039 19040 19041 19042 19043 19044 19045 19046 19047 19048 19049 19050 19051 19052 19053 19054 19055 19056 19057 19058 19059 19060 19061 19062 19063 19064 19065 19066 19067 19068 19069 19070 19071 19072 19073 19074 19075 19076 19077 19078 19079 19080 19081 19082 19083 19084 19085 19086 19087 19088 19089 19090 19091 19092 19093 19094 19095 19096 19097 19098 19099 19100 19101 19102 19103 19104 19105 19106 19107 19108 19109 19110 19111 19112 19113 19114 19115 19116 19117 19118 19119 19120 19121 19122 19123 19124 19125 19126 19127 19128 19129 19130 19131 19132 19133 19134 19135 19136 19137 19138 19139 19140 19141 19142 19143 19144 19145 19146 19147 19148 19149 19150 19151 19152 19153 19154 19155 19156 19157 19158 19159 19160 19161 19162 19163 19164 19165 19166 19167 19168 19169 19170 19171 19172 19173 19174 19175 19176 19177 19178 19179 19180 19181 19182 19183 19184 19185 19186 19187 19188 19189 19190 19191 19192 19193 19194 19195 19196 19197 19198 19199 19200 19201 19202 19203 19204 19205 19206 19207 19208 19209 19210 19211 19212 19213 19214 19215 19216 19217 19218 19219 19220 19221 19222 19223 19224 19225 19226 19227 19228 19229 19230 19231 19232 19233 19234 19235 19236 19237 19238 19239 19240 19241 19242 19243 19244 19245 19246 19247 19248 19249 19250 19251 19252 19253 19254 19255 19256 19257 19258 19259 19260 19261 19262 19263 19264 19265 19266 19267 19268 19269 19270 19271 19272 19273 19274 19275 19276 19277 19278 19279 19280 19281 19282 19283 19284 19285 19286 19287 19288 19289 19290 19291 19292 19293 19294 19295 19296 19297 19298 19299 19300 19301 19302 19303 19304 19305 19306 19307 19308 19309 19310 19311 19312 19313 19314 19315 19316 19317 19318 19319 19320 19321 19322 19323 19324 19325 19326 19327 19328 19329 19330 19331 19332 19333 19334 19335 19336 19337 19338 19339 19340 19341 19342 19343 19344 19345 19346 19347 19348 19349 19350 19351 19352 19353 19354 19355 19356 19357 19358 19359 19360 19361 19362 19363 19364 19365 19366 19367 19368 19369 19370 19371 19372 19373 19374 19375 19376 19377 19378 19379 19380 19381 19382 19383 19384 19385 19386 19387 19388 19389 19390 19391 19392 19393 19394 19395 19396 19397 19398 19399 19400 19401 19402 19403 19404 19405 19406 19407 19408 19409 19410 19411 19412 19413 19414 19415 19416 19417 19418 19419 19420 19421 19422 19423 19424 19425 19426 19427 19428 19429 19430 19431 19432 19433 19434 19435 19436 19437 19438 19439 19440 19441 19442 19443 19444 19445 19446 19447 19448 19449 19450 19451 19452 19453 19454 19455 19456 19457 19458 19459 19460 19461 19462 19463 19464 19465 19466 19467 19468 19469 19470 19471 19472 19473 19474 19475 19476 19477 19478 19479 19480 19481 19482 19483 19484 19485 19486 19487 19488 19489 19490 19491 19492 19493 19494 19495 19496 19497 19498 19499 19500 19501 19502 19503 19504 19505 19506 19507 19508 19509 19510 19511 19512 19513 19514 19515 19516 19517 19518 19519 19520 19521 19522 19523 19524 19525 19526 19527 19528 19529 19530 19531 19532 19533 19534 19535 19536 19537 19538 19539 19540 19541 19542 19543 19544 19545 19546 19547 19548 19549 19550 19551 19552 19553 19554 19555 19556 19557 19558 19559 19560 19561 19562 19563 19564 19565 19566 19567 19568 19569 19570 19571 19572 19573 19574 19575 19576 19577 19578 19579 19580 19581 19582 19583 19584 19585 19586 19587 19588 19589 19590 19591 19592 19593 19594 19595 19596 19597 19598 19599 19600 19601 19602 19603 19604 19605 19606 19607 19608 19609 19610 19611 19612 19613 19614 19615 19616 19617 19618 19619 19620 19621 19622 19623 19624 19625 19626 19627 19628 19629 19630 19631 19632 19633 19634 19635 19636 19637 19638 19639 19640 19641 19642 19643 19644 19645 19646 19647 19648 19649 19650 19651 19652 19653 19654 19655 19656 19657 19658 19659 19660 19661 19662 19663 19664 19665 19666 19667 19668 19669 19670 19671 19672 19673 19674 19675 19676 19677 19678 19679 19680 19681 19682 19683 19684 19685 19686 19687 19688 19689 19690 19691 19692 19693 19694 19695 19696 19697 19698 19699 19700 19701 19702 19703 19704 19705 19706 19707 19708 19709 19710 19711 19712 19713 19714 19715 19716 19717 19718 19719 19720 19721 19722 19723 19724 19725 19726 19727 19728 19729 19730 19731 19732 19733 19734 19735 19736 19737 19738 19739 19740 19741 19742 19743 19744 19745 19746 19747 19748 19749 19750 19751 19752 19753 19754 19755 19756 19757 19758 19759 19760 19761 19762 19763 19764 19765 19766 19767 19768 19769 19770 19771 19772 19773 19774 19775 19776 19777 19778 19779 19780 19781 19782 19783 19784 19785 19786 19787 19788 19789 19790 19791 19792 19793 19794 19795 19796 19797 19798 19799 19800 19801 19802 19803 19804 19805 19806 19807 19808 19809 19810 19811 19812 19813 19814 19815 19816 19817 19818 19819 19820 19821 19822 19823 19824 19825 19826 19827 19828 19829 19830 19831 19832 19833 19834 19835 19836 19837 19838 19839 19840 19841 19842 19843 19844 19845 19846 19847 19848 19849 19850 19851 19852 19853 19854 19855 19856 19857 19858 19859 19860 19861 19862 19863 19864 19865 19866 19867 19868 19869 19870 19871 19872 19873 19874 19875 19876 19877 19878 19879 19880 19881 19882 19883 19884 19885 19886 19887 19888 19889 19890 19891 19892 19893 19894 19895 19896 19897 19898 19899 19900 19901 19902 19903 19904 19905 19906 19907 19908 19909 19910 19911 19912 19913 19914 19915 19916 19917 19918 19919 19920 19921 19922 19923 19924 19925 19926 19927 19928 19929 19930 19931 19932 19933 19934 19935 19936 19937 19938 19939 19940 19941 19942 19943 19944 19945 19946 19947 19948 19949 19950 19951 19952 19953 19954 19955 19956 19957 19958 19959 19960 19961 19962 19963 19964 19965 19966 19967 19968 19969 19970 19971 19972 19973 19974 19975 19976 19977 19978 19979 19980 19981 19982 19983 19984 19985 19986 19987 19988 19989 19990 19991 19992 19993 19994 19995 19996 19997 19998 19999 20000 20001 20002 20003 20004 20005 20006 20007 20008 20009 20010 20011 20012 20013 20014 20015 20016 20017 20018 20019 20020 20021 20022 20023 20024 20025 20026 20027 20028 20029 20030 20031 20032 20033 20034 20035 20036 20037 20038 20039 20040 20041 20042 20043 20044 20045 20046 20047 20048 20049 20050 20051 20052 20053 20054 20055 20056 20057 20058 20059 20060 20061 20062 20063 20064 20065 20066 20067 20068 20069 20070 20071 20072 20073 20074 20075 20076 20077 20078 20079 20080 20081 20082 20083 20084 20085 20086 20087 20088 20089 20090 20091 20092 20093 20094 20095 20096 20097 20098 20099 20100 20101 20102 20103 20104 20105 20106 20107 20108 20109 20110 20111 20112 20113 20114 20115 20116 20117 20118 20119 20120 20121 20122 20123 20124 20125 20126 20127 20128 20129 20130 20131 20132 20133 20134 20135 20136 20137 20138 20139 20140 20141 20142 20143 20144 20145 20146 20147 20148 20149 20150 20151 20152 20153 20154 20155 20156 20157 20158 20159 20160 20161 20162 20163 20164 20165 20166 20167 20168 20169 20170 20171 20172 20173 20174 20175 20176 20177 20178 20179 20180 20181 20182 20183 20184 20185 20186 20187 20188 20189 20190 20191 20192 20193 20194 20195 20196 20197 20198 20199 20200 20201 20202 20203 20204 20205 20206 20207 20208 20209 20210 20211 20212 20213 20214 20215 20216 20217 20218 20219 20220 20221 20222 20223 20224 20225 20226 20227 20228 20229 20230 20231 20232 20233 20234 20235 20236 20237 20238 20239 20240 20241 20242 20243 20244 20245 20246 20247 20248 20249 20250 20251 20252 20253 20254 20255 20256 20257 20258 20259 20260 20261 20262 20263 20264 20265 20266 20267 20268 20269 20270 20271 20272 20273 20274 20275 20276 20277 20278 20279 20280 20281 20282 20283 20284 20285 20286 20287 20288 20289 20290 20291 20292 20293 20294 20295 20296 20297 20298 20299 20300 20301 20302 20303 20304 20305 20306 20307 20308 20309 20310 20311 20312 20313 20314 20315 20316 20317 20318 20319 20320 20321 20322 20323 20324 20325 20326 20327 20328 20329 20330 20331 20332 20333 20334 20335 20336 20337 20338 20339 20340 20341 20342 20343 20344 20345 20346 20347 20348 20349 20350 20351 20352 20353 20354 20355 20356 20357 20358 20359 20360 20361 20362 20363 20364 20365 20366 20367 20368 20369 20370 20371 20372 20373 20374 20375 20376 20377 20378 20379 20380 20381 20382 20383 20384 20385 20386 20387 20388 20389 20390 20391 20392 20393 20394 20395 20396 20397 20398 20399 20400 20401 20402 20403 20404 20405 20406 20407 20408 20409 20410 20411 20412 20413 20414 20415 20416 20417 20418 20419 20420 20421 20422 20423 20424 20425 20426 20427 20428 20429 20430 20431 20432 20433 20434 20435 20436 20437 20438 20439 20440 20441 20442 20443 20444 20445 20446 20447 20448 20449 20450 20451 20452 20453 20454 20455 20456 20457 20458 20459 20460 20461 20462 20463 20464 20465 20466 20467 20468 20469 20470 20471 20472 20473 20474 20475 20476 20477 20478 20479 20480 20481 20482 20483 20484 20485 20486 20487 20488 20489 20490 20491 20492 20493 20494 20495 20496 20497 20498 20499 20500 20501 20502 20503 20504 20505 20506 20507 20508 20509 20510 20511 20512 20513 20514 20515 20516 20517 20518 20519 20520 20521 20522 20523 20524 20525 20526 20527 20528 20529 20530 20531 20532 20533 20534 20535 20536 20537 20538 20539 20540 20541 20542 20543 20544 20545 20546 20547 20548 20549 20550 20551 20552 20553 20554 20555 20556 20557 20558 20559 20560 20561 20562 20563 20564 20565 20566 20567 20568 20569 20570 20571 20572 20573 20574 20575 20576 20577 20578 20579 20580 20581 20582 20583 20584 20585 20586 20587 20588 20589 20590 20591 20592 20593 20594 20595 20596 20597 20598 20599 20600 20601 20602 20603 20604 20605 20606 20607 20608 20609 20610 20611 20612 20613 20614 20615 20616 20617 20618 20619 20620 20621 20622 20623 20624 20625 20626 20627 20628 20629 20630 20631 20632 20633 20634 20635 20636 20637 20638 20639 20640 20641 20642 20643 20644 20645 20646 20647 20648 20649 20650 20651 20652 20653 20654 20655 20656 20657 20658 20659 20660 20661 20662 20663 20664 20665 20666 20667 20668 20669 20670 20671 20672 20673 20674 20675 20676 20677 20678 20679 20680 20681 20682 20683 20684 20685 20686 20687 20688 20689 20690 20691 20692 20693 20694 20695 20696 20697 20698 20699 20700 20701 20702 20703 20704 20705 20706 20707 20708 20709 20710 20711 20712 20713 20714 20715 20716 20717 20718 20719 20720 20721 20722 20723 20724 20725 20726 20727 20728 20729 20730 20731 20732 20733 20734 20735 20736 20737 20738 20739 20740 20741 20742 20743 20744 20745 20746 20747 20748 20749 20750 20751 20752 20753 20754 20755 20756 20757 20758 20759 20760 20761 20762 20763 20764 20765 20766 20767 20768 20769 20770 20771 20772 20773 20774 20775 20776 20777 20778 20779 20780 20781 20782 20783 20784 20785 20786 20787 20788 20789 20790 20791 20792 20793 20794 20795 20796 20797 20798 20799 20800 20801 20802 20803 20804 20805 20806 20807 20808 20809 20810 20811 20812 20813 20814 20815 20816 20817 20818 20819 20820 20821 20822 20823 20824 20825 20826 20827 20828 20829 20830 20831 20832 20833 20834 20835 20836 20837 20838 20839 20840 20841 20842 20843 20844 20845 20846 20847 20848 20849 20850 20851 20852 20853 20854 20855 20856 20857 20858 20859 20860 20861 20862 20863 20864 20865 20866 20867 20868 20869 20870 20871 20872 20873 20874 20875 20876 20877 20878 20879 20880 20881 20882 20883 20884 20885 20886 20887 20888 20889 20890 20891 20892 20893 20894 20895 20896 20897 20898 20899 20900 20901 20902 20903 20904 20905 20906 20907 20908 20909 20910 20911 20912 20913 20914 20915 20916 20917 20918 20919 20920 20921 20922 20923 20924 20925 20926 20927 20928 20929 20930 20931 20932 20933 20934 20935 20936 20937 20938 20939 20940 20941 20942 20943 20944 20945 20946 20947 20948 20949 20950 20951 20952 20953 20954 20955 20956 20957 20958 20959 20960 20961 20962 20963 20964 20965 20966 20967 20968 20969 20970 20971 20972 20973 20974 20975 20976 20977 20978 20979 20980 20981 20982 20983 20984 20985 20986 20987 20988 20989 20990 20991 20992 20993 20994 20995 20996 20997 20998 20999 21000 21001 21002 21003 21004 21005 21006 21007 21008 21009 21010 21011 21012 21013 21014 21015 21016 21017 21018 21019 21020 21021 21022 21023 21024 21025 21026 21027 21028 21029 21030 21031 21032 21033 21034 21035 21036 21037 21038 21039 21040 21041 21042 21043 21044 21045 21046 21047 21048 21049 21050 21051 21052 21053 21054 21055 21056 21057 21058 21059 21060 21061 21062 21063 21064 21065 21066 21067 21068 21069 21070 21071 21072 21073 21074 21075 21076 21077 21078 21079 21080 21081 21082 21083 21084 21085 21086 21087 21088 21089 21090 21091 21092 21093 21094 21095 21096 21097 21098 21099 21100 21101 21102 21103 21104 21105 21106 21107 21108 21109 21110 21111 21112 21113 21114 21115 21116 21117 21118 21119 21120 21121 21122 21123 21124 21125 21126 21127 21128 21129 21130 21131 21132 21133 21134 21135 21136 21137 21138 21139 21140 21141 21142 21143 21144 21145 21146 21147 21148 21149 21150 21151 21152 21153 21154 21155 21156 21157 21158 21159 21160 21161 21162 21163 21164 21165 21166 21167 21168 21169 21170 21171 21172 21173 21174 21175 21176 21177 21178 21179 21180 21181 21182 21183 21184 21185 21186 21187 21188 21189 21190 21191 21192 21193 21194 21195 21196 21197 21198 21199 21200 21201 21202 21203 21204 21205 21206 21207 21208 21209 21210 21211 21212 21213 21214 21215 21216 21217 21218 21219 21220 21221 21222 21223 21224 21225 21226 21227 21228 21229 21230 21231 21232 21233 21234 21235 21236 21237 21238 21239 21240 21241 21242 21243 21244 21245 21246 21247 21248 21249 21250 21251 21252 21253 21254 21255 21256 21257 21258 21259 21260 21261 21262 21263 21264 21265 21266 21267 21268 21269 21270 21271 21272 21273 21274 21275 21276 21277 21278 21279 21280 21281 21282 21283 21284 21285 21286 21287 21288 21289 21290 21291 21292 21293 21294 21295 21296 21297 21298 21299 21300 21301 21302 21303 21304 21305 21306 21307 21308 21309 21310 21311 21312 21313 21314 21315 21316 21317 21318 21319 21320 21321 21322 21323 21324 21325 21326 21327 21328 21329 21330 21331 21332 21333 21334 21335 21336 21337 21338 21339 21340 21341 21342 21343 21344 21345 21346 21347 21348 21349 21350 21351 21352 21353 21354 21355 21356 21357 21358 21359 21360 21361 21362 21363 21364 21365 21366 21367 21368 21369 21370 21371 21372 21373 21374 21375 21376 21377 21378 21379 21380 21381 21382 21383 21384 21385 21386 21387 21388 21389 21390 21391 21392 21393 21394 21395 21396 21397 21398 21399 21400 21401 21402 21403 21404 21405 21406 21407 21408 21409 21410 21411 21412 21413 21414 21415 21416 21417 21418 21419 21420 21421 21422 21423 21424 21425 21426 21427 21428 21429 21430 21431 21432 21433 21434 21435 21436 21437 21438 21439 21440 21441 21442 21443 21444 21445 21446 21447 21448 21449 21450 21451 21452 21453 21454 21455 21456 21457 21458 21459 21460 21461 21462 21463 21464 21465 21466 21467 21468 21469 21470 21471 21472 21473 21474 21475 21476 21477 21478 21479 21480 21481 21482 21483 21484 21485 21486 21487 21488 21489 21490 21491 21492 21493 21494 21495 21496 21497 21498 21499 21500 21501 21502 21503 21504 21505 21506 21507 21508 21509 21510 21511 21512 21513 21514 21515 21516 21517 21518 21519 21520 21521 21522 21523 21524 21525 21526 21527 21528 21529 21530 21531 21532 21533 21534 21535 21536 21537 21538 21539 21540 21541 21542 21543 21544 21545 21546 21547 21548 21549 21550 21551 21552 21553 21554 21555 21556 21557 21558 21559 21560 21561 21562 21563 21564 21565 21566 21567 21568 21569 21570 21571 21572 21573 21574 21575 21576 21577 21578 21579 21580 21581 21582 21583 21584 21585 21586 21587 21588 21589 21590 21591 21592 21593 21594 21595 21596 21597 21598 21599 21600 21601 21602 21603 21604 21605 21606 21607 21608 21609 21610 21611 21612 21613 21614 21615 21616 21617 21618 21619 21620 21621 21622 21623 21624 21625 21626 21627 21628 21629 21630 21631 21632 21633 21634 21635 21636 21637 21638 21639 21640 21641 21642 21643 21644 21645 21646 21647 21648 21649 21650 21651 21652 21653 21654 21655 21656 21657 21658 21659 21660 21661 21662 21663 21664 21665 21666 21667 21668 21669 21670 21671 21672 21673 21674 21675 21676 21677 21678 21679 21680 21681 21682 21683 21684 21685 21686 21687 21688 21689 21690 21691 21692 21693 21694 21695 21696 21697 21698 21699 21700 21701 21702 21703 21704 21705 21706 21707 21708 21709 21710 21711 21712 21713 21714 21715 21716 21717 21718 21719 21720 21721 21722 21723 21724 21725 21726 21727 21728 21729 21730 21731 21732 21733 21734 21735 21736 21737 21738 21739 21740 21741 21742 21743 21744 21745 21746 21747 21748 21749 21750 21751 21752 21753 21754 21755 21756 21757 21758 21759 21760 21761 21762 21763 21764 21765 21766 21767 21768 21769 21770 21771 21772 21773 21774 21775 21776 21777 21778 21779 21780 21781 21782 21783 21784 21785 21786 21787 21788 21789 21790 21791 21792 21793 21794 21795 21796 21797 21798 21799 21800 21801 21802 21803 21804 21805 21806 21807 21808 21809 21810 21811 21812 21813 21814 21815 21816 21817 21818 21819 21820 21821 21822 21823 21824 21825 21826 21827 21828 21829 21830 21831 21832 21833 21834 21835 21836 21837 21838 21839 21840 21841 21842 21843 21844 21845 21846 21847 21848 21849 21850 21851 21852 21853 21854 21855 21856 21857 21858 21859 21860 21861 21862 21863 21864 21865 21866 21867 21868 21869 21870 21871 21872 21873 21874 21875 21876 21877 21878 21879 21880 21881 21882 21883 21884 21885 21886 21887 21888 21889 21890 21891 21892 21893 21894 21895 21896 21897 21898 21899 21900 21901 21902 21903 21904 21905 21906 21907 21908 21909 21910 21911 21912 21913 21914 21915 21916 21917 21918 21919 21920 21921 21922 21923 21924 21925 21926 21927 21928 21929 21930 21931 21932 21933 21934 21935 21936 21937 21938 21939 21940 21941 21942 21943 21944 21945 21946 21947 21948 21949 21950 21951 21952 21953 21954 21955 21956 21957 21958 21959 21960 21961 21962 21963 21964 21965 21966 21967 21968 21969 21970 21971 21972 21973 21974 21975 21976 21977 21978 21979 21980 21981 21982 21983 21984 21985 21986 21987 21988 21989 21990 21991 21992 21993 21994 21995 21996 21997 21998 21999 22000 22001 22002 22003 22004 22005 22006 22007 22008 22009 22010 22011 22012 22013 22014 22015 22016 22017 22018 22019 22020 22021 22022 22023 22024 22025 22026 22027 22028 22029 22030 22031 22032 22033 22034 22035 22036 22037 22038 22039 22040 22041 22042 22043 22044 22045 22046 22047 22048 22049 22050 22051 22052 22053 22054 22055 22056 22057 22058 22059 22060 22061 22062 22063 22064 22065 22066 22067 22068 22069 22070 22071 22072 22073 22074 22075 22076 22077 22078 22079 22080 22081 22082 22083 22084 22085 22086 22087 22088 22089 22090 22091 22092 22093 22094 22095 22096 22097 22098 22099 22100 22101 22102 22103 22104 22105 22106 22107 22108 22109 22110 22111 22112 22113 22114 22115 22116 22117 22118 22119 22120 22121 22122 22123 22124 22125 22126 22127 22128 22129 22130 22131 22132 22133 22134 22135 22136 22137 22138 22139 22140 22141 22142 22143 22144 22145 22146 22147 22148 22149 22150 22151 22152 22153 22154 22155 22156 22157 22158 22159 22160 22161 22162 22163 22164 22165 22166 22167 22168 22169 22170 22171 22172 22173 22174 22175 22176 22177 22178 22179 22180 22181 22182 22183 22184 22185 22186 22187 22188 22189 22190 22191 22192 22193 22194 22195 22196 22197 22198 22199 22200 22201 22202 22203 22204 22205 22206 22207 22208 22209 22210 22211 22212 22213 22214 22215 22216 22217 22218 22219 22220 22221 22222 22223 22224 22225 22226 22227 22228 22229 22230 22231 22232 22233 22234 22235 22236 22237 22238 22239 22240 22241 22242 22243 22244 22245 22246 22247 22248 22249 22250 22251 22252 22253 22254 22255 22256 22257 22258 22259 22260 22261 22262 22263 22264 22265 22266 22267 22268 22269 22270 22271 22272 22273 22274 22275 22276 22277 22278 22279 22280 22281 22282 22283 22284 22285 22286 22287 22288 22289 22290 22291 22292 22293 22294 22295 22296 22297 22298 22299 22300 22301 22302 22303 22304 22305 22306 22307 22308 22309 22310 22311 22312 22313 22314 22315 22316 22317 22318 22319 22320 22321 22322 22323 22324 22325 22326 22327 22328 22329 22330 22331 22332 22333 22334 22335 22336 22337 22338 22339 22340 22341 22342 22343 22344 22345 22346 22347 22348 22349 22350 22351 22352 22353 22354 22355 22356 22357 22358 22359 22360 22361 22362 22363 22364 22365 22366 22367 22368 22369 22370 22371 22372 22373 22374 22375 22376 22377 22378 22379 22380 22381 22382 22383 22384 22385 22386 22387 22388 22389 22390 22391 22392 22393 22394 22395 22396 22397 22398 22399 22400 22401 22402 22403 22404 22405 22406 22407 22408 22409 22410 22411 22412 22413 22414 22415 22416 22417 22418 22419 22420 22421 22422 22423 22424 22425 22426 22427 22428 22429 22430 22431 22432 22433 22434 22435 22436 22437 22438 22439 22440 22441 22442 22443 22444 22445 22446 22447 22448 22449 22450 22451 22452 22453 22454 22455 22456 22457 22458 22459 22460 22461 22462 22463 22464 22465 22466 22467 22468 22469 22470 22471 22472 22473 22474 22475 22476 22477 22478 22479 22480 22481 22482 22483 22484 22485 22486 22487 22488 22489 22490 22491 22492 22493 22494 22495 22496 22497 22498 22499 22500 22501 22502 22503 22504 22505 22506 22507 22508 22509 22510 22511 22512 22513 22514 22515 22516 22517 22518 22519 22520 22521 22522 22523 22524 22525 22526 22527 22528 22529 22530 22531 22532 22533 22534 22535 22536 22537 22538 22539 22540 22541 22542 22543 22544 22545 22546 22547 22548 22549 22550 22551 22552 22553 22554 22555 22556 22557 22558 22559 22560 22561 22562 22563 22564 22565 22566 22567 22568 22569 22570 22571 22572 22573 22574 22575 22576 22577 22578 22579 22580 22581 22582 22583 22584 22585 22586 22587 22588 22589 22590 22591 22592 22593 22594 22595 22596 22597 22598 22599 22600 22601 22602 22603 22604 22605 22606 22607 22608 22609 22610 22611 22612 22613 22614 22615 22616 22617 22618 22619 22620 22621 22622 22623 22624 22625 22626 22627 22628 22629 22630 22631 22632 22633 22634 22635 22636 22637 22638 22639 22640 22641 22642 22643 22644 22645 22646 22647 22648 22649 22650 22651 22652 22653 22654 22655 22656 22657 22658 22659 22660 22661 22662 22663 22664 22665 22666 22667 22668 22669 22670 22671 22672 22673 22674 22675 22676 22677 22678 22679 22680 22681 22682 22683 22684 22685 22686 22687 22688 22689 22690 22691 22692 22693 22694 22695 22696 22697 22698 22699 22700 22701 22702 22703 22704 22705 22706 22707 22708 22709 22710 22711 22712 22713 22714 22715 22716 22717 22718 22719 22720 22721 22722 22723 22724 22725 22726 22727 22728 22729 22730 22731 22732 22733 22734 22735 22736 22737 22738 22739 22740 22741 22742 22743 22744 22745 22746 22747 22748 22749 22750 22751 22752 22753 22754 22755 22756 22757 22758 22759 22760 22761 22762 22763 22764 22765 22766 22767 22768 22769 22770 22771 22772 22773 22774 22775 22776 22777 22778 22779 22780 22781 22782 22783 22784 22785 22786 22787 22788 22789 22790 22791 22792 22793 22794 22795 22796 22797 22798 22799 22800 22801 22802 22803 22804 22805 22806 22807 22808 22809 22810 22811 22812 22813 22814 22815 22816 22817 22818 22819 22820 22821 22822 22823 22824 22825 22826 22827 22828 22829 22830 22831 22832 22833 22834 22835 22836 22837 22838 22839 22840 22841 22842 22843 22844 22845 22846 22847 22848 22849 22850 22851 22852 22853 22854 22855 22856 22857 22858 22859 22860 22861 22862 22863 22864 22865 22866 22867 22868 22869 22870 22871 22872 22873 22874 22875 22876 22877 22878 22879 22880 22881 22882 22883 22884 22885 22886 22887 22888 22889 22890 22891 22892 22893 22894 22895 22896 22897 22898 22899 22900 22901 22902 22903 22904 22905 22906 22907 22908 22909 22910 22911 22912 22913 22914 22915 22916 22917 22918 22919 22920 22921 22922 22923 22924 22925 22926 22927 22928 22929 22930 22931 22932 22933 22934 22935 22936 22937 22938 22939 22940 22941 22942 22943 22944 22945 22946 22947 22948 22949 22950 22951 22952 22953 22954 22955 22956 22957 22958 22959 22960 22961 22962 22963 22964 22965 22966 22967 22968 22969 22970 22971 22972 22973 22974 22975 22976 22977 22978 22979 22980 22981 22982 22983 22984 22985 22986 22987 22988 22989 22990 22991 22992 22993 22994 22995 22996 22997 22998 22999 23000 23001 23002 23003 23004 23005 23006 23007 23008 23009 23010 23011 23012 23013 23014 23015 23016 23017 23018 23019 23020 23021 23022 23023 23024 23025 23026 23027 23028 23029 23030 23031 23032 23033 23034 23035 23036 23037 23038 23039 23040 23041 23042 23043 23044 23045 23046 23047 23048 23049 23050 23051 23052 23053 23054 23055 23056 23057 23058 23059 23060 23061 23062 23063 23064 23065 23066 23067 23068 23069 23070 23071 23072 23073 23074 23075 23076 23077 23078 23079 23080 23081 23082 23083 23084 23085 23086 23087 23088 23089 23090 23091 23092 23093 23094 23095 23096 23097 23098 23099 23100 23101 23102 23103 23104 23105 23106 23107 23108 23109 23110 23111 23112 23113 23114 23115 23116 23117 23118 23119 23120 23121 23122 23123 23124 23125 23126 23127 23128 23129 23130 23131 23132 23133 23134 23135 23136 23137 23138 23139 23140 23141 23142 23143 23144 23145 23146 23147 23148 23149 23150 23151 23152 23153 23154 23155 23156 23157 23158 23159 23160 23161 23162 23163 23164 23165 23166 23167 23168 23169 23170 23171 23172 23173 23174 23175 23176 23177 23178 23179 23180 23181 23182 23183 23184 23185 23186 23187 23188 23189 23190 23191 23192 23193 23194 23195 23196 23197 23198 23199 23200 23201 23202 23203 23204 23205 23206 23207 23208 23209 23210 23211 23212 23213 23214 23215 23216 23217 23218 23219 23220 23221 23222 23223 23224 23225 23226 23227 23228 23229 23230 23231 23232 23233 23234 23235 23236 23237 23238 23239 23240 23241 23242 23243 23244 23245 23246 23247 23248 23249 23250 23251 23252 23253 23254 23255 23256 23257 23258 23259 23260 23261 23262 23263 23264 23265 23266 23267 23268 23269 23270 23271 23272 23273 23274 23275 23276 23277 23278 23279 23280 23281 23282 23283 23284 23285 23286 23287 23288 23289 23290 23291 23292 23293 23294 23295 23296 23297 23298 23299 23300 23301 23302 23303 23304 23305 23306 23307 23308 23309 23310 23311 23312 23313 23314 23315 23316 23317 23318 23319 23320 23321 23322 23323 23324 23325 23326 23327 23328 23329 23330 23331 23332 23333 23334 23335 23336 23337 23338 23339 23340 23341 23342 23343 23344 23345 23346 23347 23348 23349 23350 23351 23352 23353 23354 23355 23356 23357 23358 23359 23360 23361 23362 23363 23364 23365 23366 23367 23368 23369 23370 23371 23372 23373 23374 23375 23376 23377 23378 23379 23380 23381 23382 23383 23384 23385 23386 23387 23388 23389 23390 23391 23392 23393 23394 23395 23396 23397 23398 23399 23400 23401 23402 23403 23404 23405 23406 23407 23408 23409 23410 23411 23412 23413 23414 23415 23416 23417 23418 23419 23420 23421 23422 23423 23424 23425 23426 23427 23428 23429 23430 23431 23432 23433 23434 23435 23436 23437 23438 23439 23440 23441 23442 23443 23444 23445 23446 23447 23448 23449 23450 23451 23452 23453 23454 23455 23456 23457 23458 23459 23460 23461 23462 23463 23464 23465 23466 23467 23468 23469 23470 23471 23472 23473 23474 23475 23476 23477 23478 23479 23480 23481 23482 23483 23484 23485 23486 23487 23488 23489 23490 23491 23492 23493 23494 23495 23496 23497 23498 23499 23500 23501 23502 23503 23504 23505 23506 23507 23508 23509 23510 23511 23512 23513 23514 23515 23516 23517 23518 23519 23520 23521 23522 23523 23524 23525 23526 23527 23528 23529 23530 23531 23532 23533 23534 23535 23536 23537 23538 23539 23540 23541 23542 23543 23544 23545 23546 23547 23548 23549 23550 23551 23552 23553 23554 23555 23556 23557 23558 23559 23560 23561 23562 23563 23564 23565 23566 23567 23568 23569 23570 23571 23572 23573 23574 23575 23576 23577 23578 23579 23580 23581 23582 23583 23584 23585 23586 23587 23588 23589 23590 23591 23592 23593 23594 23595 23596 23597 23598 23599 23600 23601 23602 23603 23604 23605 23606 23607 23608 23609 23610 23611 23612 23613 23614 23615 23616 23617 23618 23619 23620 23621 23622 23623 23624 23625 23626 23627 23628 23629 23630 23631 23632 23633 23634 23635 23636 23637 23638 23639 23640 23641 23642 23643 23644 23645 23646 23647 23648 23649 23650 23651 23652 23653 23654 23655 23656 23657 23658 23659 23660 23661 23662 23663 23664 23665 23666 23667 23668 23669 23670 23671 23672 23673 23674 23675 23676 23677 23678 23679 23680 23681 23682 23683 23684 23685 23686 23687 23688 23689 23690 23691 23692 23693 23694 23695 23696 23697 23698 23699 23700 23701 23702 23703 23704 23705 23706 23707 23708 23709 23710 23711 23712 23713 23714 23715 23716 23717 23718 23719 23720 23721 23722 23723 23724 23725 23726 23727 23728 23729 23730 23731 23732 23733 23734 23735 23736 23737 23738 23739 23740 23741 23742 23743 23744 23745 23746 23747 23748 23749 23750 23751 23752 23753 23754 23755 23756 23757 23758 23759 23760 23761 23762 23763 23764 23765 23766 23767 23768 23769 23770 23771 23772 23773 23774 23775 23776 23777 23778 23779 23780 23781 23782 23783 23784 23785 23786 23787 23788 23789 23790 23791 23792 23793 23794 23795 23796 23797 23798 23799 23800 23801 23802 23803 23804 23805 23806 23807 23808 23809 23810 23811 23812 23813 23814 23815 23816 23817 23818 23819 23820 23821 23822 23823 23824 23825 23826 23827 23828 23829 23830 23831 23832 23833 23834 23835 23836 23837 23838 23839 23840 23841 23842 23843 23844 23845 23846 23847 23848 23849 23850 23851 23852 23853 23854 23855 23856 23857 23858 23859 23860 23861 23862 23863 23864 23865 23866 23867 23868 23869 23870 23871 23872 23873 23874 23875 23876 23877 23878 23879 23880 23881 23882 23883 23884 23885 23886 23887 23888 23889 23890 23891 23892 23893 23894 23895 23896 23897 23898 23899 23900 23901 23902 23903 23904 23905 23906 23907 23908 23909 23910 23911 23912 23913 23914 23915 23916 23917 23918 23919 23920 23921 23922 23923 23924 23925 23926 23927 23928 23929 23930 23931 23932 23933 23934 23935 23936 23937 23938 23939 23940 23941 23942 23943 23944 23945 23946 23947 23948 23949 23950 23951 23952 23953 23954 23955 23956 23957 23958 23959 23960 23961 23962 23963 23964 23965 23966 23967 23968 23969 23970 23971 23972 23973 23974 23975 23976 23977 23978 23979 23980 23981 23982 23983 23984 23985 23986 23987 23988 23989 23990 23991 23992 23993 23994 23995 23996 23997 23998 23999 24000 24001 24002 24003 24004 24005 24006 24007 24008 24009 24010 24011 24012 24013 24014 24015 24016 24017 24018 24019 24020 24021 24022 24023 24024 24025 24026 24027 24028 24029 24030 24031 24032 24033 24034 24035 24036 24037 24038 24039 24040 24041 24042 24043 24044 24045 24046 24047 24048 24049 24050 24051 24052 24053 24054 24055 24056 24057 24058 24059 24060 24061 24062 24063 24064 24065 24066 24067 24068 24069 24070 24071 24072 24073 24074 24075 24076 24077 24078 24079 24080 24081 24082 24083 24084 24085 24086 24087 24088 24089 24090 24091 24092 24093 24094 24095 24096 24097 24098 24099 24100 24101 24102 24103 24104 24105 24106 24107 24108 24109 24110 24111 24112 24113 24114 24115 24116 24117 24118 24119 24120 24121 24122 24123 24124 24125 24126 24127 24128 24129 24130 24131 24132 24133 24134 24135 24136 24137 24138 24139 24140 24141 24142 24143 24144 24145 24146 24147 24148 24149 24150 24151 24152 24153 24154 24155 24156 24157 24158 24159 24160 24161 24162 24163 24164 24165 24166 24167 24168 24169 24170 24171 24172 24173 24174 24175 24176 24177 24178 24179 24180 24181 24182 24183 24184 24185 24186 24187 24188 24189 24190 24191 24192 24193 24194 24195 24196 24197 24198 24199 24200 24201 24202 24203 24204 24205 24206 24207 24208 24209 24210 24211 24212 24213 24214 24215 24216 24217 24218 24219 24220 24221 24222 24223 24224 24225 24226 24227 24228 24229 24230 24231 24232 24233 24234 24235 24236 24237 24238 24239 24240 24241 24242 24243 24244 24245 24246 24247 24248 24249 24250 24251 24252 24253 24254 24255 24256 24257 24258 24259 24260 24261 24262 24263 24264 24265 24266 24267 24268 24269 24270 24271 24272 24273 24274 24275 24276 24277 24278 24279 24280 24281 24282 24283 24284 24285 24286 24287 24288 24289 24290 24291 24292 24293 24294 24295 24296 24297 24298 24299 24300 24301 24302 24303 24304 24305 24306 24307 24308 24309 24310 24311 24312 24313 24314 24315 24316 24317 24318 24319 24320 24321 24322 24323 24324 24325 24326 24327 24328 24329 24330 24331 24332 24333 24334 24335 24336 24337 24338 24339 24340 24341 24342 24343 24344 24345 24346 24347 24348 24349 24350 24351 24352 24353 24354 24355 24356 24357 24358 24359 24360 24361 24362 24363 24364 24365 24366 24367 24368 24369 24370 24371 24372 24373 24374 24375 24376 24377 24378 24379 24380 24381 24382 24383 24384 24385 24386 24387 24388 24389 24390 24391 24392 24393 24394 24395 24396 24397 24398 24399 24400 24401 24402 24403 24404 24405 24406 24407 24408 24409 24410 24411 24412 24413 24414 24415 24416 24417 24418 24419 24420 24421 24422 24423 24424 24425 24426 24427 24428 24429 24430 24431 24432 24433 24434 24435 24436 24437 24438 24439 24440 24441 24442 24443 24444 24445 24446 24447 24448 24449 24450 24451 24452 24453 24454 24455 24456 24457 24458 24459 24460 24461 24462 24463 24464 24465 24466 24467 24468 24469 24470 24471 24472 24473 24474 24475 24476 24477 24478 24479 24480 24481 24482 24483 24484 24485 24486 24487 24488 24489 24490 24491 24492 24493 24494 24495 24496 24497 24498 24499 24500 24501 24502 24503 24504 24505 24506 24507 24508 24509 24510 24511 24512 24513 24514 24515 24516 24517 24518 24519 24520 24521 24522 24523 24524 24525 24526 24527 24528 24529 24530 24531 24532 24533 24534 24535 24536 24537 24538 24539 24540 24541 24542 24543 24544 24545 24546 24547 24548 24549 24550 24551 24552 24553 24554 24555 24556 24557 24558 24559 24560 24561 24562 24563 24564 24565 24566 24567 24568 24569 24570 24571 24572 24573 24574 24575 24576 24577 24578 24579 24580 24581 24582 24583 24584 24585 24586 24587 24588 24589 24590 24591 24592 24593 24594 24595 24596 24597 24598 24599 24600 24601 24602 24603 24604 24605 24606 24607 24608 24609 24610 24611 24612 24613 24614 24615 24616 24617 24618 24619 24620 24621 24622 24623 24624 24625 24626 24627 24628 24629 24630 24631 24632 24633 24634 24635 24636 24637 24638 24639 24640 24641 24642 24643 24644 24645 24646 24647 24648 24649 24650 24651 24652 24653 24654 24655 24656 24657 24658 24659 24660 24661 24662 24663 24664 24665 24666 24667 24668 24669 24670 24671 24672 24673 24674 24675 24676 24677 24678 24679 24680 24681 24682 24683 24684 24685 24686 24687 24688 24689 24690 24691 24692 24693 24694 24695 24696 24697 24698 24699 24700 24701 24702 24703 24704 24705 24706 24707 24708 24709 24710 24711 24712 24713 24714 24715 24716 24717 24718 24719 24720 24721 24722 24723 24724 24725 24726 24727 24728 24729 24730 24731 24732 24733 24734 24735 24736 24737 24738 24739 24740 24741 24742 24743 24744 24745 24746 24747 24748 24749 24750 24751 24752 24753 24754 24755 24756 24757 24758 24759 24760 24761 24762 24763 24764 24765 24766 24767 24768 24769 24770 24771 24772 24773 24774 24775 24776 24777 24778 24779 24780 24781 24782 24783 24784 24785 24786 24787 24788 24789 24790 24791 24792 24793 24794 24795 24796 24797 24798 24799 24800 24801 24802 24803 24804 24805 24806 24807 24808 24809 24810 24811 24812 24813 24814 24815 24816 24817 24818 24819 24820 24821 24822 24823 24824 24825 24826 24827 24828 24829 24830 24831 24832 24833 24834 24835 24836 24837 24838 24839 24840 24841 24842 24843 24844 24845 24846 24847 24848 24849 24850 24851 24852 24853 24854 24855 24856 24857 24858 24859 24860 24861 24862 24863 24864 24865 24866 24867 24868 24869 24870 24871 24872 24873 24874 24875 24876 24877 24878 24879 24880 24881 24882 24883 24884 24885 24886 24887 24888 24889 24890 24891 24892 24893 24894 24895 24896 24897 24898 24899 24900 24901 24902 24903 24904 24905 24906 24907 24908 24909 24910 24911 24912 24913 24914 24915 24916 24917 24918 24919 24920 24921 24922 24923 24924 24925 24926 24927 24928 24929 24930 24931 24932 24933 24934 24935 24936 24937 24938 24939 24940 24941 24942 24943 24944 24945 24946 24947 24948 24949 24950 24951 24952 24953 24954 24955 24956 24957 24958 24959 24960 24961 24962 24963 24964 24965 24966 24967 24968 24969 24970 24971 24972 24973 24974 24975 24976 24977 24978 24979 24980 24981 24982 24983 24984 24985 24986 24987 24988 24989 24990 24991 24992 24993 24994 24995 24996 24997 24998 24999 25000 25001 25002 25003 25004 25005 25006 25007 25008 25009 25010 25011 25012 25013 25014 25015 25016 25017 25018 25019 25020 25021 25022 25023 25024 25025 25026 25027 25028 25029 25030 25031 25032 25033 25034 25035 25036 25037 25038 25039 25040 25041 25042 25043 25044 25045 25046 25047 25048 25049 25050 25051 25052 25053 25054 25055 25056 25057 25058 25059 25060 25061 25062 25063 25064 25065 25066 25067 25068 25069 25070 25071 25072 25073 25074 25075 25076 25077 25078 25079 25080 25081 25082 25083 25084 25085 25086 25087 25088 25089 25090 25091 25092 25093 25094 25095 25096 25097 25098 25099 25100 25101 25102 25103 25104 25105 25106 25107 25108 25109 25110 25111 25112 25113 25114 25115 25116 25117 25118 25119 25120 25121 25122 25123 25124 25125 25126 25127 25128 25129 25130 25131 25132 25133 25134 25135 25136 25137 25138 25139 25140 25141 25142 25143 25144 25145 25146 25147 25148 25149 25150 25151 25152 25153 25154 25155 25156 25157 25158 25159 25160 25161 25162 25163 25164 25165 25166 25167 25168 25169 25170 25171 25172 25173 25174 25175 25176 25177 25178 25179 25180 25181 25182 25183 25184 25185 25186 25187 25188 25189 25190 25191 25192 25193 25194 25195 25196 25197 25198 25199 25200 25201 25202 25203 25204 25205 25206 25207 25208 25209 25210 25211 25212 25213 25214 25215 25216 25217 25218 25219 25220 25221 25222 25223 25224 25225 25226 25227 25228 25229 25230 25231 25232 25233 25234 25235 25236 25237 25238 25239 25240 25241 25242 25243 25244 25245 25246 25247 25248 25249 25250 25251 25252 25253 25254 25255 25256 25257 25258 25259 25260 25261 25262 25263 25264 25265 25266 25267 25268 25269 25270 25271 25272 25273 25274 25275 25276 25277 25278 25279 25280 25281 25282 25283 25284 25285 25286 25287 25288 25289 25290 25291 25292 25293 25294 25295 25296 25297 25298 25299 25300 25301 25302 25303 25304 25305 25306 25307 25308 25309 25310 25311 25312 25313 25314 25315 25316 25317 25318 25319 25320 25321 25322 25323 25324 25325 25326 25327 25328 25329 25330 25331 25332 25333 25334 25335 25336 25337 25338 25339 25340 25341 25342 25343 25344 25345 25346 25347 25348 25349 25350 25351 25352 25353 25354 25355 25356 25357 25358 25359 25360 25361 25362 25363 25364 25365 25366 25367 25368 25369 25370 25371 25372 25373 25374 25375 25376 25377 25378 25379 25380 25381 25382 25383 25384 25385 25386 25387 25388 25389 25390 25391 25392 25393 25394 25395 25396 25397 25398 25399 25400 25401 25402 25403 25404 25405 25406 25407 25408 25409 25410 25411 25412 25413 25414 25415 25416 25417 25418 25419 25420 25421 25422 25423 25424 25425 25426 25427 25428 25429 25430 25431 25432 25433 25434 25435 25436 25437 25438 25439 25440 25441 25442 25443 25444 25445 25446 25447 25448 25449 25450 25451 25452 25453 25454 25455 25456 25457 25458 25459 25460 25461 25462 25463 25464 25465 25466 25467 25468 25469 25470 25471 25472 25473 25474 25475 25476 25477 25478 25479 25480 25481 25482 25483 25484 25485 25486 25487 25488 25489 25490 25491 25492 25493 25494 25495 25496 25497 25498 25499 25500 25501 25502 25503 25504 25505 25506 25507 25508 25509 25510 25511 25512 25513 25514 25515 25516 25517 25518 25519 25520 25521 25522 25523 25524 25525 25526 25527 25528 25529 25530 25531 25532 25533 25534 25535 25536 25537 25538 25539 25540 25541 25542 25543 25544 25545 25546 25547 25548 25549 25550 25551 25552 25553 25554 25555 25556 25557 25558 25559 25560 25561 25562 25563 25564 25565 25566 25567 25568 25569 25570 25571 25572 25573 25574 25575 25576 25577 25578 25579 25580 25581 25582 25583 25584 25585 25586 25587 25588 25589 25590 25591 25592 25593 25594 25595 25596 25597 25598 25599 25600 25601 25602 25603 25604 25605 25606 25607 25608 25609 25610 25611 25612 25613 25614 25615 25616 25617 25618 25619 25620 25621 25622 25623 25624 25625 25626 25627 25628 25629 25630 25631 25632 25633 25634 25635 25636 25637 25638 25639 25640 25641 25642 25643 25644 25645 25646 25647 25648 25649 25650 25651 25652 25653 25654 25655 25656 25657 25658 25659 25660 25661 25662 25663 25664 25665 25666 25667 25668 25669 25670 25671 25672 25673 25674 25675 25676 25677 25678 25679 25680 25681 25682 25683 25684 25685 25686 25687 25688 25689 25690 25691 25692 25693 25694 25695 25696 25697 25698 25699 25700 25701 25702 25703 25704 25705 25706 25707 25708 25709 25710 25711 25712 25713 25714 25715 25716 25717 25718 25719 25720 25721 25722 25723 25724 25725 25726 25727 25728 25729 25730 25731 25732 25733 25734 25735 25736 25737 25738 25739 25740 25741 25742 25743 25744 25745 25746 25747 25748 25749 25750 25751 25752 25753 25754 25755 25756 25757 25758 25759 25760 25761 25762 25763 25764 25765 25766 25767 25768 25769 25770 25771 25772 25773 25774 25775 25776 25777 25778 25779 25780 25781 25782 25783 25784 25785 25786 25787 25788 25789 25790 25791 25792 25793 25794 25795 25796 25797 25798 25799 25800 25801 25802 25803 25804 25805 25806 25807 25808 25809 25810 25811 25812 25813 25814 25815 25816 25817 25818 25819 25820 25821 25822 25823 25824 25825 25826 25827 25828 25829 25830 25831 25832 25833 25834 25835 25836 25837 25838 25839 25840 25841 25842 25843 25844 25845 25846 25847 25848 25849 25850 25851 25852 25853 25854 25855 25856 25857 25858 25859 25860 25861 25862 25863 25864 25865 25866 25867 25868 25869 25870 25871 25872 25873 25874 25875 25876 25877 25878 25879 25880 25881 25882 25883 25884 25885 25886 25887 25888 25889 25890 25891 25892 25893 25894 25895 25896 25897 25898 25899 25900 25901 25902 25903 25904 25905 25906 25907 25908 25909 25910 25911 25912 25913 25914 25915 25916 25917 25918 25919 25920 25921 25922 25923 25924 25925 25926 25927 25928 25929 25930 25931 25932 25933 25934 25935 25936 25937 25938 25939 25940 25941 25942 25943 25944 25945 25946 25947 25948 25949 25950 25951 25952 25953 25954 25955 25956 25957 25958 25959 25960 25961 25962 25963 25964 25965 25966 25967 25968 25969 25970 25971 25972 25973 25974 25975 25976 25977 25978 25979 25980 25981 25982 25983 25984 25985 25986 25987 25988 25989 25990 25991 25992 25993 25994 25995 25996 25997 25998 25999 26000 26001 26002 26003 26004 26005 26006 26007 26008 26009 26010 26011 26012 26013 26014 26015 26016 26017 26018 26019 26020 26021 26022 26023 26024 26025 26026 26027 26028 26029 26030 26031 26032 26033 26034 26035 26036 26037 26038 26039 26040 26041 26042 26043 26044 26045 26046 26047 26048 26049 26050 26051 26052 26053 26054 26055 26056 26057 26058 26059 26060 26061 26062 26063 26064 26065 26066 26067 26068 26069 26070 26071 26072 26073 26074 26075 26076 26077 26078 26079 26080 26081 26082 26083 26084 26085 26086 26087 26088 26089 26090 26091 26092 26093 26094 26095 26096 26097 26098 26099 26100 26101 26102 26103 26104 26105 26106 26107 26108 26109 26110 26111 26112 26113 26114 26115 26116 26117 26118 26119 26120 26121 26122 26123 26124 26125 26126 26127 26128 26129 26130 26131 26132 26133 26134 26135 26136 26137 26138 26139 26140 26141 26142 26143 26144 26145 26146 26147 26148 26149 26150 26151 26152 26153 26154 26155 26156 26157 26158 26159 26160 26161 26162 26163 26164 26165 26166 26167 26168 26169 26170 26171 26172 26173 26174 26175 26176 26177 26178 26179 26180 26181 26182 26183 26184 26185 26186 26187 26188 26189 26190 26191 26192 26193 26194 26195 26196 26197 26198 26199 26200 26201 26202 26203 26204 26205 26206 26207 26208 26209 26210 26211 26212 26213 26214 26215 26216 26217 26218 26219 26220 26221 26222 26223 26224 26225 26226 26227 26228 26229 26230 26231 26232 26233 26234 26235 26236 26237 26238 26239 26240 26241 26242 26243 26244 26245 26246 26247 26248 26249 26250 26251 26252 26253 26254 26255 26256 26257 26258 26259 26260 26261 26262 26263 26264 26265 26266 26267 26268 26269 26270 26271 26272 26273 26274 26275 26276 26277 26278 26279 26280 26281 26282 26283 26284 26285 26286 26287 26288 26289 26290 26291 26292 26293 26294 26295 26296 26297 26298 26299 26300 26301 26302 26303 26304 26305 26306 26307 26308 26309 26310 26311 26312 26313 26314 26315 26316 26317 26318 26319 26320 26321 26322 26323 26324 26325 26326 26327 26328 26329 26330 26331 26332 26333 26334 26335 26336 26337 26338 26339 26340 26341 26342 26343 26344 26345 26346 26347 26348 26349 26350 26351 26352 26353 26354 26355 26356 26357 26358 26359 26360 26361 26362 26363 26364 26365 26366 26367 26368 26369 26370 26371 26372 26373 26374 26375 26376 26377 26378 26379 26380 26381 26382 26383 26384 26385 26386 26387 26388 26389 26390 26391 26392 26393 26394 26395 26396 26397 26398 26399 26400 26401 26402 26403 26404 26405 26406 26407 26408 26409 26410 26411 26412 26413 26414 26415 26416 26417 26418 26419 26420 26421 26422 26423 26424 26425 26426 26427 26428 26429 26430 26431 26432 26433 26434 26435 26436 26437 26438 26439 26440 26441 26442 26443 26444 26445 26446 26447 26448 26449 26450 26451 26452 26453 26454 26455 26456 26457 26458 26459 26460 26461 26462 26463 26464 26465 26466 26467 26468 26469 26470 26471 26472 26473 26474 26475 26476 26477 26478 26479 26480 26481 26482 26483 26484 26485 26486 26487 26488 26489 26490 26491 26492 26493 26494 26495 26496 26497 26498 26499 26500 26501 26502 26503 26504 26505 26506 26507 26508 26509 26510 26511 26512 26513 26514 26515 26516 26517 26518 26519 26520 26521 26522 26523 26524 26525 26526 26527 26528 26529 26530 26531 26532 26533 26534 26535 26536 26537 26538 26539 26540 26541 26542 26543 26544 26545 26546 26547 26548 26549 26550 26551 26552 26553 26554 26555 26556 26557 26558 26559 26560 26561 26562 26563 26564 26565 26566 26567 26568 26569 26570 26571 26572 26573 26574 26575 26576 26577 26578 26579 26580 26581 26582 26583 26584 26585 26586 26587 26588 26589 26590 26591 26592 26593 26594 26595 26596 26597 26598 26599 26600 26601 26602 26603 26604 26605 26606 26607 26608 26609 26610 26611 26612 26613 26614 26615 26616 26617 26618 26619 26620 26621 26622 26623 26624 26625 26626 26627 26628 26629 26630 26631 26632 26633 26634 26635 26636 26637 26638 26639 26640 26641 26642 26643 26644 26645 26646 26647 26648 26649 26650 26651 26652 26653 26654 26655 26656 26657 26658 26659 26660 26661 26662 26663 26664 26665 26666 26667 26668 26669 26670 26671 26672 26673 26674 26675 26676 26677 26678 26679 26680 26681 26682 26683 26684 26685 26686 26687 26688 26689 26690 26691 26692 26693 26694 26695 26696 26697 26698 26699 26700 26701 26702 26703 26704 26705 26706 26707 26708 26709 26710 26711 26712 26713 26714 26715 26716 26717 26718 26719 26720 26721 26722 26723 26724 26725 26726 26727 26728 26729 26730 26731 26732 26733 26734 26735 26736 26737 26738 26739 26740 26741 26742 26743 26744 26745 26746 26747 26748 26749 26750 26751 26752 26753 26754 26755 26756 26757 26758 26759 26760 26761 26762 26763 26764 26765 26766 26767 26768 26769 26770 26771 26772 26773 26774 26775 26776 26777 26778 26779 26780 26781 26782 26783 26784 26785 26786 26787 26788 26789 26790 26791 26792 26793 26794 26795 26796 26797 26798 26799 26800 26801 26802 26803 26804 26805 26806 26807 26808 26809 26810 26811 26812 26813 26814 26815 26816 26817 26818 26819 26820 26821 26822 26823 26824 26825 26826 26827 26828 26829 26830 26831 26832 26833 26834 26835 26836 26837 26838 26839 26840 26841 26842 26843 26844 26845 26846 26847 26848 26849 26850 26851 26852 26853 26854 26855 26856 26857 26858 26859 26860 26861 26862 26863 26864 26865 26866 26867 26868 26869 26870 26871 26872 26873 26874 26875 26876 26877 26878 26879 26880 26881 26882 26883 26884 26885 26886 26887 26888 26889 26890 26891 26892 26893 26894 26895 26896 26897 26898 26899 26900 26901 26902 26903 26904 26905 26906 26907 26908 26909 26910 26911 26912 26913 26914 26915 26916 26917 26918 26919 26920 26921 26922 26923 26924 26925 26926 26927 26928 26929 26930 26931 26932 26933 26934 26935 26936 26937 26938 26939 26940 26941 26942 26943 26944 26945 26946 26947 26948 26949 26950 26951 26952 26953 26954 26955 26956 26957 26958 26959 26960 26961 26962 26963 26964 26965 26966 26967 26968 26969 26970 26971 26972 26973 26974 26975 26976 26977 26978 26979 26980 26981 26982 26983 26984 26985 26986 26987 26988 26989 26990 26991 26992 26993 26994 26995 26996 26997 26998 26999 27000 27001 27002 27003 27004 27005 27006 27007 27008 27009 27010 27011 27012 27013 27014 27015 27016 27017 27018 27019 27020 27021 27022 27023 27024 27025 27026 27027 27028 27029 27030 27031 27032 27033 27034 27035 27036 27037 27038 27039 27040 27041 27042 27043 27044 27045 27046 27047 27048 27049 27050 27051 27052 27053 27054 27055 27056 27057 27058 27059 27060 27061 27062 27063 27064 27065 27066 27067 27068 27069 27070 27071 27072 27073 27074 27075 27076 27077 27078 27079 27080 27081 27082 27083 27084 27085 27086 27087 27088 27089 27090 27091 27092 27093 27094 27095 27096 27097 27098 27099 27100 27101 27102 27103 27104 27105 27106 27107 27108 27109 27110 27111 27112 27113 27114 27115 27116 27117 27118 27119 27120 27121 27122 27123 27124 27125 27126 27127 27128 27129 27130 27131 27132 27133 27134 27135 27136 27137 27138 27139 27140 27141 27142 27143 27144 27145 27146 27147 27148 27149 27150 27151 27152 27153 27154 27155 27156 27157 27158 27159 27160 27161 27162 27163 27164 27165 27166 27167 27168 27169 27170 27171 27172 27173 27174 27175 27176 27177 27178 27179 27180 27181 27182 27183 27184 27185 27186 27187 27188 27189 27190 27191 27192 27193 27194 27195 27196 27197 27198 27199 27200 27201 27202 27203 27204 27205 27206 27207 27208 27209 27210 27211 27212 27213 27214 27215 27216 27217 27218 27219 27220 27221 27222 27223 27224 27225 27226 27227 27228 27229 27230 27231 27232 27233 27234 27235 27236 27237 27238 27239 27240 27241 27242 27243 27244 27245 27246 27247 27248 27249 27250 27251 27252 27253 27254 27255 27256 27257 27258 27259 27260 27261 27262 27263 27264 27265 27266 27267 27268 27269 27270 27271 27272 27273 27274 27275 27276 27277 27278 27279 27280 27281 27282 27283 27284 27285 27286 27287 27288 27289 27290 27291 27292 27293 27294 27295 27296 27297 27298 27299 27300 27301 27302 27303 27304 27305 27306 27307 27308 27309 27310 27311 27312 27313 27314 27315 27316 27317 27318 27319 27320 27321 27322 27323 27324 27325 27326 27327 27328 27329 27330 27331 27332 27333 27334 27335 27336 27337 27338 27339 27340 27341 27342 27343 27344 27345 27346 27347 27348 27349 27350 27351 27352 27353 27354 27355 27356 27357 27358 27359 27360 27361 27362 27363 27364 27365 27366 27367 27368 27369 27370 27371 27372 27373 27374 27375 27376 27377 27378 27379 27380 27381 27382 27383 27384 27385 27386 27387 27388 27389 27390 27391 27392 27393 27394 27395 27396 27397 27398 27399 27400 27401 27402 27403 27404 27405 27406 27407 27408 27409 27410 27411 27412 27413 27414 27415 27416 27417 27418 27419 27420 27421 27422 27423 27424 27425 27426 27427 27428 27429 27430 27431 27432 27433 27434 27435 27436 27437 27438 27439 27440 27441 27442 27443 27444 27445 27446 27447 27448 27449 27450 27451 27452 27453 27454 27455 27456 27457 27458 27459 27460 27461 27462 27463 27464 27465 27466 27467 27468 27469 27470 27471 27472 27473 27474 27475 27476 27477 27478 27479 27480 27481 27482 27483 27484 27485 27486 27487 27488 27489 27490 27491 27492 27493 27494 27495 27496 27497 27498 27499 27500 27501 27502 27503 27504 27505 27506 27507 27508 27509 27510 27511 27512 27513 27514 27515 27516 27517 27518 27519 27520 27521 27522 27523 27524 27525 27526 27527 27528 27529 27530 27531 27532 27533 27534 27535 27536 27537 27538 27539 27540 27541 27542 27543 27544 27545 27546 27547 27548 27549 27550 27551 27552 27553 27554 27555 27556 27557 27558 27559 27560 27561 27562 27563 27564 27565 27566 27567 27568 27569 27570 27571 27572 27573 27574 27575 27576 27577 27578 27579 27580 27581 27582 27583 27584 27585 27586 27587 27588 27589 27590 27591 27592 27593 27594 27595 27596 27597 27598 27599 27600 27601 27602 27603 27604 27605 27606 27607 27608 27609 27610 27611 27612 27613 27614 27615 27616 27617 27618 27619 27620 27621 27622 27623 27624 27625 27626 27627 27628 27629 27630 27631 27632 27633 27634 27635 27636 27637 27638 27639 27640 27641 27642 27643 27644 27645 27646 27647 27648 27649 27650 27651 27652 27653 27654 27655 27656 27657 27658 27659 27660 27661 27662 27663 27664 27665 27666 27667 27668 27669 27670 27671 27672 27673 27674 27675 27676 27677 27678 27679 27680 27681 27682 27683 27684 27685 27686 27687 27688 27689 27690 27691 27692 27693 27694 27695 27696 27697 27698 27699 27700 27701 27702 27703 27704 27705 27706 27707 27708 27709 27710 27711 27712 27713 27714 27715 27716 27717 27718 27719 27720 27721 27722 27723 27724 27725 27726 27727 27728 27729 27730 27731 27732 27733 27734 27735 27736 27737 27738 27739 27740 27741 27742 27743 27744 27745 27746 27747 27748 27749 27750 27751 27752 27753 27754 27755 27756 27757 27758 27759 27760 27761 27762 27763 27764 27765 27766 27767 27768 27769 27770 27771 27772 27773 27774 27775 27776 27777 27778 27779 27780 27781 27782 27783 27784 27785 27786 27787 27788 27789 27790 27791 27792 27793 27794 27795 27796 27797 27798 27799 27800 27801 27802 27803 27804 27805 27806 27807 27808 27809 27810 27811 27812 27813 27814 27815 27816 27817 27818 27819 27820 27821 27822 27823 27824 27825 27826 27827 27828 27829 27830 27831 27832 27833 27834 27835 27836 27837 27838 27839 27840 27841 27842 27843 27844 27845 27846 27847 27848 27849 27850 27851 27852 27853 27854 27855 27856 27857 27858 27859 27860 27861 27862 27863 27864 27865 27866 27867 27868 27869 27870 27871 27872 27873 27874 27875 27876 27877 27878 27879 27880 27881 27882 27883 27884 27885 27886 27887 27888 27889 27890 27891 27892 27893 27894 27895 27896 27897 27898 27899 27900 27901 27902 27903 27904 27905 27906 27907 27908 27909 27910 27911 27912 27913 27914 27915 27916 27917 27918 27919 27920 27921 27922 27923 27924 27925 27926 27927 27928 27929 27930 27931 27932 27933 27934 27935 27936 27937 27938 27939 27940 27941 27942 27943 27944 27945 27946 27947 27948 27949 27950 27951 27952 27953 27954 27955 27956 27957 27958 27959 27960 27961 27962 27963 27964 27965 27966 27967 27968 27969 27970 27971 27972 27973 27974 27975 27976 27977 27978 27979 27980 27981 27982 27983 27984 27985 27986 27987 27988 27989 27990 27991 27992 27993 27994 27995 27996 27997 27998 27999 28000 28001 28002 28003 28004 28005 28006 28007 28008 28009 28010 28011 28012 28013 28014 28015 28016 28017 28018 28019 28020 28021 28022 28023 28024 28025 28026 28027 28028 28029 28030 28031 28032 28033 28034 28035 28036 28037 28038 28039 28040 28041 28042 28043 28044 28045 28046 28047 28048 28049 28050 28051 28052 28053 28054 28055 28056 28057 28058 28059 28060 28061 28062 28063 28064 28065 28066 28067 28068 28069 28070 28071 28072 28073 28074 28075 28076 28077 28078 28079 28080 28081 28082 28083 28084 28085 28086 28087 28088 28089 28090 28091 28092 28093 28094 28095 28096 28097 28098 28099 28100 28101 28102 28103 28104 28105 28106 28107 28108 28109 28110 28111 28112 28113 28114 28115 28116 28117 28118 28119 28120 28121 28122 28123 28124 28125 28126 28127 28128 28129 28130 28131 28132 28133 28134 28135 28136 28137 28138 28139 28140 28141 28142 28143 28144 28145 28146 28147 28148 28149 28150 28151 28152 28153 28154 28155 28156 28157 28158 28159 28160 28161 28162 28163 28164 28165 28166 28167 28168 28169 28170 28171 28172 28173 28174 28175 28176 28177 28178 28179 28180 28181 28182 28183 28184 28185 28186 28187 28188 28189 28190 28191 28192 28193 28194 28195 28196 28197 28198 28199 28200 28201 28202 28203 28204 28205 28206 28207 28208 28209 28210 28211 28212 28213 28214 28215 28216 28217 28218 28219 28220 28221 28222 28223 28224 28225 28226 28227 28228 28229 28230 28231 28232 28233 28234 28235 28236 28237 28238 28239 28240 28241 28242 28243 28244 28245 28246 28247 28248 28249 28250 28251 28252 28253 28254 28255 28256 28257 28258 28259 28260 28261 28262 28263 28264 28265 28266 28267 28268 28269 28270 28271 28272 28273 28274 28275 28276 28277 28278 28279 28280 28281 28282 28283 28284 28285 28286 28287 28288 28289 28290 28291 28292 28293 28294 28295 28296 28297 28298 28299 28300 28301 28302 28303 28304 28305 28306 28307 28308 28309 28310 28311 28312 28313 28314 28315 28316 28317 28318 28319 28320 28321 28322 28323 28324 28325 28326 28327 28328 28329 28330 28331 28332 28333 28334 28335 28336 28337 28338 28339 28340 28341 28342 28343 28344 28345 28346 28347 28348 28349 28350 28351 28352 28353 28354 28355 28356 28357 28358 28359 28360 28361 28362 28363 28364 28365 28366 28367 28368 28369 28370 28371 28372 28373 28374 28375 28376 28377 28378 28379 28380 28381 28382 28383 28384 28385 28386 28387 28388 28389 28390 28391 28392 28393 28394 28395 28396 28397 28398 28399 28400 28401 28402 28403 28404 28405 28406 28407 28408 28409 28410 28411 28412 28413 28414 28415 28416 28417 28418 28419 28420 28421 28422 28423 28424 28425 28426 28427 28428 28429 28430 28431 28432 28433 28434 28435 28436 28437 28438 28439 28440 28441 28442 28443 28444 28445 28446 28447 28448 28449 28450 28451 28452 28453 28454 28455 28456 28457 28458 28459 28460 28461 28462 28463 28464 28465 28466 28467 28468 28469 28470 28471 28472 28473 28474 28475 28476 28477 28478 28479 28480 28481 28482 28483 28484 28485 28486 28487 28488 28489 28490 28491 28492 28493 28494 28495 28496 28497 28498 28499 28500 28501 28502 28503 28504 28505 28506 28507 28508 28509 28510 28511 28512 28513 28514 28515 28516 28517 28518 28519 28520 28521 28522 28523 28524 28525 28526 28527 28528 28529 28530 28531 28532 28533 28534 28535 28536 28537 28538 28539 28540 28541 28542 28543 28544 28545 28546 28547 28548 28549 28550 28551 28552 28553 28554 28555 28556 28557 28558 28559 28560 28561 28562 28563 28564 28565 28566 28567 28568 28569 28570 28571 28572 28573 28574 28575 28576 28577 28578 28579 28580 28581 28582 28583 28584 28585 28586 28587 28588 28589 28590 28591 28592 28593 28594 28595 28596 28597 28598 28599 28600 28601 28602 28603 28604 28605 28606 28607 28608 28609 28610 28611 28612 28613 28614 28615 28616 28617 28618 28619 28620 28621 28622 28623 28624 28625 28626 28627 28628 28629 28630 28631 28632 28633 28634 28635 28636 28637 28638 28639 28640 28641 28642 28643 28644 28645 28646 28647 28648 28649 28650 28651 28652 28653 28654 28655 28656 28657 28658 28659 28660 28661 28662 28663 28664 28665 28666 28667 28668 28669 28670 28671 28672 28673 28674 28675 28676 28677 28678 28679 28680 28681 28682 28683 28684 28685 28686 28687 28688 28689 28690 28691 28692 28693 28694 28695 28696 28697 28698 28699 28700 28701 28702 28703 28704 28705 28706 28707 28708 28709 28710 28711 28712 28713 28714 28715 28716 28717 28718 28719 28720 28721 28722 28723 28724 28725 28726 28727 28728 28729 28730 28731 28732 28733 28734 28735 28736 28737 28738 28739 28740 28741 28742 28743 28744 28745 28746 28747 28748 28749 28750 28751 28752 28753 28754 28755 28756 28757 28758 28759 28760 28761 28762 28763 28764 28765 28766 28767 28768 28769 28770 28771 28772 28773 28774 28775 28776 28777 28778 28779 28780 28781 28782 28783 28784 28785 28786 28787 28788 28789 28790 28791 28792 28793 28794 28795 28796 28797 28798 28799 28800 28801 28802 28803 28804 28805 28806 28807 28808 28809 28810 28811 28812 28813 28814 28815 28816 28817 28818 28819 28820 28821 28822 28823 28824 28825 28826 28827 28828 28829 28830 28831 28832 28833 28834 28835 28836 28837 28838 28839 28840 28841 28842 28843 28844 28845 28846 28847 28848 28849 28850 28851 28852 28853 28854 28855 28856 28857 28858 28859 28860 28861 28862 28863 28864 28865 28866 28867 28868 28869 28870 28871 28872 28873 28874 28875 28876 28877 28878 28879 28880 28881 28882 28883 28884 28885 28886 28887 28888 28889 28890 28891 28892 28893 28894 28895 28896 28897 28898 28899 28900 28901 28902 28903 28904 28905 28906 28907 28908 28909 28910 28911 28912 28913 28914 28915 28916 28917 28918 28919 28920 28921 28922 28923 28924 28925 28926 28927 28928 28929 28930 28931 28932 28933 28934 28935 28936 28937 28938 28939 28940 28941 28942 28943 28944 28945 28946 28947 28948 28949 28950 28951 28952 28953 28954 28955 28956 28957 28958 28959 28960 28961 28962 28963 28964 28965 28966 28967 28968 28969 28970 28971 28972 28973 28974 28975 28976 28977 28978 28979 28980 28981 28982 28983 28984 28985 28986 28987 28988 28989 28990 28991 28992 28993 28994 28995 28996 28997 28998 28999 29000 29001 29002 29003 29004 29005 29006 29007 29008 29009 29010 29011 29012 29013 29014 29015 29016 29017 29018 29019 29020 29021 29022 29023 29024 29025 29026 29027 29028 29029 29030 29031 29032 29033 29034 29035 29036 29037 29038 29039 29040 29041 29042 29043 29044 29045 29046 29047 29048 29049 29050 29051 29052 29053 29054 29055 29056 29057 29058 29059 29060 29061 29062 29063 29064 29065 29066 29067 29068 29069 29070 29071 29072 29073 29074 29075 29076 29077 29078 29079 29080 29081 29082 29083 29084 29085 29086 29087 29088 29089 29090 29091 29092 29093 29094 29095 29096 29097 29098 29099 29100 29101 29102 29103 29104 29105 29106 29107 29108 29109 29110 29111 29112 29113 29114 29115 29116 29117 29118 29119 29120 29121 29122 29123 29124 29125 29126 29127 29128 29129 29130 29131 29132 29133 29134 29135 29136 29137 29138 29139 29140 29141 29142 29143 29144 29145 29146 29147 29148 29149 29150 29151 29152 29153 29154 29155 29156 29157 29158 29159 29160 29161 29162 29163 29164 29165 29166 29167 29168 29169 29170 29171 29172 29173 29174 29175 29176 29177 29178 29179 29180 29181 29182 29183 29184 29185 29186 29187 29188 29189 29190 29191 29192 29193 29194 29195 29196 29197 29198 29199 29200 29201 29202 29203 29204 29205 29206 29207 29208 29209 29210 29211 29212 29213 29214 29215 29216 29217 29218 29219 29220 29221 29222 29223 29224 29225 29226 29227 29228 29229 29230 29231 29232 29233 29234 29235 29236 29237 29238 29239 29240 29241 29242 29243 29244 29245 29246 29247 29248 29249 29250 29251 29252 29253 29254 29255 29256 29257 29258 29259 29260 29261 29262 29263 29264 29265 29266 29267 29268 29269 29270 29271 29272 29273 29274 29275 29276 29277 29278 29279 29280 29281 29282 29283 29284 29285 29286 29287 29288 29289 29290 29291 29292 29293 29294 29295 29296 29297 29298 29299 29300 29301 29302 29303 29304 29305 29306 29307 29308 29309 29310 29311 29312 29313 29314 29315 29316 29317 29318 29319 29320 29321 29322 29323 29324 29325 29326 29327 29328 29329 29330 29331 29332 29333 29334 29335 29336 29337 29338 29339 29340 29341 29342 29343 29344 29345 29346 29347 29348 29349 29350 29351 29352 29353 29354 29355 29356 29357 29358 29359 29360 29361 29362 29363 29364 29365 29366 29367 29368 29369 29370 29371 29372 29373 29374 29375 29376 29377 29378 29379 29380 29381 29382 29383 29384 29385 29386 29387 29388 29389 29390 29391 29392 29393 29394 29395 29396 29397 29398 29399 29400 29401 29402 29403 29404 29405 29406 29407 29408 29409 29410 29411 29412 29413 29414 29415 29416 29417 29418 29419 29420 29421 29422 29423 29424 29425 29426 29427 29428 29429 29430 29431 29432 29433 29434 29435 29436 29437 29438 29439 29440 29441 29442 29443 29444 29445 29446 29447 29448 29449 29450 29451 29452 29453 29454 29455 29456 29457 29458 29459 29460 29461 29462 29463 29464 29465 29466 29467 29468 29469 29470 29471 29472 29473 29474 29475 29476 29477 29478 29479 29480 29481 29482 29483 29484 29485 29486 29487 29488 29489 29490 29491 29492 29493 29494 29495 29496 29497 29498 29499 29500 29501 29502 29503 29504 29505 29506 29507 29508 29509 29510 29511 29512 29513 29514 29515 29516 29517 29518 29519 29520 29521 29522 29523 29524 29525 29526 29527 29528 29529 29530 29531 29532 29533 29534 29535 29536 29537 29538 29539 29540 29541 29542 29543 29544 29545 29546 29547 29548 29549 29550 29551 29552 29553 29554 29555 29556 29557 29558 29559 29560 29561 29562 29563 29564 29565 29566 29567 29568 29569 29570 29571 29572 29573 29574 29575 29576 29577 29578 29579 29580 29581 29582 29583 29584 29585 29586 29587 29588 29589 29590 29591 29592 29593 29594 29595 29596 29597 29598 29599 29600 29601 29602 29603 29604 29605 29606 29607 29608 29609 29610 29611 29612 29613 29614 29615 29616 29617 29618 29619 29620 29621 29622 29623 29624 29625 29626 29627 29628 29629 29630 29631 29632 29633 29634 29635 29636 29637 29638 29639 29640 29641 29642 29643 29644 29645 29646 29647 29648 29649 29650 29651 29652 29653 29654 29655 29656 29657 29658 29659 29660 29661 29662 29663 29664 29665 29666 29667 29668 29669 29670 29671 29672 29673 29674 29675 29676 29677 29678 29679 29680 29681 29682 29683 29684 29685 29686 29687 29688 29689 29690 29691 29692 29693 29694 29695 29696 29697 29698 29699 29700 29701 29702 29703 29704 29705 29706 29707 29708 29709 29710 29711 29712 29713 29714 29715 29716 29717 29718 29719 29720 29721 29722 29723 29724 29725 29726 29727 29728 29729 29730 29731 29732 29733 29734 29735 29736 29737 29738 29739 29740 29741 29742 29743 29744 29745 29746 29747 29748 29749 29750 29751 29752 29753 29754 29755 29756 29757 29758 29759 29760 29761 29762 29763 29764 29765 29766 29767 29768 29769 29770 29771 29772 29773 29774 29775 29776 29777 29778 29779 29780 29781 29782 29783 29784 29785 29786 29787 29788 29789 29790 29791 29792 29793 29794 29795 29796 29797 29798 29799 29800 29801 29802 29803 29804 29805 29806 29807 29808 29809 29810 29811 29812 29813 29814 29815 29816 29817 29818 29819 29820 29821 29822 29823 29824 29825 29826 29827 29828 29829 29830 29831 29832 29833 29834 29835 29836 29837 29838 29839 29840 29841 29842 29843 29844 29845 29846 29847 29848 29849 29850 29851 29852 29853 29854 29855 29856 29857 29858 29859 29860 29861 29862 29863 29864 29865 29866 29867 29868 29869 29870 29871 29872 29873 29874 29875 29876 29877 29878 29879 29880 29881 29882 29883 29884 29885 29886 29887 29888 29889 29890 29891 29892 29893 29894 29895 29896 29897 29898 29899 29900 29901 29902 29903 29904 29905 29906 29907 29908 29909 29910 29911 29912 29913 29914 29915 29916 29917 29918 29919 29920 29921 29922 29923 29924 29925 29926 29927 29928 29929 29930 29931 29932 29933 29934 29935 29936 29937 29938 29939 29940 29941 29942 29943 29944 29945 29946 29947 29948 29949 29950 29951 29952 29953 29954 29955 29956 29957 29958 29959 29960 29961 29962 29963 29964 29965 29966 29967 29968 29969 29970 29971 29972 29973 29974 29975 29976 29977 29978 29979 29980 29981 29982 29983 29984 29985 29986 29987 29988 29989 29990 29991 29992 29993 29994 29995 29996 29997 29998 29999 30000 30001 30002 30003 30004 30005 30006 30007 30008 30009 30010 30011 30012 30013 30014 30015 30016 30017 30018 30019 30020 30021 30022 30023 30024 30025 30026 30027 30028 30029 30030 30031 30032 30033 30034 30035 30036 30037 30038 30039 30040 30041 30042 30043 30044 30045 30046 30047 30048 30049 30050 30051 30052 30053 30054 30055 30056 30057 30058 30059 30060 30061 30062 30063 30064 30065 30066 30067 30068 30069 30070 30071 30072 30073 30074 30075 30076 30077 30078 30079 30080 30081 30082 30083 30084 30085 30086 30087 30088 30089 30090 30091 30092 30093 30094 30095 30096 30097 30098 30099 30100 30101 30102 30103 30104 30105 30106 30107 30108 30109 30110 30111 30112 30113 30114 30115 30116 30117 30118 30119 30120 30121 30122 30123 30124 30125 30126 30127 30128 30129 30130 30131 30132 30133 30134 30135 30136 30137 30138 30139 30140 30141 30142 30143 30144 30145 30146 30147 30148 30149 30150 30151 30152 30153 30154 30155 30156 30157 30158 30159 30160 30161 30162 30163 30164 30165 30166 30167 30168 30169 30170 30171 30172 30173 30174 30175 30176 30177 30178 30179 30180 30181 30182 30183 30184 30185 30186 30187 30188 30189 30190 30191 30192 30193 30194 30195 30196 30197 30198 30199 30200 30201 30202 30203 30204 30205 30206 30207 30208 30209 30210 30211 30212 30213 30214 30215 30216 30217 30218 30219 30220 30221 30222 30223 30224 30225 30226 30227 30228 30229 30230 30231 30232 30233 30234 30235 30236 30237 30238 30239 30240 30241 30242 30243 30244 30245 30246 30247 30248 30249 30250 30251 30252 30253 30254 30255 30256 30257 30258 30259 30260 30261 30262 30263 30264 30265 30266 30267 30268 30269 30270 30271 30272 30273 30274 30275 30276 30277 30278 30279 30280 30281 30282 30283 30284 30285 30286 30287 30288 30289 30290 30291 30292 30293 30294 30295 30296 30297 30298 30299 30300 30301 30302 30303 30304 30305 30306 30307 30308 30309 30310 30311 30312 30313 30314 30315 30316 30317 30318 30319 30320 30321 30322 30323 30324 30325 30326 30327 30328 30329 30330 30331 30332 30333 30334 30335 30336 30337 30338 30339 30340 30341 30342 30343 30344 30345 30346 30347 30348 30349 30350 30351 30352 30353 30354 30355 30356 30357 30358 30359 30360 30361 30362 30363 30364 30365 30366 30367 30368 30369 30370 30371 30372 30373 30374 30375 30376 30377 30378 30379 30380 30381 30382 30383 30384 30385 30386 30387 30388 30389 30390 30391 30392 30393 30394 30395 30396 30397 30398 30399 30400 30401 30402 30403 30404 30405 30406 30407 30408 30409 30410 30411 30412 30413 30414 30415 30416 30417 30418 30419 30420 30421 30422 30423 30424 30425 30426 30427 30428 30429 30430 30431 30432 30433 30434 30435 30436 30437 30438 30439 30440 30441 30442 30443 30444 30445 30446 30447 30448 30449 30450 30451 30452 30453 30454 30455 30456 30457 30458 30459 30460 30461 30462 30463 30464 30465 30466 30467 30468 30469 30470 30471 30472 30473 30474 30475 30476 30477 30478 30479 30480 30481 30482 30483 30484 30485 30486 30487 30488 30489 30490 30491 30492 30493 30494 30495 30496 30497 30498 30499 30500 30501 30502 30503 30504 30505 30506 30507 30508 30509 30510 30511 30512 30513 30514 30515 30516 30517 30518 30519 30520 30521 30522 30523 30524 30525 30526 30527 30528 30529 30530 30531 30532 30533 30534 30535 30536 30537 30538 30539 30540 30541 30542 30543 30544 30545 30546 30547 30548 30549 30550 30551 30552 30553 30554 30555 30556 30557 30558 30559 30560 30561 30562 30563 30564 30565 30566 30567 30568 30569 30570 30571 30572 30573 30574 30575 30576 30577 30578 30579 30580 30581 30582 30583 30584 30585 30586 30587 30588 30589 30590 30591 30592 30593 30594 30595 30596 30597 30598 30599 30600 30601 30602 30603 30604 30605 30606 30607 30608 30609 30610 30611 30612 30613 30614 30615 30616 30617 30618 30619 30620 30621 30622 30623 30624 30625 30626 30627 30628 30629 30630 30631 30632 30633 30634 30635 30636 30637 30638 30639 30640 30641 30642 30643 30644 30645 30646 30647 30648 30649 30650 30651 30652 30653 30654 30655 30656 30657 30658 30659 30660 30661 30662 30663 30664 30665 30666 30667 30668 30669 30670 30671 30672 30673 30674 30675 30676 30677 30678 30679 30680 30681 30682 30683 30684 30685 30686 30687 30688 30689 30690 30691 30692 30693 30694 30695 30696 30697 30698 30699 30700 30701 30702 30703 30704 30705 30706 30707 30708 30709 30710 30711 30712 30713 30714 30715 30716 30717 30718 30719 30720 30721 30722 30723 30724 30725 30726 30727 30728 30729 30730 30731 30732 30733 30734 30735 30736 30737 30738 30739 30740 30741 30742 30743 30744 30745 30746 30747 30748 30749 30750 30751 30752 30753 30754 30755 30756 30757 30758 30759 30760 30761 30762 30763 30764 30765 30766 30767 30768 30769 30770 30771 30772 30773 30774 30775 30776 30777 30778 30779 30780 30781 30782 30783 30784 30785 30786 30787 30788 30789 30790 30791 30792 30793 30794 30795 30796 30797 30798 30799 30800 30801 30802 30803 30804 30805 30806 30807 30808 30809 30810 30811 30812 30813 30814 30815 30816 30817 30818 30819 30820 30821 30822 30823 30824 30825 30826 30827 30828 30829 30830 30831 30832 30833 30834 30835 30836 30837 30838 30839 30840 30841 30842 30843 30844 30845 30846 30847 30848 30849 30850 30851 30852 30853 30854 30855 30856 30857 30858 30859 30860 30861 30862 30863 30864 30865 30866 30867 30868 30869 30870 30871 30872 30873 30874 30875 30876 30877 30878 30879 30880 30881 30882 30883 30884 30885 30886 30887 30888 30889 30890 30891 30892 30893 30894 30895 30896 30897 30898 30899 30900 30901 30902 30903 30904 30905 30906 30907 30908 30909 30910 30911 30912 30913 30914 30915 30916 30917 30918 30919 30920 30921 30922 30923 30924 30925 30926 30927 30928 30929 30930 30931 30932 30933 30934 30935 30936 30937 30938 30939 30940 30941 30942 30943 30944 30945 30946 30947 30948 30949 30950 30951 30952 30953 30954 30955 30956 30957 30958 30959 30960 30961 30962 30963 30964 30965 30966 30967 30968 30969 30970 30971 30972 30973 30974 30975 30976 30977 30978 30979 30980 30981 30982 30983 30984 30985 30986 30987 30988 30989 30990 30991 30992 30993 30994 30995 30996 30997 30998 30999 31000 31001 31002 31003 31004 31005 31006 31007 31008 31009 31010 31011 31012 31013 31014 31015 31016 31017 31018 31019 31020 31021 31022 31023 31024 31025 31026 31027 31028 31029 31030 31031 31032 31033 31034 31035 31036 31037 31038 31039 31040 31041 31042 31043 31044 31045 31046 31047 31048 31049 31050 31051 31052 31053 31054 31055 31056 31057 31058 31059 31060 31061 31062 31063 31064 31065 31066 31067 31068 31069 31070 31071 31072 31073 31074 31075 31076 31077 31078 31079 31080 31081 31082 31083 31084 31085 31086 31087 31088 31089 31090 31091 31092 31093 31094 31095 31096 31097 31098 31099 31100 31101 31102 31103 31104 31105 31106 31107 31108 31109 31110 31111 31112 31113 31114 31115 31116 31117 31118 31119 31120 31121 31122 31123 31124 31125 31126 31127 31128 31129 31130 31131 31132 31133 31134 31135 31136 31137 31138 31139 31140 31141 31142 31143 31144 31145 31146 31147 31148 31149 31150 31151 31152 31153 31154 31155 31156 31157 31158 31159 31160 31161 31162 31163 31164 31165 31166 31167 31168 31169 31170 31171 31172 31173 31174 31175 31176 31177 31178 31179 31180 31181 31182 31183 31184 31185 31186 31187 31188 31189 31190 31191 31192 31193 31194 31195 31196 31197 31198 31199 31200 31201 31202 31203 31204 31205 31206 31207 31208 31209 31210 31211 31212 31213 31214 31215 31216 31217 31218 31219 31220 31221 31222 31223 31224 31225 
</DataArray>
<DataArray type="UInt32" Name="offsets" format="ascii">
3 6 9 12 15 18 21 24 27 30 33 36 39 42 45 48 51 54 57 60 63 66 69 72 75 78 81 84 87 90 93 96 99 102 105 108 111 114 117 120 122 125 128 131 134 137 139 141 144 147 150 152 155 157 160 163 166 169 171 174 176 179 182 184 187 190 193 195 198 201 203 206 209 212 215 218 221 223 225 228 230 233 236 239 242 244 247 250 253 255 258 261 263 266 269 272 275 278 281 284 287 290 293 296 299 301 304 306 309 311 314 317 320 323 326 329 331 333 336 339 342 344 347 350 353 356 359 362 365 368 371 374 376 379 382 385 388 391 394 397 399 402 405 408 411 414 417 420 422 425 428 430 433 436 439 442 445 448 451 454 457 460 463 466 468 471 474 477 480 483 486 489 492 495 498 500 503 505 508 511 514 517 520 523 526 529 532 535 537 540 543 546 549 552 555 558 561 564 567 570 572 575 578 580 583 586 589 592 595 598 601 604 607 610 612 614 617 620 623 626 629 631 634 637 639 642 644 647 650 653 656 659 661 664 667 670 673 676 679 682 685 688 691 694 697 700 703 706 709 712 715 718 721 724 727 730 733 736 739 742 745 747 750 753 756 759 762 764 767 770 773 776 779 781 784 787 790 793 796 799 801 804 807 810 813 816 819 821 824 827 830 833 836 839 842 845 848 850 853 855 858 861 864 867 870 873 876 879 882 885 887 890 893 895 898 901 903 906 909 911 914 917 920 923 926 929 932 934 937 940 943 946 949 952 954 957 960 963 966 969 971 974 977 979 982 985 988 991 994 997 1000 1003 1006 1009 1012 1015 1018 1021 1024 1026 1029 1031 1034 1037 1040 1043 1046 1049 1052 1054 1057 1060 1062 1064 1067 1070 1073 1076 1079 1082 1085 1088 1091 1094 1097 1100 1103 1106 1109 1112 1115 1118 1121 1123 1126 1129 1131 1134 1137 1140 1143 1146 1149 1152 1155 1158 1161 1164 1167 1170 1173 1176 1179 1181 1184 1187 1190 1193 1196 1199 1202 1205 1208 1211 1214 1217 1220 1223 1226 1229 1231 1234 1237 1240 1243 1245 1248 1251 1254 1257 1260 1263 1266 1269 1272 1275 1278 1281 1284 1287 1290 1292 1295 1298 1301 1303 1306 1309 1312 1315 1318 1320 1322 1324 1327 1330 1333 1335 1338 1341 1344 1347 1350 1352 1355 1358 1361 1364 1367 1369 1371 1374 1377 1380 1383 1386 1389 1392 1395 1398 1401 1404 1407 1409 1412 1415 1418 1421 1424 1427 1430 1433 1436 1439 1442 1445 1448 1451 1454 1457 1460 1463 1466 1469 1472 1475 1478 1481 1484 1487 1490 1493 1496 1499 1502 1505 1507 1510 1513 1516 1518 1521 1524 1527 1530 1533 1536 1539 1542 1544 1547 1550 1552 1555 1558 1561 1563 1566 1569 1572 1575 1578 1581 1583 1586 1589 1592 1595 1597 1600 1603 1606 1609 1612 1615 1618 1621 1624 1626 1629 1632 1635 1638 1641 1644 1647 1650 1653 1656 1659 1662 1665 1668 1671 1674 1677 1680 1683 1686 1689 1692 1695 1698 1701 1703 1706 1709 1712 1714 1717 1720 1723 1726 1729 1732 1735 1738 1741 1744 1747 1750 1753 1756 1759 1762 1765 1768 1771 1774 1776 1779 1782 1785 1788 1790 1793 1796 1799 1802 1805 1808 1811 1814 1817 1820 1823 1826 1828 1831 1834 1837 1840 1843 1846 1849 1852 1855 1858 1861 1863 1866 1869 1872 1875 1878 1881 1884 1887 1889 1892 1895 1898 1901 1904 1907 1910 1913 1916 1919 1922 1925 1928 1931 1934 1937 1940 1943 1946 1949 1952 1955 1957 1960 1963 1966 1969 1972 1975 1977 1980 1983 1986 1988 1990 1993 1996 1999 2002 2005 2008 2011 2014 2016 2018 2021 2024 2027 2030 2033 2036 2039 2042 2045 2048 2051 2054 2056 2059 2061 2063 2066 2069 2071 2073 2076 2079 2082 2084 2087 2090 2093 2096 2098 2101 2104 2107 2110 2113 2116 2119 2122 2125 2127 2130 2133 2136 2138 2141 2144 2147 2150 2153 2156 2159 2162 2165 2168 2171 2173 2175 2178 2181 2184 2187 2190 2193 2196 2199 2202 2205 2208 2210 2213 2216 2219 2222 2225 2228 2231 2234 2237 2240 2243 2246 2249 2252 2255 2258 2261 2264 2267 2270 2273 2276 2279 2282 2285 2288 2291 2294 2297 2300 2303 2306 2309 2312 2315 2318 2321 2324 2327 2329 2331 2333 2336 2339 2342 2344 2347 2350 2353 2356 2359 2362 2365 2368 2371 2374 2376 2379 2382 2385 2388 2391 2394 2397 2400 2402 2405 2408 2411 2414 2417 2419 2422 2425 2427 2430 2432 2435 2438 2441 2444 2446 2449 2452 2455 2458 2461 2464 2467 2470 2473 2476 2479 2482 2484 2487 2490 2493 2496 2499 2502 2505 2508 2511 2513 2516 2519 2522 2525 2528 2531 2534 2537 2540 2543 2545 2548 2551 2554 2557 2560 2562 2565 2568 2571 2574 2577 2580 2582 2585 2588 2591 2594 2597 2600 2603 2606 2609 2612 2615 2618 2621 2623 2626 2629 2632 2635 2637 2640 2643 2645 2648 2651 2654 2657 2660 2663 2666 2669 2672 2674 2677 2680 2683 2686 2689 2692 2695 2698 2701 2704 2707 2709 2712 2715 2718 2721 2724 2727 2729 2732 2735 2738 2741 2744 2747 2749 2752 2755 2758 2761 2763 2766 2768 2771 2774 2776 2779 2782 2785 2788 2791 2793 2796 2799 2802 2805 2808 2811 2814 2817 2820 2823 2826 2829 2831 2834 2836 2838 2841 2844 2847 2850 2852 2855 2857 2859 2862 2865 2868 2871 2874 2877 2880 2883 2886 2889 2892 2895 2897 2900 2903 2906 2909 2912 2915 2918 2921 2923 2926 2929 2932 2935 2938 2941 2944 2947 2950 2952 2955 2958 2961 2963 2966 2969 2972 2975 2978 2981 2984 2987 2990 2993 2995 2998 3001 3003 3006 3009 3012 3015 3018 3021 3023 3026 3029 3032 3034 3036 3039 3042 3045 3048 3051 3053 3056 3059 3062 3065 3067 3069 3072 3075 3078 3081 3084 3087 3090 3093 3096 3099 3102 3105 3108 3110 3113 3116 3119 3122 3125 3128 3130 3133 3136 3139 3142 3144 3147 3150 3152 3155 3158 3161 3164 3167 3170 3173 3176 3179 3182 3184 3187 3190 3193 3195 3198 3201 3204 3207 3210 3213 3216 3218 3221 3224 3227 3230 3232 3235 3238 3241 3244 3247 3249 3252 3255 3257 3260 3263 3266 3269 3271 3274 3277 3279 3281 3284 3287 3290 3293 3296 3298 3301 3304 3307 3309 3312 3315 3318 3320 3323 3326 3329 3332 3335 3338 3341 3344 3347 3350 3353 3356 3358 3361 3364 3367 3369 3372 3375 3378 3381 3384 3387 3390 3393 3396 3399 3402 3404 3407 3410 3413 3416 3418 3421 3424 3427 3429 3432 3435 3438 3441 3443 3446 3449 3452 3454 3457 3460 3463 3466 3469 3471 3474 3477 3480 3483 3486 3489 3492 3495 3498 3500 3503 3506 3509 3511 3514 3517 3520 3522 3525 3528 3531 3534 3537 3540 3543 3546 3549 3551 3553 3556 3559 3562 3565 3567 3570 3573 3576 3579 3582 3585 3588 3591 3593 3595 3597 3599 3602 3604 3607 3610 3612 3615 3618 3620 3622 3625 3628 3631 3634 3637 3640 3642 3644 3647 3650 3652 3655 3658 3660 3663 3665 3668 3671 3674 3677 3680 3683 3686 3689 3692 3695 3698 3701 3703 3706 3709 3712 3715 3718 3721 3724 3726 3729 3732 3735 3738 3741 3744 3747 3750 3753 3756 3759 3762 3765 3768 3771 3774 3776 3779 3782 3785 3788 3791 3794 3797 3800 3803 3805 3808 3811 3814 3817 3820 3823 3826 3829 3832 3835 3838 3841 3844 3847 3850 3853 3856 3859 3862 3865 3867 3870 3872 3875 3878 3881 3884 3887 3890 3893 3895 3897 3900 3903 3906 3909 3912 3915 3918 3921 3924 3927 3929 3932 3934 3937 3939 3942 3945 3948 3951 3954 3957 3960 3962 3965 3968 3971 3974 3977 3980 3983 3986 3989 3992 3995 3998 4001 4004 4007 4010 4013 4016 4019 4022 4025 4028 4031 4034 4037 4040 4043 4046 4049 4052 4055 4058 4061 4064 4067 4070 4073 4076 4079 4081 4084 4087 4090 4093 4096 4099 4102 4105 4108 4111 4114 4117 4120 4123 4126 4129 4132 4135 4138 4141 4144 4147 4150 4152 4154 4157 4160 4163 4166 4169 4171 4174 4176 4179 4182 4185 4188 4191 4194 4197 4200 4203 4206 4209 4212 4214 4217 4220 4223 4226 4229 4232 4235 4238 4241 4244 4247 4250 4252 4255 4257 4260 4262 4265 4268 4271 4274 4277 4280 4283 4286 4289 4292 4295 4298 4300 4303 4306 4309 4312 4315 4317 4320 4323 4326 4329 4332 4335 4338 4340 4343 4346 4348 4350 4353 4356 4359 4362 4364 4367 4370 4373 4376 4378 4381 4384 4386 4389 4392 4394 4397 4400 4403 4406 4408 4411 4414 4416 4419 4422 4425 4428 4430 4433 4435 4438 4441 4444 4446 4449 4452 4454 4457 4460 4463 4465 4468 4471 4473 4476 4479 4482 4485 4488 4491 4493 4496 4499 4502 4505 4508 4511 4514 4517 4520 4523 4526 4529 4531 4534 4537 4540 4542 4545 4547 4550 4553 4555 4558 4560 4563 4566 4568 4571 4574 4576 4578 4581 4584 4586 4589 4592 4594 4596 4599 4601 4604 4607 4610 4613 4616 4619 4622 4625 4628 4631 4634 4636 4639 4642 4644 4646 4649 4652 4654 4657 4660 4663 4666 4669 4672 4675 4678 4680 4683 4686 4689 4692 4694 4696 4699 4702 4705 4707 4710 4712 4715 4718 4720 4723 4726 4729 4732 4735 4738 4741 4744 4747 4750 4752 4755 4758 4761 4764 4767 4769 4772 4774 4777 4780 4783 4786 4788 4791 4794 4797 4799 4802 4805 4808 4811 4814 4817 4820 4823 4826 4829 4832 4835 4838 4841 4844 4847 4850 4853 4856 4859 4862 4864 4867 4870 4873 4876 4879 4882 4885 4888 4891 4894 4897 4900 4903 4906 4909 4912 4915 4918 4921 4924 4927 4930 4933 4936 4939 4942 4945 4948 4951 4954 4956 4959 4962 4965 4967 4970 4972 4975 4978 4980 4983 4986 4989 4992 4995 4997 5000 5003 5006 5009 5012 5014 5017 5020 5023 5025 5027 5030 5033 5036 5039 5042 5045 5048 5051 5054 5056 5059 5062 5065 5068 5071 5074 5077 5080 5083 5086 5089 5092 5095 5098 5101 5104 5107 5110 5113 5116 5119 5122 5125 5128 5131 5134 5137 5139 5141 5144 5146 5149 5152 5155 5158 5161 5163 5166 5169 5172 5175 5178 5181 5184 5187 5190 5193 5196 5199 5202 5205 5208 5211 5214 5216 5219 5222 5225 5228 5231 5234 5236 5238 5241 5244 5246 5249 5252 5254 5256 5259 5262 5265 5268 5271 5273 5276 5279 5282 5285 5288 5291 5294 5297 5300 5303 5306 5309 5312 5315 5318 5321 5323 5326 5329 5332 5335 5337 5340 5343 5346 5349 5352 5355 5358 5361 5364 5367 5369 5372 5375 5378 5381 5384 5387 5390 5393 5396 5399 5402 5405 5408 5410 5413 5416 5419 5422 5425 5427 5430 5433 5436 5439 5442 5445 5448 5450 5453 5455 5458 5461 5464 5467 5470 5473 5476 5479 5482 5485 5488 5491 5494 5497 5499 5501 5503 5506 5509 5512 5515 5518 5521 5524 5527 5530 5533 5536 5539 5541 5544 5546 5549 5552 5555 5557 5560 5563 5566 5569 5571 5574 5577 5580 5583 5585 5588 5590 5593 5596 5599 5602 5605 5608 5611 5614 5617 5620 5623 5626 5629 5632 5635 5638 5641 5644 5647 5649 5652 5655 5657 5660 5662 5665 5667 5669 5672 5675 5678 5680 5683 5686 5689 5691 5694 5697 5700 5703 5706 5709 5712 5714 5717 5719 5722 5725 5728 5731 5734 5736 5739 5742 5745 5747 5750 5753 5756 5759 5762 5764 5767 5770 5772 5775 5777 5780 5783 5785 5788 5791 5794 5797 5800 5803 5806 5808 5811 5813 5816 5819 5822 5825 5828 5831 5834 5837 5840 5843 5845 5848 5850 5852 5855 5858 5861 5863 5866 5869 5872 5875 5877 5880 5883 5886 5889 5891 5894 5897 5900 5902 5905 5907 5910 5913 5915 5918 5920 5923 5925 5928 5931 5934 5937 5940 5943 5945 5948 5950 5953 5955 5958 5961 5964 5967 5969 5972 5975 5978 5980 5983 5986 5989 5992 5995 5998 6001 6004 6007 6010 6013 6016 6019 6022 6025 6027 6030 6033 6036 6038 6040 6042 6045 6048 6050 6053 6056 6059 6062 6064 6067 6070 6073 6075 6078 6081 6083 6086 6088 6091 6094 6097 6099 6102 6104 6106 6109 6112 6115 6118 6121 6124 6126 6128 6131 6133 6136 6139 6142 6145 6148 6151 6154 6156 6159 6162 6165 6167 6170 6172 6175 6178 6180 6183 6186 6189 6192 6194 6197 6200 6202 6205 6208 6211 6213 6216 6219 6222 6224 6227 6230 6233 6235 6238 6240 6243 6246 6249 6252 6255 6258 6261 6264 6267 6270 6273 6276 6279 6282 6285 6288 6291 6294 6297 6300 6303 6306 6308 6311 6314 6317 6320 6323 6326 6329 6332 6335 6338 6341 6344 6347 6350 6353 6356 6359 6362 6364 6367 6370 6373 6376 6378 6381 6383 6386 6389 6392 6394 6397 6399 6402 6405 6408 6410 6413 6416 6419 6421 6424 6427 6430 6433 6436 6438 6441 6443 6446 6449 6451 6454 6456 6459 6462 6465 6467 6469 6472 6475 6478 6480 6483 6486 6488 6490 6492 6495 6498 6501 6504 6506 6509 6511 6514 6517 6520 6522 6525 6528 6531 6534 6536 6539 6542 6545 6547 6550 6553 6556 6559 6562 6565 6568 6571 6574 6577 6579 6582 6585 6588 6591 6594 6597 6600 6603 6606 6609 6612 6614 6616 6619 6622 6625 6628 6630 6632 6635 6637 6640 6643 6646 6649 6651 6654 6657 6660 6663 6666 6669 6672 6675 6678 6681 6684 6687 6689 6692 6695 6698 6700 6703 6706 6708 6711 6714 6717 6720 6723 6726 6729 6732 6735 6737 6740 6743 6746 6749 6752 6755 6758 6761 6764 6767 6770 6773 6776 6779 6782 6785 6788 6791 6794 6797 6800 6803 6806 6809 6812 6815 6818 6821 6824 6827 6830 6833 6836 6839 6842 6845 6848 6851 6854 6857 6860 6863 6865 6868 6870 6873 6876 6879 6882 6885 6888 6891 6894 6897 6899 6902 6905 6908 6911 6914 6917 6920 6923 6925 6928 6931 6934 6937 6940 6943 6946 6948 6950 6953 6956 6959 6961 6963 6966 6969 6972 6975 6978 6981 6984 6987 6990 6993 6996 6999 7001 7004 7007 7010 7013 7016 7019 7022 7024 7027 7030 7032 7035 7038 7041 7044 7047 7050 7053 7055 7057 7060 7063 7066 7069 7072 7075 7077 7080 7082 7085 7088 7091 7094 7097 7099 7102 7104 7106 7109 7112 7115 7117 7120 7123 7125 7128 7130 7133 7135 7138 7140 7143 7146 7149 7152 7154 7156 7159 7161 7164 7167 7170 7173 7176 7179 7181 7184 7187 7189 7192 7195 7198 7201 7204 7207 7210 7213 7216 7219 7222 7224 7227 7229 7231 7234 7237 7240 7243 7246 7249 7251 7254 7257 7259 7262 7265 7268 7271 7274 7277 7279 7282 7284 7287 7289 7292 7294 7296 7299 7302 7305 7308 7311 7314 7317 7320 7323 7326 7329 7331 7334 7337 7340 7343 7346 7348 7350 7353 7355 7358 7361 7364 7367 7369 7372 7374 7377 7379 7382 7385 7388 7391 7394 7397 7400 7402 7405 7408 7411 7414 7417 7420 7423 7426 7429 7432 7435 7438 7441 7444 7447 7450 7453 7456 7459 7462 7465 7467 7470 7473 7476 7478 7481 7484 7487 7489 7492 7494 7497 7500 7502 7505 7508 7511 7513 7516 7518 7521 7524 7527 7530 7533 7536 7539 7542 7545 7547 7550 7553 7556 7559 7562 7564 7567 7570 7573 7576 7579 7581 7584 7587 7590 7593 7596 7599 7602 7605 7608 7611 7614 7617 7619 7622 7625 7628 7631 7634 7636 7638 7641 7644 7647 7649 7652 7654 7657 7660 7663 7665 7668 7671 7674 7677 7680 7683 7686 7689 7692 7694 7696 7699 7702 7705 7708 7710 7713 7716 7719 7721 7724 7727 7730 7732 7735 7738 7741 7744 7747 7750 7753 7756 7759 7762 7765 7768 7770 7773 7776 7779 7782 7785 7788 7790 7793 7796 7799 7802 7805 7808 7811 7814 7817 7820 7823 7826 7829 7832 7834 7837 7840 7843 7845 7848 7851 7854 7857 7859 7862 7865 7868 7871 7874 7877 7880 7883 7886 7889 7892 7895 7898 7901 7904 7907 7910 7913 7915 7918 7921 7924 7927 7930 7933 7936 7939 7942 7945 7948 7951 7953 7955 7958 7961 7964 7967 7970 7973 7976 7979 7982 7984 7987 7990 7993 7996 7999 8002 8005 8008 8011 8014 8017 8019 8022 8024 8027 8030 8033 8036 8039 8042 8045 8048 8050 8053 8056 8059 8062 8065 8068 8070 8073 8076 8079 8082 8085 8088 8091 8094 8097 8099 8101 8104 8107 8110 8113 8115 8118 8121 8123 8125 8128 8131 8133 8135 8138 8141 8144 8147 8150 8152 8154 8157 8160 8162 8165 8168 8171 8174 8177 8180 8183 8186 8188 8191 8194 8197 8200 8203 8206 8209 8212 8215 8218 8220 8223 8226 8229 8232 8235 8238 8241 8244 8247 8250 8253 8255 8258 8261 8264 8267 8269 8272 8275 8278 8281 8284 8286 8289 8292 8295 8298 8300 8303 8306 8308 8310 8313 8316 8319 8322 8325 8328 8331 8334 8337 8340 8343 8346 8349 8352 8355 8358 8361 8364 8367 8370 8373 8376 8379 8381 8383 8386 8389 8392 8395 8397 8399 8402 8405 8408 8410 8413 8416 8419 8422 8425 8428 8431 8434 8437 8440 8443 8446 8449 8452 8455 8458 8460 8463 8466 8469 8472 8475 8478 8481 8483 8486 8489 8492 8495 8498 8500 8503 8506 8509 8512 8515 8518 8521 8523 8526 8529 8532 8535 8538 8541 8544 8547 8549 8552 8555 8558 8561 8564 8567 8570 8573 8576 8579 8581 8584 8587 8590 8593 8596 8599 8602 8604 8607 8609 8612 8615 8618 8621 8624 8627 8630 8632 8635 8638 8640 8643 8645 8648 8651 8654 8657 8660 8663 8666 8668 8671 8674 8677 8680 8683 8686 8689 8692 8695 8698 8701 8704 8706 8709 8712 8715 8718 8721 8724 8726 8729 8732 8735 8738 8741 8744 8747 8750 8753 8756 8759 8762 8765 8768 8771 8774 8776 8779 8782 8785 8787 8790 8792 8795 8798 8800 8803 8805 8807 8810 8813 8815 8818 8821 8823 8826 8829 8832 8835 8838 8841 8844 8847 8850 8853 8856 8859 8862 8865 8868 8871 8874 8876 8879 8881 8884 8887 8889 8892 8894 8897 8900 8902 8905 8907 8910 8913 8916 8919 8922 8925 8928 8931 8933 8936 8939 8942 8945 8948 8950 8953 8956 8959 8962 8965 8968 8971 8974 8977 8980 8983 8986 8989 8992 8995 8998 9001 9004 9007 9010 9012 9015 9018 9021 9023 9026 9029 9032 9034 9036 9039 9042 9045 9048 9051 9054 9057 9060 9063 9066 9069 9071 9074 9077 9080 9083 9086 9089 9092 9095 9098 9101 9104 9107 9109 9112 9115 9118 9121 9124 9127 9130 9133 9136 9138 9141 9144 9147 9149 9152 9155 9158 9161 9164 9167 9170 9173 9176 9179 9181 9184 9187 9190 9193 9196 9199 9202 9205 9208 9211 9214 9217 9220 9223 9226 9228 9231 9234 9237 9240 9242 9245 9248 9251 9253 9256 9259 9262 9265 9268 9271 9273 9276 9279 9281 9284 9287 9290 9292 9295 9298 9301 9303 9306 9309 9312 9314 9317 9320 9323 9326 9329 9332 9335 9338 9340 9343 9345 9348 9351 9354 9357 9360 9363 9366 9368 9371 9373 9376 9378 9380 9383 9386 9389 9392 9395 9397 9400 9403 9406 9409 9412 9415 9417 9420 9423 9425 9428 9431 9434 9437 9440 9442 9445 9448 9451 9454 9457 9460 9463 9465 9468 9471 9474 9477 9480 9483 9485 9488 9491 9494 9497 9500 9503 9506 9509 9512 9515 9518 9521 9524 9526 9529 9532 9535 9538 9541 9544 9547 9550 9553 9556 9559 9561 9564 9567 9570 9572 9574 9577 9580 9582 9585 9587 9590 9593 9596 9599 9602 9605 9608 9611 9614 9617 9620 9623 9626 9629 9632 9635 9638 9641 9644 9647 9650 9653 9656 9659 9661 9664 9667 9670 9673 9676 9679 9681 9684 9687 9690 9692 9695 9698 9700 9702 9705 9708 9711 9714 9717 9720 9722 9725 9728 9731 9734 9737 9740 9743 9746 9749 9752 9755 9758 9760 9763 9766 9769 9772 9775 9778 9780 9783 9786 9789 9792 9794 9797 9800 9803 9805 9808 9811 9814 9816 9819 9822 9825 9828 9831 9834 9837 9840 9843 9846 9849 9852 9855 9858 9861 9864 9867 9870 9873 9876 9879 9881 9884 9887 9889 9892 9895 9898 9901 9904 9907 9910 9913 9915 9917 9920 9923 9926 9929 9932 9935 9937 9940 9943 9946 9949 9952 9955 9958 9961 9964 9967 9970 9973 9975 9978 9980 9983 9986 9989 9992 9995 9998 10001 10004 10007 10010 10013 10016 10019 10022 10024 10027 10030 10033 10036 10039 10042 10044 10047 10050 10053 10056 10059 10062 10065 10067 10069 10072 10075 10078 10081 10084 10087 10090 10093 10096 10099 10102 10105 10108 10111 10114 10117 10120 10123 10126 10129 10132 10135 10138 10141 10144 10147 10150 10153 10156 10159 10162 10165 10168 10171 10174 10177 10180 10183 10186 10189 10192 10194 10197 10200 10203 10206 10208 10211 10214 10217 10220 10223 10226 10229 10232 10235 10238 10241 10244 10247 10250 10253 10256 10259 10262 10265 10268 10271 10274 10277 10280 10283 10285 10288 10291 10294 10297 10300 10303 10306 10309 10312 10314 10317 10320 10323 10326 10329 10331 10334 10337 10339 10342 10345 10348 10351 10354 10357 10360 10363 10366 10369 10372 10375 10378 10381 10384 10387 10390 10393 10396 10399 10402 10405 10408 10411 10414 10417 10420 10422 10424 10427 10430 10433 10435 10438 10441 10443 10446 10449 10451 10454 10457 10459 10462 10465 10468 10471 10474 10477 10480 10483 10485 10488 10491 10493 10496 10499 10502 10505 10507 10509 10512 10515 10518 10521 10524 10527 10530 10533 10536 10539 10542 10545 10547 10550 10553 10556 10558 10561 10564 10567 10570 10573 10576 10579 10581 10584 10586 10589 10592 10595 10598 10601 10603 10606 10609 10612 10615 10618 10620 10623 10626 10629 10632 10635 10638 10641 10644 10647 10650 10653 10656 10659 10661 10664 10667 10669 10672 10675 10678 10681 10684 10686 10689 10692 10695 10698 10701 10704 10707 10710 10713 10716 10718 10721 10724 10727 10730 10733 10736 10739 10742 10745 10747 10750 10753 10756 10759 10762 10765 10768 10771 10773 10776 10779 10781 10784 10787 10790 10793 10796 10799 10802 10805 10808 10811 10814 10816 10819 10821 10824 10827 10830 10833 10836 10839 10842 10845 10848 10851 10854 10856 10859 10862 10865 10868 10871 10874 10877 10880 10883 10886 10889 10892 10894 10897 10900 10903 10906 10909 10912 10914 10917 10920 10923 10926 10929 10932 10935 10938 10941 10944 10947 10950 10953 10956 10959 10962 10965 10967 10970 10973 10976 10979 10982 10985 10988 10991 10994 10996 10999 11002 11004 11007 11010 11013 11015 11018 11021 11023 11025 11028 11031 11034 11037 11039 11042 11045 11048 11051 11054 11057 11060 11063 11066 11069 11071 11074 11077 11080 11083 11086 11088 11091 11093 11096 11099 11101 11104 11106 11109 11112 11114 11117 11120 11123 11126 11128 11131 11134 11137 11140 11142 11145 11148 11151 11154 11157 11160 11162 11165 11167 11170 11173 11176 11179 11182 11185 11188 11191 11194 11197 11200 11203 11206 11208 11211 11214 11217 11220 11222 11225 11228 11231 11234 11237 11239 11242 11245 11247 11250 11253 11256 11258 11261 11264 11267 11270 11273 11276 11279 11281 11284 11287 11289 11292 11295 11298 11301 11303 11306 11308 11311 11313 11315 11318 11321 11323 11325 11327 11330 11333 11336 11339 11342 11345 11348 11350 11353 11356 11358 11361 11364 11366 11369 11371 11373 11376 11379 11381 11383 11385 11388 11390 11393 11396 11399 11402 11404 11407 11409 11412 11415 11417 11420 11423 11426 11428 11431 11434 11437 11440 11442 11445 11447 11450 11453 11456 11459 11462 11464 11466 11468 11471 11474 11477 11480 11483 11486 11489 11492 11495 11498 11501 11503 11506 11509 11512 11515 11518 11521 11524 11526 11529 11531 11534 11537 11540 11543 11546 11548 11551 11554 11557 11560 11563 11566 11569 11571 11574 11577 11580 11583 11586 11589 11591 11594 11597 11600 11603 11605 11608 11611 11614 11617 11619 11622 11624 11627 11630 11633 11636 11639 11641 11644 11646 11648 11651 11654 11657 11660 11662 11665 11668 11671 11674 11677 11680 11683 11686 11689 11692 11694 11696 11699 11702 11704 11707 11710 11713 11715 11717 11720 11722 11724 11726 11729 11732 11735 11738 11741 11744 11746 11749 11752 11754 11757 11759 11762 11765 11767 11769 11771 11774 11776 11778 11781 11784 11787 11789 11792 11794 11796 11799 11802 11805 11808 11811 11813 11816 11819 11822 11825 11828 11831 11833 11836 11839 11841 11844 11847 11849 11852 11855 11858 11861 11864 11867 11870 11873 11876 11879 11882 11885 11888 11891 11894 11897 11900 11903 11906 11909 11912 11914 11917 11920 11923 11926 11928 11931 11934 11937 11940 11943 11946 11948 11951 11954 11957 11960 11963 11966 11969 11971 11974 11977 11980 11983 11986 11989 11992 11995 11998 12001 12004 12007 12010 12013 12016 12019 12022 12025 12028 12031 12034 12037 12040 12043 12046 12049 12052 12055 12058 12061 12063 12066 12069 12072 12075 12078 12081 12084 12087 12090 12093 12095 12098 12101 12104 12107 12110 12113 12116 12119 12122 12125 12128 12131 12134 12137 12140 12143 12146 12149 12152 12155 12157 12160 12162 12165 12168 12171 12174 12177 12180 12183 12186 12189 12192 12195 12198 12201 12204 12206 12209 12212 12215 12218 12221 12224 12227 12230 12233 12236 12239 12242 12245 12248 12251 12254 12256 12259 12262 12265 12268 12271 12274 12277 12279 12282 12285 12288 12291 12293 12296 12299 12302 12305 12308 12311 12314 12317 12320 12323 12326 12329 12332 12334 12337 12340 12343 12345 12348 12351 12353 12356 12359 12362 12365 12368 12371 12374 12377 12380 12383 12386 12388 12391 12394 12397 12399 12402 12405 12407 12409 12412 12415 12418 12421 12423 12426 12429 12432 12434 12437 12440 12442 12445 12448 12450 12453 12456 12459 12462 12465 12468 12471 12474 12477 12480 12483 12486 12489 12492 12495 12498 12501 12504 12507 12510 12513 12516 12519 12522 12525 12528 12531 12534 12537 12540 12543 12546 12549 12552 12555 12558 12561 12564 12567 12570 12573 12576 12579 12582 12585 12588 12591 12594 12597 12600 12603 12606 12609 12612 12615 12618 12621 12624 12627 12630 12633 12636 12639 12642 12645 12648 12651 12654 12657 12660 12663 12666 12669 12672 12675 12678 12681 12684 12687 12690 12693 12696 12698 12701 12704 12707 12710 12713 12715 12718 12721 12724 12727 12730 12733 12736 12739 12742 12745 12747 12750 12753 12756 12758 12761 12764 12767 12770 12773 12776 12779 12782 12785 12788 12791 12793 12796 12799 12802 12805 12807 12810 12813 12816 12818 12821 12824 12827 12830 12833 12836 12838 12841 12844 12847 12849 12852 12855 12857 12860 12863 12865 12868 12871 12874 12877 12880 12883 12885 12888 12891 12894 12897 12900 12903 12906 12908 12911 12914 12917 12920 12922 12925 12928 12931 12934 12937 12940 12943 12946 12949 12952 12954 12957 12960 12963 12966 12969 12972 12975 12978 12981 12984 12987 12989 12991 12994 12997 13000 13003 13006 13009 13012 13015 13018 13021 13024 13027 13029 13032 13035 13038 13041 13044 13046 13049 13052 13055 13058 13061 13064 13066 13069 13072 13075 13078 13081 13084 13087 13090 13093 13096 13098 13101 13104 13107 13110 13113 13116 13119 13122 13125 13127 13130 13133 13136 13139 13142 13145 13147 13150 13153 13156 13158 13160 13162 13165 13168 13170 13173 13176 13179 13182 13184 13187 13190 13193 13196 13199 13201 13204 13207 13210 13213 13216 13219 13222 13225 13228 13231 13234 13237 13240 13243 13246 13249 13252 13255 13258 13261 13263 13266 13269 13272 13275 13278 13280 13283 13286 13289 13291 13293 13296 13298 13301 13304 13306 13309 13312 13315 13318 13321 13324 13327 13329 13332 13335 13338 13341 13343 13345 13348 13351 13354 13356 13359 13362 13364 13367 13369 13372 13375 13378 13381 13384 13387 13390 13393 13396 13399 13402 13405 13408 13410 13413 13416 13419 13422 13425 13428 13430 13432 13435 13438 13441 13444 13446 13449 13452 13455 13458 13461 13464 13467 13470 13473 13475 13478 13481 13483 13485 13488 13491 13494 13497 13500 13503 13506 13509 13512 13514 13517 13520 13522 13525 13528 13530 13532 13534 13537 13540 13543 13545 13548 13551 13553 13555 13557 13560 13563 13565 13567 13570 13573 13576 13578 13580 13583 13585 13587 13590 13593 13596 13599 13601 13603 13606 13608 13611 13614 13617 13620 13623 13626 13629 13631 13634 13637 13639 13642 13645 13648 13651 13654 13656 13659 13662 13665 13668 13670 13673 13676 13679 13682 13684 13686 13689 13692 13695 13698 13701 13704 13707 13709 13712 13715 13718 13721 13724 13727 13730 13733 13736 13739 13742 13744 13747 13750 13753 13756 13759 13762 13765 13767 13770 13773 13776 13779 13782 13785 13788 13791 13794 13797 13799 13802 13804 13807 13810 13813 13816 13819 13822 13825 13828 13831 13834 13837 13840 13842 13845 13848 13850 13853 13856 13859 13862 13864 13867 13870 13872 13875 13877 13880 13883 13885 13888 13891 13894 13897 13900 13903 13906 13909 13911 13913 13916 13919 13921 13924 13927 13930 13933 13936 13938 13940 13942 13944 13947 13950 13953 13955 13958 13960 13963 13965 13968 13971 13974 13976 13979 13981 13984 13986 13989 13992 13995 13998 14000 14003 14005 14008 14011 14014 14017 14020 14022 14025 14028 14031 14034 14037 14040 14043 14046 14049 14052 14055 14057 14060 14063 14066 14069 14072 14075 14078 14081 14084 14087 14090 14093 14095 14098 14100 14103 14106 14109 14112 14115 14118 14120 14123 14126 14129 14132 14135 14138 14141 14144 14147 14150 14153 14156 14159 14162 14165 14168 14171 14174 14177 14180 14183 14186 14189 14192 14195 14198 14201 14204 14207 14210 14213 14216 14219 14222 14225 14228 14231 14234 14237 14240 14243 14246 14249 14252 14255 14258 14260 14263 14266 14268 14271 14274 14277 14280 14283 14285 14288 14291 14293 14296 14299 14302 14305 14308 14311 14314 14317 14319 14322 14325 14328 14331 14334 14336 14339 14342 14345 14348 14351 14354 14357 14360 14363 14366 14368 14371 14374 14376 14379 14382 14384 14387 14389 14392 14395 14397 14400 14402 14405 14408 14411 14414 14417 14420 14423 14426 14429 14432 14435 14438 14441 14444 14447 14450 14453 14456 14459 14462 14465 14468 14471 14474 14477 14480 14483 14485 14488 14491 14494 14497 14500 14503 14506 14509 14512 14515 14518 14521 14524 14527 14530 14533 14536 14539 14542 14545 14548 14551 14554 14557 14560 14563 14566 14569 14572 14575 14578 14581 14584 14587 14589 14592 14594 14597 14599 14602 14605 14608 14611 14614 14617 14620 14623 14626 14629 14632 14635 14638 14641 14644 14647 14650 14653 14656 14659 14662 14665 14668 14671 14674 14677 14680 14683 14685 14688 14690 14692 14695 14698 14701 14704 14706 14709 14712 14715 14718 14721 14724 14727 14730 14733 14736 14739 14742 14745 14747 14750 14752 14755 14758 14761 14764 14767 14770 14773 14776 14779 14782 14785 14788 14791 14794 14797 14800 14803 14806 14809 14812 14815 14818 14820 14823 14826 14829 14832 14835 14838 14841 14844 14847 14850 14853 14856 14858 14861 14864 14867 14870 14873 14876 14879 14882 14885 14888 14890 14893 14896 14899 14902 14904 14906 14909 14911 14914 14917 14920 14923 14926 14929 14932 14935 14938 14941 14944 14947 14950 14953 14955 14958 14961 14964 14967 14970 14973 14975 14978 14981 14984 14987 14989 14992 14995 14997 15000 15002 15005 15008 15011 15013 15016 15019 15021 15024 15027 15030 15032 15035 15038 15041 15044 15046 15049 15052 15055 15058 15061 15064 15066 15069 15071 15074 15076 15078 15080 15083 15086 15089 15092 15095 15097 15100 15103 15105 15108 15111 15114 15117 15120 15123 15126 15129 15132 15135 15137 15139 15142 15145 15148 15151 15154 15157 15160 15163 15166 15169 15171 15174 15177 15179 15182 15184 15187 15190 15193 15196 15199 15202 15205 15208 15211 15214 15217 15220 15223 15226 15229 15232 15235 15238 15241 15244 15247 15250 15253 15256 15259 15261 15264 15267 15269 15272 15275 15278 15281 15284 15287 15290 15293 15296 15299 15302 15305 15308 15311 15314 15317 15320 15323 15326 15329 15332 15334 15336 15339 15342 15345 15347 15350 15352 15354 15357 15360 15363 15365 15368 15370 15373 15375 15378 15381 15383 15385 15388 15391 15393 15395 15398 15400 15403 15405 15408 15411 15414 15416 15418 15421 15423 15426 15429 15432 15434 15437 15440 15443 15446 15449 15452 15454 15457 15460 15462 15465 15468 15471 15474 15477 15479 15482 15485 15487 15490 15492 15495 15497 15500 15503 15506 15509 15512 15515 15518 15520 15523 15526 15528 15531 15534 15537 15540 15542 15544 15547 15550 15553 15555 15558 15560 15563 15566 15569 15572 15575 15578 15581 15584 15587 15590 15593 15596 15599 15602 15605 15608 15611 15614 15617 15620 15623 15626 15629 15632 15635 15638 15641 15643 15646 15649 15652 15654 15657 15660 15663 15666 15668 15671 15673 15676 15678 15680 15683 15686 15689 15691 15694 15697 15700 15703 15705 15708 15711 15714 15717 15720 15723 15726 15728 15731 15734 15736 15739 15741 15743 15746 15749 15752 15755 15757 15759 15762 15765 15767 15770 15772 15775 15777 15779 15782 15785 15787 15790 15793 15796 15799 15802 15805 15808 15811 15814 15816 15819 15822 15825 15828 15831 15833 15836 15839 15842 15844 15847 15850 15852 15855 15858 15861 15863 15866 15869 15872 15875 15878 15881 15884 15887 15890 15893 15895 15898 15901 15904 15907 15910 15913 15915 15918 15921 15924 15927 15930 15933 15936 15939 15942 15945 15948 15951 15954 15957 15960 15963 15966 15969 15972 15975 15978 15981 15984 15986 15989 15992 15995 15998 16001 16004 16007 16010 16013 16016 16019 16022 16025 16028 16031 16034 16037 16040 16043 16046 16049 16052 16055 16058 16061 16064 16067 16070 16073 16076 16079 16082 16085 16088 16091 16093 16096 16099 16102 16105 16107 16109 16112 16115 16117 16120 16123 16125 16128 16131 16134 16136 16139 16142 16145 16148 16151 16154 16157 16160 16163 16166 16169 16172 16175 16178 16180 16183 16185 16188 16191 16194 16197 16200 16202 16205 16208 16210 16213 16216 16219 16221 16224 16227 16230 16233 16235 16238 16241 16244 16246 16249 16252 16254 16257 16260 16263 16266 16269 16272 16275 16278 16281 16284 16287 16290 16293 16296 16299 16302 16305 16308 16311 16314 16317 16320 16323 16326 16329 16332 16335 16338 16341 16344 16347 16350 16353 16356 16358 16361 16363 16366 16369 16372 16375 16378 16381 16384 16387 16390 16393 16396 16399 16402 16405 16408 16411 16413 16416 16419 16422 16425 16428 16431 16434 16437 16440 16443 16446 16449 16452 16455 16458 16461 16464 16467 16470 16473 16476 16479 16482 16485 16488 16491 16494 16497 16500 16503 16506 16509 16512 16514 16517 16520 16523 16526 16528 16530 16533 16536 16538 16541 16544 16547 16549 16552 16555 16557 16560 16563 16566 16569 16571 16574 16577 16580 16583 16586 16589 16592 16595 16598 16600 16603 16606 16609 16612 16615 16618 16621 16623 16626 16629 16632 16635 16638 16640 16643 16646 16649 16651 16654 16657 16660 16663 16665 16668 16670 16673 16675 16678 16680 16683 16686 16689 16692 16694 16697 16700 16703 16705 16708 16711 16713 16716 16719 16721 16724 16727 16730 16732 16734 16737 16740 16742 16745 16747 16750 16752 16755 16757 16760 16762 16765 16768 16770 16773 16776 16778 16781 16783 16785 16788 16791 16794 16796 16799 16802 16804 16807 16810 16812 16815 16818 16821 16824 16827 16830 16833 16835 16838 16840 16842 16845 16848 16850 16853 16856 16858 16861 16863 16866 16868 16871 16874 16877 16880 16882 16885 16888 16891 16894 16897 16900 16903 16906 16909 16911 16913 16916 16918 16921 16923 16926 16928 16931 16933 16936 16939 16942 16945 16948 16951 16954 16956 16959 16962 16965 16968 16971 16973 16976 16979 16981 16983 16986 16988 16991 16994 16997 16999 17002 17004 17006 17009 17012 17015 17018 17020 17023 17026 17028 17031 17033 17036 17039 17042 17044 17047 17049 17052 17055 17058 17061 17064 17067 17070 17073 17076 17079 17082 17085 17088 17091 17094 17097 17100 17103 17106 17109 17112 17115 17117 17120 17123 17126 17129 17132 17134 17137 17139 17142 17145 17148 17150 17153 17155 17158 17160 17163 17166 17169 17172 17174 17177 17180 17183 17185 17188 17191 17193 17196 17198 17201 17204 17207 17209 17212 17214 17216 17219 17222 17225 17228 17230 17232 17235 17238 17240 17243 17246 17249 17252 17254 17257 17260 17263 17266 17269 17272 17274 17277 17279 17282 17285 17288 17291 17294 17297 17299 17302 17304 17306 17309 17311 17314 17317 17320 17322 17325 17328 17330 17333 17336 17338 17341 17343 17346 17349 17352 17355 17358 17361 17364 17367 17370 17373 17376 17379 17382 17385 17388 17390 17393 17396 17399 17402 17405 17408 17411 17414 17417 17420 17423 17426 17428 17431 17434 17437 17440 17443 17446 17449 17452 17455 17458 17460 17463 17466 17469 17472 17475 17478 17481 17484 17487 17490 17493 17496 17499 17502 17505 17508 17511 17514 17517 17520 17523 17526 17529 17532 17535 17538 17541 17544 17547 17550 17553 17556 17559 17562 17565 17568 17571 17574 17577 17580 17583 17586 17589 17592 17595 17598 17601 17603 17606 17609 17612 17615 17618 17620 17623 17626 17629 17631 17634 17637 17640 17643 17646 17649 17651 17654 17657 17660 17663 17666 17669 17671 17674 17677 17680 17683 17686 17689 17692 17695 17698 17700 17703 17706 17709 17712 17715 17718 17720 17723 17726 17729 17732 17735 17738 17741 17744 17747 17750 17753 17756 17759 17761 17763 17766 17769 17772 17775 17778 17780 17783 17785 17788 17791 17794 17797 17800 17803 17806 17809 17812 17815 17818 17821 17824 17827 17829 17832 17834 17837 17840 17843 17846 17849 17852 17854 17857 17859 17862 17864 17867 17870 17873 17876 17879 17882 17884 17887 17890 17893 17895 17898 17901 17904 17906 17909 17912 17915 17918 17921 17924 17927 17930 17933 17935 17938 17941 17944 17947 17950 17953 17956 17959 17962 17965 17968 17971 17973 17976 17979 17982 17985 17988 17991 17994 17997 18000 18003 18005 18008 18011 18014 18016 18018 18021 18024 18027 18029 18031 18034 18037 18039 18042 18045 18048 18051 18053 18056 18059 18062 18065 18068 18071 18073 18076 18078 18081 18084 18087 18090 18092 18095 18098 18100 18103 18105 18108 18111 18114 18117 18119 18122 18125 18128 18131 18134 18137 18140 18143 18146 18148 18151 18154 18157 18160 18162 18165 18167 18169 18172 18175 18178 18181 18184 18187 18190 18193 18196 18198 18200 18203 18206 18209 18211 18214 18216 18219 18222 18225 18228 18231 18234 18237 18240 18243 18246 18249 18252 18255 18258 18261 18264 18267 18269 18272 18275 18277 18280 18283 18286 18289 18292 18294 18297 18299 18302 18305 18308 18311 18314 18317 18320 18322 18325 18328 18331 18333 18336 18339 18341 18344 18346 18349 18352 18355 18358 18361 18364 18367 18370 18373 18376 18379 18382 18385 18388 18391 18394 18397 18400 18403 18406 18409 18412 18415 18417 18420 18423 18426 18429 18432 18435 18438 18441 18444 18447 18450 18453 18456 18459 18462 18465 18468 18471 18474 18477 18480 18483 18486 18489 18492 18495 18498 18501 18504 18507 18510 18513 18516 18519 18522 18525 18528 18531 18534 18537 18540 18543 18546 18548 18551 18554 18557 18560 18563 18566 18569 18572 18575 18578 18581 18584 18587 18590 18593 18596 18599 18602 18604 18607 18610 18613 18616 18619 18622 18625 18628 18631 18634 18637 18639 18642 18645 18648 18651 18654 18657 18660 18663 18666 18669 18672 18675 18677 18680 18683 18686 18688 18691 18694 18697 18699 18701 18704 18706 18708 18711 18714 18717 18720 18723 18726 18728 18731 18734 18737 18740 18743 18745 18748 18751 18754 18757 18759 18762 18765 18768 18770 18773 18776 18779 18781 18783 18786 18788 18791 18793 18796 18799 18802 18805 18808 18810 18813 18816 18819 18822 18825 18828 18830 18833 18836 18838 18840 18843 18846 18849 18852 18855 18858 18861 18864 18867 18870 18873 18876 18879 18882 18884 18887 18890 18893 18896 18899 18902 18905 18907 18910 18913 18916 18919 18922 18925 18927 18930 18933 18936 18939 18942 18945 18948 18951 18954 18957 18960 18963 18966 18969 18972 18975 18978 18981 18984 18987 18989 18992 18995 18998 19001 19004 19007 19010 19012 19015 19018 19021 19024 19027 19030 19033 19036 19039 19042 19045 19048 19051 19054 19057 19060 19063 19066 19069 19072 19075 19078 19081 19084 19087 19090 19093 19096 19099 19102 19105 19108 19111 19113 19116 19119 19122 19124 19127 19130 19133 19136 19139 19142 19145 19148 19151 19154 19157 19160 19162 19165 19168 19171 19174 19177 19180 19183 19186 19189 19192 19195 19197 19200 19203 19205 19207 19209 19212 19215 19218 19220 19223 19226 19229 19232 19235 19238 19241 19244 19247 19249 19252 19255 19258 19261 19264 19266 19269 19272 19275 19278 19280 19283 19286 19289 19292 19295 19298 19301 19304 19307 19310 19313 19316 19319 19322 19325 19328 19331 19334 19337 19340 19343 19346 19349 19352 19355 19358 19361 19364 19367 19370 19373 19376 19379 19382 19385 19388 19391 19394 19397 19400 19403 19406 19409 19412 19415 19418 19421 19423 19426 19429 19431 19434 19437 19440 19443 19445 19447 19449 19452 19455 19458 19461 19464 19467 19470 19473 19476 19479 19482 19485 19488 19491 19494 19497 19500 19503 19506 19509 19512 19514 19516 19519 19522 19525 19528 19531 19534 19537 19540 19543 19546 19549 19552 19555 19558 19561 19564 19567 19570 19573 19576 19579 19582 19585 19588 19591 19594 19597 19600 19603 19606 19609 19612 19615 19617 19620 19623 19626 19629 19632 19635 19638 19641 19644 19647 19650 19653 19656 19659 19662 19665 19668 19671 19674 19676 19679 19682 19684 19687 19690 19693 19696 19699 19702 19705 19708 19711 19714 19717 19720 19723 19726 19729 19731 19734 19737 19740 19743 19746 19749 19752 19754 19757 19760 19762 19765 19767 19770 19773 19776 19778 19780 19783 19786 19789 19792 19795 19798 19801 19804 19807 19810 19813 19816 19819 19822 19824 19827 19829 19832 19835 19838 19841 19844 19846 19849 19852 19855 19858 19861 19864 19867 19870 19873 19876 19879 19882 19885 19888 19891 19894 19897 19900 19903 19906 19909 19912 19915 19918 19921 19924 19927 19930 19933 19936 19939 19942 19945 19948 19951 19954 19957 19960 19963 19966 19969 19972 19975 19978 19981 19984 19987 19990 19993 19996 19999 20002 20005 20008 20011 20014 20017 20020 20022 20025 20028 20031 20033 20036 20039 20042 20045 20048 20051 20054 20057 20060 20063 20066 20069 20072 20075 20078 20081 20084 20087 20090 20093 20096 20099 20102 20105 20108 20110 20113 20116 20119 20122 20124 20127 20130 20133 20136 20139 20141 20144 20147 20149 20152 20155 20158 20161 20163 20166 20169 20172 20175 20178 20181 20184 20187 20190 20193 20196 20199 20202 20205 20208 20211 20214 20217 20220 20223 20226 20229 20232 20234 20237 20240 20243 20246 20249 20252 20255 20258 20261 20264 20266 20269 20271 20274 20277 20279 20282 20285 20288 20290 20293 20295 20298 20301 20304 20307 20310 20313 20315 20318 20321 20324 20326 20329 20332 20335 20337 20340 20343 20346 20349 20352 20354 20357 20359 20361 20364 20367 20370 20373 20376 20379 20382 20384 20387 20390 20392 20395 20398 20401 20404 20407 20409 20412 20415 20418 20421 20423 20426 20429 20432 20435 20438 20440 20442 20445 20448 20450 20453 20456 20459 20462 20464 20466 20469 20472 20474 20477 20479 20482 20484 20486 20489 20492 20495 20498 20501 20503 20506 20509 20512 20514 20517 20519 20522 20525 20528 20531 20534 20537 20540 20543 20546 20549 20551 20554 20557 20560 20563 20566 20568 20571 20574 20577 20580 20583 20586 20588 20591 20593 20595 20598 20601 20604 20607 20610 20613 20615 20618 20621 20623 20626 20629 20631 20634 20637 20640 20643 20646 20648 20651 20654 20657 20660 20663 20666 20669 20672 20675 20678 20681 20684 20686 20689 20692 20695 20698 20701 20704 20707 20710 20713 20715 20718 20721 20723 20726 20729 20731 20734 20737 20740 20743 20746 20749 20752 20755 20758 20761 20763 20766 20768 20771 20774 20777 20780 20782 20785 20788 20791 20793 20796 20799 20802 20805 20807 20810 20812 20815 20818 20821 20824 20827 20830 20833 20836 20839 20842 20845 20848 20851 20854 20857 20860 20863 20866 20869 20872 20875 20878 20881 20884 20887 20890 20893 20896 20899 20902 20905 20908 20911 20914 20917 20920 20923 20926 20929 20932 20935 20938 20941 20944 20947 20950 20953 20956 20959 20962 20965 20968 20971 20974 20977 20980 20983 20986 20989 20992 20995 20998 21001 21004 21007 21010 21013 21016 21019 21022 21025 21028 21031 21034 21037 21040 21043 21045 21048 21051 21054 21057 21059 21062 21065 21068 21071 21074 21077 21079 21082 21085 21088 21091 21094 21097 21100 21103 21106 21109 21112 21115 21118 21121 21124 21127 21130 21133 21136 21139 21142 21145 21148 21151 21154 21157 21159 21161 21164 21167 21170 21173 21176 21179 21182 21185 21188 21191 21194 21197 21200 21203 21205 21208 21211 21214 21217 21220 21223 21226 21229 21231 21234 21236 21239 21242 21245 21247 21250 21253 21256 21259 21262 21265 21268 21271 21273 21276 21279 21281 21284 21287 21290 21293 21296 21298 21301 21304 21307 21310 21313 21316 21318 21321 21324 21327 21330 21333 21336 21339 21342 21344 21347 21349 21352 21355 21358 21361 21364 21367 21370 21373 21375 21378 21381 21384 21386 21389 21391 21394 21396 21399 21402 21405 21408 21410 21413 21416 21419 21422 21425 21428 21431 21434 21437 21440 21442 21445 21448 21451 21454 21457 21459 21462 21465 21468 21471 21474 21477 21479 21482 21485 21488 21491 21494 21497 21500 21503 21506 21509 21512 21515 21517 21520 21523 21525 21528 21531 21534 21537 21540 21543 21546 21549 21551 21554 21556 21559 21561 21564 21567 21570 21573 21576 21579 21582 21585 21588 21591 21594 21597 21600 21603 21606 21609 21612 21615 21618 21621 21624 21627 21630 21633 21636 21639 21642 21644 21647 21650 21653 21655 21658 21661 21664 21667 21670 21673 21676 21679 21682 21685 21688 21691 21693 21696 21699 21702 21705 21708 21711 21714 21717 21720 21723 21726 21729 21732 21735 21738 21741 21744 21747 21750 21753 21756 21759 21762 21765 21768 21771 21774 21777 21779 21782 21785 21788 21791 21794 21797 21800 21803 21806 21809 21812 21815 21817 21820 21822 21824 21827 21829 21831 21834 21837 21840 21843 21846 21848 21850 21853 21856 21859 21862 21865 21867 21870 21873 21876 21879 21881 21884 21887 21889 21891 21893 21896 21899 21902 21904 21907 21909 21911 21914 21916 21919 21922 21925 21927 21930 21932 21934 21937 21940 21942 21945 21947 21950 21953 21956 21959 21962 21965 21968 21971 21974 21977 21980 21983 21986 21989 21992 21995 21998 22001 22004 22007 22010 22013 22016 22019 22022 22025 22028 22031 22034 22037 22040 22042 22045 22048 22051 22054 22057 22060 22062 22065 22068 22071 22074 22077 22080 22083 22086 22089 22092 22095 22098 22101 22104 22107 22110 22113 22116 22119 22122 22124 22127 22130 22133 22136 22139 22142 22145 22148 22151 22154 22157 22160 22163 22165 22168 22171 22173 22176 22178 22181 22184 22187 22189 22192 22195 22198 22200 22203 22206 22209 22212 22215 22218 22221 22224 22226 22229 22232 22235 22237 22239 22242 22245 22248 22251 22253 22255 22257 22260 22262 22265 22268 22270 22273 22276 22279 22281 22284 22287 22290 22292 22295 22297 22300 22303 22305 22308 22311 22314 22317 22320 22322 22325 22327 22330 22333 22336 22339 22342 22345 22348 22351 22354 22357 22360 22363 22366 22369 22372 22375 22378 22380 22383 22386 22389 22392 22395 22397 22399 22402 22405 22408 22411 22414 22416 22418 22421 22424 22427 22430 22433 22436 22439 22441 22444 22447 22450 22453 22456 22459 22462 22465 22468 22471 22474 22477 22480 22483 22486 22489 22492 22494 22497 22500 22503 22506 22509 22512 22515 22518 22520 22523 22526 22528 22531 22534 22537 22540 22542 22545 22548 22551 22553 22556 22558 22561 22564 22567 22569 22571 22573 22575 22578 22581 22584 22587 22590 22592 22595 22598 22601 22604 22607 22610 22613 22616 22619 22622 22624 22627 22630 22633 22636 22639 22642 22645 22648 22651 22654 22657 22660 22663 22666 22669 22671 22674 22677 22680 22683 22686 22689 22692 22695 22698 22701 22703 22706 22709 22712 22715 22717 22720 22722 22725 22728 22731 22734 22736 22739 22742 22745 22747 22749 22752 22754 22757 22760 22763 22766 22769 22772 22775 22778 22781 22784 22786 22789 22792 22794 22797 22799 22802 22805 22808 22810 22813 22815 22818 22820 22823 22826 22829 22832 22835 22838 22840 22843 22846 22849 22852 22855 22858 22860 22862 22864 22867 22870 22873 22876 22879 22881 22884 22887 22890 22892 22895 22898 22900 22903 22906 22909 22912 22915 22918 22921 22923 22926 22929 22932 22935 22938 22941 22944 22947 22950 22953 22956 22959 22961 22963 22966 22969 22972 22975 22978 22981 22984 22987 22990 22992 22994 22997 23000 23003 23006 23009 23012 23015 23017 23020 23023 23025 23028 23031 23034 23036 23039 23042 23044 23047 23050 23053 23056 23059 23062 23065 23068 23071 23074 23077 23080 23083 23085 23088 23090 23093 23096 23099 23102 23105 23108 23111 23113 23116 23119 23121 23124 23127 23130 23133 23136 23138 23141 23144 23147 23149 23152 23155 23157 23160 23163 23166 23169 23172 23175 23178 23181 23184 23187 23189 23192 23195 23198 23201 23204 23207 23209 23212 23215 23218 23221 23224 23227 23230 23233 23236 23239 23242 23245 23248 23251 23254 23257 23260 23263 23266 23269 23272 23275 23278 23281 23284 23287 23290 23293 23296 23299 23302 23305 23308 23311 23314 23317 23320 23322 23325 23328 23331 23334 23336 23339 23341 23344 23347 23349 23351 23354 23357 23360 23363 23366 23369 23372 23375 23378 23381 23384 23387 23390 23393 23396 23399 23401 23404 23407 23410 23413 23416 23419 23421 23424 23427 23430 23433 23436 23439 23442 23445 23447 23450 23453 23456 23459 23462 23465 23468 23471 23473 23476 23479 23482 23485 23488 23491 23493 23496 23499 23501 23504 23507 23510 23513 23516 23519 23522 23525 23528 23531 23534 23537 23540 23543 23546 23549 23552 23555 23558 23561 23564 23567 23570 23572 23575 23578 23580 23583 23586 23589 23592 23594 23597 23600 23602 23605 23607 23610 23613 23616 23619 23621 23624 23627 23630 23632 23635 23638 23641 23644 23647 23650 23652 23654 23657 23659 23662 23665 23668 23671 23674 23677 23679 23681 23684 23687 23690 23693 23696 23698 23701 23704 23706 23709 23712 23715 23718 23720 23723 23726 23729 23732 23735 23738 23741 23744 23746 23749 23752 23754 23757 23759 23762 23765 23768 23770 23773 23775 23778 23781 23783 23786 23789 23792 23795 23798 23801 23804 23807 23810 23813 23816 23819 23822 23825 23828 23831 23834 23837 23840 23842 23845 23848 23851 23853 23856 23858 23861 23864 23866 23869 23871 23874 23877 23879 23882 23885 23888 23890 23893 23896 23898 23900 23903 23906 23909 23912 23915 23918 23921 23924 23927 23930 23933 23936 23939 23942 23945 23948 23950 23953 23956 23959 23962 23965 23968 23971 23974 23977 23980 23983 23986 23989 23992 23994 23997 24000 24003 24005 24008 24011 24014 24017 24020 24023 24026 24029 24032 24034 24037 24040 24042 24045 24047 24050 24053 24056 24059 24062 24065 24068 24071 24074 24077 24080 24083 24086 24089 24091 24094 24096 24099 24102 24105 24108 24110 24113 24116 24118 24120 24123 24125 24128 24131 24134 24137 24140 24143 24146 24149 24152 24155 24158 24160 24163 24166 24169 24172 24175 24178 24181 24184 24187 24190 24193 24196 24199 24202 24205 24208 24211 24214 24217 24220 24222 24225 24228 24231 24234 24237 24240 24243 24246 24249 24252 24255 24258 24261 24264 24267 24270 24273 24275 24277 24279 24282 24285 24288 24291 24294 24297 24300 24303 24305 24308 24311 24314 24317 24320 24322 24325 24328 24330 24332 24335 24338 24341 24344 24347 24350 24353 24356 24359 24362 24364 24367 24369 24372 24375 24378 24380 24383 24385 24388 24390 24393 24396 24399 24402 24405 24408 24411 24413 24416 24419 24422 24424 24427 24430 24433 24436 24438 24441 24444 24447 24450 24453 24456 24458 24461 24464 24467 24470 24473 24476 24479 24482 24485 24488 24491 24494 24497 24500 24503 24506 24509 24512 24515 24518 24521 24524 24527 24530 24533 24536 24539 24542 24545 24548 24550 24553 24556 24559 24562 24565 24568 24571 24574 24577 24580 24583 24585 24588 24591 24594 24596 24599 24602 24605 24608 24611 24614 24617 24620 24623 24626 24629 24632 24635 24637 24640 24643 24646 24649 24652 24655 24658 24661 24664 24667 24670 24673 24676 24679 24681 24684 24687 24690 24693 24696 24699 24702 24704 24707 24710 24713 24715 24718 24721 24723 24726 24729 24732 24735 24737 24739 24741 24744 24747 24750 24753 24756 24758 24761 24764 24767 24770 24773 24775 24778 24781 24783 24786 24789 24792 24795 24798 24801 24804 24807 24809 24812 24815 24818 24821 24824 24827 24830 24832 24835 24838 24841 24843 24846 24848 24851 24854 24857 24860 24863 24866 24869 24872 24875 24877 24880 24882 24885 24888 24891 24894 24897 24900 24902 24905 24908 24910 24912 24914 24916 24919 24922 24925 24927 24930 24932 24935 24938 24941 24944 24947 24950 24952 24955 24958 24961 24964 24967 24970 24973 24976 24979 24981 24984 24987 24990 24992 24995 24998 25000 25002 25005 25008 25011 25014 25016 25019 25022 25025 25027 25030 25033 25036 25039 25042 25045 25048 25051 25054 25057 25060 25063 25066 25069 25072 25075 25077 25080 25083 25086 25089 25092 25095 25098 25100 25103 25106 25109 25112 25115 25118 25120 25123 25125 25128 25131 25133 25136 25139 25142 25145 25147 25150 25153 25155 25158 25161 25164 25167 25170 25173 25176 25179 25182 25185 25188 25191 25194 25197 25200 25203 25206 25209 25212 25215 25218 25221 25224 25227 25230 25233 25236 25239 25242 25245 25248 25251 25254 25256 25259 25262 25264 25267 25270 25273 25275 25278 25281 25283 25286 25288 25291 25294 25297 25300 25302 25305 25308 25311 25314 25317 25320 25322 25325 25328 25331 25334 25337 25340 25343 25346 25349 25352 25355 25358 25361 25364 25367 25370 25373 25376 25379 25382 25384 25387 25390 25393 25395 25398 25401 25404 25406 25409 25412 25414 25417 25420 25423 25426 25429 25432 25434 25436 25439 25442 25445 25448 25451 25454 25457 25459 25461 25464 25467 25469 25472 25475 25477 25480 25483 25486 25489 25492 25495 25497 25500 25503 25506 25509 25512 25515 25518 25521 25524 25527 25530 25533 25536 25539 25542 25545 25548 25551 25554 25557 25560 25562 25565 25568 25571 25574 25576 25579 25582 25585 25588 25591 25594 25597 25600 25603 25606 25609 25612 25615 25617 25620 25623 25626 25628 25631 25634 25637 25640 25643 25646 25649 25652 25654 25657 25660 25663 25665 25668 25671 25674 25677 25680 25683 25686 25689 25691 25694 25697 25700 25703 25706 25709 25711 25714 25717 25720 25723 25726 25729 25732 25734 25737 25740 25743 25746 25749 25752 25755 25758 25761 25764 25767 25770 25773 25776 25779 25782 25785 25788 25791 25794 25797 25800 25803 25806 25808 25811 25814 25817 25820 25823 25825 25828 25831 25834 25836 25839 25842 25845 25848 25850 25853 25855 25858 25861 25863 25866 25868 25871 25874 25877 25880 25883 25886 25889 25892 25895 25898 25901 25904 25907 25909 25912 25915 25918 25921 25924 25927 25930 25933 25936 25939 25942 25945 25948 25951 25954 25957 25960 25963 25966 25969 25972 25975 25978 25981 25984 25986 25989 25992 25994 25997 26000 26003 26006 26008 26011 26014 26017 26019 26021 26024 26027 26030 26033 26036 26039 26042 26044 26047 26050 26053 26056 26058 26060 26063 26065 26068 26071 26074 26077 26079 26081 26084 26087 26090 26093 26096 26099 26102 26105 26108 26111 26114 26117 26119 26122 26125 26128 26131 26134 26137 26139 26142 26145 26148 26151 26154 26157 26159 26161 26163 26165 26168 26171 26174 26177 26179 26182 26184 26186 26189 26192 26195 26198 26201 26204 26206 26209 26211 26214 26217 26220 26222 26224 26226 26228 26230 26233 26236 26238 26240 26243 26246 26249 26252 26255 26257 26259 26262 26264 26266 26269 26272 26274 26277 26280 26283 26286 26288 26291 26294 26297 26300 26303 26306 26308 26310 26313 26315 26318 26321 26323 26326 26328 26330 26333 26336 26339 26342 26345 26348 26351 26354 26357 26360 26362 26365 26367 26370 26373 26376 26378 26380 26383 26386 26389 26392 26395 26398 26400 26403 26406 26409 26411 26414 26417 26420 26423 26426 26428 26431 26433 26436 26438 26440 26443 26446 26449 26452 26455 26458 26461 26463 26466 26469 26472 26475 26478 26481 26484 26487 26490 26493 26496 26498 26501 26503 26506 26509 26511 26514 26517 26520 26523 26526 26529 26532 26535 26538 26541 26544 26547 26550 26553 26556 26559 26561 26564 26567 26570 26573 26576 26578 26581 26584 26587 26590 26593 26596 26599 26602 26605 26608 26611 26613 26615 26618 26621 26623 26626 26629 26631 26634 26637 26640 26643 26646 26648 26651 26654 26657 26660 26663 26666 26669 26672 26675 26677 26680 26683 26686 26689 26692 26695 26698 26700 26703 26706 26708 26710 26713 26716 26718 26721 26724 26727 26730 26733 26736 26738 26741 26744 26747 26750 26753 26756 26759 26762 26765 26768 26771 26774 26777 26780 26783 26786 26788 26791 26793 26796 26799 26801 26804 26807 26810 26813 26816 26819 26822 26825 26828 26831 26834 26837 26840 26843 26846 26849 26851 26854 26857 26860 26862 26864 26867 26870 26873 26876 26879 26882 26885 26888 26891 26894 26897 26900 26903 26906 26909 26912 26915 26918 26921 26924 26927 26930 26933 26936 26939 26942 26945 26948 26951 26954 26957 26960 26963 26966 26969 26972 26975 26978 26981 26984 26987 26990 26993 26996 26999 27002 27005 27008 27011 27013 27016 27019 27022 27025 27028 27031 27034 27037 27040 27043 27046 27048 27051 27054 27057 27060 27063 27066 27069 27072 27075 27078 27081 27084 27086 27089 27092 27095 27098 27101 27104 27107 27110 27113 27116 27119 27121 27124 27127 27130 27133 27136 27139 27142 27145 27148 27151 27154 27157 27159 27162 27165 27168 27171 27174 27177 27180 27183 27186 27189 27192 27195 27198 27201 27204 27206 27209 27211 27214 27217 27220 27222 27225 27227 27230 27233 27236 27239 27242 27245 27248 27251 27254 27257 27259 27261 27264 27267 27270 27273 27275 27278 27281 27284 27287 27289 27292 27295 27298 27301 27304 27307 27310 27313 27316 27319 27322 27325 27328 27331 27334 27337 27340 27343 27346 27349 27352 27355 27358 27361 27364 27367 27370 27373 27376 27379 27382 27385 27388 27391 27394 27397 27400 27403 27406 27409 27412 27415 27417 27420 27423 27426 27429 27432 27435 27438 27441 27443 27446 27449 27452 27455 27458 27460 27463 27466 27469 27472 27475 27478 27481 27484 27487 27490 27493 27496 27499 27502 27505 27508 27511 27514 27517 27520 27523 27526 27529 27532 27535 27538 27541 27544 27547 27550 27553 27556 27559 27562 27565 27568 27571 27574 27577 27580 27583 27586 27589 27592 27595 27598 27601 27604 27607 27610 27613 27616 27619 27621 27623 27626 27629 27632 27635 27638 27641 27643 27646 27649 27652 27655 27658 27661 27664 27667 27670 27673 27675 27678 27681 27683 27685 27688 27691 27694 27697 27700 27702 27705 27708 27711 27714 27717 27720 27723 27726 27729 27732 27735 27738 27741 27744 27746 27748 27751 27754 27756 27759 27761 27764 27767 27770 27772 27775 27777 27780 27782 27785 27787 27790 27792 27795 27798 27801 27803 27805 27808 27811 27814 27816 27819 27822 27824 27827 27829 27832 27835 27837 27840 27842 27844 27847 27850 27853 27856 27858 27861 27864 27867 27870 27873 27876 27879 27882 27885 27888 27891 27894 27897 27900 27903 27906 27908 27911 27913 27916 27919 27921 27924 27927 27929 27932 27935 27938 27941 27944 27947 27950 27953 27956 27959 27962 27964 27967 27970 27973 27976 27979 27982 27985 27988 27991 27994 27997 28000 28003 28006 28009 28012 28015 28017 28020 28022 28025 28028 28030 28032 28035 28038 28041 28044 28047 28050 28052 28055 28058 28061 28064 28067 28070 28073 28076 28079 28082 28084 28087 28089 28092 28094 28097 28100 28102 28105 28108 28111 28113 28116 28118 28121 28123 28126 28129 28132 28135 28138 28141 28143 28145 28148 28151 28154 28157 28160 28163 28166 28169 28172 28174 28177 28180 28182 28185 28188 28191 28194 28197 28200 28203 28206 28209 28212 28215 28218 28220 28223 28226 28229 28232 28234 28237 28240 28243 28246 28248 28251 28253 28256 28259 28262 28264 28267 28270 28273 28276 28279 28281 28284 28287 28289 28292 28294 28297 28300 28302 28305 28308 28311 28313 28315 28318 28320 28323 28325 28328 28330 28332 28335 28338 28341 28344 28347 28349 28352 28355 28357 28360 28363 28366 28369 28372 28375 28378 28381 28384 28387 28389 28392 28395 28398 28401 28404 28407 28410 28413 28416 28419 28422 28425 28428 28431 28434 28436 28439 28442 28445 28448 28451 28454 28457 28459 28462 28464 28467 28470 28473 28476 28479 28482 28485 28488 28490 28493 28495 28498 28500 28503 28505 28508 28510 28512 28515 28518 28520 28523 28526 28528 28531 28534 28537 28539 28541 28544 28547 28550 28553 28555 28558 28560 28563 28566 28569 28572 28575 28578 28581 28584 28587 28590 28593 28596 28599 28601 28604 28606 28609 28611 28613 28616 28619 28621 28624 28627 28630 28633 28636 28639 28642 28645 28647 28650 28653 28656 28659 28662 28665 28668 28671 28673 28676 28679 28682 28685 28688 28691 28694 28697 28700 28703 28706 28709 28712 28715 28718 28721 28724 28727 28730 28733 28736 28739 28742 28745 28748 28751 28754 28756 28759 28762 28765 28767 28770 28773 28776 28779 28781 28784 28787 28790 28792 28795 28798 28801 28804 28807 28810 28813 28816 28818 28821 28824 28826 28829 28832 28835 28838 28841 28844 28847 28850 28853 28856 28859 28862 28864 28866 28869 28872 28875 28878 28881 28883 28886 28888 28890 28893 28896 28898 28901 28903 28905 28908 28911 28913 28916 28919 28922 28925 28928 28931 28934 28936 28939 28942 28945 28948 28951 28953 28955 28958 28961 28963 28966 28969 28972 28975 28978 28981 28984 28987 28990 28993 28996 28999 29002 29005 29007 29010 29013 29016 29019 29021 29024 29027 29030 29032 29035 29038 29041 29044 29047 29050 29053 29056 29059 29062 29065 29068 29071 29074 29077 29080 29083 29086 29089 29092 29095 29097 29100 29102 29105 29108 29111 29113 29116 29119 29122 29124 29127 29130 29133 29136 29138 29141 29144 29147 29150 29152 29155 29158 29161 29164 29167 29170 29173 29176 29179 29181 29184 29186 29189 29192 29195 29198 29201 29203 29206 29209 29212 29215 29218 29221 29223 29226 29229 29231 29233 29236 29238 29241 29244 29247 29250 29253 29255 29258 29261 29263 29266 29269 29271 29274 29277 29280 29283 29286 29289 29292 29295 29297 29300 29303 29306 29309 29312 29315 29318 29320 29323 29326 29329 29332 29335 29338 29341 29344 29347 29350 29353 29356 29359 29361 29364 29367 29370 29373 29376 29379 29382 29384 29387 29390 29393 29396 29398 29401 29404 29407 29410 29412 29415 29418 29421 29423 29426 29429 29432 29435 29438 29441 29444 29447 29450 29453 29456 29459 29461 29464 29467 29470 29472 29475 29478 29481 29484 29487 29490 29493 29496 29499 29502 29504 29507 29510 29513 29516 29519 29522 29525 29528 29531 29533 29536 29539 29542 29544 29547 29550 29553 29556 29559 29562 29564 29567 29570 29573 29575 29578 29581 29584 29587 29589 29591 29594 29597 29600 29603 29606 29609 29612 29615 29618 29621 29624 29627 29630 29633 29636 29639 29642 29645 29648 29651 29654 29657 29660 29663 29666 29669 29672 29675 29678 29681 29684 29687 29690 29693 29696 29699 29701 29704 29707 29710 29713 29716 29719 29722 29725 29728 29731 29734 29737 29740 29743 29746 29749 29751 29754 29757 29760 29763 29766 29769 29772 29774 29777 29780 29783 29786 29788 29791 29794 29797 29800 29803 29806 29809 29812 29815 29818 29821 29824 29826 29829 29832 29834 29837 29840 29843 29845 29847 29849 29852 29855 29858 29861 29864 29867 29870 29873 29876 29879 29882 29885 29888 29891 29894 29897 29900 29903 29906 29909 29912 29915 29918 29921 29923 29926 29928 29931 29934 29936 29939 29942 29945 29948 29951 29954 29957 29960 29962 29965 29967 29970 29973 29976 29979 29982 29985 29988 29990 29993 29996 29999 30002 30005 30008 30010 30013 30015 30018 30021 30024 30027 30030 30033 30035 30038 30041 30044 30046 30049 30051 30054 30057 30059 30062 30064 30067 30070 30072 30075 30078 30080 30083 30085 30087 30090 30092 30094 30097 30100 30102 30104 30107 30110 30113 30116 30118 30121 30123 30126 30129 30132 30135 30138 30141 30143 30146 30149 30152 30155 30157 30160 30163 30166 30169 30171 30174 30177 30179 30182 30184 30187 30189 30192 30194 30196 30199 30201 30204 30207 30210 30213 30216 30218 30221 30224 30227 30229 30232 30235 30238 30241 30244 30247 30250 30253 30256 30259 30261 30264 30267 30270 30272 30274 30277 30280 30283 30286 30289 30292 30295 30297 30300 30303 30306 30308 30310 30313 30316 30319 30322 30324 30327 30330 30333 30336 30339 30341 30344 30347 30350 30353 30356 30359 30362 30365 30368 30371 30374 30377 30380 30383 30386 30389 30392 30395 30398 30401 30404 30407 30409 30412 30415 30417 30420 30423 30426 30428 30431 30434 30437 30440 30443 30446 30448 30451 30454 30457 30460 30462 30465 30468 30471 30473 30476 30479 30482 30484 30487 30490 30493 30496 30499 30502 30505 30508 30511 30513 30516 30519 30522 30525 30528 30531 30534 30537 30539 30542 30545 30547 30549 30551 30554 30556 30559 30562 30565 30568 30571 30573 30576 30579 30582 30585 30587 30590 30593 30596 30599 30602 30604 30607 30610 30613 30616 30618 30621 30624 30627 30630 30632 30635 30638 30641 30644 30647 30650 30653 30656 30659 30662 30665 30668 30671 30674 30677 30680 30683 30686 30689 30691 30694 30697 30700 30703 30706 30708 30711 30714 30717 30720 30723 30725 30728 30731 30734 30737 30740 30742 30745 30748 30751 30754 30757 30760 30763 30766 30769 30772 30775 30778 30781 30784 30787 30790 30793 30796 30799 30802 30805 30808 30811 30814 30817 30820 30823 30826 30829 30832 30835 30838 30841 30844 30847 30850 30853 30856 30859 30861 30864 30867 30869 30872 30875 30878 30881 30884 30887 30889 30892 30895 30898 30901 30904 30906 30909 30912 30914 30916 30919 30922 30925 30927 30930 30933 30936 30939 30942 30945 30947 30950 30953 30955 30958 30960 30963 30966 30969 30971 30974 30977 30980 30983 30986 30988 30991 30994 30997 30999 31002 31005 31008 31011 31014 31017 31020 31023 31026 31029 31032 31035 31038 31041 31044 31047 31050 31053 31056 31059 31062 31065 31068 31071 31074 31077 31080 31083 31086 31089 31092 31095 31098 31101 31104 31107 31110 31113 31116 31119 31122 31125 31128 31130 31133 31135 31138 31141 31143 31146 31149 31152 31155 31158 31160 31163 31166 31169 31172 31175 31178 31180 31183 31186 31189 31192 31195 31198 31201 31204 31207 31210 31212 31215 31218 31221 31224 31226 
</DataArray>
<DataArray type="UInt32" Name="types" format="ascii">
5 5 5 5 5 5 5 5 5 5 5 5 5 5 5 5 5 5 5 5 5 5 5 5 5 5 5 5 5 5 5 5 5 5 5 5 5 5 5 5 3 5 5 5 5 5 3 3 5 5 5 3 5 3 5 5 5 5 3 5 3 5 5 3 5 5 5 3 5 5 3 5 5 5 5 5 5 3 3 5 3 5 5 5 5 3 5 5 5 3 5 5 3 5 5 5 5 5 5 5 5 5 5 5 5 3 5 3 5 3 5 5 5 5 5 5 3 3 5 5 5 3 5 5 5 5 5 5 5 5 5 5 3 5 5 5 5 5 5 5 3 5 5 5 5 5 5 5 3 5 5 3 5 5 5 5 5 5 5 5 5 5 5 5 3 5 5 5 5 5 5 5 5 5 5 3 5 3 5 5 5 5 5 5 5 5 5 5 3 5 5 5 5 5 5 5 5 5 5 5 3 5 5 3 5 5 5 5 5 5 5 5 5 5 3 3 5 5 5 5 5 3 5 5 3 5 3 5 5 5 5 5 3 5 5 5 5 5 5 5 5 5 5 5 5 5 5 5 5 5 5 5 5 5 5 5 5 5 5 5 5 3 5 5 5 5 5 3 5 5 5 5 5 3 5 5 5 5 5 5 3 5 5 5 5 5 5 3 5 5 5 5 5 5 5 5 5 3 5 3 5 5 5 5 5 5 5 5 5 5 3 5 5 3 5 5 3 5 5 3 5 5 5 5 5 5 5 3 5 5 5 5 5 5 3 5 5 5 5 5 3 5 5 3 5 5 5 5 5 5 5 5 5 5 5 5 5 5 5 3 5 3 5 5 5 5 5 5 5 3 5 5 3 3 5 5 5 5 5 5 5 5 5 5 5 5 5 5 5 5 5 5 5 3 5 5 3 5 5 5 5 5 5 5 5 5 5 5 5 5 5 5 5 3 5 5 5 5 5 5 5 5 5 5 5 5 5 5 5 5 3 5 5 5 5 3 5 5 5 5 5 5 5 5 5 5 5 5 5 5 5 3 5 5 5 3 5 5 5 5 5 3 3 3 5 5 5 3 5 5 5 5 5 3 5 5 5 5 5 3 3 5 5 5 5 5 5 5 5 5 5 5 5 3 5 5 5 5 5 5 5 5 5 5 5 5 5 5 5 5 5 5 5 5 5 5 5 5 5 5 5 5 5 5 5 5 3 5 5 5 3 5 5 5 5 5 5 5 5 3 5 5 3 5 5 5 3 5 5 5 5 5 5 3 5 5 5 5 3 5 5 5 5 5 5 5 5 5 3 5 5 5 5 5 5 5 5 5 5 5 5 5 5 5 5 5 5 5 5 5 5 5 5 5 3 5 5 5 3 5 5 5 5 5 5 5 5 5 5 5 5 5 5 5 5 5 5 5 5 3 5 5 5 5 3 5 5 5 5 5 5 5 5 5 5 5 5 3 5 5 5 5 5 5 5 5 5 5 5 3 5 5 5 5 5 5 5 5 3 5 5 5 5 5 5 5 5 5 5 5 5 5 5 5 5 5 5 5 5 5 5 3 5 5 5 5 5 5 3 5 5 5 3 3 5 5 5 5 5 5 5 5 3 3 5 5 5 5 5 5 5 5 5 5 5 5 3 5 3 3 5 5 3 3 5 5 5 3 5 5 5 5 3 5 5 5 5 5 5 5 5 5 3 5 5 5 3 5 5 5 5 5 5 5 5 5 5 5 3 3 5 5 5 5 5 5 5 5 5 5 5 3 5 5 5 5 5 5 5 5 5 5 5 5 5 5 5 5 5 5 5 5 5 5 5 5 5 5 5 5 5 5 5 5 5 5 5 5 5 5 5 3 3 3 5 5 5 3 5 5 5 5 5 5 5 5 5 5 3 5 5 5 5 5 5 5 5 3 5 5 5 5 5 3 5 5 3 5 3 5 5 5 5 3 5 5 5 5 5 5 5 5 5 5 5 5 3 5 5 5 5 5 5 5 5 5 3 5 5 5 5 5 5 5 5 5 5 3 5 5 5 5 5 3 5 5 5 5 5 5 3 5 5 5 5 5 5 5 5 5 5 5 5 5 3 5 5 5 5 3 5 5 3 5 5 5 5 5 5 5 5 5 3 5 5 5 5 5 5 5 5 5 5 5 3 5 5 5 5 5 5 3 5 5 5 5 5 5 3 5 5 5 5 3 5 3 5 5 3 5 5 5 5 5 3 5 5 5 5 5 5 5 5 5 5 5 5 3 5 3 3 5 5 5 5 3 5 3 3 5 5 5 5 5 5 5 5 5 5 5 5 3 5 5 5 5 5 5 5 5 3 5 5 5 5 5 5 5 5 5 3 5 5 5 3 5 5 5 5 5 5 5 5 5 5 3 5 5 3 5 5 5 5 5 5 3 5 5 5 3 3 5 5 5 5 5 3 5 5 5 5 3 3 5 5 5 5 5 5 5 5 5 5 5 5 5 3 5 5 5 5 5 5 3 5 5 5 5 3 5 5 3 5 5 5 5 5 5 5 5 5 5 3 5 5 5 3 5 5 5 5 5 5 5 3 5 5 5 5 3 5 5 5 5 5 3 5 5 3 5 5 5 5 3 5 5 3 3 5 5 5 5 5 3 5 5 5 3 5 5 5 3 5 5 5 5 5 5 5 5 5 5 5 5 3 5 5 5 3 5 5 5 5 5 5 5 5 5 5 5 3 5 5 5 5 3 5 5 5 3 5 5 5 5 3 5 5 5 3 5 5 5 5 5 3 5 5 5 5 5 5 5 5 5 3 5 5 5 3 5 5 5 3 5 5 5 5 5 5 5 5 5 3 3 5 5 5 5 3 5 5 5 5 5 5 5 5 3 3 3 3 5 3 5 5 3 5 5 3 3 5 5 5 5 5 5 3 3 5 5 3 5 5 3 5 3 5 5 5 5 5 5 5 5 5 5 5 5 3 5 5 5 5 5 5 5 3 5 5 5 5 5 5 5 5 5 5 5 5 5 5 5 5 3 5 5 5 5 5 5 5 5 5 3 5 5 5 5 5 5 5 5 5 5 5 5 5 5 5 5 5 5 5 5 3 5 3 5 5 5 5 5 5 5 3 3 5 5 5 5 5 5 5 5 5 5 3 5 3 5 3 5 5 5 5 5 5 5 3 5 5 5 5 5 5 5 5 5 5 5 5 5 5 5 5 5 5 5 5 5 5 5 5 5 5 5 5 5 5 5 5 5 5 5 5 5 5 5 3 5 5 5 5 5 5 5 5 5 5 5 5 5 5 5 5 5 5 5 5 5 5 5 3 3 5 5 5 5 5 3 5 3 5 5 5 5 5 5 5 5 5 5 5 5 3 5 5 5 5 5 5 5 5 5 5 5 5 3 5 3 5 3 5 5 5 5 5 5 5 5 5 5 5 5 3 5 5 5 5 5 3 5 5 5 5 5 5 5 3 5 5 3 3 5 5 5 5 3 5 5 5 5 3 5 5 3 5 5 3 5 5 5 5 3 5 5 3 5 5 5 5 3 5 3 5 5 5 3 5 5 3 5 5 5 3 5 5 3 5 5 5 5 5 5 3 5 5 5 5 5 5 5 5 5 5 5 5 3 5 5 5 3 5 3 5 5 3 5 3 5 5 3 5 5 3 3 5 5 3 5 5 3 3 5 3 5 5 5 5 5 5 5 5 5 5 5 3 5 5 3 3 5 5 3 5 5 5 5 5 5 5 5 3 5 5 5 5 3 3 5 5 5 3 5 3 5 5 3 5 5 5 5 5 5 5 5 5 5 3 5 5 5 5 5 3 5 3 5 5 5 5 3 5 5 5 3 5 5 5 5 5 5 5 5 5 5 5 5 5 5 5 5 5 5 5 5 5 3 5 5 5 5 5 5 5 5 5 5 5 5 5 5 5 5 5 5 5 5 5 5 5 5 5 5 5 5 5 5 3 5 5 5 3 5 3 5 5 3 5 5 5 5 5 3 5 5 5 5 5 3 5 5 5 3 3 5 5 5 5 5 5 5 5 5 3 5 5 5 5 5 5 5 5 5 5 5 5 5 5 5 5 5 5 5 5 5 5 5 5 5 5 5 3 3 5 3 5 5 5 5 5 3 5 5 5 5 5 5 5 5 5 5 5 5 5 5 5 5 5 3 5 5 5 5 5 5 3 3 5 5 3 5 5 3 3 5 5 5 5 5 3 5 5 5 5 5 5 5 5 5 5 5 5 5 5 5 5 3 5 5 5 5 3 5 5 5 5 5 5 5 5 5 5 3 5 5 5 5 5 5 5 5 5 5 5 5 5 3 5 5 5 5 5 3 5 5 5 5 5 5 5 3 5 3 5 5 5 5 5 5 5 5 5 5 5 5 5 5 3 3 3 5 5 5 5 5 5 5 5 5 5 5 5 3 5 3 5 5 5 3 5 5 5 5 3 5 5 5 5 3 5 3 5 5 5 5 5 5 5 5 5 5 5 5 5 5 5 5 5 5 5 3 5 5 3 5 3 5 3 3 5 5 5 3 5 5 5 3 5 5 5 5 5 5 5 3 5 3 5 5 5 5 5 3 5 5 5 3 5 5 5 5 5 3 5 5 3 5 3 5 5 3 5 5 5 5 5 5 5 3 5 3 5 5 5 5 5 5 5 5 5 5 3 5 3 3 5 5 5 3 5 5 5 5 3 5 5 5 5 3 5 5 5 3 5 3 5 5 3 5 3 5 3 5 5 5 5 5 5 3 5 3 5 3 5 5 5 5 3 5 5 5 3 5 5 5 5 5 5 5 5 5 5 5 5 5 5 5 3 5 5 5 3 3 3 5 5 3 5 5 5 5 3 5 5 5 3 5 5 3 5 3 5 5 5 3 5 3 3 5 5 5 5 5 5 3 3 5 3 5 5 5 5 5 5 5 3 5 5 5 3 5 3 5 5 3 5 5 5 5 3 5 5 3 5 5 5 3 5 5 5 3 5 5 5 3 5 3 5 5 5 5 5 5 5 5 5 5 5 5 5 5 5 5 5 5 5 5 5 5 3 5 5 5 5 5 5 5 5 5 5 5 5 5 5 5 5 5 5 3 5 5 5 5 3 5 3 5 5 5 3 5 3 5 5 5 3 5 5 5 3 5 5 5 5 5 3 5 3 5 5 3 5 3 5 5 5 3 3 5 5 5 3 5 5 3 3 3 5 5 5 5 3 5 3 5 5 5 3 5 5 5 5 3 5 5 5 3 5 5 5 5 5 5 5 5 5 5 3 5 5 5 5 5 5 5 5 5 5 5 3 3 5 5 5 5 3 3 5 3 5 5 5 5 3 5 5 5 5 5 5 5 5 5 5 5 5 3 5 5 5 3 5 5 3 5 5 5 5 5 5 5 5 5 3 5 5 5 5 5 5 5 5 5 5 5 5 5 5 5 5 5 5 5 5 5 5 5 5 5 5 5 5 5 5 5 5 5 5 5 5 5 5 5 5 5 5 3 5 3 5 5 5 5 5 5 5 5 5 3 5 5 5 5 5 5 5 5 3 5 5 5 5 5 5 5 3 3 5 5 5 3 3 5 5 5 5 5 5 5 5 5 5 5 5 3 5 5 5 5 5 5 5 3 5 5 3 5 5 5 5 5 5 5 3 3 5 5 5 5 5 5 3 5 3 5 5 5 5 5 3 5 3 3 5 5 5 3 5 5 3 5 3 5 3 5 3 5 5 5 5 3 3 5 3 5 5 5 5 5 5 3 5 5 3 5 5 5 5 5 5 5 5 5 5 5 3 5 3 3 5 5 5 5 5 5 3 5 5 3 5 5 5 5 5 5 3 5 3 5 3 5 3 3 5 5 5 5 5 5 5 5 5 5 5 3 5 5 5 5 5 3 3 5 3 5 5 5 5 3 5 3 5 3 5 5 5 5 5 5 5 3 5 5 5 5 5 5 5 5 5 5 5 5 5 5 5 5 5 5 5 5 5 3 5 5 5 3 5 5 5 3 5 3 5 5 3 5 5 5 3 5 3 5 5 5 5 5 5 5 5 5 3 5 5 5 5 5 3 5 5 5 5 5 3 5 5 5 5 5 5 5 5 5 5 5 5 3 5 5 5 5 5 3 3 5 5 5 3 5 3 5 5 5 3 5 5 5 5 5 5 5 5 5 3 3 5 5 5 5 3 5 5 5 3 5 5 5 3 5 5 5 5 5 5 5 5 5 5 5 5 3 5 5 5 5 5 5 3 5 5 5 5 5 5 5 5 5 5 5 5 5 5 3 5 5 5 3 5 5 5 5 3 5 5 5 5 5 5 5 5 5 5 5 5 5 5 5 5 5 5 3 5 5 5 5 5 5 5 5 5 5 5 5 3 3 5 5 5 5 5 5 5 5 5 3 5 5 5 5 5 5 5 5 5 5 5 3 5 3 5 5 5 5 5 5 5 5 3 5 5 5 5 5 5 3 5 5 5 5 5 5 5 5 5 3 3 5 5 5 5 3 5 5 3 3 5 5 3 3 5 5 5 5 5 3 3 5 5 3 5 5 5 5 5 5 5 5 3 5 5 5 5 5 5 5 5 5 5 3 5 5 5 5 5 5 5 5 5 5 5 3 5 5 5 5 3 5 5 5 5 5 3 5 5 5 5 3 5 5 3 3 5 5 5 5 5 5 5 5 5 5 5 5 5 5 5 5 5 5 5 5 5 5 5 3 3 5 5 5 5 3 3 5 5 5 3 5 5 5 5 5 5 5 5 5 5 5 5 5 5 5 5 3 5 5 5 5 5 5 5 3 5 5 5 5 5 3 5 5 5 5 5 5 5 3 5 5 5 5 5 5 5 5 3 5 5 5 5 5 5 5 5 5 5 3 5 5 5 5 5 5 5 3 5 3 5 5 5 5 5 5 5 3 5 5 3 5 3 5 5 5 5 5 5 5 3 5 5 5 5 5 5 5 5 5 5 5 5 3 5 5 5 5 5 5 3 5 5 5 5 5 5 5 5 5 5 5 5 5 5 5 5 3 5 5 5 3 5 3 5 5 3 5 3 3 5 5 3 5 5 3 5 5 5 5 5 5 5 5 5 5 5 5 5 5 5 5 5 3 5 3 5 5 3 5 3 5 5 3 5 3 5 5 5 5 5 5 5 5 3 5 5 5 5 5 3 5 5 5 5 5 5 5 5 5 5 5 5 5 5 5 5 5 5 5 5 3 5 5 5 3 5 5 5 3 3 5 5 5 5 5 5 5 5 5 5 5 3 5 5 5 5 5 5 5 5 5 5 5 5 3 5 5 5 5 5 5 5 5 5 3 5 5 5 3 5 5 5 5 5 5 5 5 5 5 3 5 5 5 5 5 5 5 5 5 5 5 5 5 5 5 3 5 5 5 5 3 5 5 5 3 5 5 5 5 5 5 3 5 5 3 5 5 5 3 5 5 5 3 5 5 5 3 5 5 5 5 5 5 5 5 3 5 3 5 5 5 5 5 5 5 3 5 3 5 3 3 5 5 5 5 5 3 5 5 5 5 5 5 3 5 5 3 5 5 5 5 5 3 5 5 5 5 5 5 5 3 5 5 5 5 5 5 3 5 5 5 5 5 5 5 5 5 5 5 5 5 3 5 5 5 5 5 5 5 5 5 5 5 3 5 5 5 3 3 5 5 3 5 3 5 5 5 5 5 5 5 5 5 5 5 5 5 5 5 5 5 5 5 5 5 5 5 5 3 5 5 5 5 5 5 3 5 5 5 3 5 5 3 3 5 5 5 5 5 5 3 5 5 5 5 5 5 5 5 5 5 5 5 3 5 5 5 5 5 5 3 5 5 5 5 3 5 5 5 3 5 5 5 3 5 5 5 5 5 5 5 5 5 5 5 5 5 5 5 5 5 5 5 5 5 3 5 5 3 5 5 5 5 5 5 5 5 3 3 5 5 5 5 5 5 3 5 5 5 5 5 5 5 5 5 5 5 5 3 5 3 5 5 5 5 5 5 5 5 5 5 5 5 5 5 3 5 5 5 5 5 5 3 5 5 5 5 5 5 5 3 3 5 5 5 5 5 5 5 5 5 5 5 5 5 5 5 5 5 5 5 5 5 5 5 5 5 5 5 5 5 5 5 5 5 5 5 5 5 5 5 5 5 3 5 5 5 5 3 5 5 5 5 5 5 5 5 5 5 5 5 5 5 5 5 5 5 5 5 5 5 5 5 5 3 5 5 5 5 5 5 5 5 5 3 5 5 5 5 5 3 5 5 3 5 5 5 5 5 5 5 5 5 5 5 5 5 5 5 5 5 5 5 5 5 5 5 5 5 5 5 3 3 5 5 5 3 5 5 3 5 5 3 5 5 3 5 5 5 5 5 5 5 5 3 5 5 3 5 5 5 5 3 3 5 5 5 5 5 5 5 5 5 5 5 5 3 5 5 5 3 5 5 5 5 5 5 5 3 5 3 5 5 5 5 5 3 5 5 5 5 5 3 5 5 5 5 5 5 5 5 5 5 5 5 5 3 5 5 3 5 5 5 5 5 3 5 5 5 5 5 5 5 5 5 5 3 5 5 5 5 5 5 5 5 5 3 5 5 5 5 5 5 5 5 3 5 5 3 5 5 5 5 5 5 5 5 5 5 5 3 5 3 5 5 5 5 5 5 5 5 5 5 5 3 5 5 5 5 5 5 5 5 5 5 5 5 3 5 5 5 5 5 5 3 5 5 5 5 5 5 5 5 5 5 5 5 5 5 5 5 5 3 5 5 5 5 5 5 5 5 5 3 5 5 3 5 5 5 3 5 5 3 3 5 5 5 5 3 5 5 5 5 5 5 5 5 5 5 3 5 5 5 5 5 3 5 3 5 5 3 5 3 5 5 3 5 5 5 5 3 5 5 5 5 3 5 5 5 5 5 5 3 5 3 5 5 5 5 5 5 5 5 5 5 5 5 5 3 5 5 5 5 3 5 5 5 5 5 3 5 5 3 5 5 5 3 5 5 5 5 5 5 5 3 5 5 3 5 5 5 5 3 5 3 5 3 3 5 5 3 3 3 5 5 5 5 5 5 5 3 5 5 3 5 5 3 5 3 3 5 5 3 3 3 5 3 5 5 5 5 3 5 3 5 5 3 5 5 5 3 5 5 5 5 3 5 3 5 5 5 5 5 3 3 3 5 5 5 5 5 5 5 5 5 5 5 3 5 5 5 5 5 5 5 3 5 3 5 5 5 5 5 3 5 5 5 5 5 5 5 3 5 5 5 5 5 5 3 5 5 5 5 3 5 5 5 5 3 5 3 5 5 5 5 5 3 5 3 3 5 5 5 5 3 5 5 5 5 5 5 5 5 5 5 3 3 5 5 3 5 5 5 3 3 5 3 3 3 5 5 5 5 5 5 3 5 5 3 5 3 5 5 3 3 3 5 3 3 5 5 5 3 5 3 3 5 5 5 5 5 3 5 5 5 5 5 5 3 5 5 3 5 5 3 5 5 5 5 5 5 5 5 5 5 5 5 5 5 5 5 5 5 5 5 5 3 5 5 5 5 3 5 5 5 5 5 5 3 5 5 5 5 5 5 5 3 5 5 5 5 5 5 5 5 5 5 5 5 5 5 5 5 5 5 5 5 5 5 5 5 5 5 5 5 5 5 3 5 5 5 5 5 5 5 5 5 5 3 5 5 5 5 5 5 5 5 5 5 5 5 5 5 5 5 5 5 5 5 3 5 3 5 5 5 5 5 5 5 5 5 5 5 5 5 5 3 5 5 5 5 5 5 5 5 5 5 5 5 5 5 5 5 3 5 5 5 5 5 5 5 3 5 5 5 5 3 5 5 5 5 5 5 5 5 5 5 5 5 5 3 5 5 5 3 5 5 3 5 5 5 5 5 5 5 5 5 5 5 3 5 5 5 3 5 5 3 3 5 5 5 5 3 5 5 5 3 5 5 3 5 5 3 5 5 5 5 5 5 5 5 5 5 5 5 5 5 5 5 5 5 5 5 5 5 5 5 5 5 5 5 5 5 5 5 5 5 5 5 5 5 5 5 5 5 5 5 5 5 5 5 5 5 5 5 5 5 5 5 5 5 5 5 5 5 5 5 5 5 5 5 5 5 5 5 5 5 5 5 5 5 5 5 5 5 3 5 5 5 5 5 3 5 5 5 5 5 5 5 5 5 5 3 5 5 5 3 5 5 5 5 5 5 5 5 5 5 5 3 5 5 5 5 3 5 5 5 3 5 5 5 5 5 5 3 5 5 5 3 5 5 3 5 5 3 5 5 5 5 5 5 3 5 5 5 5 5 5 5 3 5 5 5 5 3 5 5 5 5 5 5 5 5 5 5 3 5 5 5 5 5 5 5 5 5 5 5 3 3 5 5 5 5 5 5 5 5 5 5 5 5 3 5 5 5 5 5 3 5 5 5 5 5 5 3 5 5 5 5 5 5 5 5 5 5 3 5 5 5 5 5 5 5 5 5 3 5 5 5 5 5 5 3 5 5 5 3 3 3 5 5 3 5 5 5 5 3 5 5 5 5 5 3 5 5 5 5 5 5 5 5 5 5 5 5 5 5 5 5 5 5 5 5 3 5 5 5 5 5 3 5 5 5 3 3 5 3 5 5 3 5 5 5 5 5 5 5 3 5 5 5 5 3 3 5 5 5 3 5 5 3 5 3 5 5 5 5 5 5 5 5 5 5 5 5 5 3 5 5 5 5 5 5 3 3 5 5 5 5 3 5 5 5 5 5 5 5 5 5 3 5 5 3 3 5 5 5 5 5 5 5 5 5 3 5 5 3 5 5 3 3 3 5 5 5 3 5 5 3 3 3 5 5 3 3 5 5 5 3 3 5 3 3 5 5 5 5 3 3 5 3 5 5 5 5 5 5 5 3 5 5 3 5 5 5 5 5 3 5 5 5 5 3 5 5 5 5 3 3 5 5 5 5 5 5 5 3 5 5 5 5 5 5 5 5 5 5 5 3 5 5 5 5 5 5 5 3 5 5 5 5 5 5 5 5 5 5 3 5 3 5 5 5 5 5 5 5 5 5 5 5 5 3 5 5 3 5 5 5 5 3 5 5 3 5 3 5 5 3 5 5 5 5 5 5 5 5 3 3 5 5 3 5 5 5 5 5 3 3 3 3 5 5 5 3 5 3 5 3 5 5 5 3 5 3 5 3 5 5 5 5 3 5 3 5 5 5 5 5 3 5 5 5 5 5 5 5 5 5 5 5 3 5 5 5 5 5 5 5 5 5 5 5 5 3 5 3 5 5 5 5 5 5 3 5 5 5 5 5 5 5 5 5 5 5 5 5 5 5 5 5 5 5 5 5 5 5 5 5 5 5 5 5 5 5 5 5 5 5 5 5 5 5 5 5 5 5 5 5 5 3 5 5 3 5 5 5 5 5 3 5 5 3 5 5 5 5 5 5 5 5 3 5 5 5 5 5 3 5 5 5 5 5 5 5 5 5 5 3 5 5 3 5 5 3 5 3 5 5 3 5 3 5 5 5 5 5 5 5 5 5 5 5 5 5 5 5 5 5 5 5 5 5 5 5 5 5 5 5 3 5 5 5 5 5 5 5 5 5 5 5 5 5 5 5 5 5 5 5 5 5 5 5 5 5 5 5 5 5 5 5 5 5 5 3 5 3 5 3 5 5 5 5 5 5 5 5 5 5 5 5 5 5 5 5 5 5 5 5 5 5 5 5 5 5 5 5 3 5 3 3 5 5 5 5 3 5 5 5 5 5 5 5 5 5 5 5 5 5 3 5 3 5 5 5 5 5 5 5 5 5 5 5 5 5 5 5 5 5 5 5 5 5 5 3 5 5 5 5 5 5 5 5 5 5 5 5 3 5 5 5 5 5 5 5 5 5 5 3 5 5 5 5 3 3 5 3 5 5 5 5 5 5 5 5 5 5 5 5 5 5 3 5 5 5 5 5 5 3 5 5 5 5 3 5 5 3 5 3 5 5 5 3 5 5 3 5 5 5 3 5 5 5 5 3 5 5 5 5 5 5 3 5 3 5 3 3 3 5 5 5 5 5 3 5 5 3 5 5 5 5 5 5 5 5 5 5 3 3 5 5 5 5 5 5 5 5 5 5 3 5 5 3 5 3 5 5 5 5 5 5 5 5 5 5 5 5 5 5 5 5 5 5 5 5 5 5 5 5 5 3 5 5 3 5 5 5 5 5 5 5 5 5 5 5 5 5 5 5 5 5 5 5 5 5 3 3 5 5 5 3 5 3 3 5 5 5 3 5 3 5 3 5 5 3 3 5 5 3 3 5 3 5 3 5 5 5 3 3 5 3 5 5 5 3 5 5 5 5 5 5 3 5 5 3 5 5 5 5 5 3 5 5 3 5 3 5 3 5 5 5 5 5 5 5 3 5 5 3 5 5 5 5 3 3 5 5 5 3 5 3 5 5 5 5 5 5 5 5 5 5 5 5 5 5 5 5 5 5 5 5 5 5 5 5 5 5 5 3 5 5 5 3 5 5 5 5 3 5 3 5 3 3 5 5 5 3 5 5 5 5 3 5 5 5 5 5 5 5 3 5 5 3 5 3 3 5 5 5 5 3 3 5 5 3 5 3 5 3 3 5 5 3 5 5 5 5 5 5 5 5 5 3 5 5 5 5 5 3 5 5 5 3 5 5 3 5 5 5 3 5 5 5 5 5 5 5 5 5 5 3 5 5 5 5 5 5 3 5 5 5 5 5 5 5 5 5 5 5 5 5 5 5 5 5 5 5 5 5 5 5 3 5 5 5 5 5 5 5 5 5 5 5 5 5 5 5 5 5 5 5 5 5 5 5 5 5 5 5 5 5 5 5 5 5 5 5 3 5 5 5 5 3 3 5 5 3 5 5 3 5 5 5 3 5 5 5 5 5 5 5 5 5 5 5 5 5 5 3 5 3 5 5 5 5 5 3 5 5 3 5 5 5 3 5 5 5 5 3 5 5 5 3 5 5 3 5 5 5 5 5 5 5 5 5 5 5 5 5 5 5 5 5 5 5 5 5 5 5 5 5 5 5 5 5 5 5 5 5 5 3 5 3 5 5 5 5 5 5 5 5 5 5 5 5 5 5 5 5 3 5 5 5 5 5 5 5 5 5 5 5 5 5 5 5 5 5 5 5 5 5 5 5 5 5 5 5 5 5 5 5 5 5 3 5 5 5 5 3 3 5 5 3 5 5 5 3 5 5 3 5 5 5 5 3 5 5 5 5 5 5 5 5 5 3 5 5 5 5 5 5 5 3 5 5 5 5 5 3 5 5 5 3 5 5 5 5 3 5 3 5 3 5 3 5 5 5 5 3 5 5 5 3 5 5 3 5 5 3 5 5 5 3 3 5 5 3 5 3 5 3 5 3 5 3 5 5 3 5 5 3 5 3 3 5 5 5 3 5 5 3 5 5 3 5 5 5 5 5 5 5 3 5 3 3 5 5 3 5 5 3 5 3 5 3 5 5 5 5 3 5 5 5 5 5 5 5 5 5 3 3 5 3 5 3 5 3 5 3 5 5 5 5 5 5 5 3 5 5 5 5 5 3 5 5 3 3 5 3 5 5 5 3 5 3 3 5 5 5 5 3 5 5 3 5 3 5 5 5 3 5 3 5 5 5 5 5 5 5 5 5 5 5 5 5 5 5 5 5 5 5 5 5 5 3 5 5 5 5 5 3 5 3 5 5 5 3 5 3 5 3 5 5 5 5 3 5 5 5 3 5 5 3 5 3 5 5 5 3 5 3 3 5 5 5 5 3 3 5 5 3 5 5 5 5 3 5 5 5 5 5 5 3 5 3 5 5 5 5 5 5 3 5 3 3 5 3 5 5 5 3 5 5 3 5 5 3 5 3 5 5 5 5 5 5 5 5 5 5 5 5 5 5 5 3 5 5 5 5 5 5 5 5 5 5 5 5 3 5 5 5 5 5 5 5 5 5 5 3 5 5 5 5 5 5 5 5 5 5 5 5 5 5 5 5 5 5 5 5 5 5 5 5 5 5 5 5 5 5 5 5 5 5 5 5 5 5 5 5 5 5 5 5 5 5 5 3 5 5 5 5 5 3 5 5 5 3 5 5 5 5 5 5 3 5 5 5 5 5 5 3 5 5 5 5 5 5 5 5 5 3 5 5 5 5 5 5 3 5 5 5 5 5 5 5 5 5 5 5 5 5 3 3 5 5 5 5 5 3 5 3 5 5 5 5 5 5 5 5 5 5 5 5 5 5 3 5 3 5 5 5 5 5 5 3 5 3 5 3 5 5 5 5 5 5 3 5 5 5 3 5 5 5 3 5 5 5 5 5 5 5 5 5 3 5 5 5 5 5 5 5 5 5 5 5 5 3 5 5 5 5 5 5 5 5 5 5 3 5 5 5 3 3 5 5 5 3 3 5 5 3 5 5 5 5 3 5 5 5 5 5 5 3 5 3 5 5 5 5 3 5 5 3 5 3 5 5 5 5 3 5 5 5 5 5 5 5 5 5 3 5 5 5 5 3 5 3 3 5 5 5 5 5 5 5 5 5 3 3 5 5 5 3 5 3 5 5 5 5 5 5 5 5 5 5 5 5 5 5 5 5 5 3 5 5 3 5 5 5 5 5 3 5 3 5 5 5 5 5 5 5 3 5 5 5 3 5 5 3 5 3 5 5 5 5 5 5 5 5 5 5 5 5 5 5 5 5 5 5 5 5 5 5 5 3 5 5 5 5 5 5 5 5 5 5 5 5 5 5 5 5 5 5 5 5 5 5 5 5 5 5 5 5 5 5 5 5 5 5 5 5 5 5 5 5 5 5 5 3 5 5 5 5 5 5 5 5 5 5 5 5 5 5 5 5 5 5 3 5 5 5 5 5 5 5 5 5 5 5 3 5 5 5 5 5 5 5 5 5 5 5 5 3 5 5 5 3 5 5 5 3 3 5 3 3 5 5 5 5 5 5 3 5 5 5 5 5 3 5 5 5 5 3 5 5 5 3 5 5 5 3 3 5 3 5 3 5 5 5 5 5 3 5 5 5 5 5 5 3 5 5 3 3 5 5 5 5 5 5 5 5 5 5 5 5 5 5 3 5 5 5 5 5 5 5 3 5 5 5 5 5 5 3 5 5 5 5 5 5 5 5 5 5 5 5 5 5 5 5 5 5 5 5 3 5 5 5 5 5 5 5 3 5 5 5 5 5 5 5 5 5 5 5 5 5 5 5 5 5 5 5 5 5 5 5 5 5 5 5 5 5 5 5 5 5 3 5 5 5 3 5 5 5 5 5 5 5 5 5 5 5 5 3 5 5 5 5 5 5 5 5 5 5 5 3 5 5 3 3 3 5 5 5 3 5 5 5 5 5 5 5 5 5 3 5 5 5 5 5 3 5 5 5 5 3 5 5 5 5 5 5 5 5 5 5 5 5 5 5 5 5 5 5 5 5 5 5 5 5 5 5 5 5 5 5 5 5 5 5 5 5 5 5 5 5 5 5 5 5 5 5 5 3 5 5 3 5 5 5 5 3 3 3 5 5 5 5 5 5 5 5 5 5 5 5 5 5 5 5 5 5 5 5 5 3 3 5 5 5 5 5 5 5 5 5 5 5 5 5 5 5 5 5 5 5 5 5 5 5 5 5 5 5 5 5 5 5 5 5 3 5 5 5 5 5 5 5 5 5 5 5 5 5 5 5 5 5 5 5 3 5 5 3 5 5 5 5 5 5 5 5 5 5 5 5 5 5 5 3 5 5 5 5 5 5 5 3 5 5 3 5 3 5 5 5 3 3 5 5 5 5 5 5 5 5 5 5 5 5 5 5 3 5 3 5 5 5 5 5 3 5 5 5 5 5 5 5 5 5 5 5 5 5 5 5 5 5 5 5 5 5 5 5 5 5 5 5 5 5 5 5 5 5 5 5 5 5 5 5 5 5 5 5 5 5 5 5 5 5 5 5 5 5 5 5 5 5 5 3 5 5 5 3 5 5 5 5 5 5 5 5 5 5 5 5 5 5 5 5 5 5 5 5 5 5 5 5 5 3 5 5 5 5 3 5 5 5 5 5 3 5 5 3 5 5 5 5 3 5 5 5 5 5 5 5 5 5 5 5 5 5 5 5 5 5 5 5 5 5 5 5 3 5 5 5 5 5 5 5 5 5 5 3 5 3 5 5 3 5 5 5 3 5 3 5 5 5 5 5 5 3 5 5 5 3 5 5 5 3 5 5 5 5 5 3 5 3 3 5 5 5 5 5 5 5 3 5 5 3 5 5 5 5 5 3 5 5 5 5 3 5 5 5 5 5 3 3 5 5 3 5 5 5 5 3 3 5 5 3 5 3 5 3 3 5 5 5 5 5 3 5 5 5 3 5 3 5 5 5 5 5 5 5 5 5 5 3 5 5 5 5 5 3 5 5 5 5 5 5 3 5 3 3 5 5 5 5 5 5 3 5 5 3 5 5 3 5 5 5 5 5 3 5 5 5 5 5 5 5 5 5 5 5 5 3 5 5 5 5 5 5 5 5 5 3 5 5 3 5 5 3 5 5 5 5 5 5 5 5 5 5 3 5 3 5 5 5 5 3 5 5 5 3 5 5 5 5 3 5 3 5 5 5 5 5 5 5 5 5 5 5 5 5 5 5 5 5 5 5 5 5 5 5 5 5 5 5 5 5 5 5 5 5 5 5 5 5 5 5 5 5 5 5 5 5 5 5 5 5 5 5 5 5 5 5 5 5 5 5 5 5 5 5 5 5 5 5 5 5 5 5 5 5 5 5 5 5 3 5 5 5 5 3 5 5 5 5 5 5 3 5 5 5 5 5 5 5 5 5 5 5 5 5 5 5 5 5 5 5 5 5 5 5 5 5 5 3 3 5 5 5 5 5 5 5 5 5 5 5 5 5 5 3 5 5 5 5 5 5 5 5 3 5 3 5 5 5 3 5 5 5 5 5 5 5 5 3 5 5 3 5 5 5 5 5 3 5 5 5 5 5 5 3 5 5 5 5 5 5 5 5 3 5 3 5 5 5 5 5 5 5 5 3 5 5 5 3 5 3 5 3 5 5 5 5 3 5 5 5 5 5 5 5 5 5 5 3 5 5 5 5 5 3 5 5 5 5 5 5 3 5 5 5 5 5 5 5 5 5 5 5 5 3 5 5 3 5 5 5 5 5 5 5 5 3 5 3 5 3 5 5 5 5 5 5 5 5 5 5 5 5 5 5 5 5 5 5 5 5 5 5 5 5 5 5 5 3 5 5 5 3 5 5 5 5 5 5 5 5 5 5 5 5 3 5 5 5 5 5 5 5 5 5 5 5 5 5 5 5 5 5 5 5 5 5 5 5 5 5 5 5 5 3 5 5 5 5 5 5 5 5 5 5 5 5 3 5 3 3 5 3 3 5 5 5 5 5 3 3 5 5 5 5 5 3 5 5 5 5 3 5 5 3 3 3 5 5 5 3 5 3 3 5 3 5 5 5 3 5 3 3 5 5 3 5 3 5 5 5 5 5 5 5 5 5 5 5 5 5 5 5 5 5 5 5 5 5 5 5 5 5 5 5 5 5 5 5 3 5 5 5 5 5 5 3 5 5 5 5 5 5 5 5 5 5 5 5 5 5 5 5 5 5 5 5 3 5 5 5 5 5 5 5 5 5 5 5 5 5 3 5 5 3 5 3 5 5 5 3 5 5 5 3 5 5 5 5 5 5 5 5 3 5 5 5 3 3 5 5 5 5 3 3 3 5 3 5 5 3 5 5 5 3 5 5 5 3 5 3 5 5 3 5 5 5 5 5 3 5 3 5 5 5 5 5 5 5 5 5 5 5 5 5 5 5 5 5 3 5 5 5 5 5 3 3 5 5 5 5 5 3 3 5 5 5 5 5 5 5 3 5 5 5 5 5 5 5 5 5 5 5 5 5 5 5 5 5 3 5 5 5 5 5 5 5 5 3 5 5 3 5 5 5 5 3 5 5 5 3 5 3 5 5 5 3 3 3 3 5 5 5 5 5 3 5 5 5 5 5 5 5 5 5 5 3 5 5 5 5 5 5 5 5 5 5 5 5 5 5 5 3 5 5 5 5 5 5 5 5 5 5 3 5 5 5 5 3 5 3 5 5 5 5 3 5 5 5 3 3 5 3 5 5 5 5 5 5 5 5 5 5 3 5 5 3 5 3 5 5 5 3 5 3 5 3 5 5 5 5 5 5 3 5 5 5 5 5 5 3 3 3 5 5 5 5 5 3 5 5 5 3 5 5 3 5 5 5 5 5 5 5 3 5 5 5 5 5 5 5 5 5 5 5 5 3 3 5 5 5 5 5 5 5 5 5 3 3 5 5 5 5 5 5 5 3 5 5 3 5 5 5 3 5 5 3 5 5 5 5 5 5 5 5 5 5 5 5 5 3 5 3 5 5 5 5 5 5 5 3 5 5 3 5 5 5 5 5 3 5 5 5 3 5 5 3 5 5 5 5 5 5 5 5 5 5 3 5 5 5 5 5 5 3 5 5 5 5 5 5 5 5 5 5 5 5 5 5 5 5 5 5 5 5 5 5 5 5 5 5 5 5 5 5 5 5 5 5 5 5 5 3 5 5 5 5 3 5 3 5 5 3 3 5 5 5 5 5 5 5 5 5 5 5 5 5 5 5 5 3 5 5 5 5 5 5 3 5 5 5 5 5 5 5 5 3 5 5 5 5 5 5 5 5 3 5 5 5 5 5 5 3 5 5 3 5 5 5 5 5 5 5 5 5 5 5 5 5 5 5 5 5 5 5 5 5 5 5 3 5 5 3 5 5 5 5 3 5 5 3 5 3 5 5 5 5 3 5 5 5 3 5 5 5 5 5 5 3 3 5 3 5 5 5 5 5 5 3 3 5 5 5 5 5 3 5 5 3 5 5 5 5 3 5 5 5 5 5 5 5 5 3 5 5 3 5 3 5 5 5 3 5 3 5 5 3 5 5 5 5 5 5 5 5 5 5 5 5 5 5 5 5 5 5 5 3 5 5 5 3 5 3 5 5 3 5 3 5 5 3 5 5 5 3 5 5 3 3 5 5 5 5 5 5 5 5 5 5 5 5 5 5 5 5 3 5 5 5 5 5 5 5 5 5 5 5 5 5 5 3 5 5 5 3 5 5 5 5 5 5 5 5 5 3 5 5 3 5 3 5 5 5 5 5 5 5 5 5 5 5 5 5 5 3 5 3 5 5 5 5 3 5 5 3 3 5 3 5 5 5 5 5 5 5 5 5 5 5 3 5 5 5 5 5 5 5 5 5 5 5 5 5 5 5 5 5 5 5 5 3 5 5 5 5 5 5 5 5 5 5 5 5 5 5 5 5 5 3 3 3 5 5 5 5 5 5 5 5 3 5 5 5 5 5 3 5 5 3 3 5 5 5 5 5 5 5 5 5 5 3 5 3 5 5 5 3 5 3 5 3 5 5 5 5 5 5 5 3 5 5 5 3 5 5 5 5 3 5 5 5 5 5 5 3 5 5 5 5 5 5 5 5 5 5 5 5 5 5 5 5 5 5 5 5 5 5 5 5 5 5 5 5 5 5 3 5 5 5 5 5 5 5 5 5 5 5 3 5 5 5 3 5 5 5 5 5 5 5 5 5 5 5 5 5 3 5 5 5 5 5 5 5 5 5 5 5 5 5 5 3 5 5 5 5 5 5 5 3 5 5 5 3 5 5 3 5 5 5 5 3 3 3 5 5 5 5 5 3 5 5 5 5 5 3 5 5 3 5 5 5 5 5 5 5 5 3 5 5 5 5 5 5 5 3 5 5 5 3 5 3 5 5 5 5 5 5 5 5 5 3 5 3 5 5 5 5 5 5 3 5 5 3 3 3 3 5 5 5 3 5 3 5 5 5 5 5 5 3 5 5 5 5 5 5 5 5 5 3 5 5 5 3 5 5 3 3 5 5 5 5 3 5 5 5 3 5 5 5 5 5 5 5 5 5 5 5 5 5 5 5 5 3 5 5 5 5 5 5 5 3 5 5 5 5 5 5 3 5 3 5 5 3 5 5 5 5 3 5 5 3 5 5 5 5 5 5 5 5 5 5 5 5 5 5 5 5 5 5 5 5 5 5 5 5 5 5 5 5 5 5 5 5 5 3 5 5 3 5 5 5 3 5 5 3 5 3 5 5 5 5 3 5 5 5 5 5 5 3 5 5 5 5 5 5 5 5 5 5 5 5 5 5 5 5 5 5 5 5 3 5 5 5 3 5 5 5 3 5 5 3 5 5 5 5 5 5 3 3 5 5 5 5 5 5 5 3 3 5 5 3 5 5 3 5 5 5 5 5 5 3 5 5 5 5 5 5 5 5 5 5 5 5 5 5 5 5 5 5 5 5 5 3 5 5 5 5 3 5 5 5 5 5 5 5 5 5 5 5 5 5 3 5 5 5 3 5 5 5 5 5 5 5 5 3 5 5 5 3 5 5 5 5 5 5 5 5 3 5 5 5 5 5 5 3 5 5 5 5 5 5 5 3 5 5 5 5 5 5 5 5 5 5 5 5 5 5 5 5 5 5 5 5 5 5 5 5 3 5 5 5 5 5 3 5 5 5 3 5 5 5 5 3 5 3 5 5 3 5 3 5 5 5 5 5 5 5 5 5 5 5 5 5 3 5 5 5 5 5 5 5 5 5 5 5 5 5 5 5 5 5 5 5 5 5 5 5 5 5 3 5 5 3 5 5 5 5 3 5 5 5 3 3 5 5 5 5 5 5 5 3 5 5 5 5 3 3 5 3 5 5 5 5 3 3 5 5 5 5 5 5 5 5 5 5 5 5 3 5 5 5 5 5 5 3 5 5 5 5 5 5 3 3 3 3 5 5 5 5 3 5 3 3 5 5 5 5 5 5 3 5 3 5 5 5 3 3 3 3 3 5 5 3 3 5 5 5 5 5 3 3 5 3 3 5 5 3 5 5 5 5 3 5 5 5 5 5 5 3 3 5 3 5 5 3 5 3 3 5 5 5 5 5 5 5 5 5 5 3 5 3 5 5 5 3 3 5 5 5 5 5 5 3 5 5 5 3 5 5 5 5 5 3 5 3 5 3 3 5 5 5 5 5 5 5 3 5 5 5 5 5 5 5 5 5 5 5 3 5 3 5 5 3 5 5 5 5 5 5 5 5 5 5 5 5 5 5 5 5 3 5 5 5 5 5 3 5 5 5 5 5 5 5 5 5 5 5 3 3 5 5 3 5 5 3 5 5 5 5 5 3 5 5 5 5 5 5 5 5 5 3 5 5 5 5 5 5 5 3 5 5 3 3 5 5 3 5 5 5 5 5 5 3 5 5 5 5 5 5 5 5 5 5 5 5 5 5 5 5 3 5 3 5 5 3 5 5 5 5 5 5 5 5 5 5 5 5 5 5 5 5 3 5 5 5 3 3 5 5 5 5 5 5 5 5 5 5 5 5 5 5 5 5 5 5 5 5 5 5 5 5 5 5 5 5 5 5 5 5 5 5 5 5 5 5 5 5 5 5 5 5 5 5 5 5 5 3 5 5 5 5 5 5 5 5 5 5 5 3 5 5 5 5 5 5 5 5 5 5 5 5 3 5 5 5 5 5 5 5 5 5 5 5 3 5 5 5 5 5 5 5 5 5 5 5 5 3 5 5 5 5 5 5 5 5 5 5 5 5 5 5 5 3 5 3 5 5 5 3 5 3 5 5 5 5 5 5 5 5 5 5 3 3 5 5 5 5 3 5 5 5 5 3 5 5 5 5 5 5 5 5 5 5 5 5 5 5 5 5 5 5 5 5 5 5 5 5 5 5 5 5 5 5 5 5 5 5 5 5 5 5 5 5 5 5 3 5 5 5 5 5 5 5 5 3 5 5 5 5 5 3 5 5 5 5 5 5 5 5 5 5 5 5 5 5 5 5 5 5 5 5 5 5 5 5 5 5 5 5 5 5 5 5 5 5 5 5 5 5 5 5 5 5 5 5 5 5 5 5 5 5 5 5 5 3 3 5 5 5 5 5 5 3 5 5 5 5 5 5 5 5 5 5 3 5 5 3 3 5 5 5 5 5 3 5 5 5 5 5 5 5 5 5 5 5 5 5 5 3 3 5 5 3 5 3 5 5 5 3 5 3 5 3 5 3 5 3 5 5 5 3 3 5 5 5 3 5 5 3 5 3 5 5 3 5 3 3 5 5 5 5 3 5 5 5 5 5 5 5 5 5 5 5 5 5 5 5 5 3 5 3 5 5 3 5 5 3 5 5 5 5 5 5 5 5 5 5 5 3 5 5 5 5 5 5 5 5 5 5 5 5 5 5 5 5 5 3 5 3 5 5 3 3 5 5 5 5 5 5 3 5 5 5 5 5 5 5 5 5 5 3 5 3 5 3 5 5 3 5 5 5 3 5 3 5 3 5 5 5 5 5 5 3 3 5 5 5 5 5 5 5 5 5 3 5 5 3 5 5 5 5 5 5 5 5 5 5 5 5 3 5 5 5 5 3 5 5 5 5 3 5 3 5 5 5 3 5 5 5 5 5 3 5 5 3 5 3 5 5 3 5 5 5 3 3 5 3 5 3 5 3 3 5 5 5 5 5 3 5 5 3 5 5 5 5 5 5 5 5 5 5 3 5 5 5 5 5 5 5 5 5 5 5 5 5 5 5 3 5 5 5 5 5 5 5 3 5 3 5 5 5 5 5 5 5 5 3 5 3 5 3 5 3 5 3 3 5 5 3 5 5 3 5 5 5 3 3 5 5 5 5 3 5 3 5 5 5 5 5 5 5 5 5 5 5 5 5 3 5 3 5 3 3 5 5 3 5 5 5 5 5 5 5 5 3 5 5 5 5 5 5 5 5 3 5 5 5 5 5 5 5 5 5 5 5 5 5 5 5 5 5 5 5 5 5 5 5 5 5 5 5 3 5 5 5 3 5 5 5 5 3 5 5 5 3 5 5 5 5 5 5 5 5 3 5 5 3 5 5 5 5 5 5 5 5 5 5 5 5 3 3 5 5 5 5 5 3 5 3 3 5 5 3 5 3 3 5 5 3 5 5 5 5 5 5 5 3 5 5 5 5 5 3 3 5 5 3 5 5 5 5 5 5 5 5 5 5 5 5 5 5 3 5 5 5 5 3 5 5 5 3 5 5 5 5 5 5 5 5 5 5 5 5 5 5 5 5 5 5 5 5 5 3 5 3 5 5 5 3 5 5 5 3 5 5 5 5 3 5 5 5 5 3 5 5 5 5 5 5 5 5 5 3 5 3 5 5 5 5 5 3 5 5 5 5 5 5 3 5 5 3 3 5 3 5 5 5 5 5 3 5 5 3 5 5 3 5 5 5 5 5 5 5 5 3 5 5 5 5 5 5 5 3 5 5 5 5 5 5 5 5 5 5 5 5 5 3 5 5 5 5 5 5 5 3 5 5 5 5 3 5 5 5 5 3 5 5 5 3 5 5 5 5 5 5 5 5 5 5 5 5 3 5 5 5 3 5 5 5 5 5 5 5 5 5 5 3 5 5 5 5 5 5 5 5 5 3 5 5 5 3 5 5 5 5 5 5 3 5 5 5 3 5 5 5 5 3 3 5 5 5 5 5 5 5 5 5 5 5 5 5 5 5 5 5 5 5 5 5 5 5 5 5 5 5 5 5 5 5 5 5 5 5 5 3 5 5 5 5 5 5 5 5 5 5 5 5 5 5 5 5 3 5 5 5 5 5 5 5 3 5 5 5 5 3 5 5 5 5 5 5 5 5 5 5 5 5 3 5 5 3 5 5 5 3 3 3 5 5 5 5 5 5 5 5 5 5 5 5 5 5 5 5 5 5 5 5 5 5 5 5 3 5 3 5 5 3 5 5 5 5 5 5 5 5 3 5 3 5 5 5 5 5 5 5 3 5 5 5 5 5 5 3 5 3 5 5 5 5 5 5 3 5 5 5 3 5 3 5 5 3 5 3 5 5 3 5 5 3 5 3 3 5 3 3 5 5 3 3 5 5 5 5 3 5 3 5 5 5 5 5 5 3 5 5 5 5 3 5 5 5 5 3 5 5 3 5 3 5 3 5 3 3 5 3 5 5 5 5 5 3 5 5 5 3 5 5 5 5 5 5 5 5 5 5 3 5 5 5 3 3 5 5 5 5 5 5 5 3 5 5 5 3 3 5 5 5 5 3 5 5 5 5 5 3 5 5 5 5 5 5 5 5 5 5 5 5 5 5 5 5 5 5 5 5 5 5 3 5 5 3 5 5 5 3 5 5 5 5 5 5 3 5 5 5 5 3 5 5 5 3 5 5 5 3 5 5 5 5 5 5 5 5 5 3 5 5 5 5 5 5 5 5 3 5 5 3 3 3 5 3 5 5 5 5 5 3 5 5 5 5 3 5 5 5 5 5 3 5 5 5 5 3 5 5 5 5 3 5 5 5 5 5 5 5 5 5 5 5 5 5 5 5 5 5 5 5 3 5 5 5 5 5 3 5 5 5 5 5 3 5 5 5 5 5 3 5 5 5 5 5 5 5 5 5 5 5 5 5 5 5 5 5 5 5 5 5 5 5 5 5 5 5 5 5 5 5 5 5 5 5 5 5 5 5 3 5 5 3 5 5 5 5 5 5 3 5 5 5 5 5 3 5 5 3 3 5 5 5 3 5 5 5 5 5 5 3 5 5 3 5 3 5 5 5 3 5 5 5 5 5 3 5 5 5 3 5 5 5 5 5 5 5 5 5 5 5 5 5 5 5 5 5 5 5 5 5 5 5 5 5 5 5 5 5 5 5 5 5 5 5 5 5 5 5 5 5 5 5 3 5 3 5 5 3 5 5 5 5 5 3 5 5 5 5 5 5 3 5 5 5 5 5 5 5 5 5 5 3 5 5 5 5 3 
</DataArray>
</Cells>
<PointData Scalars="" Vectors="displacement," Tensors="">
<DataArray type="Float64" Name="displacement" NumberOfComponents="3" format="ascii">
-0.0049994897813805967 -7.4003618068652427e-08 0 -0.0045409834203901482 -3.638769475234243e-05 0 -0.0040387917032931918 -7.5578795265633478e-08 0 -0.0049994897813805967 -7.4003618068652427e-08 0 -0.0045409834203901482 -3.638769475234243e-05 0 -0.0047539225116123938 -3.1334546010889952e-05 0 -0.0049994897813805967 -7.4003618068652427e-08 0 -0.0049995019679706055 -6.3055144998669524e-08 0 -0.0047539225116123938 -3.1334546010889952e-05 0 -0.0045409834203901482 -3.638769475234243e-05 0 -0.0047539225116123938 -3.1334546010889952e-05 0 -0.0046058417960115391 -8.6684556725263762e-06 0 -0.0049995019679706055 -6.3055144998669524e-08 0 -0.0048435139994139021 -8.5542684338641105e-06 0 -0.0049369952909092737 -1.1068584537472262e-05 0 -0.0049995019679706055 -6.3055144998669524e-08 0 -0.0048435139994139021 -8.5542684338641105e-06 0 -0.0047539225116123938 -3.1334546010889952e-05 0 -0.0048435139994139021 -8.5542684338641105e-06 0 -0.0047539225116123938 -3.1334546010889952e-05 0 -0.0047023500920382886 1.3713278217053691e-05 0 -0.0048435139994139021 -8.5542684338641105e-06 0 -0.0047595593336807731 4.9856155758868163e-05 0 -0.0047023500920382886 1.3713278217053691e-05 0 -0.0048435139994139021 -8.5542684338641105e-06 0 -0.0047595593336807731 4.9856155758868163e-05 0 -0.0048394550343655298 3.1731576387543066e-05 0 -0.0047539225116123938 -3.1334546010889952e-05 0 -0.0046058417960115391 -8.6684556725263762e-06 0 -0.0047023500920382886 1.3713278217053691e-05 0 -0.0046058417960115391 -8.6684556725263762e-06 0 -0.004579382146610785 2.9530046258198874e-05 0 -0.0047023500920382886 1.3713278217053691e-05 0 -0.0046058417960115391 -8.6684556725263762e-06 0 -0.004579382146610785 2.9530046258198874e-05 0 -0.004440270689931327 -3.5035323944581525e-06 0 -0.0047595593336807731 4.9856155758868163e-05 0 -0.0046981126958448348 4.3529320137972653e-05 0 -0.0046734356903025262 5.6598841031609423e-05 0 -0.0047595593336807731 4.9856155758868163e-05 0 -0.0046981126958448348 4.3529320137972653e-05 0 -0.0047023500920382886 1.3713278217053691e-05 0 -0.0046981126958448348 4.3529320137972653e-05 0 -0.0047023500920382886 1.3713278217053691e-05 0 -0.0046485168976691795 4.5987433949268878e-05 0 -0.004579382146610785 2.9530046258198874e-05 0 -0.0047023500920382886 1.3713278217053691e-05 0 -0.0046485168976691795 4.5987433949268878e-05 0 -0.004579382146610785 2.9530046258198874e-05 0 -0.0046485168976691795 4.5987433949268878e-05 0 -0.0045901741518880549 6.0860206855302415e-05 0 -0.0046485168976691795 4.5987433949268878e-05 0 -0.004605085974918377 8.9721297274039468e-05 0 -0.0045901741518880549 6.0860206855302415e-05 0 -0.0046485168976691795 4.5987433949268878e-05 0 -0.0046734356903025262 5.6598841031609423e-05 0 -0.004605085974918377 8.9721297274039468e-05 0 -0.0046981126958448348 4.3529320137972653e-05 0 -0.0046485168976691795 4.5987433949268878e-05 0 -0.0046734356903025262 5.6598841031609423e-05 0 -0.0046734356903025262 5.6598841031609423e-05 0 -0.004605085974918377 8.9721297274039468e-05 0 -0.0045947096308528368 0.00013308338640374018 0 -0.004605085974918377 8.9721297274039468e-05 0 -0.0045533702033303328 8.1437291281058992e-05 0 -0.0045947096308528368 0.00013308338640374018 0 -0.004605085974918377 8.9721297274039468e-05 0 -0.004564392746404247 7.4498941652902521e-05 0 -0.0045533702033303328 8.1437291281058992e-05 0 -0.004579382146610785 2.9530046258198874e-05 0 -0.0045901741518880549 6.0860206855302415e-05 0 -0.0045306937336301095 6.0332637884362943e-05 0 -0.004605085974918377 8.9721297274039468e-05 0 -0.004564392746404247 7.4498941652902521e-05 0 -0.0045901741518880549 6.0860206855302415e-05 0 -0.004564392746404247 7.4498941652902521e-05 0 -0.0045901741518880549 6.0860206855302415e-05 0 -0.0045306937336301095 6.0332637884362943e-05 0 -0.004564392746404247 7.4498941652902521e-05 0 -0.0044990242770924669 7.7894849240336646e-05 0 -0.0045306937336301095 6.0332637884362943e-05 0 -0.004564392746404247 7.4498941652902521e-05 0 -0.0044990242770924669 7.7894849240336646e-05 0 -0.0045533702033303328 8.1437291281058992e-05 0 -0.0044990242770924669 7.7894849240336646e-05 0 -0.0045533702033303328 8.1437291281058992e-05 0 -0.0045042269586383545 6.5959666826796631e-05 0 -0.0044720424450013178 4.1278624577524052e-05 0 -0.0043193501429662894 5.8463726133799945e-05 0 -0.004440270689931327 -3.5035323944581525e-06 0 -0.004579382146610785 2.9530046258198874e-05 0 -0.0044720424450013178 4.1278624577524052e-05 0 -0.004440270689931327 -3.5035323944581525e-06 0 -0.004579382146610785 2.9530046258198874e-05 0 -0.0044720424450013178 4.1278624577524052e-05 0 -0.0045306937336301095 6.0332637884362943e-05 0 -0.0044720424450013178 4.1278624577524052e-05 0 -0.0045306937336301095 6.0332637884362943e-05 0 -0.0044559174082461159 8.0338953844841696e-05 0 -0.0044990242770924669 7.7894849240336646e-05 0 -0.0045306937336301095 6.0332637884362943e-05 0 -0.0044559174082461159 8.0338953844841696e-05 0 -0.0044720424450013178 4.1278624577524052e-05 0 -0.0044559174082461159 8.0338953844841696e-05 0 -0.0043193501429662894 5.8463726133799945e-05 0 -0.0043193501429662894 5.8463726133799945e-05 0 -0.0040168678666786676 9.4013982848087865e-06 0 -0.004440270689931327 -3.5035323944581525e-06 0 -0.0045409834203901482 -3.638769475234243e-05 0 -0.0040387917032931918 -7.5578795265633478e-08 0 -0.0040168678666786676 9.4013982848087865e-06 0 -0.0045409834203901482 -3.638769475234243e-05 0 -0.0046058417960115391 -8.6684556725263762e-06 0 -0.004440270689931327 -3.5035323944581525e-06 0 -0.0045409834203901482 -3.638769475234243e-05 0 -0.0040168678666786676 9.4013982848087865e-06 0 -0.004440270689931327 -3.5035323944581525e-06 0 -0.0049954077552006532 2.0875241850853431e-06 0 -0.0049999869901878784 -5.5885520486082396e-09 0 -0.0049999886680246568 8.4784861760332484e-09 0 -0.0036923611705929503 0.00058472611970350463 0 -0.0039053837599411449 0.00060438312512455861 0 -0.003736382861432973 0.00056054662331168903 0 -0.0039531828742731369 0.00066434431314098621 0 -0.0040329856493915781 0.00054445074391296859 0 -0.003736382861432973 0.00056054662331168903 0 -0.0039531828742731369 0.00066434431314098621 0 -0.0038777996876558215 0.0007906370294364051 0 -0.0046566244737102185 3.5907703038837155e-05 0 -0.0046739394148690811 0.00016385127825564255 0 -0.0047661450392493055 4.6957078234788329e-05 0 -0.0038777996876558215 0.0007906370294364051 0 -0.0036646157722422979 0.00089703706986533915 0 -0.0036051077257695514 0.00072055745515850933 0 -0.003736382861432973 0.00056054662331168903 0 -0.0038777996876558215 0.0007906370294364051 0 -0.0036051077257695514 0.00072055745515850933 0 -0.0042317435790090244 0.0004390932060922625 0 -0.0041838782204200132 0.00038084809476979556 0 -0.0041838782204200132 0.00038084809476979556 0 -0.0048651521388494278 8.4110824093917489e-05 0 -0.0049971696730648505 2.6181039297494206e-06 0 -0.0049964014631930474 2.3161066889293792e-06 0 -0.0049999886680246568 8.4784861760332484e-09 0 -0.0046198194586540313 0.00014866578062783958 0 -0.0046374901052116035 0.00018289546901824655 0 -0.0047002697461763238 0.00016459445549786995 0 -0.0046198194586540313 0.00014866578062783958 0 -0.0046374901052116035 0.00018289546901824655 0 -0.0046038512592877336 0.00017731685986685329 0 -0.0048072384770974303 9.5424344600081719e-05 0 -0.0048287050026099773 4.8680976740532491e-05 0 -0.0049983424713419804 1.9580550652199659e-06 0 -0.0049971696730648505 2.6181039297494206e-06 0 -0.0049999886680246568 8.4784861760332484e-09 0 -0.0048072384770974303 9.5424344600081719e-05 0 -0.0048651521388494278 8.4110824093917489e-05 0 -0.0046566244737102185 3.5907703038837155e-05 0 -0.0044848931147009564 0.00012872643001981317 0 -0.0046739394148690811 0.00016385127825564255 0 -0.0049964014631930474 2.3161066889293792e-06 0 -0.0049954077552006532 2.0875241850853431e-06 0 -0.0049999886680246568 8.4784861760332484e-09 0 -0.0050001391277640621 8.1068705811369434e-06 0 -0.0049984771484341758 1.0605448748240753e-05 0 -0.0049994305980542606 7.5558255537695781e-06 0 -0.0046739394148690811 0.00016385127825564255 0 -0.0048430153361543448 9.8319959084922312e-05 0 -0.0047661450392493055 4.6957078234788329e-05 0 -0.0048651521388494278 8.4110824093917489e-05 0 -0.0049124919328382873 5.450112079759051e-05 0 -0.0049984771484341758 1.0605448748240753e-05 0 -0.0049994305980542606 7.5558255537695781e-06 0 -0.0049954077552006532 2.0875241850853431e-06 0 -0.0048651521388494278 8.4110824093917489e-05 0 -0.0050133938777417808 1.285697478406025e-05 0 -0.0049984771484341758 1.0605448748240753e-05 0 -0.0049954077552006532 2.0875241850853431e-06 0 -0.0049849522393483172 5.4665109349888493e-06 0 -0.0049984771484341758 1.0605448748240753e-05 0 -0.004970766018361202 1.9647220190396773e-05 0 -0.0049849522393483172 5.4665109349888493e-06 0 -0.0050133938777417808 1.285697478406025e-05 0 -0.0049903130694486254 2.2856279373599744e-06 0 -0.0049118007906017403 -1.4506319876369588e-05 0 -0.004867000472616575 2.4756193164284794e-05 0 -0.004970766018361202 1.9647220190396773e-05 0 -0.0048430153361543448 9.8319959084922312e-05 0 -0.004867000472616575 2.4756193164284794e-05 0 -0.004970766018361202 1.9647220190396773e-05 0 -0.0049118007906017403 -1.4506319876369588e-05 0 -0.004867000472616575 2.4756193164284794e-05 0 -0.0048166059048287023 -3.433886550635396e-05 0 -0.0049124919328382873 5.450112079759051e-05 0 -0.004968222451391115 2.541405252671001e-05 0 -0.0048430153361543448 9.8319959084922312e-05 0 -0.004867000472616575 2.4756193164284794e-05 0 -0.0047661450392493055 4.6957078234788329e-05 0 -0.0046566244737102185 3.5907703038837155e-05 0 -0.0047661450392493055 4.6957078234788329e-05 0 -0.0048166059048287023 -3.433886550635396e-05 0 -0.0042317435790090244 0.0004390932060922625 0 -0.0045169677664619297 0.00028416219795841363 0 -0.0039531828742731369 0.00066434431314098621 0 -0.0038777996876558215 0.0007906370294364051 0 -0.0041097495218341638 0.00067151528357432583 0 -0.004867000472616575 2.4756193164284794e-05 0 -0.0047661450392493055 4.6957078234788329e-05 0 -0.0048166059048287023 -3.433886550635396e-05 0 -0.0041097495218341638 0.00067151528357432583 0 -0.0040329856493915781 0.00054445074391296859 0 -0.0043499585912023537 0.00053839083475955957 0 -0.0039531828742731369 0.00066434431314098621 0 -0.0041097495218341638 0.00067151528357432583 0 -0.0040329856493915781 0.00054445074391296859 0 -0.0049118007906017403 -1.4506319876369588e-05 0 -0.0048166059048287023 -3.433886550635396e-05 0 -0.0049276287588093477 -6.3135128170010559e-05 0 -0.0038507223373833496 0.00063028781661932922 0 -0.0041100196530510736 0.00063771878606023774 0 -0.0039956165712213658 0.00054341092388285003 0 -0.0039053837599411449 0.00060438312512455861 0 -0.0044079611160113968 0.00042955827324483526 0 -0.0045169677664619297 0.00028416219795841363 0 -0.0044079611160113968 0.00042955827324483526 0 -0.0049995019679706055 -6.3055144998669524e-08 0 -0.0049999869901878784 -5.5885520486082396e-09 0 -0.0049369952909092737 -1.1068584537472262e-05 0 -0.0044079611160113968 0.00042955827324483526 0 -0.0046581011825078018 0.00029361908988878891 0 -0.0049276287588093477 -6.3135128170010559e-05 0 -0.0049632508152750348 -2.045510344920753e-05 0 -0.0049818479438494667 -4.2196022585956794e-05 0 -0.0041177866838798633 0.00063052938958887994 0 -0.0043094728844665147 0.00063305840857611059 0 -0.0042253831264377796 0.00057278487258208884 0 -0.0049632508152750348 -2.045510344920753e-05 0 -0.0049818479438494667 -4.2196022585956794e-05 0 -0.0049839957296168406 -1.8824063808689321e-05 0 -0.0049118007906017403 -1.4506319876369588e-05 0 -0.0049276287588093477 -6.3135128170010559e-05 0 -0.0049632508152750348 -2.045510344920753e-05 0 -0.0044079611160113968 0.00042955827324483526 0 -0.0041359263172276242 0.0006116727498500609 0 -0.0049839957296168406 -1.8824063808689321e-05 0 -0.0049977608997415447 -5.5643568026887388e-06 0 -0.0050139744467884969 -3.6963701015783858e-05 0 -0.0043094728844665147 0.00063305840857611059 0 -0.004511191284086156 0.00063042151037357537 0 -0.0043781769538593475 0.00055621173543625858 0 -0.0049818479438494667 -4.2196022585956794e-05 0 -0.0049839957296168406 -1.8824063808689321e-05 0 -0.0050139744467884969 -3.6963701015783858e-05 0 -0.0046581011825078018 0.00029361908988878891 0 -0.0047988765544527707 0.00015896419500917669 0 -0.0049839957296168406 -1.8824063808689321e-05 0 -0.0049977608997415447 -5.5643568026887388e-06 0 -0.0049809759842839273 2.8747380170443946e-06 0 -0.0049977608997415447 -5.5643568026887388e-06 0 -0.0049809759842839273 2.8747380170443946e-06 0 -0.0049785013705562851 6.0755498391224112e-06 0 -0.0049961303777204379 -3.3106152109426432e-05 0 -0.0049719000362458184 1.5613628135318618e-05 0 -0.0049809759842839273 2.8747380170443946e-06 0 -0.004970766018361202 1.9647220190396773e-05 0 -0.0049785013705562851 6.0755498391224112e-06 0 -0.0049632508152750348 -2.045510344920753e-05 0 -0.0049809759842839273 2.8747380170443946e-06 0 -0.004970766018361202 1.9647220190396773e-05 0 -0.0049632508152750348 -2.045510344920753e-05 0 -0.0049839957296168406 -1.8824063808689321e-05 0 -0.0049809759842839273 2.8747380170443946e-06 0 -0.0049118007906017403 -1.4506319876369588e-05 0 -0.0049632508152750348 -2.045510344920753e-05 0 -0.004970766018361202 1.9647220190396773e-05 0 -0.004970766018361202 1.9647220190396773e-05 0 -0.0049849522393483172 5.4665109349888493e-06 0 -0.0049785013705562851 6.0755498391224112e-06 0 -0.0049849522393483172 5.4665109349888493e-06 0 -0.0049999869901878784 -5.5885520486082396e-09 0 -0.0049785013705562851 6.0755498391224112e-06 0 -0.0049954077552006532 2.0875241850853431e-06 0 -0.0049849522393483172 5.4665109349888493e-06 0 -0.0049999869901878784 -5.5885520486082396e-09 0 -0.0049999869901878784 -5.5885520486082396e-09 0 -0.0049785013705562851 6.0755498391224112e-06 0 -0.0049369952909092737 -1.1068584537472262e-05 0 -0.0049529117029613453 1.1038114332580524e-05 0 -0.0049785013705562851 6.0755498391224112e-06 0 -0.0049369952909092737 -1.1068584537472262e-05 0 -0.0048435139994139021 -8.5542684338641105e-06 0 -0.0049369952909092737 -1.1068584537472262e-05 0 -0.0049019011154745832 7.8230385012651401e-06 0 -0.0049529117029613453 1.1038114332580524e-05 0 -0.0049369952909092737 -1.1068584537472262e-05 0 -0.0049019011154745832 7.8230385012651401e-06 0 -0.0049019011154745832 7.8230385012651401e-06 0 -0.0049236057759183332 4.7673336257505167e-05 0 -0.0048394550343655298 3.1731576387543066e-05 0 -0.0049961303777204379 -3.3106152109426432e-05 0 -0.0047988765544527707 0.00015896419500917669 0 -0.0049529117029613453 1.1038114332580524e-05 0 -0.0049019011154745832 7.8230385012651401e-06 0 -0.0049236057759183332 4.7673336257505167e-05 0 -0.0047988765544527707 0.00015896419500917669 0 -0.0049001165552568253 3.1385133866778941e-05 0 -0.0048435139994139021 -8.5542684338641105e-06 0 -0.0049019011154745832 7.8230385012651401e-06 0 -0.0048394550343655298 3.1731576387543066e-05 0 -0.0048149145665468459 3.2528843274294107e-05 0 -0.0046325460814746738 0.00030462874646379983 0 -0.0047595593336807731 4.9856155758868163e-05 0 -0.0046734356903025262 5.6598841031609423e-05 0 -0.0047115457060175761 5.0860944226664946e-05 0 -0.0047595593336807731 4.9856155758868163e-05 0 -0.0048394550343655298 3.1731576387543066e-05 0 -0.0049175834915112168 0.00011245835111094322 0 -0.0047595593336807731 4.9856155758868163e-05 0 -0.0047115457060175761 5.0860944226664946e-05 0 -0.0046936275204528637 6.0089734712144165e-05 0 -0.0047115457060175761 5.0860944226664946e-05 0 -0.0046936275204528637 6.0089734712144165e-05 0 -0.004703387352051518 6.2708195461177364e-05 0 -0.004511191284086156 0.00063042151037357537 0 -0.0045765146522574506 0.00050446431746499574 0 -0.0043781769538593475 0.00055621173543625858 0 -0.0049573777040140552 3.4895154906957769e-05 0 -0.0048394550343655298 3.1731576387543066e-05 0 -0.0049175834915112168 0.00011245835111094322 0 -0.0047988765544527707 0.00015896419500917669 0 -0.0046325460814746738 0.00030462874646379983 0 -0.0046325460814746738 0.00030462874646379983 0 -0.0046026138662381109 0.00020468238016822877 0 -0.0043543815436934063 0.00034790432064424494 0 -0.0045214062847458826 0.00034689901338090187 0 -0.004428396725079828 0.00018280279774742815 0 -0.0044365195915007215 0.00051974155218804702 0 -0.0043543815436934063 0.00034790432064424494 0 -0.0045214062847458826 0.00034689901338090187 0 -0.0046734356903025262 5.6598841031609423e-05 0 -0.004703387352051518 6.2708195461177364e-05 0 -0.0045947096308528368 0.00013308338640374018 0 -0.0046026138662381109 0.00020468238016822877 0 -0.0046082011164831401 0.00014220638400752828 0 -0.0046734356903025262 5.6598841031609423e-05 0 -0.0047115457060175761 5.0860944226664946e-05 0 -0.004703387352051518 6.2708195461177364e-05 0 -0.0045947096308528368 0.00013308338640374018 0 -0.0045037743592344559 7.2716717802994913e-05 0 -0.004428396725079828 0.00018280279774742815 0 -0.0045214062847458826 0.00034689901338090187 0 -0.0045947096308528368 0.00013308338640374018 0 -0.004428396725079828 0.00018280279774742815 0 -0.0045533702033303328 8.1437291281058992e-05 0 -0.0045947096308528368 0.00013308338640374018 0 -0.0045037743592344559 7.2716717802994913e-05 0 -0.0045533702033303328 8.1437291281058992e-05 0 -0.0045037743592344559 7.2716717802994913e-05 0 -0.0045009648359823776 5.0951996200068679e-05 0 -0.0045037743592344559 7.2716717802994913e-05 0 -0.0043208025389984582 6.0257865623444671e-05 0 -0.0044786260483255661 2.5378853873492617e-05 0 -0.0045037743592344559 7.2716717802994913e-05 0 -0.004428396725079828 0.00018280279774742815 0 -0.0043208025389984582 6.0257865623444671e-05 0 -0.0043543815436934063 0.00034790432064424494 0 -0.004428396725079828 0.00018280279774742815 0 -0.004264493099233534 0.00023758963817714182 0 -0.004428396725079828 0.00018280279774742815 0 -0.004264493099233534 0.00023758963817714182 0 -0.0043208025389984582 6.0257865623444671e-05 0 -0.004264493099233534 0.00023758963817714182 0 -0.0043208025389984582 6.0257865623444671e-05 0 -0.0040801058949120426 0.00024428815996116059 0 -0.0042096165740031707 0.00013018165713372891 0 -0.0040869277344535498 0.00023774181228890321 0 -0.0040801058949120426 0.00024428815996116059 0 -0.003965897082023888 0.00018253562659161911 0 -0.0040323497725333422 0.00014955945526464313 0 -0.0041048641487478497 0.00018245725762782035 0 -0.0040801058949120426 0.00024428815996116059 0 -0.0040323497725333422 0.00014955945526464313 0 -0.0040801058949120426 0.00024428815996116059 0 -0.0041334814473108069 0.00045662418189416779 0 -0.0038987119115016233 0.00039841584257452583 0 -0.004264493099233534 0.00023758963817714182 0 -0.0040801058949120426 0.00024428815996116059 0 -0.0041334814473108069 0.00045662418189416779 0 -0.0044365195915007215 0.00051974155218804702 0 -0.0043543815436934063 0.00034790432064424494 0 -0.0041334814473108069 0.00045662418189416779 0 -0.0043543815436934063 0.00034790432064424494 0 -0.004264493099233534 0.00023758963817714182 0 -0.0041334814473108069 0.00045662418189416779 0 -0.0045765146522574506 0.00050446431746499574 0 -0.0043781769538593475 0.00055621173543625858 0 -0.0042708212661629798 0.00044045389704652202 0 -0.0046325460814746738 0.00030462874646379983 0 -0.0041794778251749458 0.00047601251757414613 0 -0.0043094728844665147 0.00063305840857611059 0 -0.0043781769538593475 0.00055621173543625858 0 -0.0042253831264377796 0.00057278487258208884 0 -0.0043781769538593475 0.00055621173543625858 0 -0.0042253831264377796 0.00057278487258208884 0 -0.0042708212661629798 0.00044045389704652202 0 -0.0042253831264377796 0.00057278487258208884 0 -0.0042708212661629798 0.00044045389704652202 0 -0.0039674863287107376 0.00038595973392685268 0 -0.0042253831264377796 0.00057278487258208884 0 -0.0039956165712213658 0.00054341092388285003 0 -0.0039674863287107376 0.00038595973392685268 0 -0.0041100196530510736 0.00063771878606023774 0 -0.0042253831264377796 0.00057278487258208884 0 -0.0039956165712213658 0.00054341092388285003 0 -0.0038507223373833496 0.00063028781661932922 0 -0.0039956165712213658 0.00054341092388285003 0 -0.0038394322633493131 0.00048912919144341791 0 -0.0039956165712213658 0.00054341092388285003 0 -0.0038394322633493131 0.00048912919144341791 0 -0.0039674863287107376 0.00038595973392685268 0 -0.0039372690146206157 0.00039016132338245919 0 -0.0037117651377803966 0.00035962741302025645 0 -0.0038394322633493131 0.00048912919144341791 0 -0.0039674863287107376 0.00038595973392685268 0 -0.0037014051479990965 0.00035974911391440604 0 -0.0038987119115016233 0.00039841584257452583 0 -0.0038614967044907386 0.00026171571510273987 0 -0.0037014051479990965 0.00035974911391440604 0 -0.0041794778251749458 0.00047601251757414613 0 -0.0039372690146206157 0.00039016132338245919 0 -0.0040801058949120426 0.00024428815996116059 0 -0.0038987119115016233 0.00039841584257452583 0 -0.0039521277591630941 0.00026721495015517139 0 -0.0038987119115016233 0.00039841584257452583 0 -0.0039521277591630941 0.00026721495015517139 0 -0.0038614967044907386 0.00026171571510273987 0 -0.0040801058949120426 0.00024428815996116059 0 -0.0039521277591630941 0.00026721495015517139 0 -0.003965897082023888 0.00018253562659161911 0 -0.0039521277591630941 0.00026721495015517139 0 -0.003965897082023888 0.00018253562659161911 0 -0.0038614967044907386 0.00026171571510273987 0 -0.003965897082023888 0.00018253562659161911 0 -0.0038637437251465832 0.00013576093542928342 0 -0.0038614967044907386 0.00026171571510273987 0 -0.003965897082023888 0.00018253562659161911 0 -0.0038637437251465832 0.00013576093542928342 0 -0.0039668062590504684 0.00012304673453641347 0 -0.003965897082023888 0.00018253562659161911 0 -0.0039668062590504684 0.00012304673453641347 0 -0.0040323497725333422 0.00014955945526464313 0 -0.0038637437251465832 0.00013576093542928342 0 -0.0038614967044907386 0.00026171571510273987 0 -0.0037865044374923626 0.0001871374281536453 0 -0.0038614967044907386 0.00026171571510273987 0 -0.0037865044374923626 0.0001871374281536453 0 -0.0037014051479990965 0.00035974911391440604 0 -0.0035545145423962316 0.00020418527731678492 0 -0.0034544945487775865 0.00013046509949698324 0 -0.0034764503351325951 0.00028773589968968891 0 -0.0037865044374923626 0.0001871374281536453 0 -0.0036719696700158715 0.00015103291217517348 0 -0.0037014051479990965 0.00035974911391440604 0 -0.0037865044374923626 0.0001871374281536453 0 -0.0036719696700158715 0.00015103291217517348 0 -0.0038237545794563847 7.7810222779261932e-05 0 -0.0036111460734463917 0.00018243529234267386 0 -0.0034823016414051965 0.00028205833292886386 0 -0.0036719696700158715 0.00015103291217517348 0 -0.0037014051479990965 0.00035974911391440604 0 -0.0034764503351325951 0.00028773589968968891 0 -0.0037014051479990965 0.00035974911391440604 0 -0.0037173983053408982 0.00050989338170702176 0 -0.00355489977868532 0.00046813724598705118 0 -0.0037014051479990965 0.00035974911391440604 0 -0.00355489977868532 0.00046813724598705118 0 -0.0034764503351325951 0.00028773589968968891 0 -0.0038394322633493131 0.00048912919144341791 0 -0.0037014051479990965 0.00035974911391440604 0 -0.0037173983053408982 0.00050989338170702176 0 -0.0036303134016306871 0.00061080245679054021 0 -0.0038507223373833496 0.00063028781661932922 0 -0.0037173983053408982 0.00050989338170702176 0 -0.0038507223373833496 0.00063028781661932922 0 -0.0038394322633493131 0.00048912919144341791 0 -0.0037173983053408982 0.00050989338170702176 0 -0.0036303134016306871 0.00061080245679054021 0 -0.0037173983053408982 0.00050989338170702176 0 -0.00355489977868532 0.00046813724598705118 0 -0.003591783752690396 -9.8242076712439947e-05 0 -0.003540689535342369 -5.7814099182176367e-05 0 -0.0034989262090178211 -0.00015601184314091972 0 -0.0034785381335395338 -6.037598841188724e-05 0 -0.0034989262090178211 -0.00015601184314091972 0 -0.0034203177876221181 -0.00012601327305211007 0 -0.003540689535342369 -5.7814099182176367e-05 0 -0.0034785381335395338 -6.037598841188724e-05 0 -0.0034989262090178211 -0.00015601184314091972 0 -0.0036118701754710015 -9.0042332239909822e-05 0 -0.0027931241118434643 -9.7072756272244883e-05 0 -0.0034728612111759346 -0.00014086329315962225 0 -0.0035551848708449229 -0.00019876970777200976 0 -0.003676592267342578 -4.7151660601692553e-05 0 -0.002459044792997704 0.00015942795131274968 0 -0.0027931241118434643 -9.7072756272244883e-05 0 -0.0034728612111759346 -0.00014086329315962225 0 -0.0035551848708449229 -0.00019876970777200976 0 -0.0032395593488939957 -0.00028240368424307678 0 -0.0015036628249284856 0.00050237323745530766 0 -0.0015320209861276581 0.00044875366565479965 0 -0.0014816822355424185 0.00042681302327690705 0 -0.003591783752690396 -9.8242076712439947e-05 0 -0.0036012890763500059 -1.1330353667575374e-05 0 -0.003676592267342578 -4.7151660601692553e-05 0 -0.003591783752690396 -9.8242076712439947e-05 0 -0.0036012890763500059 -1.1330353667575374e-05 0 -0.003540689535342369 -5.7814099182176367e-05 0 -0.0036012890763500059 -1.1330353667575374e-05 0 -0.003540689535342369 -5.7814099182176367e-05 0 -0.003530740298465871 3.4476628544647116e-05 0 -0.0034785381335395338 -6.037598841188724e-05 0 -0.003530740298465871 3.4476628544647116e-05 0 -0.0034442794967058789 1.1845978449167001e-05 0 -0.003540689535342369 -5.7814099182176367e-05 0 -0.0034785381335395338 -6.037598841188724e-05 0 -0.003530740298465871 3.4476628544647116e-05 0 -0.003530740298465871 3.4476628544647116e-05 0 -0.0035532324047763152 0.00012015577237660819 0 -0.0034544945487775865 0.00013046509949698324 0 -0.003530740298465871 3.4476628544647116e-05 0 -0.0034544945487775865 0.00013046509949698324 0 -0.0034442794967058789 1.1845978449167001e-05 0 -0.0035545145423962316 0.00020418527731678492 0 -0.0035532324047763152 0.00012015577237660819 0 -0.0034544945487775865 0.00013046509949698324 0 -0.0036111460734463917 0.00018243529234267386 0 -0.0037436572427171771 9.8342110331584067e-05 0 -0.0035545145423962316 0.00020418527731678492 0 -0.0035532324047763152 0.00012015577237660819 0 -0.003665354093187136 0.00012631981685642623 0 -0.0035532324047763152 0.00012015577237660819 0 -0.0036033221153479434 7.1801889982436244e-05 0 -0.003665354093187136 0.00012631981685642623 0 -0.003530740298465871 3.4476628544647116e-05 0 -0.0035532324047763152 0.00012015577237660819 0 -0.0036033221153479434 7.1801889982436244e-05 0 -0.0036012890763500059 -1.1330353667575374e-05 0 -0.003530740298465871 3.4476628544647116e-05 0 -0.0036033221153479434 7.1801889982436244e-05 0 -0.0036012890763500059 -1.1330353667575374e-05 0 -0.0036033221153479434 7.1801889982436244e-05 0 -0.0036439630362750442 2.7806221278542718e-05 0 -0.0037107879761468878 4.037930201536738e-05 0 -0.003665354093187136 0.00012631981685642623 0 -0.0038260836274694784 2.2210434910923084e-05 0 -0.0036439630362750442 2.7806221278542718e-05 0 -0.0037107879761468878 4.037930201536738e-05 0 -0.003665354093187136 0.00012631981685642623 0 -0.0036033221153479434 7.1801889982436244e-05 0 -0.0036439630362750442 2.7806221278542718e-05 0 -0.003665354093187136 0.00012631981685642623 0 -0.0038637437251465832 0.00013576093542928342 0 -0.0038237545794563847 7.7810222779261932e-05 0 -0.0038360757953096146 4.9560770225441803e-05 0 -0.0038637437251465832 0.00013576093542928342 0 -0.0037865044374923626 0.0001871374281536453 0 -0.0038237545794563847 7.7810222779261932e-05 0 -0.0039668062590504684 0.00012304673453641347 0 -0.0039958323273989642 7.5294507614278046e-05 0 -0.0040045989854417289 0.00010300588067520866 0 -0.0038261441123276481 0.00016906141409490097 0 -0.004010249621304458 5.4946100575090383e-06 0 -0.0038637437251465832 0.00013576093542928342 0 -0.0039668062590504684 0.00012304673453641347 0 -0.0039958323273989642 7.5294507614278046e-05 0 -0.0038237545794563847 7.7810222779261932e-05 0 -0.0038360757953096146 4.9560770225441803e-05 0 -0.0038260836274694784 2.2210434910923084e-05 0 -0.0037436572427171771 9.8342110331584067e-05 0 -0.0038262185739253614 2.568142545087765e-05 0 -0.0037107879761468878 4.037930201536738e-05 0 -0.0038260836274694784 2.2210434910923084e-05 0 -0.0037520649187007859 1.237944598687236e-06 0 -0.0038260836274694784 2.2210434910923084e-05 0 -0.0038302936718590886 -5.0512373722951552e-05 0 -0.0037763743698193525 -3.4540917764937999e-05 0 -0.0038302936718590886 -5.0512373722951552e-05 0 -0.0037763743698193525 -3.4540917764937999e-05 0 -0.003780296058064622 -0.00012114499883396262 0 -0.0037763743698193525 -3.4540917764937999e-05 0 -0.003676592267342578 -4.7151660601692553e-05 0 -0.003780296058064622 -0.00012114499883396262 0 -0.0037763743698193525 -3.4540917764937999e-05 0 -0.0037520649187007859 1.237944598687236e-06 0 -0.003676592267342578 -4.7151660601692553e-05 0 -0.0038260836274694784 2.2210434910923084e-05 0 -0.0037763743698193525 -3.4540917764937999e-05 0 -0.0037520649187007859 1.237944598687236e-06 0 -0.0037107879761468878 4.037930201536738e-05 0 -0.0037520649187007859 1.237944598687236e-06 0 -0.003676592267342578 -4.7151660601692553e-05 0 -0.0036012890763500059 -1.1330353667575374e-05 0 -0.0036439630362750442 2.7806221278542718e-05 0 -0.003676592267342578 -4.7151660601692553e-05 0 -0.0036439630362750442 2.7806221278542718e-05 0 -0.0037107879761468878 4.037930201536738e-05 0 -0.003676592267342578 -4.7151660601692553e-05 0 -0.0035551848708449229 -0.00019876970777200976 0 -0.003676592267342578 -4.7151660601692553e-05 0 -0.003780296058064622 -0.00012114499883396262 0 -0.0036118701754710015 -9.0042332239909822e-05 0 -0.0036336477645398805 -6.7442098864343154e-05 0 -0.002459044792997704 0.00015942795131274968 0 -0.0027998586992540962 0.0002624879553444819 0 -0.0015320209861276581 0.00044875366565479965 0 -0.0019192783286703964 0.00063304563609336173 0 -0.0018615238726189423 0.000384627584422961 0 -0.0015036628249284856 0.00050237323745530766 0 -0.0015320209861276581 0.00044875366565479965 0 -0.0019192783286703964 0.00063304563609336173 0 -0.0019192783286703964 0.00063304563609336173 0 -0.0021861783737121719 0.00036217651017500659 0 -0.0018615238726189423 0.000384627584422961 0 -0.0025289091603424197 0.00045140015039526934 0 -0.0023416097975913204 0.00073020188952680257 0 -0.0021861783737121719 0.00036217651017500659 0 -0.0019192783286703964 0.00063304563609336173 0 -0.0023416097975913204 0.00073020188952680257 0 -0.0021861783737121719 0.00036217651017500659 0 -0.0027998586992540962 0.0002624879553444819 0 -0.0034599686262731886 0.00016339195087729474 0 -0.0040716033718272348 -1.2803377763674853e-05 0 -0.0040641188284844081 4.1150385679234254e-05 0 -0.0041358146324786413 1.7367877107091301e-05 0 -0.0040716033718272348 -1.2803377763674853e-05 0 -0.0040641188284844081 4.1150385679234254e-05 0 -0.0040354330838809904 3.5547141025406092e-05 0 -0.0032292199296323327 0.00029748507081953199 0 -0.0034599686262731886 0.00016339195087729474 0 -0.0040641188284844081 4.1150385679234254e-05 0 -0.0040933825861605728 5.4798497734964517e-05 0 -0.0041358146324786413 1.7367877107091301e-05 0 -0.003999169980866496 0.0001727272549366247 0 -0.0034599686262731886 0.00016339195087729474 0 -0.0040641188284844081 4.1150385679234254e-05 0 -0.0040545329860034148 5.9190887947258738e-05 0 -0.0040454281347951648 3.7565999790134651e-05 0 -0.0040933825861605728 5.4798497734964517e-05 0 -0.0040738305915551925 7.1336896342786665e-05 0 -0.0041087134839308329 8.2180429797085511e-05 0 -0.0040641188284844081 4.1150385679234254e-05 0 -0.0040933825861605728 5.4798497734964517e-05 0 -0.0040738305915551925 7.1336896342786665e-05 0 -0.0040641188284844081 4.1150385679234254e-05 0 -0.0040545329860034148 5.9190887947258738e-05 0 -0.0040738305915551925 7.1336896342786665e-05 0 -0.0040545329860034148 5.9190887947258738e-05 0 -0.0040454281347951648 3.7565999790134651e-05 0 -0.0040337872859726844 6.5632193572803238e-05 0 -0.004010249621304458 5.4946100575090383e-06 0 -0.0034599686262731886 0.00016339195087729474 0 -0.0039958323273989642 7.5294507614278046e-05 0 -0.0040454281347951648 3.7565999790134651e-05 0 -0.0040337872859726844 6.5632193572803238e-05 0 -0.0038302936718590886 -5.0512373722951552e-05 0 -0.003780296058064622 -0.00012114499883396262 0 -0.0039065213277403033 -6.3104957030619749e-05 0 -0.0038260836274694784 2.2210434910923084e-05 0 -0.0038302936718590886 -5.0512373722951552e-05 0 -0.0039065213277403033 -6.3104957030619749e-05 0 -0.0038360757953096146 4.9560770225441803e-05 0 -0.0038260836274694784 2.2210434910923084e-05 0 -0.0039065213277403033 -6.3104957030619749e-05 0 -0.0039958323273989642 7.5294507614278046e-05 0 -0.0040337872859726844 6.5632193572803238e-05 0 -0.0040243294967521482 8.3228757873574346e-05 0 -0.0040545329860034148 5.9190887947258738e-05 0 -0.0040337872859726844 6.5632193572803238e-05 0 -0.0040558178230670925 8.375706204812371e-05 0 -0.0040337872859726844 6.5632193572803238e-05 0 -0.0040243294967521482 8.3228757873574346e-05 0 -0.0040558178230670925 8.375706204812371e-05 0 -0.0040376399925184008 0.00010415933134888918 0 -0.0040243294967521482 8.3228757873574346e-05 0 -0.0040558178230670925 8.375706204812371e-05 0 -0.0040376399925184008 0.00010415933134888918 0 -0.0040243294967521482 8.3228757873574346e-05 0 -0.0040045989854417289 0.00010300588067520866 0 -0.0039958323273989642 7.5294507614278046e-05 0 -0.0040243294967521482 8.3228757873574346e-05 0 -0.0040045989854417289 0.00010300588067520866 0 -0.0040376399925184008 0.00010415933134888918 0 -0.0040045989854417289 0.00010300588067520866 0 -0.0040323497725333422 0.00014955945526464313 0 -0.0040376399925184008 0.00010415933134888918 0 -0.0040323497725333422 0.00014955945526464313 0 -0.0040685099706975819 0.00013666900496039981 0 -0.0039668062590504684 0.00012304673453641347 0 -0.0040045989854417289 0.00010300588067520866 0 -0.0040323497725333422 0.00014955945526464313 0 -0.0041048641487478497 0.00018245725762782035 0 -0.0040323497725333422 0.00014955945526464313 0 -0.0040685099706975819 0.00013666900496039981 0 -0.0041048641487478497 0.00018245725762782035 0 -0.0040685099706975819 0.00013666900496039981 0 -0.004103744126887493 0.00013935224350224525 0 -0.0040685099706975819 0.00013666900496039981 0 -0.004103744126887493 0.00013935224350224525 0 -0.0040781349208168791 0.00011202918955374708 0 -0.0040376399925184008 0.00010415933134888918 0 -0.0040685099706975819 0.00013666900496039981 0 -0.0040781349208168791 0.00011202918955374708 0 -0.004103744126887493 0.00013935224350224525 0 -0.0040781349208168791 0.00011202918955374708 0 -0.0041189296631378679 0.00011971246804731376 0 -0.0040781349208168791 0.00011202918955374708 0 -0.0040895336042523038 9.4561350050131993e-05 0 -0.0041189296631378679 0.00011971246804731376 0 -0.0040781349208168791 0.00011202918955374708 0 -0.0040558178230670925 8.375706204812371e-05 0 -0.0040895336042523038 9.4561350050131993e-05 0 -0.0040376399925184008 0.00010415933134888918 0 -0.0040781349208168791 0.00011202918955374708 0 -0.0040558178230670925 8.375706204812371e-05 0 -0.0040545329860034148 5.9190887947258738e-05 0 -0.0040738305915551925 7.1336896342786665e-05 0 -0.0040558178230670925 8.375706204812371e-05 0 -0.0040738305915551925 7.1336896342786665e-05 0 -0.0040558178230670925 8.375706204812371e-05 0 -0.0040895336042523038 9.4561350050131993e-05 0 -0.0040738305915551925 7.1336896342786665e-05 0 -0.0040895336042523038 9.4561350050131993e-05 0 -0.0041087134839308329 8.2180429797085511e-05 0 -0.0041393565265066077 0.00010408176896609061 0 -0.0041189296631378679 0.00011971246804731376 0 -0.0041087134839308329 8.2180429797085511e-05 0 -0.0040895336042523038 9.4561350050131993e-05 0 -0.0041189296631378679 0.00011971246804731376 0 -0.0041087134839308329 8.2180429797085511e-05 0 -0.0041393565265066077 0.00010408176896609061 0 -0.0041189296631378679 0.00011971246804731376 0 -0.0041516274869100095 0.00014528402055730613 0 -0.0041393565265066077 0.00010408176896609061 0 -0.0041516274869100095 0.00014528402055730613 0 -0.0041767450386052153 0.00012304118717310785 0 -0.0042096165740031707 0.00013018165713372891 0 -0.0043115277352460445 8.8357281825476402e-05 0 -0.004103744126887493 0.00013935224350224525 0 -0.0041189296631378679 0.00011971246804731376 0 -0.0041516274869100095 0.00014528402055730613 0 -0.0041048641487478497 0.00018245725762782035 0 -0.004103744126887493 0.00013935224350224525 0 -0.0041516274869100095 0.00014528402055730613 0 -0.0044786260483255661 2.5378853873492617e-05 0 -0.0045009648359823776 5.0951996200068679e-05 0 -0.0044829154435141174 8.2560865187138738e-05 0 -0.0045037743592344559 7.2716717802994913e-05 0 -0.0044786260483255661 2.5378853873492617e-05 0 -0.0045009648359823776 5.0951996200068679e-05 0 -0.0041516274869100095 0.00014528402055730613 0 -0.0041767450386052153 0.00012304118717310785 0 -0.0042212966350915525 0.00013018869179314509 0 -0.0043115277352460445 8.8357281825476402e-05 0 -0.0043514868474253858 9.9646131844966505e-05 0 -0.0041767450386052153 0.00012304118717310785 0 -0.0042174348951055721 7.7973171971387848e-05 0 -0.0042212966350915525 0.00013018869179314509 0 -0.0041767450386052153 0.00012304118717310785 0 -0.0042174348951055721 7.7973171971387848e-05 0 -0.0041514565053249759 5.8286626873084628e-05 0 -0.0041393565265066077 0.00010408176896609061 0 -0.0041767450386052153 0.00012304118717310785 0 -0.0041358146324786413 1.7367877107091301e-05 0 -0.0040933825861605728 5.4798497734964517e-05 0 -0.0041087134839308329 8.2180429797085511e-05 0 -0.0041358146324786413 1.7367877107091301e-05 0 -0.0041393565265066077 0.00010408176896609061 0 -0.0041087134839308329 8.2180429797085511e-05 0 -0.0041358146324786413 1.7367877107091301e-05 0 -0.0041664706134380827 0.00012506962811835115 0 -0.0041768193947702833 2.0293885027311091e-05 0 -0.0041514565053249759 5.8286626873084628e-05 0 -0.0041868406109586594 1.1054305126084858e-05 0 -0.0041493001598300241 -1.0930725478801445e-05 0 -0.0042174348951055721 7.7973171971387848e-05 0 -0.0041514565053249759 5.8286626873084628e-05 0 -0.0041868406109586594 1.1054305126084858e-05 0 -0.0042174348951055721 7.7973171971387848e-05 0 -0.0041868406109586594 1.1054305126084858e-05 0 -0.0042618477502154618 3.6373114789211433e-05 0 -0.0041868406109586594 1.1054305126084858e-05 0 -0.0041490890185874544 -3.3963265587190308e-05 0 -0.0042332214947301897 -1.1236955470087895e-05 0 -0.0041868406109586594 1.1054305126084858e-05 0 -0.0041493001598300241 -1.0930725478801445e-05 0 -0.0041490890185874544 -3.3963265587190308e-05 0 -0.0040716033718272348 -1.2803377763674853e-05 0 -0.0041358146324786413 1.7367877107091301e-05 0 -0.0041029362583872627 -5.8163021059665613e-05 0 -0.0041768193947702833 2.0293885027311091e-05 0 -0.0038527666394171556 7.0984024717644865e-05 0 -0.0041514565053249759 5.8286626873084628e-05 0 -0.0041221339104037602 -3.2848158083134373e-05 0 -0.0041493001598300241 -1.0930725478801445e-05 0 -0.0041221339104037602 -3.2848158083134373e-05 0 -0.0041493001598300241 -1.0930725478801445e-05 0 -0.0041371979517943183 -4.8032153555244241e-05 0 -0.0041493001598300241 -1.0930725478801445e-05 0 -0.0041371979517943183 -4.8032153555244241e-05 0 -0.0041490890185874544 -3.3963265587190308e-05 0 -0.0041371979517943183 -4.8032153555244241e-05 0 -0.0041312848985147936 -3.7069716137226377e-05 0 -0.0041490890185874544 -3.3963265587190308e-05 0 -0.0041371979517943183 -4.8032153555244241e-05 0 -0.0041312848985147936 -3.7069716137226377e-05 0 -0.0042175947678518471 -8.7133563721079315e-06 0 -0.0041387781192658993 -5.6421299583833992e-05 0 -0.0041371979517943183 -4.8032153555244241e-05 0 -0.0042175947678518471 -8.7133563721079315e-06 0 -0.0038527666394171556 7.0984024717644865e-05 0 -0.0039586016037396988 -2.6802216183136451e-05 0 -0.0041490890185874544 -3.3963265587190308e-05 0 -0.0041205235697440064 -5.6314325622544509e-05 0 -0.0042332214947301897 -1.1236955470087895e-05 0 -0.0041312848985147936 -3.7069716137226377e-05 0 -0.0041490890185874544 -3.3963265587190308e-05 0 -0.0041205235697440064 -5.6314325622544509e-05 0 -0.0041045987019071211 1.55123987311748e-05 0 -0.0040981326317745944 0.00012132150974255485 0 -0.0041289419716300348 1.1671436170470405e-05 0 -0.0041205235697440064 -5.6314325622544509e-05 0 -0.0041045987019071211 1.55123987311748e-05 0 -0.0040297714526360611 1.891440864853603e-06 0 -0.0041312848985147936 -3.7069716137226377e-05 0 -0.0041205235697440064 -5.6314325622544509e-05 0 -0.0041045987019071211 1.55123987311748e-05 0 -0.0041045987019071211 1.55123987311748e-05 0 -0.0040330309913363289 7.20210304864957e-05 0 -0.0040297714526360611 1.891440864853603e-06 0 -0.0041045987019071211 1.55123987311748e-05 0 -0.0040330309913363289 7.20210304864957e-05 0 -0.0040981326317745944 0.00012132150974255485 0 -0.0040102947823259776 0.00018610939818642638 0 -0.0038438164987297384 0.00018480012445496572 0 -0.0035627540240594289 0.00048725406837848436 0 -0.0040102947823259776 0.00018610939818642638 0 -0.0038438164987297384 0.00018480012445496572 0 -0.0041289419716300348 1.1671436170470405e-05 0 -0.003943596543820674 0.00017108998453835294 0 -0.0041201952224782477 2.0842082931929493e-05 0 -0.0012578039084711033 0.00013005481177077077 0 -0.0012753685644236498 0.00012943326941161463 0 -0.0013129911223636482 7.5627722213365459e-05 0 -0.0026666165681757219 0.00017459278106387791 0 -0.0025464660881764942 -0.00018410018123305729 0 -0.0012578039084711033 0.00013005481177077077 0 -0.0012753685644236498 0.00012943326941161463 0 -0.0012572837076627887 0.00013282641478274212 0 -0.0041312848985147936 -3.7069716137226377e-05 0 -0.0041289419716300348 1.1671436170470405e-05 0 -0.0042175947678518471 -8.7133563721079315e-06 0 -0.0040102947823259776 0.00018610939818642638 0 -0.0041289419716300348 1.1671436170470405e-05 0 -0.0042175947678518471 -8.7133563721079315e-06 0 -0.0041312848985147936 -3.7069716137226377e-05 0 -0.0041045987019071211 1.55123987311748e-05 0 -0.0041289419716300348 1.1671436170470405e-05 0 -0.0025112028165190977 -0.00023351316539294595 0 -0.0025614319644298145 -0.00026972329240358873 0 -0.0025260779160502845 -2.8808377527706117e-06 0 -0.0024349045505943087 -0.00027255706748235834 0 -0.0023464294144710613 -0.00025157535360473694 0 -0.002417956858128728 -0.00010758363629105019 0 -0.0025112028165190977 -0.00023351316539294595 0 -0.0024349045505943087 -0.00027255706748235834 0 -0.002417956858128728 -0.00010758363629105019 0 -0.0024349045505943087 -0.00027255706748235834 0 -0.0024010648626971863 -0.00036692276441368442 0 -0.0025559006942606176 -0.00026696919883960931 0 -0.0024349045505943087 -0.00027255706748235834 0 -0.0024010648626971863 -0.00036692276441368442 0 -0.0023464294144710613 -0.00025157535360473694 0 -0.0025112028165190977 -0.00023351316539294595 0 -0.0024349045505943087 -0.00027255706748235834 0 -0.0025559006942606176 -0.00026696919883960931 0 -0.0025483487868688533 -0.00019426675345524924 0 -0.0025464660881764942 -0.00018410018123305729 0 -0.0012753685644236498 0.00012943326941161463 0 -0.0013129911223636482 7.5627722213365459e-05 0 -0.0013334483473566548 0.00013437852987678949 0 -0.0012753685644236498 0.00012943326941161463 0 -0.0013334483473566548 0.00013437852987678949 0 -0.0013375622406689037 0.00014667169522662157 0 -0.0025464660881764942 -0.00018410018123305729 0 -0.0018617713346925466 -0.0001475512082785896 0 -0.0024010648626971863 -0.00036692276441368442 0 -0.0025559006942606176 -0.00026696919883960931 0 -0.0024656123803887069 -0.00054193534844706299 0 -0.0024010648626971863 -0.00036692276441368442 0 -0.0024656123803887069 -0.00054193534844706299 0 -0.0024503605464316798 -0.00059300171492881191 0 -0.0018617713346925466 -0.0001475512082785896 0 -0.0018774753030999017 9.9243466179773981e-06 0 -0.0016032754370157039 0.00027168884146576053 0 -0.0015583315074060645 0.0002708526212066738 0 -0.0015548448589321965 0.00033395876755257139 0 -0.0015583315074060645 0.0002708526212066738 0 -0.0015548448589321965 0.00033395876755257139 0 -0.0015292772362676015 0.00029214019164663745 0 -0.0018774753030999017 9.9243466179773981e-06 0 -0.0018936589302134023 -4.9340946945008018e-06 0 -0.0024010648626971863 -0.00036692276441368442 0 -0.0024503605464316798 -0.00059300171492881191 0 -0.0021673031188270274 -0.00026665402183820584 0 -0.0015583315074060645 0.0002708526212066738 0 -0.0015292772362676015 0.00029214019164663745 0 -0.001533080918627322 0.00025011491015386396 0 -0.0024010648626971863 -0.00036692276441368442 0 -0.0021673031188270274 -0.00026665402183820584 0 -0.0023464294144710613 -0.00025157535360473694 0 -0.0021673031188270274 -0.00026665402183820584 0 -0.0023464294144710613 -0.00025157535360473694 0 -0.002417956858128728 -0.00010758363629105019 0 -0.0021673031188270274 -0.00026665402183820584 0 -0.0022796688650325355 5.4441219577843134e-05 0 -0.0018607736841589082 7.8540675198166099e-05 0 -0.0021673031188270274 -0.00026665402183820584 0 -0.0022796688650325355 5.4441219577843134e-05 0 -0.002417956858128728 -0.00010758363629105019 0 -0.0027143529941418649 0.00017820266179213002 0 -0.0025614319644298145 -0.00026972329240358873 0 -0.0025260779160502845 -2.8808377527706117e-06 0 -0.0038527666394171556 7.0984024717644865e-05 0 -0.0025464660881764942 -0.00018410018123305729 0 -0.0025112028165190977 -0.00023351316539294595 0 -0.002417956858128728 -0.00010758363629105019 0 -0.0025260779160502845 -2.8808377527706117e-06 0 -0.0022796688650325355 5.4441219577843134e-05 0 -0.002417956858128728 -0.00010758363629105019 0 -0.0025260779160502845 -2.8808377527706117e-06 0 -0.0027143529941418649 0.00017820266179213002 0 -0.0025260779160502845 -2.8808377527706117e-06 0 -0.0024628439329703279 0.00020971672362702569 0 -0.0022796688650325355 5.4441219577843134e-05 0 -0.0025260779160502845 -2.8808377527706117e-06 0 -0.0024628439329703279 0.00020971672362702569 0 -0.0025289091603424197 0.00045140015039526934 0 -0.0024628439329703279 0.00020971672362702569 0 -0.0021861783737121719 0.00036217651017500659 0 -0.0025289091603424197 0.00045140015039526934 0 -0.0027143529941418649 0.00017820266179213002 0 -0.0024628439329703279 0.00020971672362702569 0 -0.0032292199296323327 0.00029748507081953199 0 -0.0038527666394171556 7.0984024717644865e-05 0 -0.0022796688650325355 5.4441219577843134e-05 0 -0.0024628439329703279 0.00020971672362702569 0 -0.0021861783737121719 0.00036217651017500659 0 -0.0022796688650325355 5.4441219577843134e-05 0 -0.0021861783737121719 0.00036217651017500659 0 -0.0018607736841589082 7.8540675198166099e-05 0 -0.0021861783737121719 0.00036217651017500659 0 -0.0018615238726189423 0.000384627584422961 0 -0.0018607736841589082 7.8540675198166099e-05 0 -0.0015320209861276581 0.00044875366565479965 0 -0.0018615238726189423 0.000384627584422961 0 -0.0018607736841589082 7.8540675198166099e-05 0 -0.0015320209861276581 0.00044875366565479965 0 -0.0015243585732211398 0.00043326222389187033 0 -0.0015150652358390079 0.00039406669254277442 0 -0.0015398732951464279 0.00043433441105116043 0 -0.0016786170113759445 0.00025073491109171083 0 -0.0014764963931582888 0.00038597031292807757 0 -0.0015150652358390079 0.00039406669254277442 0 -0.0014966179926269791 0.00035256306456977511 0 -0.0015243585732211398 0.00043326222389187033 0 -0.0014764963931582888 0.00038597031292807757 0 -0.0015150652358390079 0.00039406669254277442 0 -0.0018936589302134023 -4.9340946945008018e-06 0 -0.0016786170113759445 0.00025073491109171083 0 -0.0015548448589321965 0.00033395876755257139 0 -0.0015150652358390079 0.00039406669254277442 0 -0.0014966179926269791 0.00035256306456977511 0 -0.0015548448589321965 0.00033395876755257139 0 -0.001502065687084584 0.00031411120505566272 0 -0.0014966179926269791 0.00035256306456977511 0 -0.0015548448589321965 0.00033395876755257139 0 -0.0015292772362676015 0.00029214019164663745 0 -0.001502065687084584 0.00031411120505566272 0 -0.0015292772362676015 0.00029214019164663745 0 -0.001502065687084584 0.00031411120505566272 0 -0.0014993804897051588 0.00025942645698882237 0 -0.001502065687084584 0.00031411120505566272 0 -0.0014626206439471994 0.00027478239485760511 0 -0.0014993804897051588 0.00025942645698882237 0 -0.001502065687084584 0.00031411120505566272 0 -0.0014626206439471994 0.00027478239485760511 0 -0.0014405025879862198 0.00031549135953989909 0 -0.001502065687084584 0.00031411120505566272 0 -0.0014966179926269791 0.00035256306456977511 0 -0.0014405025879862198 0.00031549135953989909 0 -0.0014764963931582888 0.00038597031292807757 0 -0.0014966179926269791 0.00035256306456977511 0 -0.0014405025879862198 0.00031549135953989909 0 -0.0014764963931582888 0.00038597031292807757 0 -0.0014405025879862198 0.00031549135953989909 0 -0.0013988368067397957 0.0003838184214447147 0 -0.0014405025879862198 0.00031549135953989909 0 -0.0013801737858836847 0.00032283080452504481 0 -0.0013988368067397957 0.0003838184214447147 0 -0.0014626206439471994 0.00027478239485760511 0 -0.0014405025879862198 0.00031549135953989909 0 -0.0014102118274683542 0.00024307558600947021 0 -0.0014405025879862198 0.00031549135953989909 0 -0.0013589474071114347 0.0002748121719593409 0 -0.0014102118274683542 0.00024307558600947021 0 -0.0014405025879862198 0.00031549135953989909 0 -0.0013589474071114347 0.0002748121719593409 0 -0.0013801737858836847 0.00032283080452504481 0 -0.0013589474071114347 0.0002748121719593409 0 -0.0013801737858836847 0.00032283080452504481 0 -0.0013123989972912602 0.0003124629266590383 0 -0.0013801737858836847 0.00032283080452504481 0 -0.0013988368067397957 0.0003838184214447147 0 -0.0013123989972912602 0.0003124629266590383 0 -0.001426131889619345 0.00036967578595463999 0 -0.0013400907778091742 0.00030176882969970624 0 -0.0015243585732211398 0.00043326222389187033 0 -0.0014764963931582888 0.00038597031292807757 0 -0.0013988368067397957 0.0003838184214447147 0 -0.0015157822816447614 0.00043064376026108188 0 -0.001426131889619345 0.00036967578595463999 0 -0.0015036628249284856 0.00050237323745530766 0 -0.0014816822355424185 0.00042681302327690705 0 -0.0014283297130460249 0.00044766895712275608 0 -0.0015243585732211398 0.00043326222389187033 0 -0.0014508725100676647 0.00035808004836817469 0 -0.0014816822355424185 0.00042681302327690705 0 -0.0015320209861276581 0.00044875366565479965 0 -0.0015243585732211398 0.00043326222389187033 0 -0.0014816822355424185 0.00042681302327690705 0 -0.0014508725100676647 0.00035808004836817469 0 -0.0014816822355424185 0.00042681302327690705 0 -0.0014283297130460249 0.00044766895712275608 0 -0.0014508725100676647 0.00035808004836817469 0 -0.0014283297130460249 0.00044766895712275608 0 -0.0013553401110669582 0.00039917969045212982 0 -0.0040387917032931918 -7.5578795265633478e-08 0 -0.0040168678666786676 9.4013982848087865e-06 0 -0.0033516059920537852 7.6299054434230049e-08 0 -0.0037394606823285773 6.8915796610660655e-05 0 -0.0035101113907500736 5.9034866648639942e-05 0 -0.003599864030957637 5.1832453331672237e-05 0 -0.0037760186060774312 7.5312944035495162e-05 0 -0.0033934340015910635 4.1484623591084313e-05 0 -0.0037668258221494103 7.660729185406699e-05 0 -0.0037394606823285773 6.8915796610660655e-05 0 -0.003599864030957637 5.1832453331672237e-05 0 -0.0037668258221494103 7.660729185406699e-05 0 -0.003599864030957637 5.1832453331672237e-05 0 -0.0036927123854670002 4.4818811809303798e-05 0 -0.003771208549949205 7.2544994717929569e-05 0 -0.0037760186060774312 7.5312944035495162e-05 0 -0.0037760186060774312 7.5312944035495162e-05 0 -0.003874428556214986 4.1186188481742233e-05 0 -0.004399049705457442 9.3129711545310894e-05 0 -0.0044105221717888731 6.9419385581864947e-05 0 -0.0043947231264731823 9.8395249903453436e-05 0 -0.003334767899176163 2.6867403127482564e-06 0 -0.0033632522192047517 4.3555895480153793e-05 0 -0.0033381083070626308 3.8102812819305937e-05 0 -0.0033632522192047517 4.3555895480153793e-05 0 -0.0033381083070626308 3.8102812819305937e-05 0 -0.0033428214341588098 7.0561316424208332e-05 0 -0.003334767899176163 2.6867403127482564e-06 0 -0.0033381083070626308 3.8102812819305937e-05 0 -0.0033114732931783662 3.7881440540986603e-05 0 -0.0033381083070626308 3.8102812819305937e-05 0 -0.0033114732931783662 3.7881440540986603e-05 0 -0.0033428214341588098 7.0561316424208332e-05 0 -0.0032653128454168436 1.7613439325362146e-05 0 -0.0033516059920537852 7.6299054434230049e-08 0 -0.0028948583776110056 7.5994598609721824e-06 0 -0.0035101113907500736 5.9034866648639942e-05 0 -0.0032653128454168436 1.7613439325362146e-05 0 -0.003599864030957637 5.1832453331672237e-05 0 -0.0035101113907500736 5.9034866648639942e-05 0 -0.0032653128454168436 1.7613439325362146e-05 0 -0.0032343720176480528 3.751811098236747e-05 0 -0.0032653128454168436 1.7613439325362146e-05 0 -0.0033516059920537852 7.6299054434230049e-08 0 -0.003599864030957637 5.1832453331672237e-05 0 -0.0033516059920537852 7.6299054434230049e-08 0 -0.003599864030957637 5.1832453331672237e-05 0 -0.0036927123854670002 4.4818811809303798e-05 0 -0.0033516059920537852 7.6299054434230049e-08 0 -0.0036927123854670002 4.4818811809303798e-05 0 -0.0038587180368646859 3.3740273120876025e-05 0 -0.0040168678666786676 9.4013982848087865e-06 0 -0.0033516059920537852 7.6299054434230049e-08 0 -0.0038587180368646859 3.3740273120876025e-05 0 -0.0043193501429662894 5.8463726133799945e-05 0 -0.0040168678666786676 9.4013982848087865e-06 0 -0.0040414608777453957 7.1972444951063063e-05 0 -0.0040168678666786676 9.4013982848087865e-06 0 -0.0038587180368646859 3.3740273120876025e-05 0 -0.0040414608777453957 7.1972444951063063e-05 0 -0.0038587180368646859 3.3740273120876025e-05 0 -0.0038423168295392881 5.9991461731983074e-05 0 -0.0040414608777453957 7.1972444951063063e-05 0 -0.0036927123854670002 4.4818811809303798e-05 0 -0.0038587180368646859 3.3740273120876025e-05 0 -0.0038423168295392881 5.9991461731983074e-05 0 -0.0037804982655638654 9.2363682580424376e-05 0 -0.0038423168295392881 5.9991461731983074e-05 0 -0.0040414608777453957 7.1972444951063063e-05 0 -0.0037668258221494103 7.660729185406699e-05 0 -0.0037804982655638654 9.2363682580424376e-05 0 -0.0038423168295392881 5.9991461731983074e-05 0 -0.0037668258221494103 7.660729185406699e-05 0 -0.0036927123854670002 4.4818811809303798e-05 0 -0.0038423168295392881 5.9991461731983074e-05 0 -0.0037760186060774312 7.5312944035495162e-05 0 -0.0042497978969467613 5.5569345371747683e-05 0 -0.004399049705457442 9.3129711545310894e-05 0 -0.004378815810992703 0.00010071836697364718 0 -0.0043947231264731823 9.8395249903453436e-05 0 -0.004378815810992703 0.00010071836697364718 0 -0.0043842439335930227 9.791527273943229e-05 0 -0.0043947231264731823 9.8395249903453436e-05 0 -0.0042986893650973504 4.6776789226453681e-05 0 -0.0042497978969467613 5.5569345371747683e-05 0 -0.0043193501429662894 5.8463726133799945e-05 0 -0.004378815810992703 0.00010071836697364718 0 -0.0043842439335930227 9.791527273943229e-05 0 -0.0044559174082461159 8.0338953844841696e-05 0 -0.0043193501429662894 5.8463726133799945e-05 0 -0.0043842439335930227 9.791527273943229e-05 0 -0.0044559174082461159 8.0338953844841696e-05 0 -0.0043842439335930227 9.791527273943229e-05 0 -0.0044261533938711644 9.7929789556950016e-05 0 -0.0044990242770924669 7.7894849240336646e-05 0 -0.0044559174082461159 8.0338953844841696e-05 0 -0.0044261533938711644 9.7929789556950016e-05 0 -0.0044261533938711644 9.7929789556950016e-05 0 -0.0044404020827216876 8.7807798651101573e-05 0 -0.0044005624293305783 9.6521349598521932e-05 0 -0.0044261533938711644 9.7929789556950016e-05 0 -0.0043947231264731823 9.8395249903453436e-05 0 -0.0044005624293305783 9.6521349598521932e-05 0 -0.0043842439335930227 9.791527273943229e-05 0 -0.0044261533938711644 9.7929789556950016e-05 0 -0.0043947231264731823 9.8395249903453436e-05 0 -0.0045533702033303328 8.1437291281058992e-05 0 -0.0045009648359823776 5.0951996200068679e-05 0 -0.0045042269586383545 6.5959666826796631e-05 0 -0.0045009648359823776 5.0951996200068679e-05 0 -0.0045042269586383545 6.5959666826796631e-05 0 -0.0044741390974267067 7.086181268285684e-05 0 -0.0045042269586383545 6.5959666826796631e-05 0 -0.0044404020827216876 8.7807798651101573e-05 0 -0.0044741390974267067 7.086181268285684e-05 0 -0.0044990242770924669 7.7894849240336646e-05 0 -0.0045042269586383545 6.5959666826796631e-05 0 -0.0044404020827216876 8.7807798651101573e-05 0 -0.0044990242770924669 7.7894849240336646e-05 0 -0.0044261533938711644 9.7929789556950016e-05 0 -0.0044404020827216876 8.7807798651101573e-05 0 -0.0044404020827216876 8.7807798651101573e-05 0 -0.0044356452409613067 8.3307798812271749e-05 0 -0.0043518038359798006 9.3245145371591534e-05 0 -0.0045009648359823776 5.0951996200068679e-05 0 -0.0044829154435141174 8.2560865187138738e-05 0 -0.0044741390974267067 7.086181268285684e-05 0 -0.0044404020827216876 8.7807798651101573e-05 0 -0.0044356452409613067 8.3307798812271749e-05 0 -0.0044741390974267067 7.086181268285684e-05 0 -0.0044356452409613067 8.3307798812271749e-05 0 -0.0044829154435141174 8.2560865187138738e-05 0 -0.0044741390974267067 7.086181268285684e-05 0 -0.0043514868474253858 9.9646131844966505e-05 0 -0.0043598519846766454 8.954890609785551e-05 0 -0.0042174348951055721 7.7973171971387848e-05 0 -0.0042212966350915525 0.00013018869179314509 0 -0.0043518038359798006 9.3245145371591534e-05 0 -0.0044356452409613067 8.3307798812271749e-05 0 -0.0044829154435141174 8.2560865187138738e-05 0 -0.0043518038359798006 9.3245145371591534e-05 0 -0.0044404020827216876 8.7807798651101573e-05 0 -0.0043518038359798006 9.3245145371591534e-05 0 -0.0044005624293305783 9.6521349598521932e-05 0 -0.0043518038359798006 9.3245145371591534e-05 0 -0.0044005624293305783 9.6521349598521932e-05 0 -0.0043787143345686268 6.8017270369284235e-05 0 -0.0043518038359798006 9.3245145371591534e-05 0 -0.0043269364965312258 3.5293747015084219e-05 0 -0.0042618477502154618 3.6373114789211433e-05 0 -0.0043518038359798006 9.3245145371591534e-05 0 -0.0043269364965312258 3.5293747015084219e-05 0 -0.0043787143345686268 6.8017270369284235e-05 0 -0.0042174348951055721 7.7973171971387848e-05 0 -0.0043518038359798006 9.3245145371591534e-05 0 -0.0042618477502154618 3.6373114789211433e-05 0 -0.0043947231264731823 9.8395249903453436e-05 0 -0.0044005624293305783 9.6521349598521932e-05 0 -0.0043966334936317315 8.0891406054665459e-05 0 -0.0044105221717888731 6.9419385581864947e-05 0 -0.0043947231264731823 9.8395249903453436e-05 0 -0.0043966334936317315 8.0891406054665459e-05 0 -0.0044005624293305783 9.6521349598521932e-05 0 -0.0043787143345686268 6.8017270369284235e-05 0 -0.0043966334936317315 8.0891406054665459e-05 0 -0.0043787143345686268 6.8017270369284235e-05 0 -0.0043927167712411426 5.089154172877177e-05 0 -0.0043966334936317315 8.0891406054665459e-05 0 -0.0043269364965312258 3.5293747015084219e-05 0 -0.0043787143345686268 6.8017270369284235e-05 0 -0.0043688449410314344 2.3312191053281993e-05 0 -0.0043787143345686268 6.8017270369284235e-05 0 -0.0043927167712411426 5.089154172877177e-05 0 -0.0043688449410314344 2.3312191053281993e-05 0 -0.0044105221717888731 6.9419385581864947e-05 0 -0.0043927167712411426 5.089154172877177e-05 0 -0.0043966334936317315 8.0891406054665459e-05 0 -0.0033632522192047517 4.3555895480153793e-05 0 -0.003372131396883667 7.611198289616446e-05 0 -0.0033826484402763768 8.2149962448196595e-05 0 -0.0044105221717888731 6.9419385581864947e-05 0 -0.0043927167712411426 5.089154172877177e-05 0 -0.0043990194204907677 -1.5762180939514635e-07 0 -0.003874428556214986 4.1186188481742233e-05 0 -0.0040315101372223761 7.3503605631663015e-05 0 -0.0043927167712411426 5.089154172877177e-05 0 -0.0043990194204907677 -1.5762180939514635e-07 0 -0.0043688449410314344 2.3312191053281993e-05 0 -0.0043688449410314344 2.3312191053281993e-05 0 -0.004360414457192846 -7.477924711136991e-06 0 -0.0043293082892792217 -1.0072083338561251e-05 0 -0.0043990194204907677 -1.5762180939514635e-07 0 -0.0043688449410314344 2.3312191053281993e-05 0 -0.004360414457192846 -7.477924711136991e-06 0 -0.0043990194204907677 -1.5762180939514635e-07 0 -0.0043440866038544001 -4.3786472160809993e-05 0 -0.0043334143964648452 -9.4205714610538939e-05 0 -0.0040315101372223761 7.3503605631663015e-05 0 -0.0029308516513323036 9.2908453433898609e-05 0 -0.0033826484402763768 8.2149962448196595e-05 0 -0.003381355311511213 0.00010739647511355929 0 -0.0034008623675144396 0.00011910930120154072 0 -0.0043990194204907677 -1.5762180939514635e-07 0 -0.004360414457192846 -7.477924711136991e-06 0 -0.0043440866038544001 -4.3786472160809993e-05 0 -0.004360414457192846 -7.477924711136991e-06 0 -0.0043440866038544001 -4.3786472160809993e-05 0 -0.0043293082892792217 -1.0072083338561251e-05 0 -0.003381355311511213 0.00010739647511355929 0 -0.0033615766455474903 0.00010001441159128697 0 -0.0033581408203731634 0.00012021214950608169 0 -0.003381355311511213 0.00010739647511355929 0 -0.0033581408203731634 0.00012021214950608169 0 -0.0033945761144773693 0.00011874663596340832 0 -0.003372131396883667 7.611198289616446e-05 0 -0.0033826484402763768 8.2149962448196595e-05 0 -0.0033615766455474903 0.00010001441159128697 0 -0.0033826484402763768 8.2149962448196595e-05 0 -0.003381355311511213 0.00010739647511355929 0 -0.0033615766455474903 0.00010001441159128697 0 -0.0041868406109586594 1.1054305126084858e-05 0 -0.0042618477502154618 3.6373114789211433e-05 0 -0.0042332214947301897 -1.1236955470087895e-05 0 -0.0043269364965312258 3.5293747015084219e-05 0 -0.0042618477502154618 3.6373114789211433e-05 0 -0.0042332214947301897 -1.1236955470087895e-05 0 -0.0043269364965312258 3.5293747015084219e-05 0 -0.0042332214947301897 -1.1236955470087895e-05 0 -0.0043293082892792217 -1.0072083338561251e-05 0 -0.0043269364965312258 3.5293747015084219e-05 0 -0.0043688449410314344 2.3312191053281993e-05 0 -0.0043293082892792217 -1.0072083338561251e-05 0 -0.0042995519274189823 -5.7739198022079207e-05 0 -0.0042551874482872013 -9.3274350837811062e-05 0 -0.0043334143964648452 -9.4205714610538939e-05 0 -0.0042332214947301897 -1.1236955470087895e-05 0 -0.0043293082892792217 -1.0072083338561251e-05 0 -0.0042995519274189823 -5.7739198022079207e-05 0 -0.0043440866038544001 -4.3786472160809993e-05 0 -0.0043293082892792217 -1.0072083338561251e-05 0 -0.0042995519274189823 -5.7739198022079207e-05 0 -0.0043440866038544001 -4.3786472160809993e-05 0 -0.0042995519274189823 -5.7739198022079207e-05 0 -0.0043334143964648452 -9.4205714610538939e-05 0 -0.0043131387483844605 -3.6244254146927747e-05 0 -0.0036756676023215118 -0.00011741676212268289 0 -0.0042332214947301897 -1.1236955470087895e-05 0 -0.0042995519274189823 -5.7739198022079207e-05 0 -0.0042551874482872013 -9.3274350837811062e-05 0 -0.0041205235697440064 -5.6314325622544509e-05 0 -0.0042332214947301897 -1.1236955470087895e-05 0 -0.0042189583310010157 -7.5419996627623952e-05 0 -0.0041205235697440064 -5.6314325622544509e-05 0 -0.0040297714526360611 1.891440864853603e-06 0 -0.0039028442574350992 -8.1846954722358396e-05 0 -0.004251192746528209 -6.626161686164394e-05 0 -0.0036756676023215118 -0.00011741676212268289 0 -0.0039530953622897479 4.4292009248714921e-05 0 -0.0039028442574350992 -8.1846954722358396e-05 0 -0.003826176726707041 0.00015993658940024655 0 -0.0039530953622897479 4.4292009248714921e-05 0 -0.0040297714526360611 1.891440864853603e-06 0 -0.0039028442574350992 -8.1846954722358396e-05 0 -0.0040330309913363289 7.20210304864957e-05 0 -0.0039530953622897479 4.4292009248714921e-05 0 -0.0040297714526360611 1.891440864853603e-06 0 -0.0021922276195828088 1.8797058539931081e-05 0 -0.0021898098956381396 2.0823485786739279e-05 0 -0.0022263552625987767 4.061417482507554e-05 0 -0.0021898098956381396 2.0823485786739279e-05 0 -0.0021541426806194102 3.3795355336386845e-05 0 -0.0021657133312193645 4.0829624918164753e-05 0 -0.0019601783924036963 -1.5059099413581367e-05 0 -0.0029308516513323036 9.2908453433898609e-05 0 -0.0036756676023215118 -0.00011741676212268289 0 -0.0028713857587188939 5.5403534051444355e-05 0 -0.0036756676023215118 -0.00011741676212268289 0 -0.0029308516513323036 9.2908453433898609e-05 0 -0.0021922276195828088 1.8797058539931081e-05 0 -0.0021898098956381396 2.0823485786739279e-05 0 -0.0021657133312193645 4.0829624918164753e-05 0 -0.0021898098956381396 2.0823485786739279e-05 0 -0.0021626723002763685 2.5370132990255855e-05 0 -0.0021531031180667278 1.1174684705440973e-05 0 -0.0021626723002763685 2.5370132990255855e-05 0 -0.0021533785340562663 2.2479578485369734e-05 0 -0.0021497396621992103 2.9956117517036927e-05 0 -0.0024218406554777469 -0.00014525552963494284 0 -0.0029308516513323036 9.2908453433898609e-05 0 -0.0021626723002763685 2.5370132990255855e-05 0 -0.0021541426806194102 3.3795355336386845e-05 0 -0.0021497396621992103 2.9956117517036927e-05 0 -0.0021898098956381396 2.0823485786739279e-05 0 -0.0021626723002763685 2.5370132990255855e-05 0 -0.0021541426806194102 3.3795355336386845e-05 0 -0.0021541426806194102 3.3795355336386845e-05 0 -0.0021657133312193645 4.0829624918164753e-05 0 -0.0021423146561818352 3.6540571303633876e-05 0 -0.0040981326317745944 0.00012132150974255485 0 -0.0039483605485212238 0.00016166246214208068 0 -0.0039103618572224981 0.00032961043064846284 0 -0.0039530953622897479 4.4292009248714921e-05 0 -0.0037835121258531705 0.00016003676452958359 0 -0.0039483605485212238 0.00016166246214208068 0 -0.0040434841612984659 -9.2346077520573714e-05 0 -0.0028713857587188939 5.5403534051444355e-05 0 -0.0037835121258531705 0.00016003676452958359 0 -0.0039483605485212238 0.00016166246214208068 0 -0.0038603659842249283 0.00024308597861295457 0 -0.0040330309913363289 7.20210304864957e-05 0 -0.0040981326317745944 0.00012132150974255485 0 -0.0039483605485212238 0.00016166246214208068 0 -0.0040330309913363289 7.20210304864957e-05 0 -0.0039530953622897479 4.4292009248714921e-05 0 -0.0039483605485212238 0.00016166246214208068 0 -0.0022794286693655756 6.6133683358505306e-05 0 -0.0022884624107382869 9.192460695720285e-05 0 -0.0024860224132036389 7.5182632361534067e-05 0 -0.0021356620946253687 4.2212874207444189e-05 0 -0.0021306405708909231 5.3598947704481688e-05 0 -0.0021459226774620871 2.5699698980605335e-05 0 -0.0021373159219178115 7.2739265896503785e-05 0 -0.0026912949504162139 9.1452396684114259e-05 0 -0.0028446239540194304 9.633730579239234e-05 0 -0.0026912949504162139 9.1452396684114259e-05 0 -0.0021342074100323119 4.0450746534101979e-05 0 -0.0021337401228413953 4.4531328327541246e-05 0 -0.0021329541083249604 4.5286825365148832e-05 0 -0.0021356620946253687 4.2212874207444189e-05 0 -0.0021337401228413953 4.4531328327541246e-05 0 -0.0021327947915258751 4.9815780090828058e-05 0 -0.0021356620946253687 4.2212874207444189e-05 0 -0.0021342074100323119 4.0450746534101979e-05 0 -0.0021337401228413953 4.4531328327541246e-05 0 -0.0021337401228413953 4.4531328327541246e-05 0 -0.0021329541083249604 4.5286825365148832e-05 0 -0.0021327947915258751 4.9815780090828058e-05 0 -0.0021329541083249604 4.5286825365148832e-05 0 -0.0021354392058220693 4.9053196219547249e-05 0 -0.0021327947915258751 4.9815780090828058e-05 0 -0.0021354392058220693 4.9053196219547249e-05 0 -0.0021327947915258751 4.9815780090828058e-05 0 -0.002138014348740887 5.4787836946940005e-05 0 -0.0021363188756308464 5.5334343744465098e-05 0 -0.0021327947915258751 4.9815780090828058e-05 0 -0.002138014348740887 5.4787836946940005e-05 0 -0.0021363188756308464 5.5334343744465098e-05 0 -0.0021327947915258751 4.9815780090828058e-05 0 -0.0021306405708909231 5.3598947704481688e-05 0 -0.0021363188756308464 5.5334343744465098e-05 0 -0.0021306405708909231 5.3598947704481688e-05 0 -0.0021470592143429876 6.4532852124923071e-05 0 -0.0021356620946253687 4.2212874207444189e-05 0 -0.0021327947915258751 4.9815780090828058e-05 0 -0.0021306405708909231 5.3598947704481688e-05 0 -0.0021356620946253687 4.2212874207444189e-05 0 -0.0021459226774620871 2.5699698980605335e-05 0 -0.0021409611930768694 3.5344410574477126e-05 0 -0.003381355311511213 0.00010739647511355929 0 -0.0034008623675144396 0.00011910930120154072 0 -0.0033945761144773693 0.00011874663596340832 0 -0.0029308516513323036 9.2908453433898609e-05 0 -0.0026912949504162139 9.1452396684114259e-05 0 -0.0021459226774620871 2.5699698980605335e-05 0 -0.0021497396621992103 2.9956117517036927e-05 0 -0.0021409611930768694 3.5344410574477126e-05 0 -0.0021533785340562663 2.2479578485369734e-05 0 -0.0021459226774620871 2.5699698980605335e-05 0 -0.0021497396621992103 2.9956117517036927e-05 0 -0.0021541426806194102 3.3795355336386845e-05 0 -0.0021497396621992103 2.9956117517036927e-05 0 -0.0021431998434048899 3.5218681840716484e-05 0 -0.0021497396621992103 2.9956117517036927e-05 0 -0.0021431998434048899 3.5218681840716484e-05 0 -0.0021409611930768694 3.5344410574477126e-05 0 -0.0021342074100323119 4.0450746534101979e-05 0 -0.0021431998434048899 3.5218681840716484e-05 0 -0.0021409611930768694 3.5344410574477126e-05 0 -0.0021356620946253687 4.2212874207444189e-05 0 -0.0021342074100323119 4.0450746534101979e-05 0 -0.0021409611930768694 3.5344410574477126e-05 0 -0.0021342074100323119 4.0450746534101979e-05 0 -0.0021431998434048899 3.5218681840716484e-05 0 -0.0021383586865188556 3.6581052821560413e-05 0 -0.0021342074100323119 4.0450746534101979e-05 0 -0.0021383586865188556 3.6581052821560413e-05 0 -0.0021324745936733423 3.6905033553401438e-05 0 -0.0021541426806194102 3.3795355336386845e-05 0 -0.0021431998434048899 3.5218681840716484e-05 0 -0.0021383586865188556 3.6581052821560413e-05 0 -0.0021541426806194102 3.3795355336386845e-05 0 -0.0021383586865188556 3.6581052821560413e-05 0 -0.0021423146561818352 3.6540571303633876e-05 0 -0.0021383586865188556 3.6581052821560413e-05 0 -0.0021423146561818352 3.6540571303633876e-05 0 -0.0021308065941863207 3.3738260550020674e-05 0 -0.0021383586865188556 3.6581052821560413e-05 0 -0.0021324745936733423 3.6905033553401438e-05 0 -0.0021308065941863207 3.3738260550020674e-05 0 -0.0021324745936733423 3.6905033553401438e-05 0 -0.0021296278848194458 3.3517451963314787e-05 0 -0.0021308065941863207 3.3738260550020674e-05 0 -0.0021324745936733423 3.6905033553401438e-05 0 -0.0021296278848194458 3.3517451963314787e-05 0 -0.0021314698841640397 3.9692961082206283e-05 0 -0.0021296278848194458 3.3517451963314787e-05 0 -0.0021314698841640397 3.9692961082206283e-05 0 -0.0021305193025198152 3.4649080210529346e-05 0 -0.0021342074100323119 4.0450746534101979e-05 0 -0.0021324745936733423 3.6905033553401438e-05 0 -0.0021314698841640397 3.9692961082206283e-05 0 -0.0021342074100323119 4.0450746534101979e-05 0 -0.0021329541083249604 4.5286825365148832e-05 0 -0.0021314698841640397 3.9692961082206283e-05 0 -0.0021314698841640397 3.9692961082206283e-05 0 -0.0021344468596701544 4.4070812005783966e-05 0 -0.0021305193025198152 3.4649080210529346e-05 0 -0.0021329541083249604 4.5286825365148832e-05 0 -0.0021314698841640397 3.9692961082206283e-05 0 -0.0021344468596701544 4.4070812005783966e-05 0 -0.0021329541083249604 4.5286825365148832e-05 0 -0.0021354392058220693 4.9053196219547249e-05 0 -0.0021344468596701544 4.4070812005783966e-05 0 -0.0021344468596701544 4.4070812005783966e-05 0 -0.0021305193025198152 3.4649080210529346e-05 0 -0.002137428512505295 4.1818505432903645e-05 0 -0.002137428512505295 4.1818505432903645e-05 0 -0.0021454459189676604 4.4983490531958443e-05 0 -0.0021339864674707883 2.7833126640182816e-05 0 -0.0021305193025198152 3.4649080210529346e-05 0 -0.002137428512505295 4.1818505432903645e-05 0 -0.0021339864674707883 2.7833126640182816e-05 0 -0.0021454459189676604 4.4983490531958443e-05 0 -0.0021664429875959865 6.3298521196633476e-05 0 -0.00214630660402889 2.5054133712196373e-05 0 -0.0021454459189676604 4.4983490531958443e-05 0 -0.0021339864674707883 2.7833126640182816e-05 0 -0.00214630660402889 2.5054133712196373e-05 0 -0.0021454459189676604 4.4983490531958443e-05 0 -0.0021419322113233503 5.3164350177102248e-05 0 -0.0021533500508128852 6.2910985860431437e-05 0 -0.0021454459189676604 4.4983490531958443e-05 0 -0.0021664429875959865 6.3298521196633476e-05 0 -0.0021533500508128852 6.2910985860431437e-05 0 -0.0021354392058220693 4.9053196219547249e-05 0 -0.0021344468596701544 4.4070812005783966e-05 0 -0.0021419322113233503 5.3164350177102248e-05 0 -0.0021344468596701544 4.4070812005783966e-05 0 -0.002137428512505295 4.1818505432903645e-05 0 -0.0021419322113233503 5.3164350177102248e-05 0 -0.002137428512505295 4.1818505432903645e-05 0 -0.0021454459189676604 4.4983490531958443e-05 0 -0.0021419322113233503 5.3164350177102248e-05 0 -0.0021664429875959865 6.3298521196633476e-05 0 -0.0022284687472517617 0.00011660551999761226 0 -0.0021767848639746563 2.0269482898667236e-05 0 -0.0021664429875959865 6.3298521196633476e-05 0 -0.00214630660402889 2.5054133712196373e-05 0 -0.0021767848639746563 2.0269482898667236e-05 0 -0.0028599286668345909 9.0545802792668464e-05 0 -0.0024172525026047152 5.5773639265907126e-05 0 -0.0021664429875959865 6.3298521196633476e-05 0 -0.0021689955060869202 8.8985930533033795e-05 0 -0.0022284687472517617 0.00011660551999761226 0 -0.0021689955060869202 8.8985930533033795e-05 0 -0.0021664722743430613 7.9144629183308237e-05 0 -0.0022284687472517617 0.00011660551999761226 0 -0.0021664429875959865 6.3298521196633476e-05 0 -0.0021689955060869202 8.8985930533033795e-05 0 -0.0021533500508128852 6.2910985860431437e-05 0 -0.0021373159219178115 7.2739265896503785e-05 0 -0.0022033558378902309 8.4044631257843534e-05 0 -0.0022794286693655756 6.6133683358505306e-05 0 -0.0022884624107382869 9.192460695720285e-05 0 -0.0021689955060869202 8.8985930533033795e-05 0 -0.0021306405708909231 5.3598947704481688e-05 0 -0.0021689955060869202 8.8985930533033795e-05 0 -0.0021470592143429876 6.4532852124923071e-05 0 -0.0022794286693655756 6.6133683358505306e-05 0 -0.0021689955060869202 8.8985930533033795e-05 0 -0.0021664722743430613 7.9144629183308237e-05 0 -0.0021363188756308464 5.5334343744465098e-05 0 -0.0021470592143429876 6.4532852124923071e-05 0 -0.002138014348740887 5.4787836946940005e-05 0 -0.0021354392058220693 4.9053196219547249e-05 0 -0.0021419322113233503 5.3164350177102248e-05 0 -0.002138014348740887 5.4787836946940005e-05 0 -0.0021419322113233503 5.3164350177102248e-05 0 -0.0021470592143429876 6.4532852124923071e-05 0 -0.002138014348740887 5.4787836946940005e-05 0 -0.0021419322113233503 5.3164350177102248e-05 0 -0.0021470592143429876 6.4532852124923071e-05 0 -0.0021533500508128852 6.2910985860431437e-05 0 -0.0021689955060869202 8.8985930533033795e-05 0 -0.0021470592143429876 6.4532852124923071e-05 0 -0.0021533500508128852 6.2910985860431437e-05 0 -0.0035419971602956239 5.4362565289785846e-05 0 -0.0028599286668345909 9.0545802792668464e-05 0 -0.003372131396883667 7.611198289616446e-05 0 -0.0033615766455474903 0.00010001441159128697 0 -0.0032942812117613407 0.00011433867217290267 0 -0.0033615766455474903 0.00010001441159128697 0 -0.0033581408203731634 0.00012021214950608169 0 -0.0032942812117613407 0.00011433867217290267 0 -0.0028446239540194304 9.633730579239234e-05 0 -0.0028599286668345909 9.0545802792668464e-05 0 -0.003372131396883667 7.611198289616446e-05 0 -0.0033374689105663594 0.00012131830880447934 0 -0.0033428214341588098 7.0561316424208332e-05 0 -0.0033374689105663594 0.00012131830880447934 0 -0.0033201937195601267 8.989612369341034e-05 0 -0.00326673631570108 0.00015380158422587705 0 -0.0033374689105663594 0.00012131830880447934 0 -0.0033201937195601267 8.989612369341034e-05 0 -0.0033428214341588098 7.0561316424208332e-05 0 -0.0028599286668345909 9.0545802792668464e-05 0 -0.0030335481794834334 7.2966739970053269e-05 0 -0.0033114732931783662 3.7881440540986603e-05 0 -0.0033201937195601267 8.989612369341034e-05 0 -0.0033428214341588098 7.0561316424208332e-05 0 -0.0033114732931783662 3.7881440540986603e-05 0 -0.0033201937195601267 8.989612369341034e-05 0 -0.0032800184536835061 6.8566469498619473e-05 0 -0.0033632522192047517 4.3555895480153793e-05 0 -0.003372131396883667 7.611198289616446e-05 0 -0.0033428214341588098 7.0561316424208332e-05 0 -0.0033516059920537852 7.6299054434230049e-08 0 -0.0028948583776110056 7.5994598609721824e-06 0 -0.0028603874760398233 2.0340349125958272e-07 0 -0.0032653128454168436 1.7613439325362146e-05 0 -0.0032343720176480528 3.751811098236747e-05 0 -0.0028948583776110056 7.5994598609721824e-06 0 -0.0035101113907500736 5.9034866648639942e-05 0 -0.0032800184536835061 6.8566469498619473e-05 0 -0.0032343720176480528 3.751811098236747e-05 0 -0.0033934340015910635 4.1484623591084313e-05 0 -0.0033151054273472835 6.175049447636156e-05 0 -0.0032800184536835061 6.8566469498619473e-05 0 -0.0032343720176480528 3.751811098236747e-05 0 -0.0031727723814740298 5.7554508449843472e-05 0 -0.0032800184536835061 6.8566469498619473e-05 0 -0.0031727723814740298 5.7554508449843472e-05 0 -0.00326673631570108 0.00015380158422587705 0 -0.0033201937195601267 8.989612369341034e-05 0 -0.0032800184536835061 6.8566469498619473e-05 0 -0.00326673631570108 0.00015380158422587705 0 -0.0032343720176480528 3.751811098236747e-05 0 -0.0031727723814740298 5.7554508449843472e-05 0 -0.0028948583776110056 7.5994598609721824e-06 0 -0.0030335481794834334 7.2966739970053269e-05 0 -0.0028963224911549754 2.5252838228023791e-05 0 -0.0031727723814740298 5.7554508449843472e-05 0 -0.00326673631570108 0.00015380158422587705 0 -0.0028948583776110056 7.5994598609721824e-06 0 -0.0027382990491330583 1.3987276920467021e-05 0 -0.0028948583776110056 7.5994598609721824e-06 0 -0.0027894471523001118 -1.3628547036646384e-05 0 -0.0028948583776110056 7.5994598609721824e-06 0 -0.0028603874760398233 2.0340349125958272e-07 0 -0.0027894471523001118 -1.3628547036646384e-05 0 -0.0028603874760398233 2.0340349125958272e-07 0 -0.0027894471523001118 -1.3628547036646384e-05 0 -0.0025098518269882192 -8.3806257708304907e-08 0 -0.0027894471523001118 -1.3628547036646384e-05 0 -0.0027479684472071042 -6.323182770030056e-06 0 -0.0025098518269882192 -8.3806257708304907e-08 0 -0.0027382990491330583 1.3987276920467021e-05 0 -0.0027894471523001118 -1.3628547036646384e-05 0 -0.0027479684472071042 -6.323182770030056e-06 0 -0.002717924632740917 1.2091959178440436e-05 0 -0.0027382990491330583 1.3987276920467021e-05 0 -0.0027479684472071042 -6.323182770030056e-06 0 -0.0022284687472517617 0.00011660551999761226 0 -0.002271506081396681 -1.4248092110563229e-05 0 -0.0021767848639746563 2.0269482898667236e-05 0 -0.0022284687472517617 0.00011660551999761226 0 -0.0025089557322084803 2.6623436883573113e-07 0 -0.002271506081396681 -1.4248092110563229e-05 0 -0.0024172525026047152 5.5773639265907126e-05 0 -0.00250967256444979 -5.3165311252734484e-08 0 -0.0025089557322084803 2.6623436883573113e-07 0 -0.002271506081396681 -1.4248092110563229e-05 0 -0.0022371041897630306 -1.6024377935278285e-07 0 -0.002271506081396681 -1.4248092110563229e-05 0 -0.0021631278606984391 -2.1358331874806253e-05 0 -0.0021767848639746563 2.0269482898667236e-05 0 -0.0021260193093885866 -2.5097302264689566e-05 0 -0.0021631278606984391 -2.1358331874806253e-05 0 -0.0021215341951305983 -2.4788450895953896e-05 0 -0.002271506081396681 -1.4248092110563229e-05 0 -0.0021260193093885866 -2.5097302264689566e-05 0 -0.0021631278606984391 -2.1358331874806253e-05 0 -0.002271506081396681 -1.4248092110563229e-05 0 -0.0021260193093885866 -2.5097302264689566e-05 0 -0.0022371041897630306 -1.6024377935278285e-07 0 -0.0021317447354193817 9.0932217253866548e-06 0 -0.0021253419900235286 5.0184935693529131e-06 0 -0.0021278053651936179 1.9137735812896392e-05 0 -0.0021339864674707883 2.7833126640182816e-05 0 -0.0021317447354193817 9.0932217253866548e-06 0 -0.0021278053651936179 1.9137735812896392e-05 0 -0.0021339864674707883 2.7833126640182816e-05 0 -0.00214630660402889 2.5054133712196373e-05 0 -0.0021317447354193817 9.0932217253866548e-06 0 -0.00214630660402889 2.5054133712196373e-05 0 -0.0021317447354193817 9.0932217253866548e-06 0 -0.0021404032790123752 -3.7302130786522659e-06 0 -0.00214630660402889 2.5054133712196373e-05 0 -0.0021404032790123752 -3.7302130786522659e-06 0 -0.0021767848639746563 2.0269482898667236e-05 0 -0.0021631278606984391 -2.1358331874806253e-05 0 -0.0021404032790123752 -3.7302130786522659e-06 0 -0.0021767848639746563 2.0269482898667236e-05 0 -0.0021631278606984391 -2.1358331874806253e-05 0 -0.0021404032790123752 -3.7302130786522659e-06 0 -0.0021215341951305983 -2.4788450895953896e-05 0 -0.0021215341951305983 -2.4788450895953896e-05 0 -0.0021236866977023166 -1.1397568592373149e-05 0 -0.0021059768708746804 -2.4638466335196692e-05 0 -0.0021404032790123752 -3.7302130786522659e-06 0 -0.0021215341951305983 -2.4788450895953896e-05 0 -0.0021236866977023166 -1.1397568592373149e-05 0 -0.0021317447354193817 9.0932217253866548e-06 0 -0.0021404032790123752 -3.7302130786522659e-06 0 -0.0021236866977023166 -1.1397568592373149e-05 0 -0.0021236866977023166 -1.1397568592373149e-05 0 -0.0021181192595032482 -1.2926790830961799e-05 0 -0.0021059768708746804 -2.4638466335196692e-05 0 -0.0021236866977023166 -1.1397568592373149e-05 0 -0.0021181192595032482 -1.2926790830961799e-05 0 -0.0021214460730016389 -3.2718296628323877e-06 0 -0.0021236866977023166 -1.1397568592373149e-05 0 -0.0021253419900235286 5.0184935693529131e-06 0 -0.0021214460730016389 -3.2718296628323877e-06 0 -0.0021317447354193817 9.0932217253866548e-06 0 -0.0021236866977023166 -1.1397568592373149e-05 0 -0.0021253419900235286 5.0184935693529131e-06 0 -0.0021181192595032482 -1.2926790830961799e-05 0 -0.0021138571045065235 -1.6672068144434786e-05 0 -0.0021180828543178238 -3.4068409363750518e-06 0 -0.0021181192595032482 -1.2926790830961799e-05 0 -0.0021138571045065235 -1.6672068144434786e-05 0 -0.0021059768708746804 -2.4638466335196692e-05 0 -0.0021138571045065235 -1.6672068144434786e-05 0 -0.0021059768708746804 -2.4638466335196692e-05 0 -0.002067516495254836 -1.9702163457960043e-05 0 -0.0021215341951305983 -2.4788450895953896e-05 0 -0.0021059768708746804 -2.4638466335196692e-05 0 -0.0020755041588626641 -2.9090336510093663e-05 0 -0.0021059768708746804 -2.4638466335196692e-05 0 -0.002067516495254836 -1.9702163457960043e-05 0 -0.0020755041588626641 -2.9090336510093663e-05 0 -0.0021138571045065235 -1.6672068144434786e-05 0 -0.002067516495254836 -1.9702163457960043e-05 0 -0.0020322369577113596 2.0438426980911951e-05 0 -0.001844478034897393 8.3624757041764547e-05 0 -0.0018136063385157009 7.2010476241311195e-05 0 -0.002067516495254836 -1.9702163457960043e-05 0 -0.0020755041588626641 -2.9090336510093663e-05 0 -0.0019959125597660238 -2.0965563400384654e-05 0 -0.002067516495254836 -1.9702163457960043e-05 0 -0.0019959125597660238 -2.0965563400384654e-05 0 -0.0020322369577113596 2.0438426980911951e-05 0 -0.0015822655636263203 0.000179784119265093 0 -0.0015743981602573962 0.00017800760912713937 0 -0.0016552148493329736 0.00017541598694536886 0 -0.0015393657182507967 0.00017917157560655504 0 -0.001522704261226229 0.00020336898886603734 0 -0.0015822655636263203 0.000179784119265093 0 -0.0015743981602573962 0.00017800760912713937 0 -0.0016031461540447027 0.00014707065367708592 0 -0.001491444579552537 0.0001872366312870883 0 -0.0014411439329445669 0.00012231915662616613 0 -0.0014121675831103146 0.0001792938789485822 0 -0.0021260193093885866 -2.5097302264689566e-05 0 -0.0022371041897630306 -1.6024377935278285e-07 0 -0.0020511645580079283 -2.2299002982106303e-05 0 -0.0022371041897630306 -1.6024377935278285e-07 0 -0.0020511645580079283 -2.2299002982106303e-05 0 -0.0019644770478412484 -9.4291066980837523e-09 0 -0.0021260193093885866 -2.5097302264689566e-05 0 -0.0021215341951305983 -2.4788450895953896e-05 0 -0.0020755041588626641 -2.9090336510093663e-05 0 -0.0021260193093885866 -2.5097302264689566e-05 0 -0.0020511645580079283 -2.2299002982106303e-05 0 -0.0020755041588626641 -2.9090336510093663e-05 0 -0.0020511645580079283 -2.2299002982106303e-05 0 -0.0020755041588626641 -2.9090336510093663e-05 0 -0.0019959125597660238 -2.0965563400384654e-05 0 -0.0019959125597660238 -2.0965563400384654e-05 0 -0.0018807530279613053 7.483998826429375e-06 0 -0.0020322369577113596 2.0438426980911951e-05 0 -0.0020511645580079283 -2.2299002982106303e-05 0 -0.0019959125597660238 -2.0965563400384654e-05 0 -0.001938367990385474 -7.5700445378729704e-06 0 -0.0019959125597660238 -2.0965563400384654e-05 0 -0.001938367990385474 -7.5700445378729704e-06 0 -0.0018807530279613053 7.483998826429375e-06 0 -0.001938367990385474 -7.5700445378729704e-06 0 -0.0019644770478412484 -9.4291066980837523e-09 0 -0.0018288228585494222 6.0635468183082089e-06 0 -0.0020511645580079283 -2.2299002982106303e-05 0 -0.001938367990385474 -7.5700445378729704e-06 0 -0.0019644770478412484 -9.4291066980837523e-09 0 -0.0018288228585494222 6.0635468183082089e-06 0 -0.0016920807928447238 4.9929569907323465e-08 0 -0.0017082023837946877 4.0549020745601093e-05 0 -0.0019644770478412484 -9.4291066980837523e-09 0 -0.0018288228585494222 6.0635468183082089e-06 0 -0.0016920807928447238 4.9929569907323465e-08 0 -0.001938367990385474 -7.5700445378729704e-06 0 -0.0018288228585494222 6.0635468183082089e-06 0 -0.0018807530279613053 7.483998826429375e-06 0 -0.0016920807928447238 4.9929569907323465e-08 0 -0.0017082023837946877 4.0549020745601093e-05 0 -0.0015805545178236573 -3.0394228762923141e-06 0 -0.0017082023837946877 4.0549020745601093e-05 0 -0.0016091261334230846 3.2574950467274706e-05 0 -0.0015722460151458594 -1.2711217742642275e-05 0 -0.0016091261334230846 3.2574950467274706e-05 0 -0.0015664561304152822 6.7103970869552939e-06 0 -0.0015722460151458594 -1.2711217742642275e-05 0 -0.0017082023837946877 4.0549020745601093e-05 0 -0.0015805545178236573 -3.0394228762923141e-06 0 -0.0015722460151458594 -1.2711217742642275e-05 0 -0.0017082023837946877 4.0549020745601093e-05 0 -0.0016091261334230846 3.2574950467274706e-05 0 -0.0016261908828177601 0.00010318900986685824 0 -0.0017366565699170338 4.6122722019254331e-05 0 -0.0018136063385157009 7.2010476241311195e-05 0 -0.0017082023837946877 4.0549020745601093e-05 0 -0.0018807530279613053 7.483998826429375e-06 0 -0.0020322369577113596 2.0438426980911951e-05 0 -0.0018288228585494222 6.0635468183082089e-06 0 -0.0017082023837946877 4.0549020745601093e-05 0 -0.0018807530279613053 7.483998826429375e-06 0 -0.0017082023837946877 4.0549020745601093e-05 0 -0.0016031461540447027 0.00014707065367708592 0 -0.0016261908828177601 0.00010318900986685824 0 -0.001491444579552537 0.0001872366312870883 0 -0.0016261908828177601 0.00010318900986685824 0 -0.0015123464048392627 0.00010330939134456584 0 -0.0015393657182507967 0.00017917157560655504 0 -0.0016214759620056928 0.00010863676514823214 0 -0.0016261908828177601 0.00010318900986685824 0 -0.0015123464048392627 0.00010330939134456584 0 -0.0015518465744982959 4.9514214143585609e-05 0 -0.0015743981602573962 0.00017800760912713937 0 -0.0016031461540447027 0.00014707065367708592 0 -0.0016261908828177601 0.00010318900986685824 0 -0.001491444579552537 0.0001872366312870883 0 -0.0014411439329445669 0.00012231915662616613 0 -0.0015123464048392627 0.00010330939134456584 0 -0.0014411439329445669 0.00012231915662616613 0 -0.0015123464048392627 0.00010330939134456584 0 -0.001469373069173183 5.2419617830097291e-05 0 -0.0015123464048392627 0.00010330939134456584 0 -0.001469373069173183 5.2419617830097291e-05 0 -0.0015518465744982959 4.9514214143585609e-05 0 -0.001469373069173183 5.2419617830097291e-05 0 -0.0015518465744982959 4.9514214143585609e-05 0 -0.0015158572452602795 4.0479337075529552e-06 0 -0.0016091261334230846 3.2574950467274706e-05 0 -0.0015518465744982959 4.9514214143585609e-05 0 -0.0015664561304152822 6.7103970869552939e-06 0 -0.0016091261334230846 3.2574950467274706e-05 0 -0.0016261908828177601 0.00010318900986685824 0 -0.0015518465744982959 4.9514214143585609e-05 0 -0.0015518465744982959 4.9514214143585609e-05 0 -0.0015664561304152822 6.7103970869552939e-06 0 -0.0015158572452602795 4.0479337075529552e-06 0 -0.0015664561304152822 6.7103970869552939e-06 0 -0.0015523138036782687 -3.3201562993261558e-05 0 -0.0015722460151458594 -1.2711217742642275e-05 0 -0.0015664561304152822 6.7103970869552939e-06 0 -0.0015523138036782687 -3.3201562993261558e-05 0 -0.0015158572452602795 4.0479337075529552e-06 0 -0.0015523138036782687 -3.3201562993261558e-05 0 -0.0015158572452602795 4.0479337075529552e-06 0 -0.0014025841182889996 -3.9760652350637544e-05 0 -0.0014649815141201043 -9.1154014870310751e-06 0 -0.0013652976160988704 -9.8306498512057071e-06 0 -0.001469373069173183 5.2419617830097291e-05 0 -0.0015158572452602795 4.0479337075529552e-06 0 -0.0014025841182889996 -3.9760652350637544e-05 0 -0.0013855525703453866 1.4553437750612849e-05 0 -0.0013932846349834474 -1.9168857673319935e-05 0 -0.0013349682627660992 -1.7457152357634354e-05 0 -0.0013855525703453866 1.4553437750612849e-05 0 -0.0013266628034868052 1.6212596761962572e-05 0 -0.0013349682627660992 -1.7457152357634354e-05 0 -0.0013855525703453866 1.4553437750612849e-05 0 -0.0014082772420357485 -1.6521923711664178e-05 0 -0.0013932846349834474 -1.9168857673319935e-05 0 -0.0014082772420357485 -1.6521923711664178e-05 0 -0.0013625274710356559 -1.6607441581924982e-05 0 -0.0014786029205976125 -3.1960523985735807e-06 0 -0.0014082772420357485 -1.6521923711664178e-05 0 -0.0013625274710356559 -1.6607441581924982e-05 0 -0.001372173766161965 -1.3278369220040534e-06 0 -0.0013855525703453866 1.4553437750612849e-05 0 -0.0014082772420357485 -1.6521923711664178e-05 0 -0.0014786029205976125 -3.1960523985735807e-06 0 -0.0013625274710356559 -1.6607441581924982e-05 0 -0.0014194412289974263 -8.4305089734311872e-08 0 -0.0014786029205976125 -3.1960523985735807e-06 0 -0.0013625274710356559 -1.6607441581924982e-05 0 -0.0014194412289974263 -8.4305089734311872e-08 0 -0.0011475606955798725 1.3515168775275457e-07 0 -0.0016920807928447238 4.9929569907323465e-08 0 -0.0014194412289974263 -8.4305089734311872e-08 0 -0.0015805545178236573 -3.0394228762923141e-06 0 -0.0014194412289974263 -8.4305089734311872e-08 0 -0.0015805545178236573 -3.0394228762923141e-06 0 -0.0014786029205976125 -3.1960523985735807e-06 0 -0.0014649815141201043 -9.1154014870310751e-06 0 -0.0014766420251774693 -4.3080884035973427e-06 0 -0.0015523138036782687 -3.3201562993261558e-05 0 -0.0015722460151458594 -1.2711217742642275e-05 0 -0.0014786029205976125 -3.1960523985735807e-06 0 -0.0015805545178236573 -3.0394228762923141e-06 0 -0.0015722460151458594 -1.2711217742642275e-05 0 -0.0014786029205976125 -3.1960523985735807e-06 0 -0.0011972960610647635 -9.850224973307318e-06 0 -0.001221630202022187 4.791545426524321e-05 0 -0.0011803283993835375 4.1117107432900954e-05 0 -0.0012628817318332158 4.0569460107949395e-06 0 -0.0011972960610647635 -9.850224973307318e-06 0 -0.001221630202022187 4.791545426524321e-05 0 -0.0012628817318332158 4.0569460107949395e-06 0 -0.0011972960610647635 -9.850224973307318e-06 0 -0.0012241308229700349 -3.2750948468052968e-05 0 -0.0012628817318332158 4.0569460107949395e-06 0 -0.0013349682627660992 -1.7457152357634354e-05 0 -0.0012833716245455194 -5.7743618818591529e-05 0 -0.0012628817318332158 4.0569460107949395e-06 0 -0.0012833716245455194 -5.7743618818591529e-05 0 -0.0012241308229700349 -3.2750948468052968e-05 0 -0.0012628817318332158 4.0569460107949395e-06 0 -0.0013266628034868052 1.6212596761962572e-05 0 -0.0013349682627660992 -1.7457152357634354e-05 0 -0.0012713976626148686 8.649038609685106e-07 0 -0.0013652976160988704 -9.8306498512057071e-06 0 -0.0012628817318332158 4.0569460107949395e-06 0 -0.0014025841182889996 -3.9760652350637544e-05 0 -0.0013744221980366252 6.2570259258817897e-05 0 -0.0012628817318332158 4.0569460107949395e-06 0 -0.0013744221980366252 6.2570259258817897e-05 0 -0.001267635761818955 7.4787553145586722e-05 0 -0.001469373069173183 5.2419617830097291e-05 0 -0.0014025841182889996 -3.9760652350637544e-05 0 -0.0013744221980366252 6.2570259258817897e-05 0 -0.0014411439329445669 0.00012231915662616613 0 -0.001469373069173183 5.2419617830097291e-05 0 -0.0013744221980366252 6.2570259258817897e-05 0 -0.0014411439329445669 0.00012231915662616613 0 -0.0013744221980366252 6.2570259258817897e-05 0 -0.0013809742867734692 0.00013053048863438427 0 -0.0014411439329445669 0.00012231915662616613 0 -0.0013809742867734692 0.00013053048863438427 0 -0.0014121675831103146 0.0001792938789485822 0 -0.0013744221980366252 6.2570259258817897e-05 0 -0.0013809742867734692 0.00013053048863438427 0 -0.0013173643411947425 0.00010901941286065717 0 -0.0013744221980366252 6.2570259258817897e-05 0 -0.0013173643411947425 0.00010901941286065717 0 -0.001267635761818955 7.4787553145586722e-05 0 -0.0013809742867734692 0.00013053048863438427 0 -0.0013173643411947425 0.00010901941286065717 0 -0.0013592398272233221 0.00018828834911430905 0 -0.001267635761818955 7.4787553145586722e-05 0 -0.0012380148701474497 8.5820969857442947e-05 0 -0.0012686061769074503 0.00011323833671802024 0 -0.0013173643411947425 0.00010901941286065717 0 -0.001267635761818955 7.4787553145586722e-05 0 -0.0012686061769074503 0.00011323833671802024 0 -0.0012628817318332158 4.0569460107949395e-06 0 -0.001267635761818955 7.4787553145586722e-05 0 -0.001221630202022187 4.791545426524321e-05 0 -0.001221630202022187 4.791545426524321e-05 0 -0.0012380148701474497 8.5820969857442947e-05 0 -0.0012095516962318616 7.2930576154730677e-05 0 -0.001267635761818955 7.4787553145586722e-05 0 -0.001221630202022187 4.791545426524321e-05 0 -0.0012380148701474497 8.5820969857442947e-05 0 -0.0012380148701474497 8.5820969857442947e-05 0 -0.0012465144916504853 0.00010822608184130797 0 -0.0012286714320401957 9.4450029644430972e-05 0 -0.0012380148701474497 8.5820969857442947e-05 0 -0.0012465144916504853 0.00010822608184130797 0 -0.0012686061769074503 0.00011323833671802024 0 -0.0012465144916504853 0.00010822608184130797 0 -0.0012686061769074503 0.00011323833671802024 0 -0.0012610970109479447 0.00012091569874919593 0 -0.0013173643411947425 0.00010901941286065717 0 -0.0012686061769074503 0.00011323833671802024 0 -0.0012857528214274721 0.00012342598489049176 0 -0.0012686061769074503 0.00011323833671802024 0 -0.0012742622045992297 0.00012528071709826268 0 -0.0012610970109479447 0.00012091569874919593 0 -0.0012742622045992297 0.00012528071709826268 0 -0.0012857528214274721 0.00012342598489049176 0 -0.001281280529879858 0.0001331821253002176 0 -0.0012686061769074503 0.00011323833671802024 0 -0.0012742622045992297 0.00012528071709826268 0 -0.0012857528214274721 0.00012342598489049176 0 -0.0013088953601599475 0.00022522077481425167 0 -0.0013208578786801201 0.00029133247671620156 0 -0.0013054165142923734 0.00031092000325800824 0 -0.0011769371681220812 0.00016888846229046509 0 -0.0023387736166667209 0.00036360928129421772 0 -0.0012742622045992297 0.00012528071709826268 0 -0.0012610970109479447 0.00012091569874919593 0 -0.0012658995233126794 0.00012885934528290586 0 -0.0012610970109479447 0.00012091569874919593 0 -0.0012658995233126794 0.00012885934528290586 0 -0.0012529103901443596 0.00012413691547376662 0 -0.001491444579552537 0.0001872366312870883 0 -0.0014121675831103146 0.0001792938789485822 0 -0.0013918411258673515 0.00024287707696404062 0 -0.0013809742867734692 0.00013053048863438427 0 -0.0014121675831103146 0.0001792938789485822 0 -0.0013592398272233221 0.00018828834911430905 0 -0.0014121675831103146 0.0001792938789485822 0 -0.0013592398272233221 0.00018828834911430905 0 -0.0013918411258673515 0.00024287707696404062 0 -0.0013173643411947425 0.00010901941286065717 0 -0.0013592398272233221 0.00018828834911430905 0 -0.0013088953601599475 0.00022522077481425167 0 -0.0013414114935151084 0.00010550416653208144 0 -0.0011769371681220812 0.00016888846229046509 0 -0.0013592398272233221 0.00018828834911430905 0 -0.0013088953601599475 0.00022522077481425167 0 -0.0013918411258673515 0.00024287707696404062 0 -0.0013088953601599475 0.00022522077481425167 0 -0.0013286178106548196 0.0002844426151174279 0 -0.0013208578786801201 0.00029133247671620156 0 -0.0013088953601599475 0.00022522077481425167 0 -0.0013918411258673515 0.00024287707696404062 0 -0.0013286178106548196 0.0002844426151174279 0 -0.001522704261226229 0.00020336898886603734 0 -0.0016181491168677476 0.00026204093796726246 0 -0.001844478034897393 8.3624757041764547e-05 0 -0.001908917365033083 3.9352766634969156e-05 0 -0.0016552148493329736 0.00017541598694536886 0 -0.0016548976400055579 0.00010578310659181744 0 -0.0017966325210600452 0.00011077362932563545 0 -0.0015822655636263203 0.000179784119265093 0 -0.0016552148493329736 0.00017541598694536886 0 -0.0016548976400055579 0.00010578310659181744 0 -0.0021180828543178238 -3.4068409363750518e-06 0 -0.0021235270111168705 1.2441573471530518e-05 0 -0.0021264552161607258 3.1806490440004729e-05 0 -0.0021253419900235286 5.0184935693529131e-06 0 -0.0021214460730016389 -3.2718296628323877e-06 0 -0.0021235270111168705 1.2441573471530518e-05 0 -0.0021181192595032482 -1.2926790830961799e-05 0 -0.0021214460730016389 -3.2718296628323877e-06 0 -0.0021180828543178238 -3.4068409363750518e-06 0 -0.0021214460730016389 -3.2718296628323877e-06 0 -0.0021180828543178238 -3.4068409363750518e-06 0 -0.0021235270111168705 1.2441573471530518e-05 0 -0.0016548976400055579 0.00010578310659181744 0 -0.0017966325210600452 0.00011077362932563545 0 -0.0018224788699737861 9.4433838058212205e-05 0 -0.0016548976400055579 0.00010578310659181744 0 -0.0018224788699737861 9.4433838058212205e-05 0 -0.0017953418469215908 -3.2307946674973886e-05 0 -0.001908917365033083 3.9352766634969156e-05 0 -0.0018438687631629187 2.5355210221533846e-05 0 -0.0016181491168677476 0.00026204093796726246 0 -0.0016845129071739347 0.00030942383652223453 0 -0.0018224788699737861 9.4433838058212205e-05 0 -0.0017953418469215908 -3.2307946674973886e-05 0 -0.0018848172220329196 4.9751321226577902e-05 0 -0.0021423146561818352 3.6540571303633876e-05 0 -0.0021264552161607258 3.1806490440004729e-05 0 -0.0021308065941863207 3.3738260550020674e-05 0 -0.0021264552161607258 3.1806490440004729e-05 0 -0.0021308065941863207 3.3738260550020674e-05 0 -0.0021266320134497186 2.5499650303483471e-05 0 -0.0021235270111168705 1.2441573471530518e-05 0 -0.0021264552161607258 3.1806490440004729e-05 0 -0.0021266320134497186 2.5499650303483471e-05 0 -0.0021296278848194458 3.3517451963314787e-05 0 -0.0021305193025198152 3.4649080210529346e-05 0 -0.0021266320134497186 2.5499650303483471e-05 0 -0.0021296278848194458 3.3517451963314787e-05 0 -0.0021308065941863207 3.3738260550020674e-05 0 -0.0021266320134497186 2.5499650303483471e-05 0 -0.0021305193025198152 3.4649080210529346e-05 0 -0.0021266320134497186 2.5499650303483471e-05 0 -0.0021278053651936179 1.9137735812896392e-05 0 -0.0021305193025198152 3.4649080210529346e-05 0 -0.0021339864674707883 2.7833126640182816e-05 0 -0.0021278053651936179 1.9137735812896392e-05 0 -0.0021253419900235286 5.0184935693529131e-06 0 -0.0021235270111168705 1.2441573471530518e-05 0 -0.0021278053651936179 1.9137735812896392e-05 0 -0.0021235270111168705 1.2441573471530518e-05 0 -0.0021266320134497186 2.5499650303483471e-05 0 -0.0021278053651936179 1.9137735812896392e-05 0 -0.0012658995233126794 0.00012885934528290586 0 -0.001281280529879858 0.0001331821253002176 0 -0.0012687044868206012 0.00013527802021241956 0 -0.0012742622045992297 0.00012528071709826268 0 -0.0012658995233126794 0.00012885934528290586 0 -0.001281280529879858 0.0001331821253002176 0 -0.0016845129071739347 0.00030942383652223453 0 -0.0023387736166667209 0.00036360928129421772 0 -0.0021657133312193645 4.0829624918164753e-05 0 -0.0021423146561818352 3.6540571303633876e-05 0 -0.0021264552161607258 3.1806490440004729e-05 0 -0.0023387736166667209 0.00036360928129421772 0 -0.0038087649143288948 0.00037376554183009704 0 -0.0028713857587188939 5.5403534051444355e-05 0 -0.0023387736166667209 0.00036360928129421772 0 -0.0036589429293073937 0.00053219059669567094 0 -0.0039103618572224981 0.00032961043064846284 0 -0.0038603659842249283 0.00024308597861295457 0 -0.0019619509644315187 -0.00018224587380164997 0 -0.0017953418469215908 -3.2307946674973886e-05 0 -0.0018848172220329196 4.9751321226577902e-05 0 -0.0028713857587188939 5.5403534051444355e-05 0 -0.0018438687631629187 2.5355210221533846e-05 0 -0.0023387736166667209 0.00036360928129421772 0 -0.0023747222148372714 0.00032391913684269119 0 -0.0037835121258531705 0.00016003676452958359 0 -0.0036589429293073937 0.00053219059669567094 0 -0.0038603659842249283 0.00024308597861295457 0 -0.0039483605485212238 0.00016166246214208068 0 -0.0039103618572224981 0.00032961043064846284 0 -0.0038603659842249283 0.00024308597861295457 0 -0.0030409758247513415 0.00080863390192538595 0 -0.0034636486697195894 0.00047301902079099889 0 -0.0035627540240594289 0.00048725406837848436 0 -0.003943596543820674 0.00017108998453835294 0 -0.0038087649143288948 0.00037376554183009704 0 -0.0012658995233126794 0.00012885934528290586 0 -0.0012687044868206012 0.00013527802021241956 0 -0.0012583671731353217 0.00013191923289890238 0 -0.0038438164987297384 0.00018480012445496572 0 -0.0034636486697195894 0.00047301902079099889 0 -0.0035627540240594289 0.00048725406837848436 0 -0.0012578039084711033 0.00013005481177077077 0 -0.0012687044868206012 0.00013527802021241956 0 -0.0012583671731353217 0.00013191923289890238 0 -0.0012578039084711033 0.00013005481177077077 0 -0.0012583671731353217 0.00013191923289890238 0 -0.0012572837076627887 0.00013282641478274212 0 -0.0026666165681757219 0.00017459278106387791 0 -0.0023747222148372714 0.00032391913684269119 0 -0.0012583671731353217 0.00013191923289890238 0 -0.0012497349060590409 0.00012789506656769525 0 -0.0012572837076627887 0.00013282641478274212 0 -0.0012658995233126794 0.00012885934528290586 0 -0.0012583671731353217 0.00013191923289890238 0 -0.0012529103901443596 0.00012413691547376662 0 -0.0012583671731353217 0.00013191923289890238 0 -0.0012529103901443596 0.00012413691547376662 0 -0.0012497349060590409 0.00012789506656769525 0 -0.0012529103901443596 0.00012413691547376662 0 -0.0012497349060590409 0.00012789506656769525 0 -0.0012392297809625872 0.0001184544760391652 0 -0.0012392812494161588 0.00012411704384784826 0 -0.0012291439533225733 0.00011558031935040743 0 -0.0012392297809625872 0.0001184544760391652 0 -0.0012497349060590409 0.00012789506656769525 0 -0.0012392812494161588 0.00012411704384784826 0 -0.0012392297809625872 0.0001184544760391652 0 -0.0012497349060590409 0.00012789506656769525 0 -0.0012518802951211371 0.00013116711721014839 0 -0.0012392812494161588 0.00012411704384784826 0 -0.0012753685644236498 0.00012943326941161463 0 -0.0012518802951211371 0.00013116711721014839 0 -0.0012572837076627887 0.00013282641478274212 0 -0.0012497349060590409 0.00012789506656769525 0 -0.0012518802951211371 0.00013116711721014839 0 -0.0012572837076627887 0.00013282641478274212 0 -0.0012513095420282555 0.00012671280080603863 0 -0.0013569650005286968 0.00016252981110412607 0 -0.0012518802951211371 0.00013116711721014839 0 -0.0012295661424381664 0.00013358308955026851 0 -0.0012392812494161588 0.00012411704384784826 0 -0.0012753685644236498 0.00012943326941161463 0 -0.0013375622406689037 0.00014667169522662157 0 -0.0013547801918485463 0.00020064518262664664 0 -0.0012753685644236498 0.00012943326941161463 0 -0.0012518802951211371 0.00013116711721014839 0 -0.0012295661424381664 0.00013358308955026851 0 -0.0018774753030999017 9.9243466179773981e-06 0 -0.0013569650005286968 0.00016252981110412607 0 -0.0016032754370157039 0.00027168884146576053 0 -0.0015890838158829604 0.00023012956390740263 0 -0.0015795461280612511 0.00025488197436213713 0 -0.0015583315074060645 0.0002708526212066738 0 -0.0015597813817795532 0.00024409364557202416 0 -0.001533080918627322 0.00025011491015386396 0 -0.0016032754370157039 0.00027168884146576053 0 -0.0015583315074060645 0.0002708526212066738 0 -0.0015795461280612511 0.00025488197436213713 0 -0.0015583315074060645 0.0002708526212066738 0 -0.0015597813817795532 0.00024409364557202416 0 -0.0015795461280612511 0.00025488197436213713 0 -0.0015890838158829604 0.00023012956390740263 0 -0.0015597813817795532 0.00024409364557202416 0 -0.0015795461280612511 0.00025488197436213713 0 -0.0015890838158829604 0.00023012956390740263 0 -0.0015597813817795532 0.00024409364557202416 0 -0.0015409910702786969 0.00021835352282404528 0 -0.0015597813817795532 0.00024409364557202416 0 -0.0015409910702786969 0.00021835352282404528 0 -0.001533080918627322 0.00025011491015386396 0 -0.0012440145048337387 9.4252653700161132e-05 0 -0.0012055160801012666 3.7617680714778479e-05 0 -0.0011837243904505525 3.6259090093856101e-05 0 -0.0012440145048337387 9.4252653700161132e-05 0 -0.0012055160801012666 3.7617680714778479e-05 0 -0.001220255397192117 2.2492178030844303e-05 0 -0.0015890838158829604 0.00023012956390740263 0 -0.0015409910702786969 0.00021835352282404528 0 -0.0015222549802364471 0.00017262764583488149 0 -0.0012295661424381664 0.00013358308955026851 0 -0.001225019479853658 0.00012106606525887661 0 -0.0012098959095809441 0.00011248348180239155 0 -0.0013569650005286968 0.00016252981110412607 0 -0.0012085314456558428 5.2182975698551253e-05 0 -0.0013569650005286968 0.00016252981110412607 0 -0.0013643599789657818 0.00010748362890609678 0 -0.0012295661424381664 0.00013358308955026851 0 -0.0012392812494161588 0.00012411704384784826 0 -0.001225019479853658 0.00012106606525887661 0 -0.0012392812494161588 0.00012411704384784826 0 -0.001225019479853658 0.00012106606525887661 0 -0.0012291439533225733 0.00011558031935040743 0 -0.001225019479853658 0.00012106606525887661 0 -0.0012207742726712844 0.00011436678531461746 0 -0.0012098959095809441 0.00011248348180239155 0 -0.0012291439533225733 0.00011558031935040743 0 -0.0012207742726712844 0.00011436678531461746 0 -0.0012183188039906047 0.00010820609167826578 0 -0.0012207742726712844 0.00011436678531461746 0 -0.0012183188039906047 0.00010820609167826578 0 -0.0012098959095809441 0.00011248348180239155 0 -0.001225019479853658 0.00012106606525887661 0 -0.0012291439533225733 0.00011558031935040743 0 -0.0012207742726712844 0.00011436678531461746 0 -0.0012291439533225733 0.00011558031935040743 0 -0.0012183188039906047 0.00010820609167826578 0 -0.0012258938917874352 0.00010664627719768232 0 -0.0012055160801012666 3.7617680714778479e-05 0 -0.001220255397192117 2.2492178030844303e-05 0 -0.0011784400790632091 -2.2232771148843105e-05 0 -0.0012183188039906047 0.00010820609167826578 0 -0.0012098959095809441 0.00011248348180239155 0 -0.0012094355890839121 0.00010086183385356333 0 -0.001220255397192117 2.2492178030844303e-05 0 -0.0011994500656255273 -3.959955412640373e-05 0 -0.0011784400790632091 -2.2232771148843105e-05 0 -0.0012098959095809441 0.00011248348180239155 0 -0.0012094355890839121 0.00010086183385356333 0 -0.001199277798405224 9.365522544657025e-05 0 -0.0012085314456558428 5.2182975698551253e-05 0 -0.0011226278846357559 4.7420691158644189e-05 0 -0.0012094355890839121 0.00010086183385356333 0 -0.0012067344117468737 9.4099793378942358e-05 0 -0.001199277798405224 9.365522544657025e-05 0 -0.0012183188039906047 0.00010820609167826578 0 -0.0012135104989623585 9.6902247154558797e-05 0 -0.0012258938917874352 0.00010664627719768232 0 -0.0012183188039906047 0.00010820609167826578 0 -0.0012094355890839121 0.00010086183385356333 0 -0.0012135104989623585 9.6902247154558797e-05 0 -0.0012094355890839121 0.00010086183385356333 0 -0.0012067344117468737 9.4099793378942358e-05 0 -0.0012135104989623585 9.6902247154558797e-05 0 -0.0012379501326854922 0.0001106360013647797 0 -0.0012258938917874352 0.00010664627719768232 0 -0.0012161369930928849 8.9595572662386341e-05 0 -0.0012135104989623585 9.6902247154558797e-05 0 -0.0012258938917874352 0.00010664627719768232 0 -0.0012161369930928849 8.9595572662386341e-05 0 -0.0012379501326854922 0.0001106360013647797 0 -0.0012286714320401957 9.4450029644430972e-05 0 -0.0012161369930928849 8.9595572662386341e-05 0 -0.0012465144916504853 0.00010822608184130797 0 -0.0012379501326854922 0.0001106360013647797 0 -0.0012286714320401957 9.4450029644430972e-05 0 -0.0012465144916504853 0.00010822608184130797 0 -0.0012610970109479447 0.00012091569874919593 0 -0.0012379501326854922 0.0001106360013647797 0 -0.0012610970109479447 0.00012091569874919593 0 -0.0012529103901443596 0.00012413691547376662 0 -0.0012379501326854922 0.0001106360013647797 0 -0.0012529103901443596 0.00012413691547376662 0 -0.0012379501326854922 0.0001106360013647797 0 -0.0012392297809625872 0.0001184544760391652 0 -0.0012379501326854922 0.0001106360013647797 0 -0.0012392297809625872 0.0001184544760391652 0 -0.0012258938917874352 0.00010664627719768232 0 -0.0012291439533225733 0.00011558031935040743 0 -0.0012392297809625872 0.0001184544760391652 0 -0.0012258938917874352 0.00010664627719768232 0 -0.0013272224013966744 0.00021774731864494394 0 -0.0013853127889746589 0.00019412771500706868 0 -0.001343716749254484 0.00016105595787432446 0 -0.0013272224013966744 0.00021774731864494394 0 -0.0014102118274683542 0.00024307558600947021 0 -0.0013853127889746589 0.00019412771500706868 0 -0.0013272224013966744 0.00021774731864494394 0 -0.001343716749254484 0.00016105595787432446 0 -0.0012872022026381622 0.00016913182792126 0 -0.0013589474071114347 0.0002748121719593409 0 -0.0013272224013966744 0.00021774731864494394 0 -0.0014102118274683542 0.00024307558600947021 0 -0.0014102118274683542 0.00024307558600947021 0 -0.0013853127889746589 0.00019412771500706868 0 -0.0014413149625903425 0.00019542439528782383 0 -0.0013853127889746589 0.00019412771500706868 0 -0.0014413149625903425 0.00019542439528782383 0 -0.001405644039335401 0.00014959160998578944 0 -0.0014413149625903425 0.00019542439528782383 0 -0.0014853235976747925 0.0001871015810755781 0 -0.0014607763218144137 0.00016368329122461693 0 -0.0014413149625903425 0.00019542439528782383 0 -0.0014598388468887592 0.00023994269175309704 0 -0.0014862401573175002 0.00021660530539633325 0 -0.0014413149625903425 0.00019542439528782383 0 -0.0014862401573175002 0.00021660530539633325 0 -0.0014853235976747925 0.0001871015810755781 0 -0.0014102118274683542 0.00024307558600947021 0 -0.0014413149625903425 0.00019542439528782383 0 -0.0014598388468887592 0.00023994269175309704 0 -0.0014626206439471994 0.00027478239485760511 0 -0.0014102118274683542 0.00024307558600947021 0 -0.0014598388468887592 0.00023994269175309704 0 -0.0014626206439471994 0.00027478239485760511 0 -0.0014598388468887592 0.00023994269175309704 0 -0.0014993804897051588 0.00025942645698882237 0 -0.0014598388468887592 0.00023994269175309704 0 -0.0014993804897051588 0.00025942645698882237 0 -0.0014862401573175002 0.00021660530539633325 0 -0.0014993804897051588 0.00025942645698882237 0 -0.0015140450599271538 0.00022988351919588096 0 -0.0014862401573175002 0.00021660530539633325 0 -0.0015292772362676015 0.00029214019164663745 0 -0.0014993804897051588 0.00025942645698882237 0 -0.001533080918627322 0.00025011491015386396 0 -0.0014993804897051588 0.00025942645698882237 0 -0.001533080918627322 0.00025011491015386396 0 -0.0015140450599271538 0.00022988351919588096 0 -0.0015409910702786969 0.00021835352282404528 0 -0.001533080918627322 0.00025011491015386396 0 -0.0015140450599271538 0.00022988351919588096 0 -0.0014853235976747925 0.0001871015810755781 0 -0.0015222549802364471 0.00017262764583488149 0 -0.0014607763218144137 0.00016368329122461693 0 -0.0015409910702786969 0.00021835352282404528 0 -0.0015140450599271538 0.00022988351919588096 0 -0.0015103893492262545 0.00020410369223065015 0 -0.0015409910702786969 0.00021835352282404528 0 -0.0015103893492262545 0.00020410369223065015 0 -0.0015222549802364471 0.00017262764583488149 0 -0.0015140450599271538 0.00022988351919588096 0 -0.0015103893492262545 0.00020410369223065015 0 -0.0014862401573175002 0.00021660530539633325 0 -0.0015103893492262545 0.00020410369223065015 0 -0.0014862401573175002 0.00021660530539633325 0 -0.0014853235976747925 0.0001871015810755781 0 -0.0015103893492262545 0.00020410369223065015 0 -0.0014853235976747925 0.0001871015810755781 0 -0.0015222549802364471 0.00017262764583488149 0 -0.0012055160801012666 3.7617680714778479e-05 0 -0.0011837243904505525 3.6259090093856101e-05 0 -0.0011797453835800697 -2.0945729787763956e-05 0 -0.0011837243904505525 3.6259090093856101e-05 0 -0.0011650430613731181 -7.7370056448277015e-06 0 -0.0011493989066638248 -1.5069407085490603e-05 0 -0.0011837243904505525 3.6259090093856101e-05 0 -0.0011797453835800697 -2.0945729787763956e-05 0 -0.0011650430613731181 -7.7370056448277015e-06 0 -0.0012131074003481988 3.5697433277798453e-05 0 -0.0011389241737057324 -1.7458270477267443e-05 0 -0.0013643599789657818 0.00010748362890609678 0 -0.0012979531899246213 4.8953591156818522e-05 0 -0.0011226278846357559 4.7420691158644189e-05 0 -0.0011389241737057324 -1.7458270477267443e-05 0 -0.0010410979714074997 -1.2643555875104679e-05 0 -0.0010512969313993465 -2.1407294124725369e-05 0 -0.0010512419513083677 -2.2669952781720477e-06 0 -0.001161111381637237 -1.5270280987920056e-05 0 -0.0011580887360699448 -1.3849722088456698e-05 0 -0.0011534761705495585 -1.3632497070163168e-05 0 -0.001161111381637237 -1.5270280987920056e-05 0 -0.0011580887360699448 -1.3849722088456698e-05 0 -0.0011650430613731181 -7.7370056448277015e-06 0 -0.0011389241737057324 -1.7458270477267443e-05 0 -0.001157130070151116 -1.9495505115371414e-05 0 -0.0011580887360699448 -1.3849722088456698e-05 0 -0.0011650430613731181 -7.7370056448277015e-06 0 -0.0011493989066638248 -1.5069407085490603e-05 0 -0.0011534761705495585 -1.3632497070163168e-05 0 -0.0011493989066638248 -1.5069407085490603e-05 0 -0.0011578137945978566 -1.3282517426238641e-05 0 -0.0011580887360699448 -1.3849722088456698e-05 0 -0.0011534761705495585 -1.3632497070163168e-05 0 -0.0011493989066638248 -1.5069407085490603e-05 0 -0.0015222549802364471 0.00017262764583488149 0 -0.001447448761117363 0.00011275253493306159 0 -0.0014607763218144137 0.00016368329122461693 0 -0.001447448761117363 0.00011275253493306159 0 -0.0014607763218144137 0.00016368329122461693 0 -0.001405644039335401 0.00014959160998578944 0 -0.0014413149625903425 0.00019542439528782383 0 -0.0014607763218144137 0.00016368329122461693 0 -0.001405644039335401 0.00014959160998578944 0 -0.001405644039335401 0.00014959160998578944 0 -0.0013588058528246115 0.00011403426125721828 0 -0.001343716749254484 0.00016105595787432446 0 -0.0013853127889746589 0.00019412771500706868 0 -0.001405644039335401 0.00014959160998578944 0 -0.001343716749254484 0.00016105595787432446 0 -0.001447448761117363 0.00011275253493306159 0 -0.001405644039335401 0.00014959160998578944 0 -0.0013588058528246115 0.00011403426125721828 0 -0.0011493989066638248 -1.5069407085490603e-05 0 -0.0011766021946245878 -2.0673067395777073e-05 0 -0.0011578137945978566 -1.3282517426238641e-05 0 -0.0012979531899246213 4.8953591156818522e-05 0 -0.0012689471777516186 1.8214789904619638e-05 0 -0.001447448761117363 0.00011275253493306159 0 -0.0013588058528246115 0.00011403426125721828 0 -0.0013589528849070301 4.987884848410457e-05 0 -0.0013588058528246115 0.00011403426125721828 0 -0.0012917460803039728 7.8183514950981711e-05 0 -0.0013589528849070301 4.987884848410457e-05 0 -0.0013588058528246115 0.00011403426125721828 0 -0.0012917460803039728 7.8183514950981711e-05 0 -0.0013054220050851787 0.00012816107216140872 0 -0.0013054220050851787 0.00012816107216140872 0 -0.001343716749254484 0.00016105595787432446 0 -0.0012872022026381622 0.00016913182792126 0 -0.0013588058528246115 0.00011403426125721828 0 -0.0013054220050851787 0.00012816107216140872 0 -0.001343716749254484 0.00016105595787432446 0 -0.001170918150279869 1.4997240396086896e-05 0 -0.0012175391546620519 3.1800908104705338e-05 0 -0.0012430524155440362 1.1086597860191392e-05 0 -0.0011766021946245878 -2.0673067395777073e-05 0 -0.001170918150279869 1.4997240396086896e-05 0 -0.0012430524155440362 1.1086597860191392e-05 0 -0.0012917460803039728 7.8183514950981711e-05 0 -0.0013589528849070301 4.987884848410457e-05 0 -0.0012613190279162963 3.8593339236781903e-05 0 -0.0012689471777516186 1.8214789904619638e-05 0 -0.0012481398473036989 1.1934774003359851e-05 0 -0.0013589528849070301 4.987884848410457e-05 0 -0.0012613190279162963 3.8593339236781903e-05 0 -0.0012430524155440362 1.1086597860191392e-05 0 -0.0011766021946245878 -2.0673067395777073e-05 0 -0.001170918150279869 1.4997240396086896e-05 0 -0.0011578137945978566 -1.3282517426238641e-05 0 -0.001170918150279869 1.4997240396086896e-05 0 -0.0011578137945978566 -1.3282517426238641e-05 0 -0.0011439382559277928 -6.3808902769357419e-06 0 -0.001170918150279869 1.4997240396086896e-05 0 -0.0011439382559277928 -6.3808902769357419e-06 0 -0.0011440754099154452 3.6981594281541292e-05 0 -0.0010654404320067984 9.7320723771068062e-06 0 -0.0010632789270105226 3.1837061242607584e-05 0 -0.001088113983287063 4.8006933304759656e-05 0 -0.0011011390743057247 1.4189519640368384e-06 0 -0.0011174936088967618 4.5748419151821782e-05 0 -0.0011534761705495585 -1.3632497070163168e-05 0 -0.0011578137945978566 -1.3282517426238641e-05 0 -0.0011439382559277928 -6.3808902769357419e-06 0 -0.0010410979714074997 -1.2643555875104679e-05 0 -0.0010512419513083677 -2.2669952781720477e-06 0 -0.0010472070214640708 1.5725150846183925e-05 0 -0.0011226278846357559 4.7420691158644189e-05 0 -0.0010375572230274779 4.772346738239106e-05 0 -0.0010654404320067984 9.7320723771068062e-06 0 -0.0010512419513083677 -2.2669952781720477e-06 0 -0.0010472070214640708 1.5725150846183925e-05 0 -0.0011389241737057324 -1.7458270477267443e-05 0 -0.0011011390743057247 1.4189519640368384e-06 0 -0.001161111381637237 -1.5270280987920056e-05 0 -0.0011534761705495585 -1.3632497070163168e-05 0 -0.0011439382559277928 -6.3808902769357419e-06 0 -0.0010512969313993465 -2.1407294124725369e-05 0 -0.0010654404320067984 9.7320723771068062e-06 0 -0.0010512419513083677 -2.2669952781720477e-06 0 -0.0010472070214640708 1.5725150846183925e-05 0 -0.0010632789270105226 3.1837061242607584e-05 0 -0.0010533395145324886 5.5915512910848142e-05 0 -0.0010389847524701807 8.0628353385814997e-05 0 -0.0010533395145324886 5.5915512910848142e-05 0 -0.0010479270865617701 6.1442279522640262e-05 0 -0.0010375572230274779 4.772346738239106e-05 0 -0.001053077910018717 5.8243357532385233e-05 0 -0.0010654404320067984 9.7320723771068062e-06 0 -0.0010472070214640708 1.5725150846183925e-05 0 -0.0010632789270105226 3.1837061242607584e-05 0 -0.0010533395145324886 5.5915512910848142e-05 0 -0.0010479270865617701 6.1442279522640262e-05 0 -0.0010433636930875735 6.6209462289835213e-05 0 -0.0010533395145324886 5.5915512910848142e-05 0 -0.0010445872073561388 9.3734795471175848e-05 0 -0.0010736438077240673 8.3970863914562051e-05 0 -0.0010533395145324886 5.5915512910848142e-05 0 -0.0010445872073561388 9.3734795471175848e-05 0 -0.0010433636930875735 6.6209462289835213e-05 0 -0.0010736438077240673 8.3970863914562051e-05 0 -0.001088113983287063 4.8006933304759656e-05 0 -0.0011314716530874238 9.8533670534489912e-05 0 -0.0010632789270105226 3.1837061242607584e-05 0 -0.0010533395145324886 5.5915512910848142e-05 0 -0.001088113983287063 4.8006933304759656e-05 0 -0.0010533395145324886 5.5915512910848142e-05 0 -0.0010736438077240673 8.3970863914562051e-05 0 -0.001088113983287063 4.8006933304759656e-05 0 -0.001170918150279869 1.4997240396086896e-05 0 -0.0011440754099154452 3.6981594281541292e-05 0 -0.0011625045672185965 4.9199155610835735e-05 0 -0.001170918150279869 1.4997240396086896e-05 0 -0.0011625045672185965 4.9199155610835735e-05 0 -0.0011846558039431431 4.2536093956900386e-05 0 -0.0011625045672185965 4.9199155610835735e-05 0 -0.00117515453325171 6.5135814849800393e-05 0 -0.0011846558039431431 4.2536093956900386e-05 0 -0.0011625045672185965 4.9199155610835735e-05 0 -0.00117515453325171 6.5135814849800393e-05 0 -0.0011314716530874238 9.8533670534489912e-05 0 -0.0011440754099154452 3.6981594281541292e-05 0 -0.0011625045672185965 4.9199155610835735e-05 0 -0.0011314716530874238 9.8533670534489912e-05 0 -0.0011174936088967618 4.5748419151821782e-05 0 -0.0011326055021397944 9.727833553265823e-05 0 -0.00117515453325171 6.5135814849800393e-05 0 -0.0011956652438451087 8.6075226561877906e-05 0 -0.0011314716530874238 9.8533670534489912e-05 0 -0.00117515453325171 6.5135814849800393e-05 0 -0.0011956652438451087 8.6075226561877906e-05 0 -0.0012082291809744437 5.3968501126187492e-05 0 -0.0011956652438451087 8.6075226561877906e-05 0 -0.0012255412199135311 7.1807755244281094e-05 0 -0.0012173310719974342 9.9780900525151014e-05 0 -0.0011956652438451087 8.6075226561877906e-05 0 -0.0012082291809744437 5.3968501126187492e-05 0 -0.0012255412199135311 7.1807755244281094e-05 0 -0.0012082291809744437 5.3968501126187492e-05 0 -0.0011846558039431431 4.2536093956900386e-05 0 -0.0012175391546620519 3.1800908104705338e-05 0 -0.0012082291809744437 5.3968501126187492e-05 0 -0.0012175391546620519 3.1800908104705338e-05 0 -0.0012391513638123066 4.0140046094676448e-05 0 -0.001170918150279869 1.4997240396086896e-05 0 -0.0011846558039431431 4.2536093956900386e-05 0 -0.0012175391546620519 3.1800908104705338e-05 0 -0.00117515453325171 6.5135814849800393e-05 0 -0.0012082291809744437 5.3968501126187492e-05 0 -0.0011846558039431431 4.2536093956900386e-05 0 -0.0012004994809169493 7.0324817392165509e-05 0 -0.0012095516962318616 7.2930576154730677e-05 0 -0.0011803283993835375 4.1117107432900954e-05 0 -0.0011605444640315754 7.258233205345433e-05 0 -0.0011815005370747176 4.4938071095102383e-05 0 -0.001221630202022187 4.791545426524321e-05 0 -0.0012095516962318616 7.2930576154730677e-05 0 -0.0011803283993835375 4.1117107432900954e-05 0 -0.0012380148701474497 8.5820969857442947e-05 0 -0.0012095516962318616 7.2930576154730677e-05 0 -0.0012286714320401957 9.4450029644430972e-05 0 -0.0012095516962318616 7.2930576154730677e-05 0 -0.0012286714320401957 9.4450029644430972e-05 0 -0.0012161369930928849 8.9595572662386341e-05 0 -0.0012004994809169493 7.0324817392165509e-05 0 -0.0012095516962318616 7.2930576154730677e-05 0 -0.0012161369930928849 8.9595572662386341e-05 0 -0.0012067344117468737 9.4099793378942358e-05 0 -0.0012135104989623585 9.6902247154558797e-05 0 -0.0012051923440442079 8.4397556897056693e-05 0 -0.0012135104989623585 9.6902247154558797e-05 0 -0.0012161369930928849 8.9595572662386341e-05 0 -0.0012051923440442079 8.4397556897056693e-05 0 -0.0012004994809169493 7.0324817392165509e-05 0 -0.0012161369930928849 8.9595572662386341e-05 0 -0.0012051923440442079 8.4397556897056693e-05 0 -0.0010468145453648777 0.00011906061444286357 0 -0.0010747693273729173 0.00010121334837262205 0 -0.0010537148667194305 9.3706935947139534e-05 0 -0.0012067344117468737 9.4099793378942358e-05 0 -0.001199277798405224 9.365522544657025e-05 0 -0.0012051923440442079 8.4397556897056693e-05 0 -0.0010468145453648777 0.00011906061444286357 0 -0.0010389847524701807 8.0628353385814997e-05 0 -0.0010537148667194305 9.3706935947139534e-05 0 -0.0011226278846357559 4.7420691158644189e-05 0 -0.0011366400727737759 9.9171802971944757e-05 0 -0.0010747693273729173 0.00010121334837262205 0 -0.0010537148667194305 9.3706935947139534e-05 0 -0.0010576253763299836 7.7961730114650332e-05 0 -0.0010389847524701807 8.0628353385814997e-05 0 -0.0010537148667194305 9.3706935947139534e-05 0 -0.0010576253763299836 7.7961730114650332e-05 0 -0.0010389847524701807 8.0628353385814997e-05 0 -0.0010576253763299836 7.7961730114650332e-05 0 -0.0010479270865617701 6.1442279522640262e-05 0 -0.001115353850462919 8.4593527835025601e-05 0 -0.0010747693273729173 0.00010121334837262205 0 -0.0010576253763299836 7.7961730114650332e-05 0 -0.001115353850462919 8.4593527835025601e-05 0 -0.0010576253763299836 7.7961730114650332e-05 0 -0.0010547328943397956 5.1054252562059079e-05 0 -0.0011605444640315754 7.258233205345433e-05 0 -0.0011366400727737759 9.9171802971944757e-05 0 -0.001115353850462919 8.4593527835025601e-05 0 -0.0010547328943397956 5.1054252562059079e-05 0 -0.0011233370718843371 7.0044552347102139e-06 0 -0.0010576253763299836 7.7961730114650332e-05 0 -0.0010479270865617701 6.1442279522640262e-05 0 -0.0010547328943397956 5.1054252562059079e-05 0 -0.0010479270865617701 6.1442279522640262e-05 0 -0.0010547328943397956 5.1054252562059079e-05 0 -0.0010433636930875735 6.6209462289835213e-05 0 -0.0010445872073561388 9.3734795471175848e-05 0 -0.0010433636930875735 6.6209462289835213e-05 0 -0.0010066084412101637 9.2860152670971245e-05 0 -0.0010547328943397956 5.1054252562059079e-05 0 -0.0010433636930875735 6.6209462289835213e-05 0 -0.0010066084412101637 9.2860152670971245e-05 0 -0.0010547328943397956 5.1054252562059079e-05 0 -0.0011233370718843371 7.0044552347102139e-06 0 -0.0010878522263935767 -2.5957268828254148e-05 0 -0.0010525041533058516 5.2016988852074434e-05 0 -0.0010474741060346145 3.9490090433992424e-05 0 -0.0011233370718843371 7.0044552347102139e-06 0 -0.0011694513664506528 -1.8060015534475944e-06 0 -0.0011463989260542594 -3.4641954130911638e-05 0 -0.0011233370718843371 7.0044552347102139e-06 0 -0.0011463989260542594 -3.4641954130911638e-05 0 -0.0010878522263935767 -2.5957268828254148e-05 0 -0.0011233370718843371 7.0044552347102139e-06 0 -0.0011803283993835375 4.1117107432900954e-05 0 -0.0011694513664506528 -1.8060015534475944e-06 0 -0.001115353850462919 8.4593527835025601e-05 0 -0.0011233370718843371 7.0044552347102139e-06 0 -0.0011803283993835375 4.1117107432900954e-05 0 -0.0011972960610647635 -9.850224973307318e-06 0 -0.0011694513664506528 -1.8060015534475944e-06 0 -0.0011463989260542594 -3.4641954130911638e-05 0 -0.0011972960610647635 -9.850224973307318e-06 0 -0.0011803283993835375 4.1117107432900954e-05 0 -0.0011694513664506528 -1.8060015534475944e-06 0 -0.0011972960610647635 -9.850224973307318e-06 0 -0.0011463989260542594 -3.4641954130911638e-05 0 -0.0011471960010248719 -6.23592747979193e-05 0 -0.0011463989260542594 -3.4641954130911638e-05 0 -0.0011471960010248719 -6.23592747979193e-05 0 -0.0011319210729426009 -5.6067997534349296e-05 0 -0.0011471960010248719 -6.23592747979193e-05 0 -0.0011342253892049315 -6.0158502088972655e-05 0 -0.001126321207762746 -6.5759777823706599e-05 0 -0.0011471960010248719 -6.23592747979193e-05 0 -0.0011319210729426009 -5.6067997534349296e-05 0 -0.0011342253892049315 -6.0158502088972655e-05 0 -0.0011319210729426009 -5.6067997534349296e-05 0 -0.0011342253892049315 -6.0158502088972655e-05 0 -0.0011330053037079196 -5.6904741686677321e-05 0 -0.0011463989260542594 -3.4641954130911638e-05 0 -0.0011319210729426009 -5.6067997534349296e-05 0 -0.0010878522263935767 -2.5957268828254148e-05 0 -0.0011319210729426009 -5.6067997534349296e-05 0 -0.0010878522263935767 -2.5957268828254148e-05 0 -0.0011176731736511336 -5.7399947053842667e-05 0 -0.0010474741060346145 3.9490090433992424e-05 0 -0.0010559043678943754 3.8003815804684489e-05 0 -0.0010066084412101637 9.2860152670971245e-05 0 -0.0010286960088550334 0.00013231098789781611 0 -0.0009819383653145925 0.00014719404315858726 0 -0.0010445872073561388 9.3734795471175848e-05 0 -0.0010066084412101637 9.2860152670971245e-05 0 -0.0010286960088550334 0.00013231098789781611 0 -0.0010286960088550334 0.00013231098789781611 0 -0.0009819383653145925 0.00014719404315858726 0 -0.0010128294581486428 0.0001622093530361963 0 -0.0011319210729426009 -5.6067997534349296e-05 0 -0.0011176731736511336 -5.7399947053842667e-05 0 -0.0011330053037079196 -5.6904741686677321e-05 0 -0.0010559043678943754 3.8003815804684489e-05 0 -0.0010014481617443272 0.00011394101952932714 0 -0.0009819383653145925 0.00014719404315858726 0 -0.00098407963013110475 0.00018160097415664237 0 -0.00096565608914199257 0.00019641513716852225 0 -0.0011176731736511336 -5.7399947053842667e-05 0 -0.0011424066883497631 -4.89354501762128e-05 0 -0.0011330053037079196 -5.6904741686677321e-05 0 -0.00095635063855827864 0.00019049192756208488 0 -0.0010014481617443272 0.00011394101952932714 0 -0.0009819383653145925 0.00014719404315858726 0 -0.0010128294581486428 0.0001622093530361963 0 -0.00098407963013110475 0.00018160097415664237 0 -0.0010128294581486428 0.0001622093530361963 0 -0.00098407963013110475 0.00018160097415664237 0 -0.0010119366164364348 0.00019637733271399432 0 -0.0010119366164364348 0.00019637733271399432 0 -0.00098166162309312006 0.00021552282601005972 0 -0.00099742069281701247 0.00023678441980494078 0 -0.0010119366164364348 0.00019637733271399432 0 -0.00099742069281701247 0.00023678441980494078 0 -0.0010347893598930593 0.00022968884920671653 0 -0.00098407963013110475 0.00018160097415664237 0 -0.0010119366164364348 0.00019637733271399432 0 -0.00098166162309312006 0.00021552282601005972 0 -0.00098166162309312006 0.00021552282601005972 0 -0.00099742069281701247 0.00023678441980494078 0 -0.0009626015476579318 0.00025783192376877673 0 -0.00098407963013110475 0.00018160097415664237 0 -0.00098166162309312006 0.00021552282601005972 0 -0.00094113555903103257 0.0002051391693477313 0 -0.00098166162309312006 0.00021552282601005972 0 -0.00094113555903103257 0.0002051391693477313 0 -0.0009626015476579318 0.00025783192376877673 0 -0.0011354968113930751 -4.6279263311848611e-05 0 -0.0011210922966612901 -3.6938463518951775e-05 0 -0.0011402648991742216 -1.6198629742636039e-05 0 -0.0010014481617443272 0.00011394101952932714 0 -0.0010464834804637399 5.130944444276313e-05 0 -0.0011424066883497631 -4.89354501762128e-05 0 -0.0011354968113930751 -4.6279263311848611e-05 0 -0.0011402648991742216 -1.6198629742636039e-05 0 -0.0011210922966612901 -3.6938463518951775e-05 0 -0.0011342253892049315 -6.0158502088972655e-05 0 -0.001126321207762746 -6.5759777823706599e-05 0 -0.0011354968113930751 -4.6279263311848611e-05 0 -0.0011210922966612901 -3.6938463518951775e-05 0 -0.0011342253892049315 -6.0158502088972655e-05 0 -0.0011424066883497631 -4.89354501762128e-05 0 -0.0011354968113930751 -4.6279263311848611e-05 0 -0.0011330053037079196 -5.6904741686677321e-05 0 -0.0011354968113930751 -4.6279263311848611e-05 0 -0.0011342253892049315 -6.0158502088972655e-05 0 -0.0011330053037079196 -5.6904741686677321e-05 0 -0.0011974798970411408 0.00013311556216379127 0 -0.0011312477150040004 0.00018419918745659014 0 -0.0012348790824307373 0.00019062057367113511 0 -0.0011956652438451087 8.6075226561877906e-05 0 -0.0011974798970411408 0.00013311556216379127 0 -0.0011314716530874238 9.8533670534489912e-05 0 -0.0011956652438451087 8.6075226561877906e-05 0 -0.0011974798970411408 0.00013311556216379127 0 -0.0012173310719974342 9.9780900525151014e-05 0 -0.0011974798970411408 0.00013311556216379127 0 -0.0011314716530874238 9.8533670534489912e-05 0 -0.0011312477150040004 0.00018419918745659014 0 -0.0011314716530874238 9.8533670534489912e-05 0 -0.0011312477150040004 0.00018419918745659014 0 -0.0010642306140603301 0.00013483017571737349 0 -0.0011312477150040004 0.00018419918745659014 0 -0.0010642306140603301 0.00013483017571737349 0 -0.0009990427524405503 0.00023030935925459707 0 -0.0010605703378943204 0.00013700905780175603 0 -0.0010225495261926307 0.00020678453536653827 0 -0.0010736438077240673 8.3970863914562051e-05 0 -0.0011314716530874238 9.8533670534489912e-05 0 -0.0010642306140603301 0.00013483017571737349 0 -0.0010445872073561388 9.3734795471175848e-05 0 -0.0010736438077240673 8.3970863914562051e-05 0 -0.0010642306140603301 0.00013483017571737349 0 -0.0010445872073561388 9.3734795471175848e-05 0 -0.0010286960088550334 0.00013231098789781611 0 -0.0010642306140603301 0.00013483017571737349 0 -0.0010286960088550334 0.00013231098789781611 0 -0.0010128294581486428 0.0001622093530361963 0 -0.0010529679743200209 0.00016777034370263943 0 -0.0010286960088550334 0.00013231098789781611 0 -0.0010642306140603301 0.00013483017571737349 0 -0.0010529679743200209 0.00016777034370263943 0 -0.0010119366164364348 0.00019637733271399432 0 -0.0010529679743200209 0.00016777034370263943 0 -0.0010347893598930593 0.00022968884920671653 0 -0.0010225495261926307 0.00020678453536653827 0 -0.0010136208848377589 0.00025786190112837441 0 -0.0010128294581486428 0.0001622093530361963 0 -0.0010119366164364348 0.00019637733271399432 0 -0.0010529679743200209 0.00016777034370263943 0 -0.00093978059702893755 0.00033638552402278802 0 -0.0010783253102326401 0.0002663487439797911 0 -0.0010793343577799577 0.00036749998536210433 0 -0.0011312477150040004 0.00018419918745659014 0 -0.0009990427524405503 0.00023030935925459707 0 -0.0010783253102326401 0.0002663487439797911 0 -0.0009990427524405503 0.00023030935925459707 0 -0.00093978059702893755 0.00033638552402278802 0 -0.0010783253102326401 0.0002663487439797911 0 -0.0011312477150040004 0.00018419918745659014 0 -0.0010783253102326401 0.0002663487439797911 0 -0.0011666482363621867 0.00026973756817255077 0 -0.0010783253102326401 0.0002663487439797911 0 -0.0011666482363621867 0.00026973756817255077 0 -0.0010793343577799577 0.00036749998536210433 0 -0.00025011550510407979 0.00028484250837745975 0 -0.00029173445930584041 0.00026574147901645199 0 0.00077420336952664529 0.00029070882839435922 0 0.00073777858669616563 0.00026042943183180784 0 0.00067547817437731128 0.00027346411633204557 0 0.00077942713282013658 0.00028141472854868884 0 0.00076008017537620564 0.00028869952409703162 0 0.00077420336952664529 0.00029070882839435922 0 0.00077942713282013658 0.00028141472854868884 0 0.00077420336952664529 0.00029070882839435922 0 0.00078154394085692546 0.00027060604532995545 0 0.00077420336952664529 0.00029070882839435922 0 0.00078154394085692546 0.00027060604532995545 0 0.00073777858669616563 0.00026042943183180784 0 0.00076267514258513162 0.00028087591445289767 0 0.00078170245345899367 0.00031173382521738533 0 0.00077942713282013658 0.00028141472854868884 0 0.00076008017537620564 0.00028869952409703162 0 0.00072879106867559636 0.00029865041763743529 0 -0.00025011550510407979 0.00028484250837745975 0 0.00016092822996748759 0.00011809978792657927 0 0.00076008017537620564 0.00028869952409703162 0 0.00077420336952664529 0.00029070882839435922 0 0.00072070239748969972 0.00025121734424816126 0 -0.0011312477150040004 0.00018419918745659014 0 -0.0011666482363621867 0.00026973756817255077 0 -0.0012348790824307373 0.00019062057367113511 0 0.0012485416784956058 0.00020369620404244313 0 0.0011176541914647701 -7.8551520719242587e-05 0 0.0008763677613027683 0.00010506862804408266 0 0.00073244952985417674 3.0636619772222079e-05 0 0.0010274651529010382 -5.1176878238147231e-05 0 0.0008763677613027683 0.00010506862804408266 0 0.00081251217835741818 0.00019836469052438713 0 0.0007793822367027092 0.00010948295824159056 0 0.0008763677613027683 0.00010506862804408266 0 0.0007793822367027092 0.00010948295824159056 0 0.00073244952985417674 3.0636619772222079e-05 0 0.0008763677613027683 0.00010506862804408266 0 0.00099355368119903803 0.00011724358151748415 0 0.0010274651529010382 -5.1176878238147231e-05 0 0.00092051813429571696 0.0002031692188570744 0 0.00078154394085692546 0.00027060604532995545 0 0.0010367789050072527 0.00033372759188032554 0 0.00080595346315187285 0.00028079331788426095 0 0.00088384979561970632 0.00030188865563467475 0 0.00077942713282013658 0.00028141472854868884 0 0.00078154394085692546 0.00027060604532995545 0 0.00078539798922529582 0.00028363182946408873 0 0.0008763677613027683 0.00010506862804408266 0 0.00092051813429571696 0.0002031692188570744 0 0.00099355368119903803 0.00011724358151748415 0 0.00078154394085692546 0.00027060604532995545 0 0.00081251217835741818 0.00019836469052438713 0 0.00073777858669616563 0.00026042943183180784 0 0.00092051813429571696 0.0002031692188570744 0 0.00078154394085692546 0.00027060604532995545 0 0.00081251217835741818 0.00019836469052438713 0 0.0008763677613027683 0.00010506862804408266 0 0.00092051813429571696 0.0002031692188570744 0 0.00081251217835741818 0.00019836469052438713 0 0.00081251217835741818 0.00019836469052438713 0 0.00074994839988451012 0.00017876251168373012 0 0.0007793822367027092 0.00010948295824159056 0 0.00081251217835741818 0.00019836469052438713 0 0.00074994839988451012 0.00017876251168373012 0 0.00073777858669616563 0.00026042943183180784 0 0.00074994839988451012 0.00017876251168373012 0 0.00067547817437731128 0.00027346411633204557 0 0.00071774706235165349 7.6352852207848767e-05 0 0.00074994839988451012 0.00017876251168373012 0 0.00073777858669616563 0.00026042943183180784 0 0.00067547817437731128 0.00027346411633204557 0 0.00071774706235165349 7.6352852207848767e-05 0 0.00073669785093653328 4.429678312284905e-05 0 0.00048904803401854499 9.9079624123670962e-05 0 0.00074994839988451012 0.00017876251168373012 0 0.0007793822367027092 0.00010948295824159056 0 0.00071774706235165349 7.6352852207848767e-05 0 0.0007793822367027092 0.00010948295824159056 0 0.00071774706235165349 7.6352852207848767e-05 0 0.00073244952985417674 3.0636619772222079e-05 0 0.0011462927491831768 0.00021929969180976152 0 0.0012485416784956058 0.00020369620404244313 0 0.0017668715147317394 0.0008685266352012166 0 0.0012923223145903018 0.00096123279919975012 0 0.0014181619155645665 0.00066760563720080605 0 0.0012485416784956058 0.00020369620404244313 0 0.00029576251967466889 0.00044650834685559197 0 -0.00029173445930584041 0.00026574147901645199 0 0.00029576251967466889 0.00044650834685559197 0 0.00067547817437731128 0.00027346411633204557 0 0.00071774706235165349 7.6352852207848767e-05 0 0.00048904803401854499 9.9079624123670962e-05 0 -0.0010793343577799577 0.00036749998536210433 0 -0.00095225978777634731 0.00040661547009477716 0 -0.00097561274579302981 0.00047003175103648879 0 -0.00095225978777634731 0.00040661547009477716 0 -0.00097561274579302981 0.00047003175103648879 0 -0.00088491569994191487 0.00045116910129092445 0 -0.00093978059702893755 0.00033638552402278802 0 -0.0010793343577799577 0.00036749998536210433 0 -0.00095225978777634731 0.00040661547009477716 0 -0.0010136208848377589 0.00025786190112837441 0 -0.00072322412879568881 0.00047123903771593886 0 -0.00093978059702893755 0.00033638552402278802 0 -0.00095225978777634731 0.00040661547009477716 0 -0.00088491569994191487 0.00045116910129092445 0 0.00029576251967466889 0.00044650834685559197 0 0.0006257094213618804 0.00067455134764421898 0 0.00029576251967466889 0.00044650834685559197 0 -0.00072322412879568881 0.00047123903771593886 0 3.6465186830337636e-05 0.0005152379008459627 0 -1.3356499896448158e-06 0.0005220782065580667 0 5.9925335516679584e-06 0.00048617180777596832 0 0.0012923223145903018 0.00096123279919975012 0 0.0014181619155645665 0.00066760563720080605 0 0.001033733120831938 0.00069753098272548662 0 0.0012285688636688118 0.00045630656515337784 0 0.0014181619155645665 0.00066760563720080605 0 0.001033733120831938 0.00069753098272548662 0 0.0012285688636688118 0.00045630656515337784 0 0.00099330873874122253 0.00040307344721680601 0 0.0011443132095312596 0.00018399288520067907 0 0.0012285688636688118 0.00045630656515337784 0 0.0011443132095312596 0.00018399288520067907 0 0.0013584077332189305 0.00023016306120874754 0 0.0012285688636688118 0.00045630656515337784 0 0.001033733120831938 0.00069753098272548662 0 0.00099330873874122253 0.00040307344721680601 0 0.0012285688636688118 0.00045630656515337784 0 0.0014980653268753294 0.00044136636701200152 0 0.0013584077332189305 0.00023016306120874754 0 0.0014980653268753294 0.00044136636701200152 0 0.001710234296628256 0.00035292776984667415 0 0.0015867775888379983 0.00021607957107281779 0 0.0014980653268753294 0.00044136636701200152 0 0.0015867775888379983 0.00021607957107281779 0 0.0013584077332189305 0.00023016306120874754 0 0.0012285688636688118 0.00045630656515337784 0 0.0014980653268753294 0.00044136636701200152 0 0.0014181619155645665 0.00066760563720080605 0 0.0014980653268753294 0.00044136636701200152 0 0.0014181619155645665 0.00066760563720080605 0 0.0016938004070153356 0.00057995933520922855 0 0.0017668715147317394 0.0008685266352012166 0 0.0014181619155645665 0.00066760563720080605 0 0.0016938004070153356 0.00057995933520922855 0 0.0012485416784956058 0.00020369620404244313 0 0.0015230966229895296 0.00032114755407173075 0 0.0017668715147317394 0.0008685266352012166 0 0.0016938004070153356 0.00057995933520922855 0 0.0019565996835254748 0.00055961855363747658 0 0.0014980653268753294 0.00044136636701200152 0 0.0016938004070153356 0.00057995933520922855 0 0.001710234296628256 0.00035292776984667415 0 0.001710234296628256 0.00035292776984667415 0 0.0015867775888379983 0.00021607957107281779 0 0.0017440179649326766 0.00020181088533785356 0 0.001710234296628256 0.00035292776984667415 0 0.001829167407517134 0.00026891163719321138 0 0.0017440179649326766 0.00020181088533785356 0 0.001710234296628256 0.00035292776984667415 0 0.001829167407517134 0.00026891163719321138 0 0.0019124579645399319 0.00037855127432427421 0 0.0016938004070153356 0.00057995933520922855 0 0.001710234296628256 0.00035292776984667415 0 0.0019124579645399319 0.00037855127432427421 0 0.0016938004070153356 0.00057995933520922855 0 0.0019124579645399319 0.00037855127432427421 0 0.0019565996835254748 0.00055961855363747658 0 0.0019124579645399319 0.00037855127432427421 0 0.0019565996835254748 0.00055961855363747658 0 0.0021525836159514119 0.00024286077923247416 0 0.0015230966229895296 0.00032114755407173075 0 0.0028069755698169096 -6.8226836966799205e-05 0 0.0012770690269519388 -0.00010796736303147632 0 0.0013083555237656268 -0.00011953120657474715 0 0.0013089272252055782 -0.00014982652529374905 0 0.001829167407517134 0.00026891163719321138 0 0.0019124579645399319 0.00037855127432427421 0 0.0019151686244424447 0.00022007455092900774 0 0.0019124579645399319 0.00037855127432427421 0 0.0019151686244424447 0.00022007455092900774 0 0.0020101084015115341 0.00023835794548406151 0 0.0019124579645399319 0.00037855127432427421 0 0.0020101084015115341 0.00023835794548406151 0 0.0021525836159514119 0.00024286077923247416 0 0.0012522107430975363 -6.4767495983340714e-05 0 0.0012770690269519388 -0.00010796736303147632 0 0.0013034298646633158 -7.9671061480079928e-05 0 0.0012770690269519388 -0.00010796736303147632 0 0.0013083555237656268 -0.00011953120657474715 0 0.0013034298646633158 -7.9671061480079928e-05 0 -0.00093799693367693185 0.00011911196460033649 0 -0.00092528650805251444 0.00013006401647352932 0 -0.00092696116265220216 0.0001066584396814358 0 -0.00093799693367693185 0.00011911196460033649 0 -0.00095628898269836963 0.00012656032209295621 0 -0.00095811768053239007 0.00010107490404987938 0 -0.00093799693367693185 0.00011911196460033649 0 -0.00095628898269836963 0.00012656032209295621 0 -0.00093792441209507294 0.00013929776481873239 0 -0.001021376328244711 8.2480057975689323e-05 0 -0.0010464834804637399 5.130944444276313e-05 0 -0.0011210922966612901 -3.6938463518951775e-05 0 -0.0010945200863177642 3.736350812653005e-05 0 -0.0011402648991742216 -1.6198629742636039e-05 0 -0.0011210922966612901 -3.6938463518951775e-05 0 -0.0010945200863177642 3.736350812653005e-05 0 -0.0010834646803345193 -2.7425366097193941e-05 0 -0.00093799693367693185 0.00011911196460033649 0 -0.00093792441209507294 0.00013929776481873239 0 -0.00092528650805251444 0.00013006401647352932 0 -0.0010014481617443272 0.00011394101952932714 0 -0.00089941440023650948 0.0002313744634136633 0 -0.00092440925442008152 0.00015098224017334299 0 -0.00093792441209507294 0.00013929776481873239 0 -0.00092528650805251444 0.00013006401647352932 0 -0.00094113555903103257 0.0002051391693477313 0 -0.0009626015476579318 0.00025783192376877673 0 -0.00091204601704853458 0.00030230325461601666 0 -0.0009626015476579318 0.00025783192376877673 0 -0.0009536762102816277 0.00029707378991597326 0 -0.00091204601704853458 0.00030230325461601666 0 -0.0010347893598930593 0.00022968884920671653 0 -0.00098830730841756721 0.00027822236035919215 0 -0.0010009563146975583 0.00031184786492453713 0 -0.00099742069281701247 0.00023678441980494078 0 -0.0010347893598930593 0.00022968884920671653 0 -0.00098830730841756721 0.00027822236035919215 0 -0.00099742069281701247 0.00023678441980494078 0 -0.0009626015476579318 0.00025783192376877673 0 -0.00098830730841756721 0.00027822236035919215 0 -0.0009626015476579318 0.00025783192376877673 0 -0.0009536762102816277 0.00029707378991597326 0 -0.00098830730841756721 0.00027822236035919215 0 -0.00098830730841756721 0.00027822236035919215 0 -0.00097394717764314983 0.00030058781294149369 0 -0.00099144153059226394 0.00031016768533920951 0 -0.0009536762102816277 0.00029707378991597326 0 -0.00098830730841756721 0.00027822236035919215 0 -0.00097394717764314983 0.00030058781294149369 0 -0.00098830730841756721 0.00027822236035919215 0 -0.0010009563146975583 0.00031184786492453713 0 -0.00099144153059226394 0.00031016768533920951 0 -0.00072322412879568881 0.00047123903771593886 0 -0.00050682922109309921 0.00041233287441259865 0 -0.0010004476342418799 0.00031220587093256172 0 -0.00095751321102728354 0.00033509960813131733 0 -0.00096700835167842401 0.00037933411104959942 0 -1.3356499896448158e-06 0.0005220782065580667 0 5.9925335516679584e-06 0.00048617180777596832 0 -1.1395331583692495e-05 0.000489297232931756 0 -0.00072322412879568881 0.00047123903771593886 0 -0.00077262280596014274 0.00046894759783953281 0 -0.00097394717764314983 0.00030058781294149369 0 -0.00099144153059226394 0.00031016768533920951 0 -0.00095751321102728354 0.00033509960813131733 0 -0.0009536762102816277 0.00029707378991597326 0 -0.00097394717764314983 0.00030058781294149369 0 -0.00095751321102728354 0.00033509960813131733 0 -0.0010004476342418799 0.00031220587093256172 0 -0.00099144153059226394 0.00031016768533920951 0 -0.00095751321102728354 0.00033509960813131733 0 -0.00095751321102728354 0.00033509960813131733 0 -0.0009304617290095418 0.00037396781869185959 0 -0.00096700835167842401 0.00037933411104959942 0 -0.00091204601704853458 0.00030230325461601666 0 -0.00095751321102728354 0.00033509960813131733 0 -0.0009304617290095418 0.00037396781869185959 0 -0.00091204601704853458 0.00030230325461601666 0 -0.00088408394328223642 0.00040699678049541045 0 -0.0009304617290095418 0.00037396781869185959 0 -0.00089941440023650948 0.0002313744634136633 0 -0.00098314538646580266 0.00026186952324690427 0 -0.0009536762102816277 0.00029707378991597326 0 -0.00091204601704853458 0.00030230325461601666 0 -0.00095751321102728354 0.00033509960813131733 0 -0.00088408394328223642 0.00040699678049541045 0 -0.0009304617290095418 0.00037396781869185959 0 -0.00093227036596075629 0.00044715071690796003 0 -0.0009304617290095418 0.00037396781869185959 0 -0.00096700835167842401 0.00037933411104959942 0 -0.00093227036596075629 0.00044715071690796003 0 0.0006257094213618804 0.00067455134764421898 0 0.00010011824534999326 0.00042143911785229153 0 -0.00050682922109309921 0.00041233287441259865 0 0.00010011824534999326 0.00042143911785229153 0 5.9925335516679584e-06 0.00048617180777596832 0 -1.1395331583692495e-05 0.000489297232931756 0 -2.2178430212244372e-05 0.00045870108642753787 0 0.001033733120831938 0.00069753098272548662 0 0.00099330873874122253 0.00040307344721680601 0 0.00077156307532442612 0.00043418419017896622 0 0.00099330873874122253 0.00040307344721680601 0 0.0008377578971075837 0.00031343385624387491 0 0.00091854954872731896 0.0001984062726619134 0 0.00099330873874122253 0.00040307344721680601 0 0.0008377578971075837 0.00031343385624387491 0 0.00077156307532442612 0.00043418419017896622 0 0.00099330873874122253 0.00040307344721680601 0 0.00091854954872731896 0.0001984062726619134 0 0.0011443132095312596 0.00018399288520067907 0 0.00010011824534999326 0.00042143911785229153 0 -0.00029328845950942959 0.00023611373655202728 0 0.00076970836021495348 0.00043335934594991267 0 0.00073175181258018011 0.00033256439215436105 0 0.00048715908415185988 0.00014908309819055665 0 -0.00088408394328223642 0.00040699678049541045 0 -0.00093227036596075629 0.00044715071690796003 0 -0.0008589156427078401 0.00051097572141014711 0 0.0008377578971075837 0.00031343385624387491 0 0.00073175181258018011 0.00033256439215436105 0 0.00076920386638941647 0.00019036698751590542 0 0.0008377578971075837 0.00031343385624387491 0 0.00077156307532442612 0.00043418419017896622 0 0.00073175181258018011 0.00033256439215436105 0 0.00010011824534999326 0.00042143911785229153 0 0.00034164047676025474 0.00048071428137112831 0 -0.00098314538646580266 0.00026186952324690427 0 -0.00029328845950942959 0.00023611373655202728 0 -0.00092696116265220216 0.0001066584396814358 0 -0.00093264718157716237 0.00010035564773105255 0 -0.0009233249878135573 9.6264694825605484e-05 0 -0.00092696116265220216 0.0001066584396814358 0 -0.00093264718157716237 0.00010035564773105255 0 -0.00093916521794898888 0.00010450823194973505 0 -0.00093799693367693185 0.00011911196460033649 0 -0.00092696116265220216 0.0001066584396814358 0 -0.00093916521794898888 0.00010450823194973505 0 -0.00093799693367693185 0.00011911196460033649 0 -0.00093916521794898888 0.00010450823194973505 0 -0.00095811768053239007 0.00010107490404987938 0 -0.00093916521794898888 0.00010450823194973505 0 -0.00095811768053239007 0.00010107490404987938 0 -0.00094326365143051398 0.00010143406500114385 0 -0.00093264718157716237 0.00010035564773105255 0 -0.00093916521794898888 0.00010450823194973505 0 -0.00094326365143051398 0.00010143406500114385 0 -0.00093264718157716237 0.00010035564773105255 0 -0.00094326365143051398 0.00010143406500114385 0 -0.00092985787979732351 9.7373771158243766e-05 0 -0.00095811768053239007 0.00010107490404987938 0 -0.00094326365143051398 0.00010143406500114385 0 -0.00096169707905428934 0.00010937413487660544 0 -0.00096169707905428934 0.00010937413487660544 0 -0.00098870912074345728 9.4064138481699238e-05 0 -0.00095402566542610717 9.1556731503183712e-05 0 -0.00096169707905428934 0.00010937413487660544 0 -0.00095402566542610717 9.1556731503183712e-05 0 -0.00092284527159210194 0.00011462956440406946 0 -0.00098870912074345728 9.4064138481699238e-05 0 -0.00095402566542610717 9.1556731503183712e-05 0 -0.00096146002505931598 5.798298730751267e-05 0 -0.00095628898269836963 0.00012656032209295621 0 -0.00095811768053239007 0.00010107490404987938 0 -0.00098870912074345728 9.4064138481699238e-05 0 -0.00095811768053239007 0.00010107490404987938 0 -0.00096169707905428934 0.00010937413487660544 0 -0.00098870912074345728 9.4064138481699238e-05 0 -0.001021376328244711 8.2480057975689323e-05 0 -0.00099498515030037272 9.3249996912457683e-05 0 -0.0010945200863177642 3.736350812653005e-05 0 -0.00098870912074345728 9.4064138481699238e-05 0 -0.0010232878929614759 3.1667862223471569e-05 0 -0.00098870912074345728 9.4064138481699238e-05 0 -0.0010232878929614759 3.1667862223471569e-05 0 -0.00096146002505931598 5.798298730751267e-05 0 -0.0010232878929614759 3.1667862223471569e-05 0 -0.0010032573888392935 -7.2344952419289079e-07 0 -0.0010834646803345193 -2.7425366097193941e-05 0 -0.0010232878929614759 3.1667862223471569e-05 0 -0.0010032573888392935 -7.2344952419289079e-07 0 -0.00096146002505931598 5.798298730751267e-05 0 -0.0010945200863177642 3.736350812653005e-05 0 -0.0010232878929614759 3.1667862223471569e-05 0 -0.0010834646803345193 -2.7425366097193941e-05 0 -0.00094211097944647848 2.9373535744932502e-05 0 -0.00089358056350939111 3.3296227723108655e-05 0 -0.00094534752118861031 -1.724650574777893e-05 0 -0.0010148266750963288 -5.5518333901826476e-05 0 -0.0011406458030204368 -0.00012445759631301304 0 -0.0010032573888392935 -7.2344952419289079e-07 0 -0.00094211097944647848 2.9373535744932502e-05 0 -0.00096146002505931598 5.798298730751267e-05 0 -0.0010032573888392935 -7.2344952419289079e-07 0 -0.00094211097944647848 2.9373535744932502e-05 0 -0.00094534752118861031 -1.724650574777893e-05 0 -0.00094211097944647848 2.9373535744932502e-05 0 -0.00096146002505931598 5.798298730751267e-05 0 -0.00091611053434316741 6.0542578039282405e-05 0 -0.00094211097944647848 2.9373535744932502e-05 0 -0.00091611053434316741 6.0542578039282405e-05 0 -0.00089358056350939111 3.3296227723108655e-05 0 -0.00089298205528001392 3.1988579700664688e-05 0 -0.0010148266750963288 -5.5518333901826476e-05 0 -0.00087492934328207571 1.9169842097058597e-05 0 -0.00091863497454208948 7.5346894532178345e-05 0 -0.00083527622343659087 6.7379686321136052e-05 0 -0.00091863497454208948 7.5346894532178345e-05 0 -0.0008647195641062808 0.00010816687721298971 0 -0.00083527622343659087 6.7379686321136052e-05 0 -0.00089298205528001392 3.1988579700664688e-05 0 -0.00091862675556366098 7.2099084138158289e-05 0 -0.00096146002505931598 5.798298730751267e-05 0 -0.00091611053434316741 6.0542578039282405e-05 0 -0.00091863497454208948 7.5346894532178345e-05 0 -0.00095402566542610717 9.1556731503183712e-05 0 -0.00096146002505931598 5.798298730751267e-05 0 -0.00091863497454208948 7.5346894532178345e-05 0 -0.00095402566542610717 9.1556731503183712e-05 0 -0.00091863497454208948 7.5346894532178345e-05 0 -0.00092284527159210194 0.00011462956440406946 0 -0.00091863497454208948 7.5346894532178345e-05 0 -0.00092284527159210194 0.00011462956440406946 0 -0.0008647195641062808 0.00010816687721298971 0 -0.00092284527159210194 0.00011462956440406946 0 -0.0008647195641062808 0.00010816687721298971 0 -0.00087624839682933528 0.0001516516363759931 0 -0.0008647195641062808 0.00010816687721298971 0 -0.00079850852573445507 0.00010146616755577124 0 -0.00083527622343659087 6.7379686321136052e-05 0 -0.0008647195641062808 0.00010816687721298971 0 -0.00079850852573445507 0.00010146616755577124 0 -0.00082918208155636044 0.00014028660122833057 0 -0.00079850852573445507 0.00010146616755577124 0 -0.00078166173788263185 7.2271998698301304e-05 0 -0.00083527622343659087 6.7379686321136052e-05 0 -0.00075417143864010047 0.00012557466794945233 0 -0.00078166173788263185 7.2271998698301304e-05 0 -0.000742796087318848 7.7301658083509721e-05 0 -0.00079850852573445507 0.00010146616755577124 0 -0.00075261786807121834 0.0001193814012963049 0 -0.00078412137955400458 0.00015016756679903391 0 -0.000783179911232925 0.00010771267555145683 0 -0.00077716208127193587 0.00010182052697286535 0 -0.00079850852573445507 0.00010146616755577124 0 -0.00075417143864010047 0.00012557466794945233 0 -0.00078166173788263185 7.2271998698301304e-05 0 -0.00078166173788263185 7.2271998698301304e-05 0 -0.000742796087318848 7.7301658083509721e-05 0 -0.00078680743902374579 2.807525588267694e-05 0 -0.000742796087318848 7.7301658083509721e-05 0 -0.00079952356062844873 2.2038902156285794e-05 0 -0.00072635966537664884 6.3884421999292444e-05 0 -0.00075481624978703497 6.5580239069569377e-05 0 -0.00077131805917612863 4.1774728155430371e-05 0 -0.00087492934328207571 1.9169842097058597e-05 0 -0.00078680743902374579 2.807525588267694e-05 0 -0.00083527622343659087 6.7379686321136052e-05 0 -0.00078166173788263185 7.2271998698301304e-05 0 -0.00078680743902374579 2.807525588267694e-05 0 -0.00083527622343659087 6.7379686321136052e-05 0 -3.9030857492556579e-05 3.3536699222491426e-07 0 -0.00022488564208886463 1.7527001491146433e-05 0 -0.0003155972489618007 -1.7296212606728739e-07 0 -3.9030857492556579e-05 3.3536699222491426e-07 0 -0.00022488564208886463 1.7527001491146433e-05 0 -0.00024482742101195661 0.00016290312523484449 0 -0.00022488564208886463 1.7527001491146433e-05 0 -0.00037564857439242373 -1.680672962365999e-05 0 -0.00030066434426278936 0.00012056047945787875 0 -0.000742796087318848 7.7301658083509721e-05 0 -0.00072635966537664884 6.3884421999292444e-05 0 -0.00070627544709049204 0.00014942525123433684 0 -0.00075417143864010047 0.00012557466794945233 0 -0.000742796087318848 7.7301658083509721e-05 0 -0.00070627544709049204 0.00014942525123433684 0 -0.00056466684347446781 2.9208326104132215e-05 0 -0.00045686375995090077 8.8004881223792972e-05 0 -0.00022488564208886463 1.7527001491146433e-05 0 -0.00037564857439242373 -1.680672962365999e-05 0 -0.0003155972489618007 -1.7296212606728739e-07 0 -0.00047554561149848614 -2.7103901137405287e-05 0 -0.0003155972489618007 -1.7296212606728739e-07 0 -0.00059277294409549762 -4.1925214965795148e-08 0 -0.00037564857439242373 -1.680672962365999e-05 0 -0.00047554561149848614 -2.7103901137405287e-05 0 -0.0003155972489618007 -1.7296212606728739e-07 0 -0.00037564857439242373 -1.680672962365999e-05 0 -0.00047554561149848614 -2.7103901137405287e-05 0 -0.0005011232544127912 -3.7205816880074028e-05 0 -0.00056466684347446781 2.9208326104132215e-05 0 -0.0005821769498537111 -4.1211699489481463e-05 0 -0.00047554561149848614 -2.7103901137405287e-05 0 -0.0005011232544127912 -3.7205816880074028e-05 0 -0.0006299213375070557 -2.2178938495013179e-05 0 -0.0005011232544127912 -3.7205816880074028e-05 0 -0.00057059814452060475 -1.2131570413321609e-05 0 -0.0006299213375070557 -2.2178938495013179e-05 0 -0.00047554561149848614 -2.7103901137405287e-05 0 -0.00059277294409549762 -4.1925214965795148e-08 0 -0.0006299213375070557 -2.2178938495013179e-05 0 -0.00087492934328207571 1.9169842097058597e-05 0 -0.00078680743902374579 2.807525588267694e-05 0 -0.00083730102486050822 -2.6347626649218709e-05 0 -0.00079952356062844873 2.2038902156285794e-05 0 -0.00085441462037005715 -3.5309890364959085e-05 0 -0.00080356773251111105 -3.2955612402637443e-05 0 -0.00077131805917612863 4.1774728155430371e-05 0 -0.0010148266750963288 -5.5518333901826476e-05 0 -0.00079952356062844873 2.2038902156285794e-05 0 -0.00072635966537664884 6.3884421999292444e-05 0 -0.00075098232365887506 -3.3427178852738674e-05 0 -0.00079952356062844873 2.2038902156285794e-05 0 -0.00075098232365887506 -3.3427178852738674e-05 0 -0.00080356773251111105 -3.2955612402637443e-05 0 -0.0005821769498537111 -4.1211699489481463e-05 0 -0.0010386715600960437 -3.9609193876179488e-05 0 -0.00075098232365887506 -3.3427178852738674e-05 0 -0.00081391037558657133 -8.2744981690347129e-05 0 -0.00077550732711630067 -0.0001292372243558988 0 -0.00075098232365887506 -3.3427178852738674e-05 0 -0.00080356773251111105 -3.2955612402637443e-05 0 -0.00081391037558657133 -8.2744981690347129e-05 0 -0.0013457824207415401 -0.00025665867333887743 0 -0.0013783678373205065 -0.00022150975408067008 0 -0.001295436917050692 -0.00020277269605174854 0 -0.00085441462037005715 -3.5309890364959085e-05 0 -0.00080356773251111105 -3.2955612402637443e-05 0 -0.00081391037558657133 -8.2744981690347129e-05 0 -0.0010148266750963288 -5.5518333901826476e-05 0 -0.0010849273846419932 -0.00015615000323710457 0 -0.0013783678373205065 -0.00022150975408067008 0 -0.0013511048143694914 -0.00016512397761595795 0 -0.0014115543724771246 -0.00018442523006547215 0 -0.0013783678373205065 -0.00022150975408067008 0 -0.0013511048143694914 -0.00016512397761595795 0 -0.001295436917050692 -0.00020277269605174854 0 -0.0010849273846419932 -0.00015615000323710457 0 -0.0010386715600960437 -3.9609193876179488e-05 0 -0.0010386715600960437 -3.9609193876179488e-05 0 -0.0014466420140863629 -1.0565837690319862e-05 0 -0.0013511048143694914 -0.00016512397761595795 0 -0.0014115543724771246 -0.00018442523006547215 0 -0.0014020643352741853 -0.00010546515102562006 0 -0.0013850306935760642 0.00017753831191580984 0 -0.001321685873212965 0.00011657206722955509 0 -0.0014089800567392619 8.2971525582152089e-05 0 -0.0013511048143694914 -0.00016512397761595795 0 -0.0013431407459787289 -8.558236129292427e-05 0 -0.0014020643352741853 -0.00010546515102562006 0 -0.00059277294409549762 -4.1925214965795148e-08 0 -0.0006299213375070557 -2.2178938495013179e-05 0 -0.00086981255994342309 -3.7268479631889474e-08 0 -0.00057059814452060475 -1.2131570413321609e-05 0 -0.0006299213375070557 -2.2178938495013179e-05 0 -0.00074130649626247638 3.0734295251183007e-05 0 -0.0010386715600960437 -3.9609193876179488e-05 0 -0.0010210422735771843 7.7680582700950766e-05 0 -0.0006299213375070557 -2.2178938495013179e-05 0 -0.00074130649626247638 3.0734295251183007e-05 0 -0.00086981255994342309 -3.7268479631889474e-08 0 -0.00074130649626247638 3.0734295251183007e-05 0 -0.00086981255994342309 -3.7268479631889474e-08 0 -0.0011467225343683289 1.6944190152374509e-07 0 -0.001321685873212965 0.00011657206722955509 0 -0.001372173766161965 -1.3278369220040534e-06 0 -0.0011475606955798725 1.3515168775275457e-07 0 -0.0010210422735771843 7.7680582700950766e-05 0 -0.0011469164538997038 -4.5123674632163402e-08 0 -0.001321685873212965 0.00011657206722955509 0 -0.001372173766161965 -1.3278369220040534e-06 0 -0.0014089800567392619 8.2971525582152089e-05 0 -0.0013625274710356559 -1.6607441581924982e-05 0 -0.001372173766161965 -1.3278369220040534e-06 0 -0.0011475606955798725 1.3515168775275457e-07 0 -0.0013431407459787289 -8.558236129292427e-05 0 -0.0014020643352741853 -0.00010546515102562006 0 -0.0013932846349834474 -1.9168857673319935e-05 0 -0.0014466420140863629 -1.0565837690319862e-05 0 -0.0013852276178866008 -1.4061667478112778e-05 0 -0.001372173766161965 -1.3278369220040534e-06 0 -0.0014089800567392619 8.2971525582152089e-05 0 -0.0013932846349834474 -1.9168857673319935e-05 0 -0.0014082772420357485 -1.6521923711664178e-05 0 -0.001372173766161965 -1.3278369220040534e-06 0 -0.0013932846349834474 -1.9168857673319935e-05 0 -0.0013431407459787289 -8.558236129292427e-05 0 -0.0013932846349834474 -1.9168857673319935e-05 0 -0.0013349682627660992 -1.7457152357634354e-05 0 -0.0013431407459787289 -8.558236129292427e-05 0 -0.0013349682627660992 -1.7457152357634354e-05 0 -0.0012833716245455194 -5.7743618818591529e-05 0 -0.0013431407459787289 -8.558236129292427e-05 0 -0.0012833716245455194 -5.7743618818591529e-05 0 -0.0013022280239880272 -0.000133036624459272 0 -0.0012833716245455194 -5.7743618818591529e-05 0 -0.0013022280239880272 -0.000133036624459272 0 -0.001236070761635085 -0.00014885269243753032 0 -0.0012833716245455194 -5.7743618818591529e-05 0 -0.0012241308229700349 -3.2750948468052968e-05 0 -0.0011589937325511999 -7.9409038059413529e-05 0 -0.0011972960610647635 -9.850224973307318e-06 0 -0.0011471960010248719 -6.23592747979193e-05 0 -0.0011589937325511999 -7.9409038059413529e-05 0 -0.0011972960610647635 -9.850224973307318e-06 0 -0.0012241308229700349 -3.2750948468052968e-05 0 -0.0011589937325511999 -7.9409038059413529e-05 0 -0.0011471960010248719 -6.23592747979193e-05 0 -0.0011589937325511999 -7.9409038059413529e-05 0 -0.001126321207762746 -6.5759777823706599e-05 0 -0.0012833716245455194 -5.7743618818591529e-05 0 -0.0011589937325511999 -7.9409038059413529e-05 0 -0.001236070761635085 -0.00014885269243753032 0 -0.0011589937325511999 -7.9409038059413529e-05 0 -0.001126321207762746 -6.5759777823706599e-05 0 -0.0010351140656584322 -6.6874276525920133e-05 0 -0.0011523114643333045 -8.2724954141897154e-05 0 -0.001130867065718164 -9.9140773500799777e-05 0 -0.001126321207762746 -6.5759777823706599e-05 0 -0.0010834646803345193 -2.7425366097193941e-05 0 -0.0010351140656584322 -6.6874276525920133e-05 0 -0.0011210922966612901 -3.6938463518951775e-05 0 -0.001126321207762746 -6.5759777823706599e-05 0 -0.0010834646803345193 -2.7425366097193941e-05 0 -0.0010032573888392935 -7.2344952419289079e-07 0 -0.0010834646803345193 -2.7425366097193941e-05 0 -0.0010351140656584322 -6.6874276525920133e-05 0 -0.0011406458030204368 -0.00012445759631301304 0 -0.001130867065718164 -9.9140773500799777e-05 0 -0.0010032573888392935 -7.2344952419289079e-07 0 -0.00094534752118861031 -1.724650574777893e-05 0 -0.0010351140656584322 -6.6874276525920133e-05 0 -0.0013511048143694914 -0.00016512397761595795 0 -0.001295436917050692 -0.00020277269605174854 0 -0.0013022280239880272 -0.000133036624459272 0 -0.0013511048143694914 -0.00016512397761595795 0 -0.0013431407459787289 -8.558236129292427e-05 0 -0.0013022280239880272 -0.000133036624459272 0 -0.001295436917050692 -0.00020277269605174854 0 -0.0013022280239880272 -0.000133036624459272 0 -0.001236070761635085 -0.00014885269243753032 0 0.00078584203037334775 3.0199257821905637e-05 0 0.00072866717513126334 -0.00013665288903537149 0 0.00068805362592884813 8.6825300316909426e-05 0 0.00082945411834067708 -4.6432230502798935e-05 0 0.00078584203037334775 3.0199257821905637e-05 0 0.00072866717513126334 -0.00013665288903537149 0 0.00082945411834067708 -4.6432230502798935e-05 0 0.00078584203037334775 3.0199257821905637e-05 0 0.00088569674508032128 4.2196860078880214e-05 0 0.00088569674508032128 4.2196860078880214e-05 0 0.00097892923307337236 4.9697807119924432e-05 0 0.00097645338378995333 -2.8261821089778196e-05 0 0.00088569674508032128 4.2196860078880214e-05 0 0.00097645338378995333 -2.8261821089778196e-05 0 0.00089706786473917229 -4.0463560736116701e-05 0 0.00082945411834067708 -4.6432230502798935e-05 0 0.00088569674508032128 4.2196860078880214e-05 0 0.00089706786473917229 -4.0463560736116701e-05 0 0.0011626923527244485 -0.00010964579107694819 0 0.0011873560099492182 -8.3480286331480804e-05 0 0.0011214903230235419 -8.7713686712214279e-05 0 0.0010804485488136663 -0.00011258022672896625 0 0.0010500335003322187 -0.00011016379271693254 0 0.00082945411834067708 -4.6432230502798935e-05 0 0.00089706786473917229 -4.0463560736116701e-05 0 0.00089710241005413766 -0.00013202603176016257 0 0.0011626923527244485 -0.00010964579107694819 0 0.0010744888948720109 -0.00010509873307711438 0 0.0011214903230235419 -8.7713686712214279e-05 0 0.00097645338378995333 -2.8261821089778196e-05 0 0.00089710241005413766 -0.00013202603176016257 0 0.0010744888948720109 -0.00010509873307711438 0 0.00097645338378995333 -2.8261821089778196e-05 0 0.00089706786473917229 -4.0463560736116701e-05 0 0.00089710241005413766 -0.00013202603176016257 0 0.0010804485488136663 -0.00011258022672896625 0 0.0006805325526348853 -0.00021978824059296642 0 0.0011626923527244485 -0.00010964579107694819 0 0.0011708711689641584 -8.0590260087935536e-05 0 0.0011873560099492182 -8.3480286331480804e-05 0 0.00082945411834067708 -4.6432230502798935e-05 0 0.00089710241005413766 -0.00013202603176016257 0 0.00072866717513126334 -0.00013665288903537149 0 0.0011626923527244485 -0.00010964579107694819 0 0.0011708711689641584 -8.0590260087935536e-05 0 0.0011709687714031658 -8.7170976849248037e-05 0 0.00082333176617581329 -0.00014551787926284868 0 0.0006805325526348853 -0.00021978824059296642 0 0.0011708711689641584 -8.0590260087935536e-05 0 0.001148801647611195 -7.1894776492853577e-05 0 0.0011446644534457043 -8.9182935994578665e-05 0 0.001148801647611195 -7.1894776492853577e-05 0 0.0011128380988020268 -6.7668756985724934e-05 0 0.0011446644534457043 -8.9182935994578665e-05 0 0.001164020700788936 -5.0670361545618619e-05 0 0.001148801647611195 -7.1894776492853577e-05 0 0.0011128380988020268 -6.7668756985724934e-05 0 0.001164020700788936 -5.0670361545618619e-05 0 0.0011128380988020268 -6.7668756985724934e-05 0 0.0010602512175987406 -4.6230130340506627e-05 0 0.0006805325526348853 -0.00021978824059296642 0 0.0005874829509258582 -0.00016307637376150784 0 -7.0785386473079282e-05 -0.00037633502307081451 0 0.00017594655989664154 -0.00028325388283034173 0 -1.9633278933984674e-05 -0.00039868088638860536 0 0.0011708711689641584 -8.0590260087935536e-05 0 0.001164020700788936 -5.0670361545618619e-05 0 0.001148801647611195 -7.1894776492853577e-05 0 0.00017594655989664154 -0.00028325388283034173 0 -1.9633278933984674e-05 -0.00039868088638860536 0 0.00039358365834215111 -0.00040293176813046189 0 -1.174951692908567e-05 -0.00040791375378039074 0 6.2216121731141255e-05 -0.00043198295570418904 0 0.0010602512175987406 -4.6230130340506627e-05 0 0.0010754286362308378 -8.6386642351257874e-05 0 0.0010331037797575646 -8.2477154784405674e-05 0 0.0011128380988020268 -6.7668756985724934e-05 0 0.0010602512175987406 -4.6230130340506627e-05 0 0.0010754286362308378 -8.6386642351257874e-05 0 -0.00016223834503628607 -0.00036167824721352904 0 -1.9633278933984674e-05 -0.00039868088638860536 0 -0.00026092297478076405 -0.00047106551828699091 0 -0.00016223834503628607 -0.00036167824721352904 0 -1.9633278933984674e-05 -0.00039868088638860536 0 -8.8146393330537526e-05 -0.00031948027148188279 0 -0.00016223834503628607 -0.00036167824721352904 0 -0.00018912455018386796 -0.00027828198202571575 0 -0.00026534788650865309 -0.00035166530568608531 0 0.0006805325526348853 -0.00021978824059296642 0 0.00033333701694659691 -0.00012100520000366569 0 -1.9633278933984674e-05 -0.00039868088638860536 0 1.0788410248158914e-05 -0.00032065625894828079 0 -8.8146393330537526e-05 -0.00031948027148188279 0 -7.0785386473079282e-05 -0.00037633502307081451 0 -1.9633278933984674e-05 -0.00039868088638860536 0 1.0788410248158914e-05 -0.00032065625894828079 0 1.0788410248158914e-05 -0.00032065625894828079 0 -8.8146393330537526e-05 -0.00031948027148188279 0 -9.8860398195138211e-05 -0.00020817277891458703 0 -0.00016223834503628607 -0.00036167824721352904 0 -0.00018912455018386796 -0.00027828198202571575 0 -8.8146393330537526e-05 -0.00031948027148188279 0 -0.00018912455018386796 -0.00027828198202571575 0 -8.8146393330537526e-05 -0.00031948027148188279 0 -9.8860398195138211e-05 -0.00020817277891458703 0 -0.00018912455018386796 -0.00027828198202571575 0 -9.8860398195138211e-05 -0.00020817277891458703 0 -0.00019002473395763399 -0.00017029928812615456 0 -9.8860398195138211e-05 -0.00020817277891458703 0 -0.00019002473395763399 -0.00017029928812615456 0 -0.00011231276960073768 -8.5244673117833931e-05 0 -0.00019002473395763399 -0.00017029928812615456 0 -0.00011231276960073768 -8.5244673117833931e-05 0 -0.00021044470147632877 -7.4311816489039398e-05 0 0.00068805362592884813 8.6825300316909426e-05 0 0.00074403446951103929 0.00022428564264771723 0 0.00064200022532020986 0.00031690361318761516 0 0.00033333701694659691 -0.00012100520000366569 0 6.1338022766469754e-05 0.00014768537687260465 0 1.0788410248158914e-05 -0.00032065625894828079 0 -9.8860398195138211e-05 -0.00020817277891458703 0 -1.1808735134786235e-05 -5.5681126971195389e-05 0 -9.8860398195138211e-05 -0.00020817277891458703 0 -0.00011231276960073768 -8.5244673117833931e-05 0 -1.1808735134786235e-05 -5.5681126971195389e-05 0 -0.00011231276960073768 -8.5244673117833931e-05 0 -1.5070439728715161e-05 -5.495309614074522e-05 0 -7.3226639604080643e-05 -3.9779082177198944e-05 0 -0.00012411971159927721 -3.006165892164365e-05 0 6.1338022766469754e-05 0.00014768537687260465 0 0.00074403446951103929 0.00022428564264771723 0 0.00072297269000632747 0.00034172981377041188 0 0.00064200022532020986 0.00031690361318761516 0 0.00074403446951103929 0.00022428564264771723 0 0.00082847734807066028 0.00013424744075545391 0 0.00093759173605427253 0.00029137226150414102 0 0.00074403446951103929 0.00022428564264771723 0 0.00093759173605427253 0.00029137226150414102 0 0.00072297269000632747 0.00034172981377041188 0 0.00057275100227994883 0.00023173011516159497 0 -0.0002167683164170651 0.00019138935027692672 0 0.00078584203037334775 3.0199257821905637e-05 0 0.00068805362592884813 8.6825300316909426e-05 0 0.00082847734807066028 0.00013424744075545391 0 0.00068805362592884813 8.6825300316909426e-05 0 0.00074403446951103929 0.00022428564264771723 0 0.00082847734807066028 0.00013424744075545391 0 0.00078584203037334775 3.0199257821905637e-05 0 0.00088569674508032128 4.2196860078880214e-05 0 0.00082847734807066028 0.00013424744075545391 0 0.00093833988890532299 0.00012360417716741971 0 0.00093759173605427253 0.00029137226150414102 0 0.0010627037800143033 8.303793954645596e-05 0 0.00082847734807066028 0.00013424744075545391 0 0.00093833988890532299 0.00012360417716741971 0 0.00093759173605427253 0.00029137226150414102 0 0.00088569674508032128 4.2196860078880214e-05 0 0.00097892923307337236 4.9697807119924432e-05 0 0.00093833988890532299 0.00012360417716741971 0 0.00088569674508032128 4.2196860078880214e-05 0 0.00082847734807066028 0.00013424744075545391 0 0.00093833988890532299 0.00012360417716741971 0 -0.00013995111118395324 0.00019057024779098319 0 -0.00012462045773372864 0.00018796717234349455 0 -0.00013514196239214964 0.00019396070829194061 0 0.00081899188080970602 0.00027852649808952776 0 0.0009109655147668341 0.00025193732081668527 0 0.00089348042462594637 0.00022803733973822705 0 0.00057275100227994883 0.00023173011516159497 0 0.00035185030604341117 0.00022501237480850199 0 0.00057275100227994883 0.00023173011516159497 0 0.0010079232736576813 0.00013974556549972486 0 -0.00012462045773372864 0.00018796717234349455 0 -0.00012085223144596974 0.00019492044781473629 0 -0.00012757006834017087 0.00019688411773730814 0 -0.00012462045773372864 0.00018796717234349455 0 -0.00012757006834017087 0.00019688411773730814 0 -0.00013514196239214964 0.00019396070829194061 0 0.000916273535994714 0.00019531950908897877 0 0.00093579446846278668 0.00021988671494626213 0 0.00095486575032595127 0.00019838162269331149 0 0.0009109655147668341 0.00025193732081668527 0 0.00089348042462594637 0.00022803733973822705 0 0.00093579446846278668 0.00021988671494626213 0 0.00094988532956572489 0.00018600792689420648 0 0.00092188947833022749 0.00023603257286635289 0 0.00089348042462594637 0.00022803733973822705 0 0.000916273535994714 0.00019531950908897877 0 0.00093579446846278668 0.00021988671494626213 0 0.000916273535994714 0.00019531950908897877 0 0.0010302524368486856 0.00017762658251994979 0 0.00096253252809869844 0.00017112389820118882 0 0.000916273535994714 0.00019531950908897877 0 0.00086729991240360989 0.00020181225706156187 0 0.0009318998200102352 0.00015423163150270691 0 0.00081899188080970602 0.00027852649808952776 0 0.00089348042462594637 0.00022803733973822705 0 0.00086729991240360989 0.00020181225706156187 0 0.00089348042462594637 0.00022803733973822705 0 0.000916273535994714 0.00019531950908897877 0 0.00086729991240360989 0.00020181225706156187 0 0.00097892923307337236 4.9697807119924432e-05 0 0.00093833988890532299 0.00012360417716741971 0 0.0010627037800143033 8.303793954645596e-05 0 0.00012017638193800292 0.00022141703842235515 0 9.88801019038798e-05 0.00019828415956980939 0 0.00014212057413118094 0.00018765988193362272 0 -0.0001179849344955771 0.00026843318410772662 0 -8.4001222383278145e-05 0.00021575537821909006 0 -5.2987618259103662e-05 0.00023645517976718332 0 -0.00017739924207743637 0.00024033174980154397 0 -0.00040134860861158929 0.0002896572614082359 0 -0.00017739924207743637 0.00024033174980154397 0 0.00024695286636512297 0.00020425366990600886 0 -0.00017739924207743637 0.00024033174980154397 0 -0.00011902490788803986 0.00023746037256888104 0 -0.00017739924207743637 0.00024033174980154397 0 -0.0003040567824517575 0.00025258144139125486 0 -0.0002387393496249986 0.00022174454221248781 0 -0.0002428489267369358 0.00022814403108864642 0 -0.00024664841070677602 0.00022107283011096413 0 -0.0003040567824517575 0.00025258144139125486 0 -0.00066405178329049087 0.00029132107375527975 0 -0.00041533798170842337 0.00026884942072069628 0 -0.00042149425552146945 0.00025326028115875502 0 -0.00043178999101596278 0.00026736487764746189 0 -0.00041533798170842337 0.00026884942072069628 0 -0.00041349639411756743 0.00026578548893770731 0 -0.00042149425552146945 0.00025326028115875502 0 -0.0003040567824517575 0.00025258144139125486 0 -0.0004082781584427602 0.00021897408522518372 0 -0.00010144240912540831 0.00019020945397780613 0 -0.00011288427583135129 0.00018796524794807053 0 -0.0001045704390212751 0.00018496835189902187 0 -0.00010960211966762623 0.00019070442660233498 0 -0.00010988833558040446 0.00018989090872023116 0 -0.00011288427583135129 0.00018796524794807053 0 -0.0003040567824517575 0.00025258144139125486 0 -0.00011902490788803986 0.00023746037256888104 0 -0.00011902490788803986 0.00023746037256888104 0 0.00039007249484670299 0.00019830667232453766 0 0.00012017638193800292 0.00022141703842235515 0 0.00011054216059157698 0.00022054467139932495 0 9.88801019038798e-05 0.00019828415956980939 0 -0.00012462045773372864 0.00018796717234349455 0 -0.00011288427583135129 0.00018796524794807053 0 -0.00012085223144596974 0.00019492044781473629 0 -0.00012462045773372864 0.00018796717234349455 0 -0.00011288427583135129 0.00018796524794807053 0 -0.0001045704390212751 0.00018496835189902187 0 -0.00010960211966762623 0.00019070442660233498 0 -0.00011288427583135129 0.00018796524794807053 0 -0.00011504051908430653 0.00019760760593462434 0 -0.00011288427583135129 0.00018796524794807053 0 -0.00011504051908430653 0.00019760760593462434 0 -0.00012085223144596974 0.00019492044781473629 0 0.0009109655147668341 0.00025193732081668527 0 0.00093579446846278668 0.00021988671494626213 0 0.00097129945964237604 0.00022674549998184533 0 0.00035185030604341117 0.00022501237480850199 0 0.00039007249484670299 0.00019830667232453766 0 -0.00011902490788803986 0.00023746037256888104 0 -0.00011027805524930588 0.00019702018665612988 0 0.00093579446846278668 0.00021988671494626213 0 0.00095486575032595127 0.00019838162269331149 0 0.00097129945964237604 0.00022674549998184533 0 0.00065581794655523811 0.00020877394883959662 0 0.000645035588424874 0.00019313639253296677 0 0.00065074265777709348 0.00020933277881220804 0 0.00092188947833022749 0.00023603257286635289 0 0.00039007249484670299 0.00019830667232453766 0 0.00063795158634911682 0.00020269013451038772 0 0.00065074265777709348 0.00020933277881220804 0 0.0006238173316341593 0.00021162804067858897 0 0.000645035588424874 0.00019313639253296677 0 0.00063795158634911682 0.00020269013451038772 0 0.00065074265777709348 0.00020933277881220804 0 0.00039007249484670299 0.00019830667232453766 0 0.00024695286636512297 0.00020425366990600886 0 0.000645035588424874 0.00019313639253296677 0 0.00063795158634911682 0.00020269013451038772 0 0.00063247775435089717 0.00019631340453278134 0 0.00089642909274661705 0.00021505552378813487 0 0.00077862345503221762 0.00014985304471080117 0 0.0011041623807911927 0.00013640524631012467 0 0.0010519621482615027 0.00017431110469164578 0 0.0011586648736142395 0.00015733634434821609 0 0.0011041623807911927 0.00013640524631012467 0 0.0010701867279426908 0.00012354491945625647 0 0.0011013706516288086 9.4229694334079322e-05 0 0.0011041623807911927 0.00013640524631012467 0 0.0011013706516288086 9.4229694334079322e-05 0 0.001142530185476421 0.00011382512432368015 0 0.0011041623807911927 0.00013640524631012467 0 0.001066803053190221 0.00014415893694934357 0 0.0010519621482615027 0.00017431110469164578 0 0.0011041623807911927 0.00013640524631012467 0 0.001066803053190221 0.00014415893694934357 0 0.0010701867279426908 0.00012354491945625647 0 0.001066803053190221 0.00014415893694934357 0 0.0010701867279426908 0.00012354491945625647 0 0.001039804323899135 0.00014216863849184652 0 0.0010701867279426908 0.00012354491945625647 0 0.0010346972303479033 0.0001148049290890141 0 0.001064102979450216 9.4216100411171992e-05 0 0.0010302524368486856 0.00017762658251994979 0 0.0010519621482615027 0.00017431110469164578 0 0.00096253252809869844 0.00017112389820118882 0 0.0010519621482615027 0.00017431110469164578 0 0.0010157112334359761 0.00015742391608070808 0 0.00096253252809869844 0.00017112389820118882 0 0.0010701867279426908 0.00012354491945625647 0 0.0010346972303479033 0.0001148049290890141 0 0.001039804323899135 0.00014216863849184652 0 0.0010346972303479033 0.0001148049290890141 0 0.001039804323899135 0.00014216863849184652 0 0.0010068235717224112 0.00014362577980040909 0 0.001066803053190221 0.00014415893694934357 0 0.001039804323899135 0.00014216863849184652 0 0.0010519621482615027 0.00017431110469164578 0 0.00092188947833022749 0.00023603257286635289 0 0.00089642909274661705 0.00021505552378813487 0 0.001039804323899135 0.00014216863849184652 0 0.0010519621482615027 0.00017431110469164578 0 0.0010157112334359761 0.00015742391608070808 0 0.001039804323899135 0.00014216863849184652 0 0.0010157112334359761 0.00015742391608070808 0 0.0010068235717224112 0.00014362577980040909 0 0.0010068235717224112 0.00014362577980040909 0 0.00096253252809869844 0.00017112389820118882 0 0.00098068986277349813 0.00014284866464553671 0 0.0010157112334359761 0.00015742391608070808 0 0.0010068235717224112 0.00014362577980040909 0 0.00096253252809869844 0.00017112389820118882 0 0.0010089644379356437 0.0001054495874330019 0 0.00098068986277349813 0.00014284866464553671 0 0.00096359229504819224 0.00012584328201500976 0 0.0010346972303479033 0.0001148049290890141 0 0.0010068235717224112 0.00014362577980040909 0 0.0010089644379356437 0.0001054495874330019 0 0.0010068235717224112 0.00014362577980040909 0 0.0010089644379356437 0.0001054495874330019 0 0.00098068986277349813 0.00014284866464553671 0 0.0009713529271746298 0.00012078366185603679 0 0.0010676679205008845 6.1619446192091388e-06 0 0.0010089644379356437 0.0001054495874330019 0 0.0010416012813988425 7.6273511005504397e-05 0 0.0010271280059611031 3.5737435800071527e-05 0 0.0010089644379356437 0.0001054495874330019 0 0.00096359229504819224 0.00012584328201500976 0 0.0010271280059611031 3.5737435800071527e-05 0 0.0010416012813988425 7.6273511005504397e-05 0 0.0010735876140011685 5.3932425938089376e-05 0 0.0010271280059611031 3.5737435800071527e-05 0 0.0010346972303479033 0.0001148049290890141 0 0.0010089644379356437 0.0001054495874330019 0 0.0010416012813988425 7.6273511005504397e-05 0 0.0010346972303479033 0.0001148049290890141 0 0.0010416012813988425 7.6273511005504397e-05 0 0.001064102979450216 9.4216100411171992e-05 0 0.001064102979450216 9.4216100411171992e-05 0 0.0010735876140011685 5.3932425938089376e-05 0 0.0011013706516288086 9.4229694334079322e-05 0 0.0010416012813988425 7.6273511005504397e-05 0 0.001064102979450216 9.4216100411171992e-05 0 0.0010735876140011685 5.3932425938089376e-05 0 0.0010701867279426908 0.00012354491945625647 0 0.001064102979450216 9.4216100411171992e-05 0 0.0011013706516288086 9.4229694334079322e-05 0 0.0011122514120384499 5.1355562255175698e-05 0 0.0011013706516288086 9.4229694334079322e-05 0 0.0011473380198430425 7.0863988335325638e-05 0 0.0010735876140011685 5.3932425938089376e-05 0 0.0011122514120384499 5.1355562255175698e-05 0 0.0011013706516288086 9.4229694334079322e-05 0 0.0010627037800143033 8.303793954645596e-05 0 0.0010681074591859312 -2.0871208541693948e-05 0 0.001110711383173619 -8.1344212941661116e-05 0 0.00097645338378995333 -2.8261821089778196e-05 0 0.0010681074591859312 -2.0871208541693948e-05 0 0.0010744888948720109 -0.00010509873307711438 0 0.00097645338378995333 -2.8261821089778196e-05 0 0.0010681074591859312 -2.0871208541693948e-05 0 0.0010213381675007844 1.986284735534355e-05 0 0.00097892923307337236 4.9697807119924432e-05 0 0.0010627037800143033 8.303793954645596e-05 0 0.0010213381675007844 1.986284735534355e-05 0 0.00097892923307337236 4.9697807119924432e-05 0 0.00097645338378995333 -2.8261821089778196e-05 0 0.0010213381675007844 1.986284735534355e-05 0 0.0010627037800143033 8.303793954645596e-05 0 0.0010681074591859312 -2.0871208541693948e-05 0 0.0010213381675007844 1.986284735534355e-05 0 0.0010079232736576813 0.00013974556549972486 0 0.0010244357517063688 3.061580887435717e-06 0 0.00086729991240360989 0.00020181225706156187 0 0.0009318998200102352 0.00015423163150270691 0 0.00094978888666620641 7.2925065959263846e-05 0 0.000916273535994714 0.00019531950908897877 0 0.0009318998200102352 0.00015423163150270691 0 0.00096253252809869844 0.00017112389820118882 0 0.0009318998200102352 0.00015423163150270691 0 0.00096253252809869844 0.00017112389820118882 0 0.00096359229504819224 0.00012584328201500976 0 0.00096253252809869844 0.00017112389820118882 0 0.00098068986277349813 0.00014284866464553671 0 0.00096359229504819224 0.00012584328201500976 0 0.0009318998200102352 0.00015423163150270691 0 0.00096359229504819224 0.00012584328201500976 0 0.00094978888666620641 7.2925065959263846e-05 0 0.001110711383173619 -8.1344212941661116e-05 0 0.00109087023760243 -8.8719919944903324e-05 0 0.0010868676820312243 -7.6568638376475951e-05 0 0.00096359229504819224 0.00012584328201500976 0 0.00094978888666620641 7.2925065959263846e-05 0 0.0011012267864667835 -1.6436659818034882e-05 0 0.0010681074591859312 -2.0871208541693948e-05 0 0.001110711383173619 -8.1344212941661116e-05 0 0.0010868676820312243 -7.6568638376475951e-05 0 0.001110711383173619 -8.1344212941661116e-05 0 0.0010897656554649136 -8.7093465796647511e-05 0 0.0010926734936322177 -8.286180115934563e-05 0 0.0010244357517063688 3.061580887435717e-06 0 0.0010903034434255573 -7.5977260678540827e-05 0 0.001110711383173619 -8.1344212941661116e-05 0 0.00109087023760243 -8.8719919944903324e-05 0 0.0010897656554649136 -8.7093465796647511e-05 0 0.00109087023760243 -8.8719919944903324e-05 0 0.0010744888948720109 -0.00010509873307711438 0 0.0010897656554649136 -8.7093465796647511e-05 0 0.00109087023760243 -8.8719919944903324e-05 0 0.0010744888948720109 -0.00010509873307711438 0 0.0010868676820312243 -7.6568638376475951e-05 0 0.0010681074591859312 -2.0871208541693948e-05 0 0.0010744888948720109 -0.00010509873307711438 0 0.0010868676820312243 -7.6568638376475951e-05 0 0.0010744888948720109 -0.00010509873307711438 0 0.0010913171249017925 -7.8438263681180633e-05 0 0.0010897656554649136 -8.7093465796647511e-05 0 0.0010744888948720109 -0.00010509873307711438 0 0.0010913171249017925 -7.8438263681180633e-05 0 0.0011214903230235419 -8.7713686712214279e-05 0 0.0011061107305087229 -6.4280696966303289e-05 0 0.0010913171249017925 -7.8438263681180633e-05 0 0.0011214903230235419 -8.7713686712214279e-05 0 0.001110711383173619 -8.1344212941661116e-05 0 0.0010926734936322177 -8.286180115934563e-05 0 0.0010944890847075861 -7.8338636435271774e-05 0 0.0010913171249017925 -7.8438263681180633e-05 0 0.0010897656554649136 -8.7093465796647511e-05 0 0.0010880551764516125 -8.2763015759624922e-05 0 0.0010897656554649136 -8.7093465796647511e-05 0 0.0010926734936322177 -8.286180115934563e-05 0 0.0010880551764516125 -8.2763015759624922e-05 0 0.0010926734936322177 -8.286180115934563e-05 0 0.00108162831484036 -8.2996348912448863e-05 0 0.0010944890847075861 -7.8338636435271774e-05 0 0.0010926734936322177 -8.286180115934563e-05 0 0.0010880551764516125 -8.2763015759624922e-05 0 0.00108162831484036 -8.2996348912448863e-05 0 0.0010913171249017925 -7.8438263681180633e-05 0 0.0010880551764516125 -8.2763015759624922e-05 0 0.00108162831484036 -8.2996348912448863e-05 0 0.0010913171249017925 -7.8438263681180633e-05 0 0.00108162831484036 -8.2996348912448863e-05 0 0.0010824764297296141 -8.0352287487162703e-05 0 0.0014187318590058811 -0.00014890906902934042 0 0.0014563057992973811 -0.00019612396674870949 0 0.0014175948752405414 -0.00019291169379791567 0 0.0014187318590058811 -0.00014890906902934042 0 0.0013766556332118324 -0.00016980275223608938 0 0.0014175948752405414 -0.00019291169379791567 0 0.0013190888774078789 -0.0001125077588506078 0 0.0013411999077779133 -0.00018488064379719717 0 0.0012986595753109514 -0.00018397594237077146 0 0.0013190888774078789 -0.0001125077588506078 0 0.0014187318590058811 -0.00014890906902934042 0 0.0013766556332118324 -0.00016980275223608938 0 0.0013190888774078789 -0.0001125077588506078 0 0.0013766556332118324 -0.00016980275223608938 0 0.0013411999077779133 -0.00018488064379719717 0 0.0011061107305087229 -6.4280696966303289e-05 0 0.0010913171249017925 -7.8438263681180633e-05 0 0.0010824764297296141 -8.0352287487162703e-05 0 0.0012101308900292437 -8.9835075329592766e-05 0 0.0012703026820747674 -0.00011642610894309191 0 0.0010831489725017616 7.213529525353011e-06 0 0.0010271280059611031 3.5737435800071527e-05 0 0.0010885514105316806 -5.583182395324669e-05 0 0.0010676679205008845 6.1619446192091388e-06 0 0.0010940945120949473 -7.9810153200997281e-05 0 0.001111114259075898 -1.7475235127396751e-05 0 0.0010831489725017616 7.213529525353011e-06 0 0.0011333152437679305 1.5068536895338682e-05 0 0.001111114259075898 -1.7475235127396751e-05 0 0.0010831489725017616 7.213529525353011e-06 0 0.0010885514105316806 -5.583182395324669e-05 0 0.0010735876140011685 5.3932425938089376e-05 0 0.0011122514120384499 5.1355562255175698e-05 0 0.0010831489725017616 7.213529525353011e-06 0 0.0011122514120384499 5.1355562255175698e-05 0 0.0010831489725017616 7.213529525353011e-06 0 0.0011333152437679305 1.5068536895338682e-05 0 0.0010735876140011685 5.3932425938089376e-05 0 0.0010831489725017616 7.213529525353011e-06 0 0.0010271280059611031 3.5737435800071527e-05 0 0.0011012267864667835 -1.6436659818034882e-05 0 0.0010944890847075861 -7.8338636435271774e-05 0 0.0011774815639663417 -0.00012298812263907379 0 0.00094978888666620641 7.2925065959263846e-05 0 0.0011012267864667835 -1.6436659818034882e-05 0 0.0010944890847075861 -7.8338636435271774e-05 0 0.0010502195668425974 -7.0759932364739767e-05 0 0.0012029207535887649 -0.00014794706619302261 0 0.0012703026820747674 -0.00011642610894309191 0 0.0012029207535887649 -0.00014794706619302261 0 0.0010944890847075861 -7.8338636435271774e-05 0 0.0011242449854979631 -0.00011509334641780294 0 0.0011774815639663417 -0.00012298812263907379 0 0.0014187318590058811 -0.00014890906902934042 0 0.0015160319178271165 -0.00018385450761104012 0 0.0014563057992973811 -0.00019612396674870949 0 0.00108162831484036 -8.2996348912448863e-05 0 0.0011242449854979631 -0.00011509334641780294 0 0.0011320771548969575 -0.00016158040799895573 0 0.00108162831484036 -8.2996348912448863e-05 0 0.0010824764297296141 -8.0352287487162703e-05 0 0.0010859554409866203 -8.2312773312120401e-05 0 0.00108162831484036 -8.2996348912448863e-05 0 0.0010944890847075861 -7.8338636435271774e-05 0 0.0011242449854979631 -0.00011509334641780294 0 0.0011242449854979631 -0.00011509334641780294 0 0.0011774815639663417 -0.00012298812263907379 0 0.0011320771548969575 -0.00016158040799895573 0 0.0011774815639663417 -0.00012298812263907379 0 0.0011727449487800112 -0.00018140654903964212 0 0.0011320771548969575 -0.00016158040799895573 0 0.001111114259075898 -1.7475235127396751e-05 0 0.0010885514105316806 -5.583182395324669e-05 0 0.0011394867934495978 -3.6417093010153277e-05 0 0.0011774815639663417 -0.00012298812263907379 0 0.0011727449487800112 -0.00018140654903964212 0 0.0012603806717123027 -0.00023420233130994208 0 0.0015310012104896315 -0.00024170291183656041 0 0.0015160319178271165 -0.00018385450761104012 0 0.0016036137277059557 -0.00025244381157387525 0 0.0012029207535887649 -0.00014794706619302261 0 0.0018430844885847016 -0.00014281030463327704 0 0.0011727449487800112 -0.00018140654903964212 0 0.0011335958615927896 -0.00016651438660996408 0 0.0012369444391047333 -0.00024697009081484886 0 0.0010940945120949473 -7.9810153200997281e-05 0 0.0014873786076804942 -0.00017324955556296404 0 0.0011727449487800112 -0.00018140654903964212 0 0.0012603806717123027 -0.00023420233130994208 0 0.0012369444391047333 -0.00024697009081484886 0 0.001171805677732525 -0.00015412533614562955 0 0.0012029207535887649 -0.00014794706619302261 0 0.0015310012104896315 -0.00024170291183656041 0 0.0014897312421545696 -0.00023185733864482656 0 0.0015160319178271165 -0.00018385450761104012 0 0.0014897312421545696 -0.00023185733864482656 0 0.0015160319178271165 -0.00018385450761104012 0 0.0014563057992973811 -0.00019612396674870949 0 0.0014897312421545696 -0.00023185733864482656 0 0.0014563057992973811 -0.00019612396674870949 0 0.0014401969690288612 -0.00023486397959479412 0 0.0015310012104896315 -0.00024170291183656041 0 0.0014897312421545696 -0.00023185733864482656 0 0.001490705618475836 -0.00030934705212502258 0 0.0014897312421545696 -0.00023185733864482656 0 0.001490705618475836 -0.00030934705212502258 0 0.0014401969690288612 -0.00023486397959479412 0 0.0025713006057456497 -0.00018763122157106012 0 0.0025564417011360394 -0.00018387458062110149 0 0.0025418449236840994 -0.00019914569171220048 0 0.0015310012104896315 -0.00024170291183656041 0 0.001490705618475836 -0.00030934705212502258 0 0.0016036137277059557 -0.00025244381157387525 0 0.0020690467507688218 -0.00025385261466661361 0 0.0018430844885847016 -0.00014281030463327704 0 0.0025564417011360394 -0.00018387458062110149 0 0.0025418449236840994 -0.00019914569171220048 0 0.0025420038683321038 -0.00018348944697502728 0 0.0013276754560182364 -0.00024049253109341003 0 0.0013837346281821174 -0.00021369553273721761 0 0.0013926174082303229 -0.00027642031342843201 0 0.0013411999077779133 -0.00018488064379719717 0 0.0013276754560182364 -0.00024049253109341003 0 0.0012986595753109514 -0.00018397594237077146 0 0.0013411999077779133 -0.00018488064379719717 0 0.0013276754560182364 -0.00024049253109341003 0 0.0013837346281821174 -0.00021369553273721761 0 0.0013766556332118324 -0.00016980275223608938 0 0.0013411999077779133 -0.00018488064379719717 0 0.0013837346281821174 -0.00021369553273721761 0 0.0013766556332118324 -0.00016980275223608938 0 0.0013837346281821174 -0.00021369553273721761 0 0.0014175948752405414 -0.00019291169379791567 0 0.0013837346281821174 -0.00021369553273721761 0 0.0014175948752405414 -0.00019291169379791567 0 0.0014401969690288612 -0.00023486397959479412 0 0.0014563057992973811 -0.00019612396674870949 0 0.0014175948752405414 -0.00019291169379791567 0 0.0014401969690288612 -0.00023486397959479412 0 0.0013837346281821174 -0.00021369553273721761 0 0.0014401969690288612 -0.00023486397959479412 0 0.0013926174082303229 -0.00027642031342843201 0 0.001490705618475836 -0.00030934705212502258 0 0.0013926174082303229 -0.00027642031342843201 0 0.0013795412164909963 -0.00035801515681806834 0 0.001490705618475836 -0.00030934705212502258 0 0.0014401969690288612 -0.00023486397959479412 0 0.0013926174082303229 -0.00027642031342843201 0 0.0013926174082303229 -0.00027642031342843201 0 0.0013308928712731159 -0.00029856243326399135 0 0.0013795412164909963 -0.00035801515681806834 0 0.0013276754560182364 -0.00024049253109341003 0 0.0013926174082303229 -0.00027642031342843201 0 0.0013308928712731159 -0.00029856243326399135 0 0.0013308928712731159 -0.00029856243326399135 0 0.0012690296756095278 -0.00030725141379608071 0 0.001275898368406761 -0.00026130075351730921 0 0.0013308928712731159 -0.00029856243326399135 0 0.0012690296756095278 -0.00030725141379608071 0 0.001299506751873721 -0.00033903056594142446 0 0.0012690296756095278 -0.00030725141379608071 0 0.001275898368406761 -0.00026130075351730921 0 0.0012363325810615018 -0.00026306893051361796 0 0.0013276754560182364 -0.00024049253109341003 0 0.0013308928712731159 -0.00029856243326399135 0 0.001275898368406761 -0.00026130075351730921 0 0.0012293776202696809 -0.00030201973545705213 0 0.0011921890022580581 -0.00030690034361310523 0 0.0012503048172311602 -0.00035844998433440158 0 0.0012690296756095278 -0.00030725141379608071 0 0.0012293776202696809 -0.00030201973545705213 0 0.0012503048172311602 -0.00035844998433440158 0 0.0012690296756095278 -0.00030725141379608071 0 0.0012293776202696809 -0.00030201973545705213 0 0.0012363325810615018 -0.00026306893051361796 0 0.0012293776202696809 -0.00030201973545705213 0 0.0012363325810615018 -0.00026306893051361796 0 0.0011861306327681121 -0.00023777923388065782 0 0.0012363325810615018 -0.00026306893051361796 0 0.0011861306327681121 -0.00023777923388065782 0 0.0012311892199107955 -0.000208598616080526 0 0.0011861306327681121 -0.00023777923388065782 0 0.0012311892199107955 -0.000208598616080526 0 0.0011801414441480894 -0.00018964924960299174 0 0.0013276754560182364 -0.00024049253109341003 0 0.001275898368406761 -0.00026130075351730921 0 0.0012826406061084558 -0.00022084096703938607 0 0.001275898368406761 -0.00026130075351730921 0 0.0012363325810615018 -0.00026306893051361796 0 0.0012311892199107955 -0.000208598616080526 0 0.001275898368406761 -0.00026130075351730921 0 0.0012311892199107955 -0.000208598616080526 0 0.0012826406061084558 -0.00022084096703938607 0 0.0012311892199107955 -0.000208598616080526 0 0.0012826406061084558 -0.00022084096703938607 0 0.0012509549921149517 -0.00016069604855085747 0 0.0013276754560182364 -0.00024049253109341003 0 0.0012826406061084558 -0.00022084096703938607 0 0.0012986595753109514 -0.00018397594237077146 0 0.0012826406061084558 -0.00022084096703938607 0 0.0012986595753109514 -0.00018397594237077146 0 0.0012509549921149517 -0.00016069604855085747 0 0.0013190888774078789 -0.0001125077588506078 0 0.0012986595753109514 -0.00018397594237077146 0 0.0012509549921149517 -0.00016069604855085747 0 0.0012311892199107955 -0.000208598616080526 0 0.0011801414441480894 -0.00018964924960299174 0 0.001193891172051677 -0.00014696527549084925 0 0.0012311892199107955 -0.000208598616080526 0 0.0012509549921149517 -0.00016069604855085747 0 0.001193891172051677 -0.00014696527549084925 0 0.0012509549921149517 -0.00016069604855085747 0 0.001193891172051677 -0.00014696527549084925 0 0.0011873560099492182 -8.3480286331480804e-05 0 0.0011801414441480894 -0.00018964924960299174 0 0.001193891172051677 -0.00014696527549084925 0 0.0011510157121415582 -0.00014551199905914287 0 0.001193891172051677 -0.00014696527549084925 0 0.0011712067302955783 -9.975704142279949e-05 0 0.0011510157121415582 -0.00014551199905914287 0 0.001193891172051677 -0.00014696527549084925 0 0.0011712067302955783 -9.975704142279949e-05 0 0.0011873560099492182 -8.3480286331480804e-05 0 0.0011708711689641584 -8.0590260087935536e-05 0 0.0011712067302955783 -9.975704142279949e-05 0 0.0011873560099492182 -8.3480286331480804e-05 0 0.0013190888774078789 -0.0001125077588506078 0 0.0012509549921149517 -0.00016069604855085747 0 0.0011873560099492182 -8.3480286331480804e-05 0 0.0011061107305087229 -6.4280696966303289e-05 0 0.0011873560099492182 -8.3480286331480804e-05 0 0.0011214903230235419 -8.7713686712214279e-05 0 0.0012101308900292437 -8.9835075329592766e-05 0 0.0011926119973957672 -8.4022453171484851e-05 0 0.0010940319333278253 -0.00012240915284455938 0 0.0010574774155050137 -0.00011932067008490652 0 0.0010754286362308378 -8.6386642351257874e-05 0 0.0010940319333278253 -0.00012240915284455938 0 0.0010574774155050137 -0.00011932067008490652 0 0.0010789470516701788 -0.00014355882225374722 0 0.0010574774155050137 -0.00011932067008490652 0 0.0010754286362308378 -8.6386642351257874e-05 0 0.0010331037797575646 -8.2477154784405674e-05 0 0.0010940319333278253 -0.00012240915284455938 0 0.0010754286362308378 -8.6386642351257874e-05 0 0.001113714422599481 -9.9050464205703508e-05 0 0.0011128380988020268 -6.7668756985724934e-05 0 0.0010754286362308378 -8.6386642351257874e-05 0 0.001113714422599481 -9.9050464205703508e-05 0 0.0011128380988020268 -6.7668756985724934e-05 0 0.001113714422599481 -9.9050464205703508e-05 0 0.0011446644534457043 -8.9182935994578665e-05 0 0.001113714422599481 -9.9050464205703508e-05 0 0.0011446644534457043 -8.9182935994578665e-05 0 0.0011396392907940605 -0.00010722598669317805 0 0.0011712067302955783 -9.975704142279949e-05 0 0.0011446644534457043 -8.9182935994578665e-05 0 0.0011396392907940605 -0.00010722598669317805 0 0.0011708711689641584 -8.0590260087935536e-05 0 0.0011712067302955783 -9.975704142279949e-05 0 0.0011446644534457043 -8.9182935994578665e-05 0 0.0011712067302955783 -9.975704142279949e-05 0 0.0011396392907940605 -0.00010722598669317805 0 0.0011510157121415582 -0.00014551199905914287 0 0.0011396392907940605 -0.00010722598669317805 0 0.0011248592371857092 -0.00013060790659913114 0 0.0011510157121415582 -0.00014551199905914287 0 0.0010940319333278253 -0.00012240915284455938 0 0.001113714422599481 -9.9050464205703508e-05 0 0.0011248592371857092 -0.00013060790659913114 0 0.001113714422599481 -9.9050464205703508e-05 0 0.0011396392907940605 -0.00010722598669317805 0 0.0011248592371857092 -0.00013060790659913114 0 0.0010940319333278253 -0.00012240915284455938 0 0.0011248592371857092 -0.00013060790659913114 0 0.0011067812749837249 -0.00015788369771385573 0 0.0011248592371857092 -0.00013060790659913114 0 0.0011067812749837249 -0.00015788369771385573 0 0.0011510157121415582 -0.00014551199905914287 0 0.0011801414441480894 -0.00018964924960299174 0 0.0011510157121415582 -0.00014551199905914287 0 0.0011321017727658604 -0.00019370420085112726 0 0.0011067812749837249 -0.00015788369771385573 0 0.0011510157121415582 -0.00014551199905914287 0 0.0011321017727658604 -0.00019370420085112726 0 0.0011067812749837249 -0.00015788369771385573 0 0.0010622592734605065 -0.00017543752256963846 0 0.0011321017727658604 -0.00019370420085112726 0 0.0010574774155050137 -0.00011932067008490652 0 0.0010622592734605065 -0.00017543752256963846 0 0.0010122613086982924 -0.00011250756313890736 0 0.0011067812749837249 -0.00015788369771385573 0 0.0010789470516701788 -0.00014355882225374722 0 0.0010622592734605065 -0.00017543752256963846 0 0.0010940319333278253 -0.00012240915284455938 0 0.0011067812749837249 -0.00015788369771385573 0 0.0010789470516701788 -0.00014355882225374722 0 0.0010574774155050137 -0.00011932067008490652 0 0.0010789470516701788 -0.00014355882225374722 0 0.0010622592734605065 -0.00017543752256963846 0 0.0012339537042322191 -0.00034711711171560614 0 0.0012530754847634364 -0.00034661377209446552 0 0.001225298098793547 -0.00031711959378075621 0 0.00098546085887321047 -0.00019461825602455729 0 0.0011154557890930403 -0.00027473572127263235 0 0.0011154557890930403 -0.00027473572127263235 0 0.0010800771110286757 -0.00027494145283632108 0 0.00093657618168745637 -0.00023636144956852627 0 0.00093290446719319193 -0.00022852558970288181 0 0.00094357211411962233 -0.0002316950982465005 0 0.0010622592734605065 -0.00017543752256963846 0 0.0011321017727658604 -0.00019370420085112726 0 0.0011128228863285482 -0.00024724600257640188 0 0.0011861306327681121 -0.00023777923388065782 0 0.0011801414441480894 -0.00018964924960299174 0 0.0011321017727658604 -0.00019370420085112726 0 0.0011861306327681121 -0.00023777923388065782 0 0.0011321017727658604 -0.00019370420085112726 0 0.0011128228863285482 -0.00024724600257640188 0 0.0012293776202696809 -0.00030201973545705213 0 0.0011861306327681121 -0.00023777923388065782 0 0.0011128228863285482 -0.00024724600257640188 0 0.0012281743832819763 -0.0002960852850698717 0 0.0011154557890930403 -0.00027473572127263235 0 0.0012293776202696809 -0.00030201973545705213 0 0.0011576510949607903 -0.00026106440266643511 0 0.0011921890022580581 -0.00030690034361310523 0 0.0011154557890930403 -0.00027473572127263235 0 0.0012324572381142011 -0.0003434842291464392 0 0.0012530754847634364 -0.00034661377209446552 0 0.0012486117090958809 -0.00035983304313319135 0 0.0012540588409045202 -0.00036078017931845174 0 0.0012486117090958809 -0.00035983304313319135 0 0.0012540588409045202 -0.00036078017931845174 0 0.0012518150739061974 -0.00036463976694956358 0 0.0012339537042322191 -0.00034711711171560614 0 0.0012530754847634364 -0.00034661377209446552 0 0.0012429681298372695 -0.00035450961611556252 0 0.0012339537042322191 -0.00034711711171560614 0 0.0012429681298372695 -0.00035450961611556252 0 0.0012309306792209177 -0.00035845285597365843 0 0.0012429681298372695 -0.00035450961611556252 0 0.0012394682153312052 -0.0003617556210648442 0 0.0012309306792209177 -0.00035845285597365843 0 0.0012530754847634364 -0.00034661377209446552 0 0.0012486117090958809 -0.00035983304313319135 0 0.0012429681298372695 -0.00035450961611556252 0 0.0012486117090958809 -0.00035983304313319135 0 0.0012394682153312052 -0.0003617556210648442 0 0.0012438816424892975 -0.00036715865588582669 0 0.0012486117090958809 -0.00035983304313319135 0 0.0012429681298372695 -0.00035450961611556252 0 0.0012394682153312052 -0.0003617556210648442 0 0.0012394682153312052 -0.0003617556210648442 0 0.001234631639159897 -0.00036555045198389814 0 0.0012309306792209177 -0.00035845285597365843 0 0.001234631639159897 -0.00036555045198389814 0 0.0012245611414844126 -0.00036670376642257229 0 0.0012309306792209177 -0.00035845285597365843 0 0.0012104437441077254 -0.00037217326998862223 0 0.0012245611414844126 -0.00036670376642257229 0 0.0012179422259524755 -0.00035343470490224792 0 0.0012252075205822423 -0.00036652396152357739 0 0.0012245611414844126 -0.00036670376642257229 0 0.0012356495831250844 -0.00036893114817052069 0 0.0014600735857864433 -0.0004067885415563976 0 0.0012953517077062219 -0.00042228260063566838 0 0.0012104437441077254 -0.00037217326998862223 0 0.0012179422259524755 -0.00035343470490224792 0 0.001190853050086562 -0.00035532418863365038 0 0.0012245611414844126 -0.00036670376642257229 0 0.0012179422259524755 -0.00035343470490224792 0 0.0012309306792209177 -0.00035845285597365843 0 0.0012339537042322191 -0.00034711711171560614 0 0.0012179422259524755 -0.00035343470490224792 0 0.0012309306792209177 -0.00035845285597365843 0 0.0012339537042322191 -0.00034711711171560614 0 0.0012179422259524755 -0.00035343470490224792 0 0.0012202996888169828 -0.00033868293164411839 0 0.0012339537042322191 -0.00034711711171560614 0 0.0012202996888169828 -0.00033868293164411839 0 0.001225298098793547 -0.00031711959378075621 0 0.0012179422259524755 -0.00035343470490224792 0 0.0012202996888169828 -0.00033868293164411839 0 0.0012027320104089682 -0.00033493986880738018 0 0.0012179422259524755 -0.00035343470490224792 0 0.0012027320104089682 -0.00033493986880738018 0 0.001190853050086562 -0.00035532418863365038 0 0.0012027320104089682 -0.00033493986880738018 0 0.001225298098793547 -0.00031711959378075621 0 0.0011835557442275927 -0.00031794052684488207 0 0.0012202996888169828 -0.00033868293164411839 0 0.0012027320104089682 -0.00033493986880738018 0 0.001225298098793547 -0.00031711959378075621 0 0.0011835557442275927 -0.00031794052684488207 0 0.001190853050086562 -0.00035532418863365038 0 0.0011500037405304323 -0.00033267584705175886 0 0.0012027320104089682 -0.00033493986880738018 0 0.0011835557442275927 -0.00031794052684488207 0 0.001190853050086562 -0.00035532418863365038 0 0.001190853050086562 -0.00035532418863365038 0 0.0011500037405304323 -0.00033267584705175886 0 0.0011634090060602591 -0.00040323242277129432 0 0.0014600735857864433 -0.0004067885415563976 0 0.0022164113763953074 -0.00013650846961387437 0 0.0012091421953737658 -0.00038992202635212324 0 0.001190853050086562 -0.00035532418863365038 0 0.0011634090060602591 -0.00040323242277129432 0 0.0014600735857864433 -0.0004067885415563976 0 0.0012294270888164307 -0.00031598874619923973 0 0.00304686784767637 -0.00015487422104549893 0 0.0030488585402893564 -0.00024549428825380881 0 0.0028759383316013421 -8.2882485060725293e-05 0 0.0020157167828854139 -0.00028979463479447139 0 0.0022164113763953074 -0.00013650846961387437 0 0.001105796484271066 -0.00033772561755985025 0 0.0011500037405304323 -0.00033267584705175886 0 0.0011634090060602591 -0.00040323242277129432 0 0.00304686784767637 -0.00015487422104549893 0 0.0031980487017052675 -0.00011722659735893984 0 0.003134534863026357 -0.00019689007440198945 0 0.00304686784767637 -0.00015487422104549893 0 0.0031980487017052675 -0.00011722659735893984 0 0.0029713960978938738 -5.1200770692539441e-05 0 0.00304686784767637 -0.00015487422104549893 0 0.0030747253653984532 -0.0002094976575768582 0 0.0030488585402893564 -0.00024549428825380881 0 0.0030747253653984532 -0.0002094976575768582 0 0.0030714079148205786 -0.00022146632889673255 0 0.003134534863026357 -0.00019689007440198945 0 0.00304686784767637 -0.00015487422104549893 0 0.0030747253653984532 -0.0002094976575768582 0 0.003134534863026357 -0.00019689007440198945 0 0.0030747253653984532 -0.0002094976575768582 0 0.0030714079148205786 -0.00022146632889673255 0 0.0030488585402893564 -0.00024549428825380881 0 0.0030714079148205786 -0.00022146632889673255 0 0.0030488585402893564 -0.00024549428825380881 0 0.0030377134951830045 -0.00020538603287593803 0 0.001105796484271066 -0.00033772561755985025 0 0.0011500037405304323 -0.00033267584705175886 0 0.0011059756131160938 -0.00029879902018035444 0 0.0011059756131160938 -0.00029879902018035444 0 0.0010707182797299849 -0.00027246163314389657 0 0.001159745401205523 -0.0002817583186166417 0 0.0011500037405304323 -0.00033267584705175886 0 0.0011059756131160938 -0.00029879902018035444 0 0.001159745401205523 -0.0002817583186166417 0 0.001105796484271066 -0.00033772561755985025 0 0.0011059756131160938 -0.00029879902018035444 0 0.0010817370008516485 -0.00028483081438107448 0 0.0020157167828854139 -0.00028979463479447139 0 0.0022341724326505777 -0.0002296769337121043 0 0.0011059756131160938 -0.00029879902018035444 0 0.0010707182797299849 -0.00027246163314389657 0 0.0010817370008516485 -0.00028483081438107448 0 0.0030488585402893564 -0.00024549428825380881 0 0.0030377134951830045 -0.00020538603287593803 0 0.003023026027422041 -0.00015110840225350216 0 0.0010707182797299849 -0.00027246163314389657 0 0.0010817370008516485 -0.00028483081438107448 0 0.0010864664240541799 -0.0002963729070617857 0 0.0010707182797299849 -0.00027246163314389657 0 0.0010206367226914775 -0.00028632683894618221 0 0.0010864664240541799 -0.0002963729070617857 0 0.0010707182797299849 -0.00027246163314389657 0 0.0010206367226914775 -0.00028632683894618221 0 0.00097707382541825411 -0.00024134636518796234 0 0.0010735092109826383 -0.00027202387429958291 0 0.0010709082611587476 -0.00026415760235500452 0 0.00096598219937145792 -0.00027574597670369544 0 0.00094466606601754423 -0.00026206304518023682 0 0.00097707382541825411 -0.00024134636518796234 0 0.0010206367226914775 -0.00028632683894618221 0 0.00098430476063515976 -0.00027875057553484122 0 0.00099257421601970535 -0.00029727329533401687 0 0.0010206367226914775 -0.00028632683894618221 0 0.00098430476063515976 -0.00027875057553484122 0 0.00097707382541825411 -0.00024134636518796234 0 0.00098430476063515976 -0.00027875057553484122 0 0.00097707731504432117 -0.00029375713465844961 0 0.00099257421601970535 -0.00029727329533401687 0 0.00098430476063515976 -0.00027875057553484122 0 0.00096598219937145792 -0.00027574597670369544 0 0.00097707382541825411 -0.00024134636518796234 0 0.00098430476063515976 -0.00027875057553484122 0 0.00096598219937145792 -0.00027574597670369544 0 0.00097707731504432117 -0.00029375713465844961 0 0.0010331037797575646 -8.2477154784405674e-05 0 0.0010122613086982924 -0.00011250756313890736 0 0.00096081061231088156 -4.7499750353122315e-05 0 0.00098878319428221642 -0.00019164292444483278 0 0.00088084023028005341 -0.00020460883127225882 0 0.00096598219937145792 -0.00027574597670369544 0 0.00094466606601754423 -0.00026206304518023682 0 0.00096767898230678032 -0.00030766278235617583 0 0.0010574774155050137 -0.00011932067008490652 0 0.0010331037797575646 -8.2477154784405674e-05 0 0.0010122613086982924 -0.00011250756313890736 0 0.00098546085887321047 -0.00019461825602455729 0 0.00098878319428221642 -0.00019164292444483278 0 0.0010800771110286757 -0.00027494145283632108 0 0.0010709082611587476 -0.00026415760235500452 0 0.00093657618168745637 -0.00023636144956852627 0 0.00094357211411962233 -0.0002316950982465005 0 0.00094466606601754423 -0.00026206304518023682 0 0.00094357211411962233 -0.0002316950982465005 0 0.00094466606601754423 -0.00026206304518023682 0 0.00097707382541825411 -0.00024134636518796234 0 0.0011835557442275927 -0.00031794052684488207 0 0.0011500037405304323 -0.00033267584705175886 0 0.001159745401205523 -0.0002817583186166417 0 0.001225298098793547 -0.00031711959378075621 0 0.0011835557442275927 -0.00031794052684488207 0 0.001159745401205523 -0.0002817583186166417 0 0.001356981403811209 -7.1436446981545796e-05 0 0.0011176541914647701 -7.8551520719242587e-05 0 0.0013285466895853637 -0.00010889522904989508 0 0.0013083555237656268 -0.00011953120657474715 0 0.0013034298646633158 -7.9671061480079928e-05 0 0.0013285466895853637 -0.00010889522904989508 0 0.0013517978886002199 -6.811006033576935e-05 0 0.0013034298646633158 -7.9671061480079928e-05 0 0.0037100521210166591 -0.00014392229856232975 0 0.003762969481734445 -0.00010996287491047433 0 0.0037042654260796412 -8.6135226180424651e-05 0 0.0013083555237656268 -0.00011953120657474715 0 0.001335092014751416 -0.00014028598121671834 0 0.0013089272252055782 -0.00014982652529374905 0 0.0024713005215000125 -0.000172302265665244 0 0.0028069755698169096 -6.8226836966799205e-05 0 0.0013285466895853637 -0.00010889522904989508 0 0.0013083555237656268 -0.00011953120657474715 0 0.001335092014751416 -0.00014028598121671834 0 0.0037100521210166591 -0.00014392229856232975 0 0.0036481236340082011 -0.00017884440004610814 0 0.003645501745575608 -0.0001255661022459998 0 0.0024713005215000125 -0.000172302265665244 0 0.0026947039551182867 -0.00029190440640292233 0 0.0013285466895853637 -0.00010889522904989508 0 0.001335092014751416 -0.00014028598121671834 0 0.001389083385741192 -0.00015512657223182709 0 0.0037100521210166591 -0.00014392229856232975 0 0.003645501745575608 -0.0001255661022459998 0 0.0037042654260796412 -8.6135226180424651e-05 0 0.0026947039551182867 -0.00029190440640292233 0 0.0016126166682530068 1.8329078791130424e-07 0 0.0013285466895853637 -0.00010889522904989508 0 0.001389083385741192 -0.00015512657223182709 0 0.0013517978886002199 -6.811006033576935e-05 0 0.001389083385741192 -0.00015512657223182709 0 0.0013517978886002199 -6.811006033576935e-05 0 0.0013303137792525957 4.0342927072910804e-05 0 0.0020922248493844713 -0.00050034547347301852 0 0.002242587156556015 -0.00020255185623036144 0 0.0020099274429301065 -6.9611775694687975e-05 0 0.0020922248493844713 -0.00050034547347301852 0 0.0025124608005576005 -0.00029132240281124492 0 0.002242587156556015 -0.00020255185623036144 0 0.0026947039551182867 -0.00029190440640292233 0 0.0029945771695359972 -0.00031891236157727406 0 0.00369596717980275 -0.00029573366151961367 0 0.0035074331895539896 -0.0002649799619000675 0 0.0032868422608305749 -0.00051217746980037032 0 0.00369596717980275 -0.00029573366151961367 0 0.003645501745575608 -0.0001255661022459998 0 0.0035074331895539896 -0.0002649799619000675 0 0.0026947039551182867 -0.00029190440640292233 0 0.0035441319417447623 -0.00019376458708855482 0 0.003645501745575608 -0.0001255661022459998 0 0.0035476617399542438 -0.00016292229561274161 0 0.0035074331895539896 -0.0002649799619000675 0 0.0035476617399542438 -0.00016292229561274161 0 0.0035074331895539896 -0.0002649799619000675 0 0.0034869034703567787 -0.00014915908466104556 0 0.0035074331895539896 -0.0002649799619000675 0 0.0033141461763837223 -0.00025190268763644136 0 0.0032891152920451194 -4.8078819453532187e-05 0 0.0033141461763837223 -0.00025190268763644136 0 0.0032891152920451194 -4.8078819453532187e-05 0 0.0031980487017052675 -0.00011722659735893984 0 0.003502705997748492 -0.00025256525456872076 0 0.0033800943999792265 -8.4689546713630695e-05 0 0.0033141461763837223 -0.00025190268763644136 0 0.0031980487017052675 -0.00011722659735893984 0 0.003134534863026357 -0.00019689007440198945 0 0.003148085218961131 -0.00024613454735432664 0 0.0029945771695359972 -0.00031891236157727406 0 0.0033141461763837223 -0.00025190268763644136 0 0.003134534863026357 -0.00019689007440198945 0 0.0032868422608305749 -0.00051217746980037032 0 0.0030714079148205786 -0.00022146632889673255 0 0.003134534863026357 -0.00019689007440198945 0 0.0030670079624348701 -0.00022259126016902568 0 0.0035074331895539896 -0.0002649799619000675 0 0.0033141461763837223 -0.00025190268763644136 0 0.0032868422608305749 -0.00051217746980037032 0 0.0030548166229269662 -0.00023147502150709016 0 0.0029945771695359972 -0.00031891236157727406 0 0.0030714079148205786 -0.00022146632889673255 0 0.0030377134951830045 -0.00020538603287593803 0 0.0030670079624348701 -0.00022259126016902568 0 0.0030377134951830045 -0.00020538603287593803 0 0.0029770831275083964 -0.00026086423821543276 0 0.003023026027422041 -0.00015110840225350216 0 0.0029945771695359972 -0.00031891236157727406 0 0.0026586060424887694 -1.9482327575863337e-05 0 0.0029770831275083964 -0.00026086423821543276 0 0.003023026027422041 -0.00015110840225350216 0 0.0028693881853036033 -0.00011843456493602266 0 0.0010817370008516485 -0.00028483081438107448 0 0.001087412114526986 -0.00029304443947813006 0 0.0010864664240541799 -0.0002963729070617857 0 0.003023026027422041 -0.00015110840225350216 0 0.0028693881853036033 -0.00011843456493602266 0 0.0028061702740632007 0.00011865398189637492 0 0.0022341724326505777 -0.0002296769337121043 0 0.00084671981278418523 -0.00026853102078171589 0 0.0028693881853036033 -0.00011843456493602266 0 0.0027425098932950241 0.0001112563090674437 0 0.0028061702740632007 0.00011865398189637492 0 0.0021209152657765077 0.00017177282407054091 0 0.0023557304204596475 5.2191037575297144e-05 0 0.0021955629340745216 0.0003976789720828336 0 0.0026586060424887694 -1.9482327575863337e-05 0 0.0015429259046936092 5.557494857476532e-05 0 0.0021209152657765077 0.00017177282407054091 0 0.0023557304204596475 5.2191037575297144e-05 0 0.0020099274429301065 -6.9611775694687975e-05 0 0.002242587156556015 -0.00020255185623036144 0 0.0023557304204596475 5.2191037575297144e-05 0 0.0020099274429301065 -6.9611775694687975e-05 0 0.0025124608005576005 -0.00029132240281124492 0 0.002242587156556015 -0.00020255185623036144 0 0.0023557304204596475 5.2191037575297144e-05 0 0.0013517978886002199 -6.811006033576935e-05 0 0.0013303137792525957 4.0342927072910804e-05 0 0.0010274651529010382 -5.1176878238147231e-05 0 0.0013303137792525957 4.0342927072910804e-05 0 0.0011609656806420971 0.00022861436118201697 0 0.0011112703620745124 0.00011616659736857684 0 0.0021209152657765077 0.00017177282407054091 0 0.0020099274429301065 -6.9611775694687975e-05 0 0.0019262906592379279 0.00036451265396171697 0 0.0016126166682530068 1.8329078791130424e-07 0 0.0011805012830738673 0.00030772134666250968 0 0.0013303137792525957 4.0342927072910804e-05 0 0.0011609656806420971 0.00022861436118201697 0 0.0012704237317473965 0.00036351915756607756 0 0.0021209152657765077 0.00017177282407054091 0 0.0019262906592379279 0.00036451265396171697 0 0.0021955629340745216 0.0003976789720828336 0 0.0011609656806420971 0.00022861436118201697 0 0.0010456061016238195 0.00020353324758784827 0 0.0011112703620745124 0.00011616659736857684 0 0.0011609656806420971 0.00022861436118201697 0 0.0010367789050072527 0.00033372759188032554 0 0.0012704237317473965 0.00036351915756607756 0 0.0011609656806420971 0.00022861436118201697 0 0.0010367789050072527 0.00033372759188032554 0 0.0010456061016238195 0.00020353324758784827 0 0.00092051813429571696 0.0002031692188570744 0 0.0010367789050072527 0.00033372759188032554 0 0.0010456061016238195 0.00020353324758784827 0 0.0010456061016238195 0.00020353324758784827 0 0.00099355368119903803 0.00011724358151748415 0 0.0011112703620745124 0.00011616659736857684 0 0.00092051813429571696 0.0002031692188570744 0 0.0010456061016238195 0.00020353324758784827 0 0.00099355368119903803 0.00011724358151748415 0 0.0013303137792525957 4.0342927072910804e-05 0 0.0011112703620745124 0.00011616659736857684 0 0.0010274651529010382 -5.1176878238147231e-05 0 0.00099355368119903803 0.00011724358151748415 0 0.0011112703620745124 0.00011616659736857684 0 0.0010274651529010382 -5.1176878238147231e-05 0 0.00072070239748969972 0.00025121734424816126 0 0.00066084824300808307 0.00027142356486342401 0 0.00066275121452829785 0.0001763109290412212 0 0.00077420336952664529 0.00029070882839435922 0 0.00072070239748969972 0.00025121734424816126 0 0.00071037305546521731 0.00019462207490448651 0 0.00063049565795942253 0.00029850560137358539 0 0.00016092822996748759 0.00011809978792657927 0 0.00072070239748969972 0.00025121734424816126 0 0.00072879106867559636 0.00029865041763743529 0 0.00066084824300808307 0.00027142356486342401 0 0.00076008017537620564 0.00028869952409703162 0 0.00072070239748969972 0.00025121734424816126 0 0.00072879106867559636 0.00029865041763743529 0 0.00078539798922529582 0.00028363182946408873 0 0.00078644527579101045 0.00029132409019009642 0 0.00080056110063206007 0.00028492773913388266 0 0.00088384979561970632 0.00030188865563467475 0 0.0011805012830738673 0.00030772134666250968 0 0.00077942713282013658 0.00028141472854868884 0 0.00078539798922529582 0.00028363182946408873 0 0.00078644527579101045 0.00029132409019009642 0 0.00078170245345899367 0.00031173382521738533 0 0.00050448141348477136 0.00024821991459845414 0 0.00078644527579101045 0.00029132409019009642 0 0.00080056110063206007 0.00028492773913388266 0 0.00079627051403206395 0.00029824254122684356 0 0.00064082900807322794 7.1820943779519488e-05 0 0.0006748130106592786 0.00015971505209527343 0 0.00060871141561096205 0.00023091554337119387 0 0.0011805012830738673 0.00030772134666250968 0 0.00050448141348477136 0.00024821991459845414 0 0.0006748130106592786 0.00015971505209527343 0 0.00070340009914862114 0.00024896668180423361 0 0.0007826231981512327 8.8449943269897785e-05 0 0.0011805012830738673 0.00030772134666250968 0 0.0015429259046936092 5.557494857476532e-05 0 0.00064082900807322794 7.1820943779519488e-05 0 0.0006748130106592786 0.00015971505209527343 0 0.0007826231981512327 8.8449943269897785e-05 0 0.00070340009914862114 0.00024896668180423361 0 0.00060871141561096205 0.00023091554337119387 0 0.00067900635463603192 0.00027871640441730149 0 0.00050448141348477136 0.00024821991459845414 0 -0.00034883627254623606 -7.3001518110987477e-05 0 -0.00010999641402841434 -9.0592435587606274e-06 0 -0.0001261400649760346 -1.9383366004208167e-05 0 -0.00010749246871637987 -4.6296908616050372e-05 0 0.0006748130106592786 0.00015971505209527343 0 0.00070340009914862114 0.00024896668180423361 0 0.00060871141561096205 0.00023091554337119387 0 -0.00017744933614001812 -3.4336328286399168e-05 0 -0.00055181562682033814 -0.00019997167711987402 0 0.00050448141348477136 0.00024821991459845414 0 -0.00055181562682033814 -0.00019997167711987402 0 -0.00086041064561731247 -0.0003814350590402568 0 -0.00087270652628053565 -0.00036573340900542851 0 -0.00077424506603256994 -0.00037739562260955163 0 -0.00087270652628053565 -0.00036573340900542851 0 -0.00077424506603256994 -0.00037739562260955163 0 -0.00076336192269306068 -0.00027293892484715759 0 -0.00017744933614001812 -3.4336328286399168e-05 0 0.00084671981278418523 -0.00026853102078171589 0 -0.00086041064561731247 -0.0003814350590402568 0 -0.00079390310634905542 -0.00046766826761286857 0 -0.00077424506603256994 -0.00037739562260955163 0 0.00035633033080721926 0.00025852631565028946 0 0.0006749435644565413 -0.00044502253079791891 0 0.00088045471109357652 -0.00041921048182027101 0 -0.00017744933614001812 -3.4336328286399168e-05 0 0.0015429259046936092 5.557494857476532e-05 0 0.0015429259046936092 5.557494857476532e-05 0 0.00084671981278418523 -0.00026853102078171589 0 -0.00079390310634905542 -0.00046766826761286857 0 -0.00072648304716990653 -0.00042466957202407749 0 -0.00077424506603256994 -0.00037739562260955163 0 0.00084671981278418523 -0.00026853102078171589 0 5.5932291023875896e-05 -0.00040636840874509392 0 -0.00079390310634905542 -0.00046766826761286857 0 -0.00072648304716990653 -0.00042466957202407749 0 -0.00066691540237918154 -0.0004669704553095876 0 -0.00077424506603256994 -0.00037739562260955163 0 -0.00066737383704524114 -0.00038326421431470961 0 -0.00070166792133126096 -0.00031654956766752205 0 -0.00072648304716990653 -0.00042466957202407749 0 -0.00077424506603256994 -0.00037739562260955163 0 -0.00066737383704524114 -0.00038326421431470961 0 -0.00077424506603256994 -0.00037739562260955163 0 -0.00076336192269306068 -0.00027293892484715759 0 -0.00070166792133126096 -0.00031654956766752205 0 -0.00094499781232313816 -0.00025911427425457533 0 -0.0010256323092663281 -0.0001286428878880089 0 -0.00094859445737931799 -6.3833601309450756e-05 0 -0.00094499781232313816 -0.00025911427425457533 0 -0.00067328488691185907 -0.00013596070465342802 0 -0.00094859445737931799 -6.3833601309450756e-05 0 -0.00094499781232313816 -0.00025911427425457533 0 -0.0010256323092663281 -0.0001286428878880089 0 -0.0010661010413207691 -0.00019521928311994874 0 -0.0010256323092663281 -0.0001286428878880089 0 -0.0010948601144863436 -0.00011076874378389695 0 -0.0010571628770931895 -3.4233042176885345e-05 0 -0.0010256323092663281 -0.0001286428878880089 0 -0.0010661010413207691 -0.00019521928311994874 0 -0.0010948601144863436 -0.00011076874378389695 0 -0.0010661010413207691 -0.00019521928311994874 0 -0.001079892785879616 -0.00025396507411126323 0 -0.0011183959692500957 -0.00021509555103281971 0 -0.0011148513318698699 -0.00034912955524262239 0 -0.00094499781232313816 -0.00025911427425457533 0 -0.001079892785879616 -0.00025396507411126323 0 -0.00055181562682033814 -0.00019997167711987402 0 -0.00095187923159094595 -0.0003094824263553799 0 -0.00094499781232313816 -0.00025911427425457533 0 -0.0010661010413207691 -0.00019521928311994874 0 -0.001079892785879616 -0.00025396507411126323 0 -0.0011148513318698699 -0.00034912955524262239 0 -0.001079892785879616 -0.00025396507411126323 0 -0.0011531049389639544 -0.00025058641495583897 0 -0.00055181562682033814 -0.00019997167711987402 0 -0.0011261674158251308 -0.00023966113954493234 0 -0.00055181562682033814 -0.00019997167711987402 0 -0.00034883627254623606 -7.3001518110987477e-05 0 -0.0010691671985662171 -0.00037356251238103959 0 -0.0011244771383637794 -0.00025191149010513406 0 -0.001172240677619093 -0.00025214944844284993 0 -0.0011244771383637794 -0.00025191149010513406 0 -0.0011873284371347278 -0.00014841042963017535 0 -0.001172240677619093 -0.00025214944844284993 0 -0.0011261674158251308 -0.00023966113954493234 0 -0.00117752923705049 -0.00016518567585726001 0 -0.0011531049389639544 -0.00025058641495583897 0 -0.0011600658226238447 -0.00020255257230548135 0 -0.0011873284371347278 -0.00014841042963017535 0 -0.0011531049389639544 -0.00025058641495583897 0 -0.0011600658226238447 -0.00020255257230548135 0 -0.0011183959692500957 -0.00021509555103281971 0 -0.001079892785879616 -0.00025396507411126323 0 -0.0011531049389639544 -0.00025058641495583897 0 -0.0011183959692500957 -0.00021509555103281971 0 -0.0010661010413207691 -0.00019521928311994874 0 -0.0011183959692500957 -0.00021509555103281971 0 -0.0011214870342996972 -0.00015333746242229712 0 -0.0010661010413207691 -0.00019521928311994874 0 -0.0011214870342996972 -0.00015333746242229712 0 -0.0010948601144863436 -0.00011076874378389695 0 -0.0011600658226238447 -0.00020255257230548135 0 -0.0011873284371347278 -0.00014841042963017535 0 -0.0011628379497730713 -4.8637442846121876e-05 0 -0.0011600658226238447 -0.00020255257230548135 0 -0.0011183959692500957 -0.00021509555103281971 0 -0.0011214870342996972 -0.00015333746242229712 0 -0.0011600658226238447 -0.00020255257230548135 0 -0.0011214870342996972 -0.00015333746242229712 0 -0.0011635169819551371 -4.6387438915211849e-05 0 -0.0011598014182758762 -0.00019161175093003352 0 -0.0011593902690189412 -4.6062230727193753e-05 0 -0.0011214870342996972 -0.00015333746242229712 0 -0.0010948601144863436 -0.00011076874378389695 0 -0.0011635169819551371 -4.6387438915211849e-05 0 -0.00064538096770965078 5.564076725179287e-05 0 -0.00065749679891774829 -3.4355421618449808e-05 0 -0.00061615722878400291 -8.0607222428462431e-05 0 -0.0011974798970411408 0.00013311556216379127 0 -0.0012509352429190494 0.00010962912404375013 0 -0.0012412854402015707 0.00015766039326082785 0 -0.0011974798970411408 0.00013311556216379127 0 -0.0012509352429190494 0.00010962912404375013 0 -0.0012173310719974342 9.9780900525151014e-05 0 -0.0010854097438708226 8.0192637544537132e-06 0 -0.00034883627254623606 -7.3001518110987477e-05 0 -0.0010854097438708226 8.0192637544537132e-06 0 -0.0002806682078514377 8.069235494409772e-05 0 -0.0011873284371347278 -0.00014841042963017535 0 -0.0012109510843606062 -0.00010233089602095655 0 -0.001172240677619093 -0.00025214944844284993 0 -0.0011873284371347278 -0.00014841042963017535 0 -0.0012109510843606062 -0.00010233089602095655 0 -0.0011628379497730713 -4.8637442846121876e-05 0 -0.0011974798970411408 0.00013311556216379127 0 -0.0012412854402015707 0.00015766039326082785 0 -0.0012348790824307373 0.00019062057367113511 0 -0.0002806682078514377 8.069235494409772e-05 0 0.00016092822996748759 0.00011809978792657927 0 0.00068165856954184535 0.0001534975328671499 0 0.00067531333910403953 0.00016868470295045904 0 0.00068337573796281082 0.00017966923525687407 0 -0.0002806682078514377 8.069235494409772e-05 0 -0.00034883627254623606 -7.3001518110987477e-05 0 0.00067531333910403953 0.00016868470295045904 0 0.00066275121452829785 0.0001763109290412212 0 0.00070028724221640911 0.00018625160207827649 0 0.00068165856954184535 0.0001534975328671499 0 0.00067531333910403953 0.00016868470295045904 0 0.00066275121452829785 0.0001763109290412212 0 0.00042717156616620588 0.00025902159279431538 0 0.00016092822996748759 0.00011809978792657927 0 0.00072070239748969972 0.00025121734424816126 0 0.00066275121452829785 0.0001763109290412212 0 0.00070028724221640911 0.00018625160207827649 0 -0.00035597420494507703 -0.0004045079682800858 0 -0.00045055031550798419 -0.00040362131607300322 0 -0.00039569263575710327 -0.00036939856132172906 0 -0.00035597420494507703 -0.0004045079682800858 0 -0.00045055031550798419 -0.00040362131607300322 0 -0.00049109417997653809 -0.00048025122751657855 0 -0.00045055031550798419 -0.00040362131607300322 0 -0.00044847920978834181 -0.00032979682160828541 0 -0.00050871937959120074 -0.00036936345308369431 0 -0.00045055031550798419 -0.00040362131607300322 0 -0.00044847920978834181 -0.00032979682160828541 0 -0.00039569263575710327 -0.00036939856132172906 0 -0.00035597420494507703 -0.0004045079682800858 0 -0.00039569263575710327 -0.00036939856132172906 0 -0.00035267382680194897 -0.00031953081378788831 0 -0.00044847920978834181 -0.00032979682160828541 0 -0.00039569263575710327 -0.00036939856132172906 0 -0.00035267382680194897 -0.00031953081378788831 0 -0.00035597420494507703 -0.0004045079682800858 0 -0.00026534788650865309 -0.00035166530568608531 0 -0.00035267382680194897 -0.00031953081378788831 0 -0.00016223834503628607 -0.00036167824721352904 0 -0.00026534788650865309 -0.00035166530568608531 0 -0.00026092297478076405 -0.00047106551828699091 0 -0.00035597420494507703 -0.0004045079682800858 0 -0.00026534788650865309 -0.00035166530568608531 0 -0.00026092297478076405 -0.00047106551828699091 0 0.0005874829509258582 -0.00016307637376150784 0 0.00088084023028005341 -0.00020460883127225882 0 0.0010602512175987406 -4.6230130340506627e-05 0 0.0010331037797575646 -8.2477154784405674e-05 0 0.00096081061231088156 -4.7499750353122315e-05 0 0.00017594655989664154 -0.00028325388283034173 0 0.00039358365834215111 -0.00040293176813046189 0 0.00070521484218583855 -0.00027049086315593921 0 0.00096598219937145792 -0.00027574597670369544 0 0.00096767898230678032 -0.00030766278235617583 0 0.00097707731504432117 -0.00029375713465844961 0 -0.00035597420494507703 -0.0004045079682800858 0 -0.00026092297478076405 -0.00047106551828699091 0 -0.00049109417997653809 -0.00048025122751657855 0 0.00039358365834215111 -0.00040293176813046189 0 0.00073973819667591783 -0.00031228439339981117 0 0.00096882378386348709 -0.00034551840274492211 0 6.2216121731141255e-05 -0.00043198295570418904 0 0.00026768534681829358 -0.00040632167817189333 0 0.00039358365834215111 -0.00040293176813046189 0 0.00070521484218583855 -0.00027049086315593921 0 0.00073973819667591783 -0.00031228439339981117 0 0.00088084023028005341 -0.00020460883127225882 0 0.000872681293103977 -0.00020807104506471554 0 0.0007127450190843607 -0.00027289892357462231 0 0.00073973819667591783 -0.00031228439339981117 0 0.00099128406177624736 -0.00031606905618399413 0 0.00073973819667591783 -0.00031228439339981117 0 0.00099128406177624736 -0.00031606905618399413 0 0.00096882378386348709 -0.00034551840274492211 0 0.00098194723667334254 -0.0003042676433253923 0 0.00099257421601970535 -0.00029727329533401687 0 0.00099128406177624736 -0.00031606905618399413 0 0.00096767898230678032 -0.00030766278235617583 0 0.00098194723667334254 -0.0003042676433253923 0 0.00099128406177624736 -0.00031606905618399413 0 0.00088084023028005341 -0.00020460883127225882 0 0.00095176042337311029 -0.00028992827256925737 0 0.00096767898230678032 -0.00030766278235617583 0 0.00098194723667334254 -0.0003042676433253923 0 0.00097707731504432117 -0.00029375713465844961 0 0.00098194723667334254 -0.0003042676433253923 0 0.00097707731504432117 -0.00029375713465844961 0 0.00099257421601970535 -0.00029727329533401687 0 0.00099128406177624736 -0.00031606905618399413 0 0.00096882378386348709 -0.00034551840274492211 0 0.0010864664240541799 -0.0002963729070617857 0 0.00026768534681829358 -0.00040632167817189333 0 5.5932291023875896e-05 -0.00040636840874509392 0 -0.00049109417997653809 -0.00048025122751657855 0 -0.00066691540237918154 -0.0004669704553095876 0 -0.00058844145409914618 -0.00042491418105372619 0 0.0010206367226914775 -0.00028632683894618221 0 0.00099257421601970535 -0.00029727329533401687 0 0.00099128406177624736 -0.00031606905618399413 0 0.0010206367226914775 -0.00028632683894618221 0 0.00099128406177624736 -0.00031606905618399413 0 0.0010864664240541799 -0.0002963729070617857 0 -0.00049109417997653809 -0.00048025122751657855 0 -0.00052549629873104909 -0.00041137540550667735 0 -0.00058844145409914618 -0.00042491418105372619 0 -0.00066691540237918154 -0.0004669704553095876 0 -0.00066737383704524114 -0.00038326421431470961 0 -0.00058844145409914618 -0.00042491418105372619 0 -0.00072648304716990653 -0.00042466957202407749 0 -0.00066691540237918154 -0.0004669704553095876 0 -0.00066737383704524114 -0.00038326421431470961 0 -0.00066737383704524114 -0.00038326421431470961 0 -0.00058844145409914618 -0.00042491418105372619 0 -0.00057601764613075509 -0.00036734979435899004 0 -0.00066737383704524114 -0.00038326421431470961 0 -0.00057601764613075509 -0.00036734979435899004 0 -0.0006196056351553959 -0.00030443025936774599 0 -0.00066737383704524114 -0.00038326421431470961 0 -0.00070166792133126096 -0.00031654956766752205 0 -0.0006196056351553959 -0.00030443025936774599 0 -0.00045055031550798419 -0.00040362131607300322 0 -0.00049109417997653809 -0.00048025122751657855 0 -0.00052549629873104909 -0.00041137540550667735 0 -0.00045055031550798419 -0.00040362131607300322 0 -0.00052549629873104909 -0.00041137540550667735 0 -0.00050871937959120074 -0.00036936345308369431 0 -0.00052549629873104909 -0.00041137540550667735 0 -0.00057601764613075509 -0.00036734979435899004 0 -0.00050871937959120074 -0.00036936345308369431 0 -0.00052549629873104909 -0.00041137540550667735 0 -0.00058844145409914618 -0.00042491418105372619 0 -0.00057601764613075509 -0.00036734979435899004 0 -0.00057601764613075509 -0.00036734979435899004 0 -0.00053030349792332376 -0.00030490374888118068 0 -0.0006196056351553959 -0.00030443025936774599 0 -0.00057601764613075509 -0.00036734979435899004 0 -0.00050871937959120074 -0.00036936345308369431 0 -0.00053030349792332376 -0.00030490374888118068 0 -0.00044847920978834181 -0.00032979682160828541 0 -0.00050871937959120074 -0.00036936345308369431 0 -0.00053030349792332376 -0.00030490374888118068 0 -0.00053030349792332376 -0.00030490374888118068 0 -0.00055158687404023305 -0.00021732953464911241 0 -0.0006196056351553959 -0.00030443025936774599 0 -0.00055158687404023305 -0.00021732953464911241 0 -0.0006196056351553959 -0.00030443025936774599 0 -0.00066566711429014603 -0.00024239948889071588 0 -0.00053030349792332376 -0.00030490374888118068 0 -0.00055158687404023305 -0.00021732953464911241 0 -0.0004227299146356779 -0.00025526948641969957 0 -0.00076336192269306068 -0.00027293892484715759 0 -0.00070166792133126096 -0.00031654956766752205 0 -0.00066566711429014603 -0.00024239948889071588 0 -0.00070166792133126096 -0.00031654956766752205 0 -0.0006196056351553959 -0.00030443025936774599 0 -0.00066566711429014603 -0.00024239948889071588 0 -0.00095187923159094595 -0.0003094824263553799 0 -0.00063366006900111252 -0.00011678196768322921 0 -0.00076336192269306068 -0.00027293892484715759 0 -0.00066566711429014603 -0.00024239948889071588 0 -0.00067328488691185907 -0.00013596070465342802 0 -0.00055158687404023305 -0.00021732953464911241 0 -0.00067328488691185907 -0.00013596070465342802 0 -0.00050210158620162752 -7.4852260899674553e-05 0 -0.00055158687404023305 -0.00021732953464911241 0 -0.00066566711429014603 -0.00024239948889071588 0 -0.00067328488691185907 -0.00013596070465342802 0 -0.00055158687404023305 -0.00021732953464911241 0 -0.00050210158620162752 -7.4852260899674553e-05 0 -0.00040296927207116782 -0.00015517587206013105 0 -0.00050210158620162752 -7.4852260899674553e-05 0 -0.00040296927207116782 -0.00015517587206013105 0 -0.00034856255883336084 -2.1810972278287514e-06 0 -0.00055158687404023305 -0.00021732953464911241 0 -0.00040296927207116782 -0.00015517587206013105 0 -0.0004227299146356779 -0.00025526948641969957 0 -0.00040296927207116782 -0.00015517587206013105 0 -0.0004227299146356779 -0.00025526948641969957 0 -0.00030273174851963526 -0.00024735583085265192 0 -0.00044847920978834181 -0.00032979682160828541 0 -0.0004227299146356779 -0.00025526948641969957 0 -0.00035267382680194897 -0.00031953081378788831 0 -0.0004227299146356779 -0.00025526948641969957 0 -0.00035267382680194897 -0.00031953081378788831 0 -0.00030273174851963526 -0.00024735583085265192 0 -0.00044847920978834181 -0.00032979682160828541 0 -0.00053030349792332376 -0.00030490374888118068 0 -0.0004227299146356779 -0.00025526948641969957 0 -0.00018912455018386796 -0.00027828198202571575 0 -0.00026534788650865309 -0.00035166530568608531 0 -0.00030273174851963526 -0.00024735583085265192 0 -0.00026534788650865309 -0.00035166530568608531 0 -0.00035267382680194897 -0.00031953081378788831 0 -0.00030273174851963526 -0.00024735583085265192 0 -0.00018912455018386796 -0.00027828198202571575 0 -0.00019002473395763399 -0.00017029928812615456 0 -0.00030273174851963526 -0.00024735583085265192 0 -0.00021044470147632877 -7.4311816489039398e-05 0 -0.00028925765170901847 -0.00012783779296883375 0 -0.00034856255883336084 -2.1810972278287514e-06 0 -0.00040296927207116782 -0.00015517587206013105 0 -0.00028925765170901847 -0.00012783779296883375 0 -0.00034856255883336084 -2.1810972278287514e-06 0 -0.00019002473395763399 -0.00017029928812615456 0 -0.00030273174851963526 -0.00024735583085265192 0 -0.00028925765170901847 -0.00012783779296883375 0 -0.00040296927207116782 -0.00015517587206013105 0 -0.00030273174851963526 -0.00024735583085265192 0 -0.00028925765170901847 -0.00012783779296883375 0 -0.00019002473395763399 -0.00017029928812615456 0 -0.00021044470147632877 -7.4311816489039398e-05 0 -0.00028925765170901847 -0.00012783779296883375 0 -0.00021044470147632877 -7.4311816489039398e-05 0 -0.00034856255883336084 -2.1810972278287514e-06 0 -0.00019738247571767222 3.1355193320721506e-05 0 -0.00034856255883336084 -2.1810972278287514e-06 0 -0.00029773165303153583 0.00012635049936452307 0 -0.00019738247571767222 3.1355193320721506e-05 0 -0.00034856255883336084 -2.1810972278287514e-06 0 -0.00029773165303153583 0.00012635049936452307 0 -0.00042526881071748075 0.00019154513300095841 0 -0.00029773165303153583 0.00012635049936452307 0 -0.00042526881071748075 0.00019154513300095841 0 -0.00025664681145477335 0.00022555767620687772 0 -0.00029773165303153583 0.00012635049936452307 0 -0.00025664681145477335 0.00022555767620687772 0 -0.0001816528274666742 0.00014154466349312935 0 -0.00034856255883336084 -2.1810972278287514e-06 0 -0.00042526881071748075 0.00019154513300095841 0 -0.00049871633343096585 5.7524537326826622e-05 0 -0.00079847910545681998 0.00020384697511071333 0 -0.00075638480362398976 0.00021468389686542865 0 -0.00079465940865115618 0.00017786148225033496 0 -0.00050210158620162752 -7.4852260899674553e-05 0 -0.00034856255883336084 -2.1810972278287514e-06 0 -0.00049871633343096585 5.7524537326826622e-05 0 -0.00050210158620162752 -7.4852260899674553e-05 0 -0.00049871633343096585 5.7524537326826622e-05 0 -0.00061752737856127281 -6.401669070044835e-06 0 -0.00049871633343096585 5.7524537326826622e-05 0 -0.00061752737856127281 -6.401669070044835e-06 0 -0.00061625069347518737 0.00015547725050745983 0 -0.00067328488691185907 -0.00013596070465342802 0 -0.00050210158620162752 -7.4852260899674553e-05 0 -0.00061752737856127281 -6.401669070044835e-06 0 -0.00067328488691185907 -0.00013596070465342802 0 -0.00082386547398417744 -2.6977024887237297e-05 0 -0.00094859445737931799 -6.3833601309450756e-05 0 -0.00076203718149608793 4.9146380553712181e-06 0 -0.0007729996813404499 0.00014557769807476765 0 -0.00082386547398417744 -2.6977024887237297e-05 0 -0.00061966218344986521 0.00017203036880731408 0 -0.00096914508332084765 5.7231112651109871e-05 0 -0.00061752737856127281 -6.401669070044835e-06 0 -0.00082386547398417744 -2.6977024887237297e-05 0 -0.00061625069347518737 0.00015547725050745983 0 -0.00067328488691185907 -0.00013596070465342802 0 -0.00061752737856127281 -6.401669070044835e-06 0 -0.00082386547398417744 -2.6977024887237297e-05 0 -0.0007729996813404499 0.00014557769807476765 0 -0.00098937059078895166 5.8072738751868397e-05 0 -0.0010334815664310112 9.4844878699953594e-05 0 -0.00096914508332084765 5.7231112651109871e-05 0 -0.0010129974034433695 7.6330750303349286e-05 0 -0.0006066677376062098 0.00020044827159336744 0 -0.0007729996813404499 0.00014557769807476765 0 -0.00042526881071748075 0.00019154513300095841 0 -0.00049871633343096585 5.7524537326826622e-05 0 -0.00061625069347518737 0.00015547725050745983 0 -0.0010334815664310112 9.4844878699953594e-05 0 -0.0010376926807837878 8.6813399564569091e-05 0 -0.0010619036057965684 9.7921625689551141e-05 0 -0.0007729996813404499 0.00014557769807476765 0 -0.00095218904975690529 0.00013083413565167436 0 -0.0010376926807837878 8.6813399564569091e-05 0 -0.0010129974034433695 7.6330750303349286e-05 0 -0.0010335711984546163 8.720965523252946e-05 0 -0.0010334815664310112 9.4844878699953594e-05 0 -0.0010376926807837878 8.6813399564569091e-05 0 -0.0010129974034433695 7.6330750303349286e-05 0 -0.0010376926807837878 8.6813399564569091e-05 0 -0.0010335711984546163 8.720965523252946e-05 0 -0.0010436064941538696 8.673790446987811e-05 0 -0.0010376926807837878 8.6813399564569091e-05 0 -0.0010571941035397569 8.4191463105866583e-05 0 -0.0010619036057965684 9.7921625689551141e-05 0 -0.0010376926807837878 8.6813399564569091e-05 0 -0.0010571941035397569 8.4191463105866583e-05 0 -0.0010436064941538696 8.673790446987811e-05 0 -0.0009414641196053633 0.00010670483972975623 0 -0.00095218904975690529 0.00013083413565167436 0 -0.0010571941035397569 8.4191463105866583e-05 0 -0.0010794763143579143 8.3853335409125412e-05 0 -0.0010619036057965684 9.7921625689551141e-05 0 -0.0010794763143579143 8.3853335409125412e-05 0 -0.001101091296959879 8.2002637801002339e-05 0 -0.0010619036057965684 9.7921625689551141e-05 0 -0.0010794763143579143 8.3853335409125412e-05 0 -0.001101091296959879 8.2002637801002339e-05 0 -0.0011010765433561722 7.2578351129561593e-05 0 -0.00083639429598193836 0.00013855379083901951 0 -0.00084341270616286287 0.00019316998592606782 0 -0.00086371046567895 0.00016436649459982322 0 -0.00083639429598193836 0.00013855379083901951 0 -0.00084341270616286287 0.00019316998592606782 0 -0.00079465940865115618 0.00017786148225033496 0 -0.0006066677376062098 0.00020044827159336744 0 -0.0004965521202300639 0.00022162320573842689 0 -0.00079847910545681998 0.00020384697511071333 0 -0.00084341270616286287 0.00019316998592606782 0 -0.00079465940865115618 0.00017786148225033496 0 -0.0012175391546620519 3.1800908104705338e-05 0 -0.0012410049042340036 2.3686882045792762e-05 0 -0.0012391513638123066 4.0140046094676448e-05 0 -0.0012410049042340036 2.3686882045792762e-05 0 -0.0012391513638123066 4.0140046094676448e-05 0 -0.0012493586785985819 2.6725873951600541e-05 0 -0.0010854097438708226 8.0192637544537132e-06 0 -0.001271081836215725 8.262780679826873e-05 0 -0.0010854097438708226 8.0192637544537132e-06 0 -0.0011948461857822052 4.8511565953806548e-05 0 -0.0012509352429190494 0.00010962912404375013 0 -0.0012391513638123066 4.0140046094676448e-05 0 -0.0012255412199135311 7.1807755244281094e-05 0 -0.0012082291809744437 5.3968501126187492e-05 0 -0.0012391513638123066 4.0140046094676448e-05 0 -0.0012255412199135311 7.1807755244281094e-05 0 -0.0012435237223689204 7.2904240560381651e-05 0 -0.0012391513638123066 4.0140046094676448e-05 0 -0.0012493586785985819 2.6725873951600541e-05 0 -0.0012509352429190494 0.00010962912404375013 0 -0.0012255412199135311 7.1807755244281094e-05 0 -0.0012173310719974342 9.9780900525151014e-05 0 -0.0012109510843606062 -0.00010233089602095655 0 -0.0011628379497730713 -4.8637442846121876e-05 0 -0.0011696153459113182 0.00010353574826010387 0 -0.0010948601144863436 -0.00011076874378389695 0 -0.0011635169819551371 -4.6387438915211849e-05 0 -0.0011066112298404247 -4.5051545116257539e-05 0 -0.0011066112298404247 -4.5051545116257539e-05 0 -0.001108705182370889 1.4121245957299401e-05 0 -0.0010571628770931895 -3.4233042176885345e-05 0 -0.0011635169819551371 -4.6387438915211849e-05 0 -0.0011066112298404247 -4.5051545116257539e-05 0 -0.001108705182370889 1.4121245957299401e-05 0 -0.0011635169819551371 -4.6387438915211849e-05 0 -0.001108705182370889 1.4121245957299401e-05 0 -0.0011417137116229205 5.3803191559401072e-05 0 -0.0011593902690189412 -4.6062230727193753e-05 0 -0.0011948461857822052 4.8511565953806548e-05 0 -0.001108705182370889 1.4121245957299401e-05 0 -0.0011417137116229205 5.3803191559401072e-05 0 -0.0011027615150913151 6.0860653182434996e-05 0 -0.001108705182370889 1.4121245957299401e-05 0 -0.0011027615150913151 6.0860653182434996e-05 0 -0.0010670280058569428 5.3610950316101158e-05 0 -0.001108705182370889 1.4121245957299401e-05 0 -0.0010670280058569428 5.3610950316101158e-05 0 -0.0010315194094787288 3.3346527767539309e-05 0 -0.0011027615150913151 6.0860653182434996e-05 0 -0.0010670280058569428 5.3610950316101158e-05 0 -0.0010671072557091638 7.6094801622710384e-05 0 -0.0010670280058569428 5.3610950316101158e-05 0 -0.001024804888600108 6.7733718750395312e-05 0 -0.0010671072557091638 7.6094801622710384e-05 0 -0.0010670280058569428 5.3610950316101158e-05 0 -0.0010315194094787288 3.3346527767539309e-05 0 -0.001024804888600108 6.7733718750395312e-05 0 -0.001108705182370889 1.4121245957299401e-05 0 -0.0010315194094787288 3.3346527767539309e-05 0 -0.0010571628770931895 -3.4233042176885345e-05 0 -0.0010948601144863436 -0.00011076874378389695 0 -0.0011066112298404247 -4.5051545116257539e-05 0 -0.0010571628770931895 -3.4233042176885345e-05 0 -0.0010256323092663281 -0.0001286428878880089 0 -0.0010571628770931895 -3.4233042176885345e-05 0 -0.00094859445737931799 -6.3833601309450756e-05 0 -0.0010315194094787288 3.3346527767539309e-05 0 -0.0010571628770931895 -3.4233042176885345e-05 0 -0.00094859445737931799 -6.3833601309450756e-05 0 -0.0010315194094787288 3.3346527767539309e-05 0 -0.00096914508332084765 5.7231112651109871e-05 0 -0.00094859445737931799 -6.3833601309450756e-05 0 -0.00082386547398417744 -2.6977024887237297e-05 0 -0.00096914508332084765 5.7231112651109871e-05 0 -0.00094859445737931799 -6.3833601309450756e-05 0 -0.00096914508332084765 5.7231112651109871e-05 0 -0.001024804888600108 6.7733718750395312e-05 0 -0.0010129974034433695 7.6330750303349286e-05 0 -0.0010315194094787288 3.3346527767539309e-05 0 -0.00096914508332084765 5.7231112651109871e-05 0 -0.001024804888600108 6.7733718750395312e-05 0 -0.001024804888600108 6.7733718750395312e-05 0 -0.0010129974034433695 7.6330750303349286e-05 0 -0.0010425549876955384 8.5485002201805536e-05 0 -0.0010129974034433695 7.6330750303349286e-05 0 -0.0010425549876955384 8.5485002201805536e-05 0 -0.0010335711984546163 8.720965523252946e-05 0 -0.0010425549876955384 8.5485002201805536e-05 0 -0.001049736770662994 9.6507757254054888e-05 0 -0.0010335711984546163 8.720965523252946e-05 0 -0.001049736770662994 9.6507757254054888e-05 0 -0.0010335711984546163 8.720965523252946e-05 0 -0.0010436064941538696 8.673790446987811e-05 0 -0.001049736770662994 9.6507757254054888e-05 0 -0.0010682349516948912 9.4391577151230411e-05 0 -0.0010669036627999923 0.00010469011878633617 0 -0.0010682349516948912 9.4391577151230411e-05 0 -0.001117086127091368 8.6131417220703806e-05 0 -0.0010669036627999923 0.00010469011878633617 0 -0.0010425549876955384 8.5485002201805536e-05 0 -0.001049736770662994 9.6507757254054888e-05 0 -0.0010682349516948912 9.4391577151230411e-05 0 -0.0010682349516948912 9.4391577151230411e-05 0 -0.0010671072557091638 7.6094801622710384e-05 0 -0.001117086127091368 8.6131417220703806e-05 0 -0.0010425549876955384 8.5485002201805536e-05 0 -0.0010682349516948912 9.4391577151230411e-05 0 -0.0010671072557091638 7.6094801622710384e-05 0 -0.001024804888600108 6.7733718750395312e-05 0 -0.0010425549876955384 8.5485002201805536e-05 0 -0.0010671072557091638 7.6094801622710384e-05 0 -0.0011417137116229205 5.3803191559401072e-05 0 -0.001117086127091368 8.6131417220703806e-05 0 -0.0011521220391406853 9.7130254158647863e-05 0 -0.0011417137116229205 5.3803191559401072e-05 0 -0.0011027615150913151 6.0860653182434996e-05 0 -0.001117086127091368 8.6131417220703806e-05 0 -0.0011639807173845201 3.7603886010374056e-05 0 -0.0011521220391406853 9.7130254158647863e-05 0 -0.0011663878790156719 9.7354039042154956e-05 0 -0.0011948461857822052 4.8511565953806548e-05 0 -0.0011427718877406099 9.5588697210368724e-05 0 -0.0011948461857822052 4.8511565953806548e-05 0 -0.0012055856240177254 6.4267426190464566e-05 0 -0.0011027615150913151 6.0860653182434996e-05 0 -0.0010671072557091638 7.6094801622710384e-05 0 -0.001117086127091368 8.6131417220703806e-05 0 -0.001119970609078874 8.1131043624752783e-05 0 -0.0011248855126776841 0.00010336396352367853 0 -0.001117086127091368 8.6131417220703806e-05 0 -0.0011521220391406853 9.7130254158647863e-05 0 -0.0011809183564764686 0.000110991382731692 0 -0.0011521220391406853 9.7130254158647863e-05 0 -0.0011663878790156719 9.7354039042154956e-05 0 -0.0011809183564764686 0.000110991382731692 0 -0.0012323651615903928 3.0562229273797196e-05 0 -0.0012554414857821961 6.5187747775331535e-05 0 -0.0012613190279162963 3.8593339236781903e-05 0 -0.0012323651615903928 3.0562229273797196e-05 0 -0.0012613190279162963 3.8593339236781903e-05 0 -0.0012420331553171283 2.0275637426599136e-05 0 -0.0012323651615903928 3.0562229273797196e-05 0 -0.0012554414857821961 6.5187747775331535e-05 0 -0.0012343654908665762 0.00012167558694162764 0 -0.0012055856240177254 6.4267426190464566e-05 0 -0.0012266538429233636 0.00012329655339211941 0 -0.0012917460803039728 7.8183514950981711e-05 0 -0.0012554414857821961 6.5187747775331535e-05 0 -0.0012613190279162963 3.8593339236781903e-05 0 -0.0012613190279162963 3.8593339236781903e-05 0 -0.0012420331553171283 2.0275637426599136e-05 0 -0.0012430524155440362 1.1086597860191392e-05 0 -0.0012493586785985819 2.6725873951600541e-05 0 -0.0012323651615903928 3.0562229273797196e-05 0 -0.0012420331553171283 2.0275637426599136e-05 0 -0.0012410049042340036 2.3686882045792762e-05 0 -0.0012493586785985819 2.6725873951600541e-05 0 -0.0012420331553171283 2.0275637426599136e-05 0 -0.0012410049042340036 2.3686882045792762e-05 0 -0.0012420331553171283 2.0275637426599136e-05 0 -0.0012430524155440362 1.1086597860191392e-05 0 -0.0012175391546620519 3.1800908104705338e-05 0 -0.0012410049042340036 2.3686882045792762e-05 0 -0.0012430524155440362 1.1086597860191392e-05 0 -0.0013054220050851787 0.00012816107216140872 0 -0.0012872022026381622 0.00016913182792126 0 -0.0012343654908665762 0.00012167558694162764 0 -0.0012872022026381622 0.00016913182792126 0 -0.00123859988743715 0.00016188798427877344 0 -0.0012858435922773865 0.00021396119317383842 0 -0.0012872022026381622 0.00016913182792126 0 -0.0012343654908665762 0.00012167558694162764 0 -0.00123859988743715 0.00016188798427877344 0 -0.0012917460803039728 7.8183514950981711e-05 0 -0.0012554414857821961 6.5187747775331535e-05 0 -0.0012343654908665762 0.00012167558694162764 0 -0.0012917460803039728 7.8183514950981711e-05 0 -0.0013054220050851787 0.00012816107216140872 0 -0.0012343654908665762 0.00012167558694162764 0 -0.0011663878790156719 9.7354039042154956e-05 0 -0.0012343654908665762 0.00012167558694162764 0 -0.0011809183564764686 0.000110991382731692 0 -0.0012343654908665762 0.00012167558694162764 0 -0.0011809183564764686 0.000110991382731692 0 -0.00123859988743715 0.00016188798427877344 0 -0.0011809183564764686 0.000110991382731692 0 -0.00123859988743715 0.00016188798427877344 0 -0.0011987854779263304 0.00016494084609786834 0 -0.00123859988743715 0.00016188798427877344 0 -0.0011987854779263304 0.00016494084609786834 0 -0.0012526611563751929 0.0002129819856477027 0 -0.0010570901477479071 9.9270648592436232e-05 0 -0.0010579974072021396 0.00010034553818692282 0 -0.0010552973477540584 9.8711170060688592e-05 0 -0.001049736770662994 9.6507757254054888e-05 0 -0.0010669036627999923 0.00010469011878633617 0 -0.0010579974072021396 0.00010034553818692282 0 -0.0011248855126776841 0.00010336396352367853 0 -0.0011196137437706024 0.00013146130977286489 0 -0.0010669036627999923 0.00010469011878633617 0 -0.0010570901477479071 9.9270648592436232e-05 0 -0.0010579974072021396 0.00010034553818692282 0 -0.001049736770662994 9.6507757254054888e-05 0 -0.0010579974072021396 0.00010034553818692282 0 -0.0010517068763918063 9.544888165144247e-05 0 -0.001049736770662994 9.6507757254054888e-05 0 -0.0010517068763918063 9.544888165144247e-05 0 -0.0010436064941538696 8.673790446987811e-05 0 -0.0010517068763918063 9.544888165144247e-05 0 -0.0010552973477540584 9.8711170060688592e-05 0 -0.0010511358386056247 9.5320075691839598e-05 0 -0.0010579974072021396 0.00010034553818692282 0 -0.0010517068763918063 9.544888165144247e-05 0 -0.0010552973477540584 9.8711170060688592e-05 0 -0.0010583798461878497 0.00010309094712224023 0 -0.0010552973477540584 9.8711170060688592e-05 0 -0.0010511358386056247 9.5320075691839598e-05 0 -0.0012133372486265637 0.00018840510830690467 0 -0.001123435901114112 9.0810123306483344e-05 0 -0.0011555614943390032 0.00024797758519753206 0 -0.0012133372486265637 0.00018840510830690467 0 -0.0012326545865441836 0.00015272593791928649 0 -0.0012587352488684139 0.0001355376501077134 0 -0.0012236749837974197 0.00011397588137582956 0 -0.0012481633419692184 0.00026463944446497112 0 -0.0012647427429674982 0.00026030361991713019 0 -0.0012661681405476369 0.00024760330599460676 0 -0.0012483331600193401 0.00026334885453314265 0 -0.0012133372486265637 0.00018840510830690467 0 -0.0012647427429674982 0.00026030361991713019 0 -0.0012646248741843605 0.0002427545780932439 0 -0.0012722139113976775 0.00024897276247862025 0 -0.0012647427429674982 0.00026030361991713019 0 -0.0012646248741843605 0.0002427545780932439 0 -0.0012585891183767165 0.00023859340066315134 0 -0.0012535146417874015 0.00022151760574841824 0 -0.0012133372486265637 0.00018840510830690467 0 -0.0011196137437706024 0.00013146130977286489 0 -0.0012133372486265637 0.00018840510830690467 0 -0.0010570901477479071 9.9270648592436232e-05 0 -0.0010583798461878497 0.00010309094712224023 0 -0.0010552973477540584 9.8711170060688592e-05 0 -0.00123859988743715 0.00016188798427877344 0 -0.0012526611563751929 0.0002129819856477027 0 -0.0012858435922773865 0.00021396119317383842 0 -0.0011987854779263304 0.00016494084609786834 0 -0.0011912568484791918 0.00025175617534096029 0 -0.0012526611563751929 0.0002129819856477027 0 -0.0012526611563751929 0.0002129819856477027 0 -0.0012659804559613194 0.00023450998861966621 0 -0.0012858435922773865 0.00021396119317383842 0 -0.0012591361872323302 0.00024005719093721638 0 -0.0012526611563751929 0.0002129819856477027 0 -0.0012659804559613194 0.00023450998861966621 0 -0.0012133372486265637 0.00018840510830690467 0 -0.0012480275122715473 0.00022238557447100534 0 -0.0012646248741843605 0.0002427545780932439 0 -0.0012591361872323302 0.00024005719093721638 0 -0.0012659804559613194 0.00023450998861966621 0 -0.0012659804559613194 0.00023450998861966621 0 -0.0012722139113976775 0.00024897276247862025 0 -0.001293593157603277 0.00024525182582986281 0 -0.0012646248741843605 0.0002427545780932439 0 -0.0012659804559613194 0.00023450998861966621 0 -0.0012722139113976775 0.00024897276247862025 0 -0.0012659804559613194 0.00023450998861966621 0 -0.001293593157603277 0.00024525182582986281 0 -0.0012858435922773865 0.00021396119317383842 0 -0.0013589474071114347 0.0002748121719593409 0 -0.0013272224013966744 0.00021774731864494394 0 -0.001293593157603277 0.00024525182582986281 0 -0.0013272224013966744 0.00021774731864494394 0 -0.001293593157603277 0.00024525182582986281 0 -0.0012858435922773865 0.00021396119317383842 0 -0.0013272224013966744 0.00021774731864494394 0 -0.0012872022026381622 0.00016913182792126 0 -0.0012858435922773865 0.00021396119317383842 0 -0.00113231623366263 9.2843501712579541e-05 0 -0.0011246836383135477 0.00010319927556153157 0 -0.0011539594217005161 0.00011970764757224154 0 -0.00113231623366263 9.2843501712579541e-05 0 -0.0011774805949866917 8.6835027948080297e-05 0 -0.0011539594217005161 0.00011970764757224154 0 -0.00113231623366263 9.2843501712579541e-05 0 -0.0011010765433561722 7.2578351129561593e-05 0 -0.0011774805949866917 8.6835027948080297e-05 0 -0.00113231623366263 9.2843501712579541e-05 0 -0.0011246836383135477 0.00010319927556153157 0 -0.0011089886630941018 8.8068709073293812e-05 0 -0.00113231623366263 9.2843501712579541e-05 0 -0.0011089886630941018 8.8068709073293812e-05 0 -0.0011010765433561722 7.2578351129561593e-05 0 -0.0011246836383135477 0.00010319927556153157 0 -0.0011089886630941018 8.8068709073293812e-05 0 -0.0011092879042398556 0.0001146849576581856 0 -0.0011089886630941018 8.8068709073293812e-05 0 -0.0011012619543358697 7.8638973666744088e-05 0 -0.0011010765433561722 7.2578351129561593e-05 0 -0.001101091296959879 8.2002637801002339e-05 0 -0.0011012619543358697 7.8638973666744088e-05 0 -0.0011010765433561722 7.2578351129561593e-05 0 -0.0010571941035397569 8.4191463105866583e-05 0 -0.0011010765433561722 7.2578351129561593e-05 0 -0.0010519110683017644 7.6716973541031619e-05 0 -0.0011022715228178473 7.3078765890355796e-05 0 -0.0011195652031051617 8.6031265893285461e-05 0 -0.0010571941035397569 8.4191463105866583e-05 0 -0.0010794763143579143 8.3853335409125412e-05 0 -0.0011010765433561722 7.2578351129561593e-05 0 -0.0010571941035397569 8.4191463105866583e-05 0 -0.0010436064941538696 8.673790446987811e-05 0 -0.0010519110683017644 7.6716973541031619e-05 0 -0.0010436064941538696 8.673790446987811e-05 0 -0.0010519110683017644 7.6716973541031619e-05 0 -0.0010511358386056247 9.5320075691839598e-05 0 -0.0010517068763918063 9.544888165144247e-05 0 -0.0010436064941538696 8.673790446987811e-05 0 -0.0010511358386056247 9.5320075691839598e-05 0 -0.0011195652031051617 8.6031265893285461e-05 0 -0.001123435901114112 9.0810123306483344e-05 0 -0.0011774805949866917 8.6835027948080297e-05 0 -0.0011908164888960939 0.00012335977934834478 0 -0.0011539594217005161 0.00011970764757224154 0 -0.0011774805949866917 8.6835027948080297e-05 0 -0.0011908164888960939 0.00012335977934834478 0 -0.0012236749837974197 0.00011397588137582956 0 -0.0011908164888960939 0.00012335977934834478 0 -0.0012236749837974197 0.00011397588137582956 0 -0.0012084848775787535 0.00014298211762192061 0 -0.0012326545865441836 0.00015272593791928649 0 -0.0012236749837974197 0.00011397588137582956 0 -0.0012084848775787535 0.00014298211762192061 0 -0.0011908164888960939 0.00012335977934834478 0 -0.0011539594217005161 0.00011970764757224154 0 -0.0011895220336918281 0.00015564395305063438 0 -0.0011908164888960939 0.00012335977934834478 0 -0.0012084848775787535 0.00014298211762192061 0 -0.0011895220336918281 0.00015564395305063438 0 -0.0011539594217005161 0.00011970764757224154 0 -0.0011528368897333323 0.00015601323788127711 0 -0.0011895220336918281 0.00015564395305063438 0 -0.0011246836383135477 0.00010319927556153157 0 -0.0011539594217005161 0.00011970764757224154 0 -0.0011092879042398556 0.0001146849576581856 0 -0.0011539594217005161 0.00011970764757224154 0 -0.0011092879042398556 0.0001146849576581856 0 -0.0011528368897333323 0.00015601323788127711 0 -0.0012828934027896294 0.00023124266243054438 0 -0.001261979139551495 0.0002182393472175021 0 -0.001281568818417224 0.00021893106047792969 0 -0.0012023001680207305 0.00017246810165320349 0 -0.0012055147645886827 0.00018351192376934937 0 -0.001261979139551495 0.0002182393472175021 0 -0.001281568818417224 0.00021893106047792969 0 -0.0012867145587611465 0.00020570568737588758 0 -0.0012828934027896294 0.00023124266243054438 0 -0.001281568818417224 0.00021893106047792969 0 -0.0012888643138346354 0.00022220059517661034 0 -0.001281568818417224 0.00021893106047792969 0 -0.0012888643138346354 0.00022220059517661034 0 -0.0013012685837385063 0.00021006981902493344 0 -0.0012888643138346354 0.00022220059517661034 0 -0.0012971932144890742 0.00021808375555547235 0 -0.0012897468243230864 0.000223712410208803 0 -0.0012888643138346354 0.00022220059517661034 0 -0.0012971932144890742 0.00021808375555547235 0 -0.0013012685837385063 0.00021006981902493344 0 -0.0012971932144890742 0.00021808375555547235 0 -0.0013049695505173266 0.00021393424450941146 0 -0.0013012685837385063 0.00021006981902493344 0 -0.0012971932144890742 0.00021808375555547235 0 -0.0013049695505173266 0.00021393424450941146 0 -0.0012967129983619406 0.00022049565040044574 0 -0.0012897468243230864 0.000223712410208803 0 -0.0012884667108990801 0.00022493990673198302 0 -0.0012967129983619406 0.00022049565040044574 0 -0.0012971932144890742 0.00021808375555547235 0 -0.0012897468243230864 0.000223712410208803 0 -0.0012967129983619406 0.00022049565040044574 0 -0.0012897468243230864 0.000223712410208803 0 -0.0012884667108990801 0.00022493990673198302 0 -0.0012845186158588263 0.00022608749586669314 0 -0.0012897468243230864 0.000223712410208803 0 -0.0012843270549814426 0.00022640215088100304 0 -0.0012845186158588263 0.00022608749586669314 0 -0.0012888643138346354 0.00022220059517661034 0 -0.0012897468243230864 0.000223712410208803 0 -0.0012843270549814426 0.00022640215088100304 0 -0.0012828934027896294 0.00023124266243054438 0 -0.0012888643138346354 0.00022220059517661034 0 -0.0012853449996395232 0.00023166749887017818 0 -0.0012865137403773646 0.00021777107256945377 0 -0.0012906870979402193 0.00024329274728831631 0 -0.0020371137957258261 0.00019321349889463895 0 -0.0020365125917825798 0.00018032620963778109 0 -0.0020227590018476612 0.00019586604475084439 0 -0.0020227590018476612 0.00019586604475084439 0 -0.0020180218551808559 0.0002071740930751904 0 -0.0020462574166068516 0.00020150808366594395 0 -0.0020371137957258261 0.00019321349889463895 0 -0.0020227590018476612 0.00019586604475084439 0 -0.0020462574166068516 0.00020150808366594395 0 -0.0020371137957258261 0.00019321349889463895 0 -0.0020453341988285823 0.00020011613818887312 0 -0.0020365125917825798 0.00018032620963778109 0 -0.0020371137957258261 0.00019321349889463895 0 -0.0020453341988285823 0.00020011613818887312 0 -0.0020462574166068516 0.00020150808366594395 0 -0.0016056147407309078 0.00019946659722875045 0 -0.0016333900481822401 0.00020932758931893389 0 -0.0013049695505173266 0.00021393424450941146 0 -0.0012967129983619406 0.00022049565040044574 0 -0.0012951053306232488 0.0002249790434526468 0 -0.0012967129983619406 0.00022049565040044574 0 -0.001292492801647598 0.00022516578852431679 0 -0.0012951053306232488 0.0002249790434526468 0 -0.0012967129983619406 0.00022049565040044574 0 -0.0012914192281469393 0.00022431801618572365 0 -0.001292492801647598 0.00022516578852431679 0 -0.0012884667108990801 0.00022493990673198302 0 -0.0012914192281469393 0.00022431801618572365 0 -0.0012877619482800557 0.0002261319837892798 0 -0.0012884667108990801 0.00022493990673198302 0 -0.0012967129983619406 0.00022049565040044574 0 -0.0012914192281469393 0.00022431801618572365 0 -0.0012914192281469393 0.00022431801618572365 0 -0.001292492801647598 0.00022516578852431679 0 -0.0012877619482800557 0.0002261319837892798 0 -0.001292492801647598 0.00022516578852431679 0 -0.0012912747336257478 0.00022513520447478842 0 -0.0012874537067812514 0.00022729561048010852 0 -0.0013594954869795084 0.0002529683318288822 0 -0.0016333900481822401 0.00020932758931893389 0 -0.0012912747336257478 0.00022513520447478842 0 -0.0012874537067812514 0.00022729561048010852 0 -0.0012896166033110478 0.00022961848851653558 0 -0.0016333900481822401 0.00020932758931893389 0 -0.001444785278746231 0.00022783097068292046 0 -0.0012874537067812514 0.00022729561048010852 0 -0.0012830913852055115 0.00023160677315472693 0 -0.0012896166033110478 0.00022961848851653558 0 -0.0012874537067812514 0.00022729561048010852 0 -0.0012820517975846682 0.00022922986304183828 0 -0.0012830913852055115 0.00023160677315472693 0 -0.001292492801647598 0.00022516578852431679 0 -0.0012874537067812514 0.00022729561048010852 0 -0.0012877619482800557 0.0002261319837892798 0 -0.0012874537067812514 0.00022729561048010852 0 -0.0012877619482800557 0.0002261319837892798 0 -0.0012820517975846682 0.00022922986304183828 0 -0.0012877619482800557 0.0002261319837892798 0 -0.0012820517975846682 0.00022922986304183828 0 -0.0012827970872426879 0.00022715506854871823 0 -0.0012820517975846682 0.00022922986304183828 0 -0.0012776719742434953 0.00023423950066272056 0 -0.0012728315338648806 0.00023474361289547847 0 -0.0012776719742434953 0.00023423950066272056 0 -0.0012728315338648806 0.00023474361289547847 0 -0.0012712540601305916 0.00024056986879022563 0 -0.0012776719742434953 0.00023423950066272056 0 -0.0012830913852055115 0.00023160677315472693 0 -0.0012795997986647389 0.0002373295549528504 0 -0.0012820517975846682 0.00022922986304183828 0 -0.0012776719742434953 0.00023423950066272056 0 -0.0012830913852055115 0.00023160677315472693 0 -0.0012830913852055115 0.00023160677315472693 0 -0.0012795997986647389 0.0002373295549528504 0 -0.0012896166033110478 0.00022961848851653558 0 -0.0012795997986647389 0.0002373295549528504 0 -0.0012868794349065447 0.0002411649758822424 0 -0.0012896166033110478 0.00022961848851653558 0 -0.0011089886630941018 8.8068709073293812e-05 0 -0.0011092879042398556 0.0001146849576581856 0 -0.0010927834391571934 7.9789690470743357e-05 0 -0.0012843270549814426 0.00022640215088100304 0 -0.0012780709374703464 0.00022735845468041345 0 -0.0012781452947415257 0.0002265697521729003 0 -0.0012828934027896294 0.00023124266243054438 0 -0.0012853449996395232 0.00023166749887017818 0 -0.0012847394849623411 0.00023261280513763602 0 -0.0012906870979402193 0.00024329274728831631 0 -0.0011451598644539884 0.00016942597779744247 0 -0.0012023001680207305 0.00017246810165320349 0 -0.0011451598644539884 0.00016942597779744247 0 -0.0012262457532065706 0.00017858293193160097 0 -0.0011451598644539884 0.00016942597779744247 0 -0.0012845186158588263 0.00022608749586669314 0 -0.0012827970872426879 0.00022715506854871823 0 -0.0012780709374703464 0.00022735845468041345 0 -0.0012843270549814426 0.00022640215088100304 0 -0.0012845186158588263 0.00022608749586669314 0 -0.0012780709374703464 0.00022735845468041345 0 -0.0012884667108990801 0.00022493990673198302 0 -0.0012845186158588263 0.00022608749586669314 0 -0.0012827970872426879 0.00022715506854871823 0 -0.0012884667108990801 0.00022493990673198302 0 -0.0012877619482800557 0.0002261319837892798 0 -0.0012827970872426879 0.00022715506854871823 0 -0.0012820517975846682 0.00022922986304183828 0 -0.0012827970872426879 0.00022715506854871823 0 -0.0012782638517019023 0.00022942307722720662 0 -0.0012827970872426879 0.00022715506854871823 0 -0.0012782638517019023 0.00022942307722720662 0 -0.0012780709374703464 0.00022735845468041345 0 -0.0012782638517019023 0.00022942307722720662 0 -0.0012780709374703464 0.00022735845468041345 0 -0.0012736700585265291 0.00023076819407541116 0 -0.0012782638517019023 0.00022942307722720662 0 -0.0012736700585265291 0.00023076819407541116 0 -0.0012728315338648806 0.00023474361289547847 0 -0.0012736700585265291 0.00023076819407541116 0 -0.0012728315338648806 0.00023474361289547847 0 -0.0012686378965810713 0.00023208001114654537 0 -0.0012728315338648806 0.00023474361289547847 0 -0.0012686378965810713 0.00023208001114654537 0 -0.0012618147094276384 0.0002409010279773239 0 -0.0012780709374703464 0.00022735845468041345 0 -0.0012736700585265291 0.00023076819407541116 0 -0.0012688382771472155 0.00023022916087392153 0 -0.0012820517975846682 0.00022922986304183828 0 -0.0012782638517019023 0.00022942307722720662 0 -0.0012728315338648806 0.00023474361289547847 0 -0.0011182040028932673 0.00016496519288829316 0 -0.0010744205623810662 0.00020307402459163865 0 -0.001101091296959879 8.2002637801002339e-05 0 -0.0011012619543358697 7.8638973666744088e-05 0 -0.0010927834391571934 7.9789690470743357e-05 0 -0.0009414641196053633 0.00010670483972975623 0 -0.0011451598644539884 0.00016942597779744247 0 -0.00083639429598193836 0.00013855379083901951 0 -0.0008831440865889349 0.00010390265167522798 0 -0.00088241192655315152 9.7203810363433499e-05 0 -0.0011089886630941018 8.8068709073293812e-05 0 -0.0011012619543358697 7.8638973666744088e-05 0 -0.0010927834391571934 7.9789690470743357e-05 0 -0.0012736700585265291 0.00023076819407541116 0 -0.0012686378965810713 0.00023208001114654537 0 -0.0012688382771472155 0.00023022916087392153 0 -0.0011182040028932673 0.00016496519288829316 0 -0.0011451598644539884 0.00016942597779744247 0 -0.00083639429598193836 0.00013855379083901951 0 -0.0008831440865889349 0.00010390265167522798 0 -0.00088687528007363385 0.00014264549041210608 0 -0.00083639429598193836 0.00013855379083901951 0 -0.00088687528007363385 0.00014264549041210608 0 -0.00086371046567895 0.00016436649459982322 0 -0.00088687528007363385 0.00014264549041210608 0 -0.00086371046567895 0.00016436649459982322 0 -0.00089075346369725788 0.00018120491453705993 0 -0.00084341270616286287 0.00019316998592606782 0 -0.00086371046567895 0.00016436649459982322 0 -0.00089075346369725788 0.00018120491453705993 0 -0.0004965521202300639 0.00022162320573842689 0 -0.00080062020425965112 0.00018695116693065789 0 -0.00025664681145477335 0.00022555767620687772 0 -0.00010640647531621985 0.00026220073138606524 0 -0.0001816528274666742 0.00014154466349312935 0 -0.0012618147094276384 0.0002409010279773239 0 -0.0012596099151141269 0.00024985701121774606 0 -0.0012566073604910375 0.00025022668605185171 0 -0.0012596099151141269 0.00024985701121774606 0 -0.0012628554009942584 0.00024753979896371118 0 -0.0012556511813229131 0.00025163230436916248 0 -0.0012596099151141269 0.00024985701121774606 0 -0.0012598310625811292 0.00025239760668735098 0 -0.0012556511813229131 0.00025163230436916248 0 -0.0011034382711358559 0.00015578705960016839 0 -0.00080062020425965112 0.00018695116693065789 0 -0.0012596099151141269 0.00024985701121774606 0 -0.0012657219638177615 0.00024274346261719102 0 -0.0012628554009942584 0.00024753979896371118 0 -0.0010744205623810662 0.00020307402459163865 0 -0.00080062020425965112 0.00018695116693065789 0 -0.0012618147094276384 0.0002409010279773239 0 -0.0012596099151141269 0.00024985701121774606 0 -0.0012657219638177615 0.00024274346261719102 0 -0.0012728315338648806 0.00023474361289547847 0 -0.0012618147094276384 0.0002409010279773239 0 -0.0012657219638177615 0.00024274346261719102 0 -0.0012728315338648806 0.00023474361289547847 0 -0.0012657219638177615 0.00024274346261719102 0 -0.0012712540601305916 0.00024056986879022563 0 -0.0012776719742434953 0.00023423950066272056 0 -0.0012712540601305916 0.00024056986879022563 0 -0.0012795997986647389 0.0002373295549528504 0 -0.0012712540601305916 0.00024056986879022563 0 -0.0012795997986647389 0.0002373295549528504 0 -0.0012753919153540422 0.00024253595599602867 0 -0.0012712540601305916 0.00024056986879022563 0 -0.0012753919153540422 0.00024253595599602867 0 -0.0012625268934532961 0.00024866447569725123 0 -0.0012657219638177615 0.00024274346261719102 0 -0.0012712540601305916 0.00024056986879022563 0 -0.0012628554009942584 0.00024753979896371118 0 -0.0012712540601305916 0.00024056986879022563 0 -0.0012628554009942584 0.00024753979896371118 0 -0.0012625268934532961 0.00024866447569725123 0 -0.0012795997986647389 0.0002373295549528504 0 -0.0012753919153540422 0.00024253595599602867 0 -0.0012868794349065447 0.0002411649758822424 0 -0.0012753919153540422 0.00024253595599602867 0 -0.001280209881992784 0.00024702938955407754 0 -0.0012868794349065447 0.0002411649758822424 0 -0.0012828497531801831 0.00025723123690985791 0 -0.0012625268934532961 0.00024866447569725123 0 -0.0012436083661153761 0.00025392168890194688 0 -0.001280209881992784 0.00024702938955407754 0 -0.0012828497531801831 0.00025723123690985791 0 -0.0012625268934532961 0.00024866447569725123 0 -0.001280209881992784 0.00024702938955407754 0 -0.0012828497531801831 0.00025723123690985791 0 -0.0012904383309062786 0.00024787681457455696 0 -0.0012753919153540422 0.00024253595599602867 0 -0.001280209881992784 0.00024702938955407754 0 -0.0012625268934532961 0.00024866447569725123 0 -0.0012625268934532961 0.00024866447569725123 0 -0.0012436083661153761 0.00025392168890194688 0 -0.0012556511813229131 0.00025163230436916248 0 -0.0012628554009942584 0.00024753979896371118 0 -0.0012625268934532961 0.00024866447569725123 0 -0.0012556511813229131 0.00025163230436916248 0 -0.0012436083661153761 0.00025392168890194688 0 -0.0011697637000918067 0.00019627085308277246 0 -0.0012514805112744563 0.00022531248231836811 0 -0.0012436083661153761 0.00025392168890194688 0 -0.0012514805112744563 0.00022531248231836811 0 -0.0012556511813229131 0.00025163230436916248 0 -0.001140581566604331 0.00030253577374708993 0 -0.0012436083661153761 0.00025392168890194688 0 -0.0011697637000918067 0.00019627085308277246 0 -0.0011674016633950323 0.00027794694498436176 0 -0.0012602412510586999 0.0002542627784606925 0 -0.00013995111118395324 0.00019057024779098319 0 -0.00014438686911726767 0.0001981901696593862 0 -0.00015888995219609373 0.00019527955729748474 0 -0.00013995111118395324 0.00019057024779098319 0 -0.00014438686911726767 0.0001981901696593862 0 -0.00013514196239214964 0.00019396070829194061 0 -0.00075984229127620026 0.00018003764887523533 0 -0.0002167683164170651 0.00019138935027692672 0 -0.0011697637000918067 0.00019627085308277246 0 -0.0012382497982282219 0.00018838739984594844 0 -0.0012514805112744563 0.00022531248231836811 0 -0.0002167683164170651 0.00019138935027692672 0 6.1338022766469754e-05 0.00014768537687260465 0 -0.0012382497982282219 0.00018838739984594844 0 -0.0012514805112744563 0.00022531248231836811 0 -0.0012636394928117736 0.00020054147268808587 0 -0.00031482699121896133 0.00018039926121521532 0 -0.00067505912147439759 0.00018873320745887786 0 -0.0002167683164170651 0.00019138935027692672 0 -0.00031482699121896133 0.00018039926121521532 0 -0.0001839518579310848 0.00013745991201250028 0 -0.00013257607966526391 0.00012533621382128078 0 -0.00013612330557471076 0.00015160002722448528 0 -6.7804840386717332e-05 6.2945615289879547e-06 0 -0.00013408512377532404 7.5801169967571892e-05 0 -8.4513153784980473e-05 0.00013089873448905105 0 -0.0012514805112744563 0.00022531248231836811 0 -0.0012636394928117736 0.00020054147268808587 0 -0.0012650241171613776 0.00023979033777604664 0 -0.00031482699121896133 0.00018039926121521532 0 6.1338022766469754e-05 0.00014768537687260465 0 -2.1702639233743466e-05 -6.2853473664126887e-06 0 -1.5070439728715161e-05 -5.495309614074522e-05 0 -7.3226639604080643e-05 -3.9779082177198944e-05 0 -2.1702639233743466e-05 -6.2853473664126887e-06 0 -7.3226639604080643e-05 -3.9779082177198944e-05 0 -0.00019738247571767222 3.1355193320721506e-05 0 -6.7804840386717332e-05 6.2945615289879547e-06 0 -0.00019738247571767222 3.1355193320721506e-05 0 -0.00013408512377532404 7.5801169967571892e-05 0 -0.00031482699121896133 0.00018039926121521532 0 -7.7982815748232228e-05 -3.0185421612441584e-06 0 -0.00011231276960073768 -8.5244673117833931e-05 0 -7.3226639604080643e-05 -3.9779082177198944e-05 0 -0.00019738247571767222 3.1355193320721506e-05 0 -0.00011231276960073768 -8.5244673117833931e-05 0 -0.00021044470147632877 -7.4311816489039398e-05 0 -0.00019738247571767222 3.1355193320721506e-05 0 -0.00013408512377532404 7.5801169967571892e-05 0 -0.0001816528274666742 0.00014154466349312935 0 -8.4513153784980473e-05 0.00013089873448905105 0 -0.00010640647531621985 0.00026220073138606524 0 -0.0001816528274666742 0.00014154466349312935 0 -8.4513153784980473e-05 0.00013089873448905105 0 -0.00019738247571767222 3.1355193320721506e-05 0 -0.00013408512377532404 7.5801169967571892e-05 0 -0.0001816528274666742 0.00014154466349312935 0 -0.00029773165303153583 0.00012635049936452307 0 -0.00019738247571767222 3.1355193320721506e-05 0 -0.0001816528274666742 0.00014154466349312935 0 -0.0012598310625811292 0.00025239760668735098 0 -0.0012556511813229131 0.00025163230436916248 0 -0.0012650241171613776 0.00023979033777604664 0 -0.00080062020425965112 0.00018695116693065789 0 -0.00067505912147439759 0.00018873320745887786 0 -0.0012514805112744563 0.00022531248231836811 0 -0.0012556511813229131 0.00025163230436916248 0 -0.0012650241171613776 0.00023979033777604664 0 -0.0007701738326559394 0.00027176342756667326 0 -0.0011398791073347547 0.00030706743900308964 0 -0.0012867745937676382 0.00045344915662688093 0 -0.0013829885210185897 0.00042713177981551482 0 -0.0013140120367713518 0.00038832307277960812 0 -0.00069537775454982307 0.00023130066820903903 0 -0.0007835059971477243 0.00020266126671468086 0 -0.00075410296565126217 0.00026880434447723958 0 -0.0007835059971477243 0.00020266126671468086 0 -0.00079126158468223993 0.00024463405870722488 0 -0.00075410296565126217 0.00026880434447723958 0 -0.0007835059971477243 0.00020266126671468086 0 -0.00079126158468223993 0.00024463405870722488 0 -0.0008360176896086086 0.00024794596359388503 0 -0.00079126158468223993 0.00024463405870722488 0 -0.00075410296565126217 0.00026880434447723958 0 -0.00079310704946094536 0.00032053305212997386 0 -0.00076412449284439196 0.00030093986707232742 0 -0.00066405178329049087 0.00029132107375527975 0 -0.00075797348751366735 0.00032715169189595597 0 -0.00077384518600001574 0.0003028564939760995 0 -0.00073372359904475784 0.00028702600162034417 0 -0.00075410296565126217 0.00026880434447723958 0 -0.00077384518600001574 0.0003028564939760995 0 -0.00073372359904475784 0.00028702600162034417 0 -0.0001239875035903655 0.00020585725619721152 0 -0.00011504051908430653 0.00019760760593462434 0 -0.00012085223144596974 0.00019492044781473629 0 -0.0007701738326559394 0.00027176342756667326 0 -0.0004082781584427602 0.00021897408522518372 0 -0.00069537775454982307 0.00023130066820903903 0 -0.00075410296565126217 0.00026880434447723958 0 -0.00073372359904475784 0.00028702600162034417 0 -0.0001239875035903655 0.00020585725619721152 0 -0.00012085223144596974 0.00019492044781473629 0 -0.00012757006834017087 0.00019688411773730814 0 -0.0001239875035903655 0.00020585725619721152 0 -0.00012757006834017087 0.00019688411773730814 0 -0.0001335032385864171 0.00020128410508931204 0 -0.00014438686911726767 0.0001981901696593862 0 -0.00013514196239214964 0.00019396070829194061 0 -0.0001335032385864171 0.00020128410508931204 0 -0.00012757006834017087 0.00019688411773730814 0 -0.00013514196239214964 0.00019396070829194061 0 -0.0001335032385864171 0.00020128410508931204 0 -0.00075984229127620026 0.00018003764887523533 0 -0.00054025274242307025 0.00021951439724941202 0 -0.001140581566604331 0.00030253577374708993 0 -0.0010697367333092043 0.00022138076291937584 0 -0.0010443341124656198 0.00027867429882389068 0 -0.001140581566604331 0.00030253577374708993 0 -0.0011697637000918067 0.00019627085308277246 0 -0.0010697367333092043 0.00022138076291937584 0 -0.0007701738326559394 0.00027176342756667326 0 -0.00054025274242307025 0.00021951439724941202 0 -0.00097025220764612784 0.00024921519542286529 0 -0.0010697367333092043 0.00022138076291937584 0 -0.0010443341124656198 0.00027867429882389068 0 -0.0007701738326559394 0.00027176342756667326 0 -0.0013908800537676032 0.0003722318009581177 0 -0.00097025220764612784 0.00024921519542286529 0 -0.0010443341124656198 0.00027867429882389068 0 -0.0010346702663946723 0.00034581137822498883 0 -0.0012828497531801831 0.00025723123690985791 0 -0.0013052044637608411 0.00025129788934690302 0 -0.0012904383309062786 0.00024787681457455696 0 -0.0011674016633950323 0.00027794694498436176 0 -0.0013908800537676032 0.0003722318009581177 0 -0.001140581566604331 0.00030253577374708993 0 -0.0010443341124656198 0.00027867429882389068 0 -0.0010346702663946723 0.00034581137822498883 0 -0.0012868794349065447 0.0002411649758822424 0 -0.0012990361925356833 0.00024261431089299108 0 -0.0012896166033110478 0.00022961848851653558 0 -0.0013052044637608411 0.00025129788934690302 0 -0.0012904383309062786 0.00024787681457455696 0 -0.0012990361925356833 0.00024261431089299108 0 -0.001280209881992784 0.00024702938955407754 0 -0.0012904383309062786 0.00024787681457455696 0 -0.0012868794349065447 0.0002411649758822424 0 -0.0012904383309062786 0.00024787681457455696 0 -0.0012868794349065447 0.0002411649758822424 0 -0.0012990361925356833 0.00024261431089299108 0 -0.0018175047752291029 0.00049135313815625102 0 -0.0017925412721697426 0.00044996086468418066 0 -0.0018626316386739748 0.00042597166317288513 0 -0.0017925412721697426 0.00044996086468418066 0 -0.0018626316386739748 0.00042597166317288513 0 -0.001827941252194668 0.00037093725215309506 0 -0.0013908800537676032 0.0003722318009581177 0 -0.0015944437667850166 0.00034985923446747549 0 -0.0018175047752291029 0.00049135313815625102 0 -0.0018626316386739748 0.00042597166317288513 0 -0.0019366179518061361 0.00044750934954229329 0 -0.0013908800537676032 0.0003722318009581177 0 -0.0016480542300840804 0.00038368164883721532 0 -0.0012303480464316279 0.00035972143860898574 0 -0.0013140120367713518 0.00038832307277960812 0 -0.0013565409413670649 0.00031317522885952346 0 -0.0012867745937676382 0.00045344915662688093 0 -0.0012303480464316279 0.00035972143860898574 0 -0.0013140120367713518 0.00038832307277960812 0 -0.0013829885210185897 0.00042713177981551482 0 -0.0013565409413670649 0.00031317522885952346 0 -0.001444830606439688 0.0003696405872667564 0 -0.0013829885210185897 0.00042713177981551482 0 -0.0013140120367713518 0.00038832307277960812 0 -0.0013565409413670649 0.00031317522885952346 0 -0.0019366179518061361 0.00044750934954229329 0 -0.0019329617802996144 0.0003538255705468713 0 -0.0020516601986309731 0.00040371006664904847 0 -0.0018626316386739748 0.00042597166317288513 0 -0.0019329617802996144 0.0003538255705468713 0 -0.001827941252194668 0.00037093725215309506 0 -0.0018626316386739748 0.00042597166317288513 0 -0.0019366179518061361 0.00044750934954229329 0 -0.0019329617802996144 0.0003538255705468713 0 -0.0019329617802996144 0.0003538255705468713 0 -0.001863566829291617 0.00029337293097859984 0 -0.0019465838541114539 0.00026123450061091145 0 -0.0019329617802996144 0.0003538255705468713 0 -0.001827941252194668 0.00037093725215309506 0 -0.001863566829291617 0.00029337293097859984 0 -0.0019329617802996144 0.0003538255705468713 0 -0.0019465838541114539 0.00026123450061091145 0 -0.0020218926000007222 0.00031450548331883035 0 -0.0015944437667850166 0.00034985923446747549 0 -0.001444785278746231 0.00022783097068292046 0 -0.0017374895261242547 0.00036211162944098949 0 -0.0016792464210018967 0.00026829544020602614 0 -0.0017702885236942146 0.00028248354992220569 0 -0.0015944437667850166 0.00034985923446747549 0 -0.0018096895426257544 0.00032886820773907384 0 -0.0018096895426257544 0.00032886820773907384 0 -0.0018300760287859566 0.00024809529125874216 0 -0.0017702885236942146 0.00028248354992220569 0 -0.0018032949980718398 0.00020249325049065821 0 -0.0017202656557031466 0.00021520991645440998 0 -0.0016207038569195436 0.00017466433959495266 0 -0.0016792464210018967 0.00026829544020602614 0 -0.0017202656557031466 0.00021520991645440998 0 -0.0016792464210018967 0.00026829544020602614 0 -0.0017702885236942146 0.00028248354992220569 0 -0.0017202656557031466 0.00021520991645440998 0 -0.0016333900481822401 0.00020932758931893389 0 -0.0019120873608099325 0.0001546786384884225 0 -0.0020365125917825798 0.00018032620963778109 0 -0.0020131100191492488 0.00018384742538237175 0 -0.0020227590018476612 0.00019586604475084439 0 -0.0016207038569195436 0.00017466433959495266 0 -0.0017202656557031466 0.00021520991645440998 0 -0.0017281615795431342 0.00014807528334137416 0 -0.0018032949980718398 0.00020249325049065821 0 -0.0017202656557031466 0.00021520991645440998 0 -0.0017281615795431342 0.00014807528334137416 0 -0.0018032949980718398 0.00020249325049065821 0 -0.0017281615795431342 0.00014807528334137416 0 -0.0018359909202121897 0.00012202611400541718 0 -0.0019120873608099325 0.0001546786384884225 0 -0.0019084482639830935 0.00018250079055423174 0 -0.0020131100191492488 0.00018384742538237175 0 -0.0020033443837262216 0.00019993843270007202 0 -0.0019811291876017027 0.00019104427261456728 0 -0.0020033443837262216 0.00019993843270007202 0 -0.0019862257844513458 0.00020596887677209146 0 -0.001996733252045206 0.00021387529376978794 0 -0.0020131100191492488 0.00018384742538237175 0 -0.0020033443837262216 0.00019993843270007202 0 -0.0020227590018476612 0.00019586604475084439 0 -0.0020033443837262216 0.00019993843270007202 0 -0.0020227590018476612 0.00019586604475084439 0 -0.0020169624326879603 0.00021188979928208541 0 -0.002038038671445282 0.00021104984235825709 0 -0.0021201510515504321 0.00023545047974385538 0 -0.0019465838541114539 0.00026123450061091145 0 -0.0020218926000007222 0.00031450548331883035 0 -0.0019910068912354002 0.00022638167120744618 0 -0.0019465838541114539 0.00026123450061091145 0 -0.0019732199073671263 0.00020831704237380316 0 -0.0019910068912354002 0.00022638167120744618 0 -0.001863566829291617 0.00029337293097859984 0 -0.0019465838541114539 0.00026123450061091145 0 -0.0018990532566395054 0.0002183988781171287 0 -0.0018300760287859566 0.00024809529125874216 0 -0.0019084482639830935 0.00018250079055423174 0 -0.0020033443837262216 0.00019993843270007202 0 -0.0019811291876017027 0.00019104427261456728 0 -0.0019862257844513458 0.00020596887677209146 0 -0.0019575816394696325 0.00015323006012059857 0 -0.0022438663348334051 0.00025683550581864848 0 -0.0019811291876017027 0.00019104427261456728 0 -0.0019862257844513458 0.00020596887677209146 0 -0.0019748573111480899 0.00020940336814543299 0 -0.0019687173109887023 0.00020495882775678316 0 -0.001970668170678383 0.00020616005887181489 0 -0.0019748573111480899 0.00020940336814543299 0 -0.0019084482639830935 0.00018250079055423174 0 -0.001966373255489122 0.00020230135364070542 0 -0.001970668170678383 0.00020616005887181489 0 -0.0019748573111480899 0.00020940336814543299 0 -0.0019760699549064577 0.00021296366904984969 0 -0.0019084482639830935 0.00018250079055423174 0 -0.0019741560695516374 0.0002063231612790436 0 -0.0019465838541114539 0.00026123450061091145 0 -0.0018990532566395054 0.0002183988781171287 0 -0.0019732199073671263 0.00020831704237380316 0 -0.0023852960160851569 0.00025839651659380971 0 -0.0022682774417256903 0.00027878604420504256 0 -0.0025805473929641533 0.00034346264384643179 0 -0.0025814120575877102 0.00034535894531039369 0 -0.0025776194410760309 0.00034677378864688449 0 -0.0019696038520354239 0.00019284731176102176 0 -0.0019732199073671263 0.00020831704237380316 0 -0.0019768744200299141 0.00017537070246766585 0 -0.0019696038520354239 0.00019284731176102176 0 -0.001970668170678383 0.00020616005887181489 0 -0.0019562406877421468 0.00017949792292788728 0 -0.0019687173109887023 0.00020495882775678316 0 -0.001970668170678383 0.00020616005887181489 0 -0.0019732199073671263 0.00020831704237380316 0 -0.0019732199073671263 0.00020831704237380316 0 -0.0019768744200299141 0.00017537070246766585 0 -0.0019910068912354002 0.00022638167120744618 0 -0.0019696038520354239 0.00019284731176102176 0 -0.001970668170678383 0.00020616005887181489 0 -0.0019732199073671263 0.00020831704237380316 0 -0.0023852960160851569 0.00025839651659380971 0 -0.0025948116865268773 0.00030013199922831384 0 -0.0025805473929641533 0.00034346264384643179 0 -0.0025848785393281118 0.00034319514623557592 0 -0.0025814120575877102 0.00034535894531039369 0 -0.0023852960160851569 0.00025839651659380971 0 -0.0022438663348334051 0.00025683550581864848 0 -0.0019696038520354239 0.00019284731176102176 0 -0.0019768744200299141 0.00017537070246766585 0 -0.0019562406877421468 0.00017949792292788728 0 -0.0023852960160851569 0.00025839651659380971 0 -0.0024621314123897285 0.00034019599499633636 0 -0.0025949940198810423 0.00033813943306487107 0 -0.0025974812700923825 0.00034307998216835553 0 -0.0026043436079008363 0.00033758551960809472 0 -0.0025974812700923825 0.00034307998216835553 0 -0.0025923598605532778 0.00034530639119734972 0 -0.0025985992260486143 0.00034874115239562272 0 -0.0025950617914530993 0.00033938763540819928 0 -0.0025923598605532778 0.00034530639119734972 0 -0.0025848785393281118 0.00034319514623557592 0 -0.0025950617914530993 0.00033938763540819928 0 -0.0025974812700923825 0.00034307998216835553 0 -0.0025923598605532778 0.00034530639119734972 0 -0.0022438663348334051 0.00025683550581864848 0 -0.0025118153459878418 0.00031413831938982702 0 -0.0025974812700923825 0.00034307998216835553 0 -0.0026043436079008363 0.00033758551960809472 0 -0.00261274758676236 0.00035185657509920507 0 -0.002388188204299388 0.00023522146761239266 0 -0.0023927556306984586 0.00023606305333061716 0 -0.0023889841527486777 0.00023274049041845652 0 -0.002388188204299388 0.00023522146761239266 0 -0.0023927556306984586 0.00023606305333061716 0 -0.0023578115964904725 0.00024182180069203221 0 -0.0022438663348334051 0.00025683550581864848 0 -0.0021753547709225832 0.00022805436037605129 0 -0.0019862257844513458 0.00020596887677209146 0 -0.0019760699549064577 0.00021296366904984969 0 -0.001996733252045206 0.00021387529376978794 0 -0.0019862257844513458 0.00020596887677209146 0 -0.0019748573111480899 0.00020940336814543299 0 -0.0019760699549064577 0.00021296366904984969 0 -0.002388188204299388 0.00023522146761239266 0 -0.0023889841527486777 0.00023274049041845652 0 -0.0023893856604098916 0.00023315412846018673 0 -0.00261274758676236 0.00035185657509920507 0 -0.0025985992260486143 0.00034874115239562272 0 -0.002603965735117585 0.00035400644538850231 0 -0.00261274758676236 0.00035185657509920507 0 -0.002603965735117585 0.00035400644538850231 0 -0.0026106396165616001 0.00036061500444283261 0 -0.0025974812700923825 0.00034307998216835553 0 -0.00261274758676236 0.00035185657509920507 0 -0.0025985992260486143 0.00034874115239562272 0 -0.0025923598605532778 0.00034530639119734972 0 -0.0025985992260486143 0.00034874115239562272 0 -0.0025964137871366164 0.00035118728850985184 0 -0.0025923598605532778 0.00034530639119734972 0 -0.0025964137871366164 0.00035118728850985184 0 -0.0025855259934282272 0.00034451456427784014 0 -0.002603965735117585 0.00035400644538850231 0 -0.0025964137871366164 0.00035118728850985184 0 -0.002603578348862838 0.00035789419621021402 0 -0.0025985992260486143 0.00034874115239562272 0 -0.002603965735117585 0.00035400644538850231 0 -0.0025964137871366164 0.00035118728850985184 0 -0.0025969692700337659 0.0003579307029103783 0 -0.0026064543225158728 0.0003643654425352218 0 -0.002603578348862838 0.00035789419621021402 0 -0.0025969692700337659 0.0003579307029103783 0 -0.0026064543225158728 0.0003643654425352218 0 -0.0026146839519188142 0.00038731091985557916 0 -0.0025964137871366164 0.00035118728850985184 0 -0.0025969692700337659 0.0003579307029103783 0 -0.002603578348862838 0.00035789419621021402 0 -0.002603965735117585 0.00035400644538850231 0 -0.002603578348862838 0.00035789419621021402 0 -0.0026106396165616001 0.00036061500444283261 0 -0.0026064543225158728 0.0003643654425352218 0 -0.002603578348862838 0.00035789419621021402 0 -0.0026106396165616001 0.00036061500444283261 0 -0.0025118153459878418 0.00031413831938982702 0 -0.0026766186858147734 0.00021976923721564112 0 -0.00261274758676236 0.00035185657509920507 0 -0.0026106396165616001 0.00036061500444283261 0 -0.002617088161820253 0.00036110318492114262 0 -0.0026064543225158728 0.0003643654425352218 0 -0.0026106396165616001 0.00036061500444283261 0 -0.0026145862450237308 0.00036807510922170258 0 -0.0026106396165616001 0.00036061500444283261 0 -0.002617088161820253 0.00036110318492114262 0 -0.0026145862450237308 0.00036807510922170258 0 -0.0026766186858147734 0.00021976923721564112 0 -0.0028737031259595748 0.00026747430019900158 0 -0.0025375233999177654 0.0003844984744192195 0 -0.0028737031259595748 0.00026747430019900158 0 -0.0028663858269712622 0.00046678447647995129 0 -0.0028522428461189926 0.00047559152813079813 0 -0.0026064543225158728 0.0003643654425352218 0 -0.0026146839519188142 0.00038731091985557916 0 -0.0026438886391102457 0.00039214907605111869 0 -0.0026598666571291964 4.2180701810356648e-05 0 -0.0026095850570697285 0.00011664517212190724 0 -0.0025704944271199466 4.7865655799775558e-05 0 -0.0028309440124410601 9.7293643104690952e-05 0 -0.0026766186858147734 0.00021976923721564112 0 -0.0030013828907213924 0.00015451281951378503 0 -0.0029983240893476648 0.00015527969552538588 0 -0.0030008953557506511 0.00015527160203293036 0 -0.0026598666571291964 4.2180701810356648e-05 0 -0.0026890859801591985 0.00011626009072283136 0 -0.0026095850570697285 0.00011664517212190724 0 -0.0026890859801591985 0.00011626009072283136 0 -0.0026095850570697285 0.00011664517212190724 0 -0.0026585415228006478 0.00017826814735450239 0 -0.0023889841527486777 0.00023274049041845652 0 -0.0023922452358810906 0.00023497901373854634 0 -0.0023909024592106134 0.00023331948626940675 0 -0.0026766186858147734 0.00021976923721564112 0 -0.0025247021100257066 0.00020593413178572747 0 -0.0026095850570697285 0.00011664517212190724 0 -0.0025904843800464948 0.00017993265435460232 0 -0.0026585415228006478 0.00017826814735450239 0 -0.0025904843800464948 0.00017993265435460232 0 -0.0026278915939009577 0.0002401541145323701 0 -0.0025396529068158441 0.00022447653833172006 0 -0.0025904843800464948 0.00017993265435460232 0 -0.0026585415228006478 0.00017826814735450239 0 -0.0026278915939009577 0.0002401541145323701 0 -0.0025247021100257066 0.00020593413178572747 0 -0.0023723474389426178 0.00019062003711151253 0 -0.0023909024592106134 0.00023331948626940675 0 -0.0023893856604098916 0.00023315412846018673 0 -0.0023902461257129474 0.00023218787105886232 0 -0.0023889841527486777 0.00023274049041845652 0 -0.0023909024592106134 0.00023331948626940675 0 -0.0023893856604098916 0.00023315412846018673 0 -0.0023826354474321644 0.00024355748445191135 0 -0.0023723474389426178 0.00019062003711151253 0 -0.002388188204299388 0.00023522146761239266 0 -0.0023893856604098916 0.00023315412846018673 0 -0.0023902461257129474 0.00023218787105886232 0 -0.0021753547709225832 0.00022805436037605129 0 -0.0021201510515504321 0.00023545047974385538 0 -0.0020033443837262216 0.00019993843270007202 0 -0.001996733252045206 0.00021387529376978794 0 -0.0020169624326879603 0.00021188979928208541 0 -0.0023578115964904725 0.00024182180069203221 0 -0.0023275654679135818 0.00022543946766325401 0 -0.0023178222276831984 0.0002446137095264431 0 -0.002388188204299388 0.00023522146761239266 0 -0.0023578115964904725 0.00024182180069203221 0 -0.0023275654679135818 0.00022543946766325401 0 -0.0023723474389426178 0.00019062003711151253 0 -0.0022834762581500508 0.00020414120438064573 0 -0.0021091456286581127 0.00018896272716499151 0 -0.0021008956584139095 0.00020444715190447624 0 -0.0020671571934009953 0.000182688939301549 0 -0.0023723474389426178 0.00019062003711151253 0 -0.0021201510515504321 0.00023545047974385538 0 -0.0021201510515504321 0.00023545047974385538 0 -0.0020208817460892143 0.00019479647873136375 0 -0.0021008956584139095 0.00020444715190447624 0 -0.0020462574166068516 0.00020150808366594395 0 -0.0020671571934009953 0.000182688939301549 0 -0.0020453341988285823 0.00020011613818887312 0 -0.0020462393780536865 0.00019357101156291162 0 -0.0020415118908545964 0.00018970016147753423 0 -0.0020462574166068516 0.00020150808366594395 0 -0.0020462393780536865 0.00019357101156291162 0 -0.0020671571934009953 0.000182688939301549 0 -0.0020462393780536865 0.00019357101156291162 0 -0.0020427170116042548 0.00018456635392158209 0 -0.0020671571934009953 0.000182688939301549 0 -0.0020453341988285823 0.00020011613818887312 0 -0.0020462574166068516 0.00020150808366594395 0 -0.0020462393780536865 0.00019357101156291162 0 -0.0020462393780536865 0.00019357101156291162 0 -0.0020427170116042548 0.00018456635392158209 0 -0.0020415118908545964 0.00018970016147753423 0 -0.0023545536046814474 0.00018406217299538942 0 -0.0022834762581500508 0.00020414120438064573 0 -0.0023545536046814474 0.00018406217299538942 0 -0.002680986104438053 9.6069317258893952e-05 0 -0.0024503250150066042 0.0002085718067979041 0 -0.0025396529068158441 0.00022447653833172006 0 -0.0025103508458825989 0.00012793431078547503 0 -0.0023545536046814474 0.00018406217299538942 0 -0.0021966090249457186 0.0002560303650428077 0 -0.0025904843800464948 0.00017993265435460232 0 -0.0025396529068158441 0.00022447653833172006 0 -0.0025103508458825989 0.00012793431078547503 0 -0.001299542515516997 0.00019985015617673456 0 -0.0013138461605155373 0.0001941799680815058 0 -0.0012914487270651786 0.00018323120036879096 0 -0.001299542515516997 0.00019985015617673456 0 -0.0012914487270651786 0.00018323120036879096 0 -0.0012867145587611465 0.00020570568737588758 0 -0.001299542515516997 0.00019985015617673456 0 -0.0013012685837385063 0.00021006981902493344 0 -0.0012867145587611465 0.00020570568737588758 0 -0.001281568818417224 0.00021893106047792969 0 -0.0013012685837385063 0.00021006981902493344 0 -0.0012867145587611465 0.00020570568737588758 0 -0.001299542515516997 0.00019985015617673456 0 -0.0013012685837385063 0.00021006981902493344 0 -0.0013138461605155373 0.0001941799680815058 0 -0.0020453341988285823 0.00020011613818887312 0 -0.0020415118908545964 0.00018970016147753423 0 -0.0020335190809130607 0.0001841493939798766 0 -0.0016056147407309078 0.00019946659722875045 0 -0.0021559742305017815 0.00012529478125538262 0 -0.0013049695505173266 0.00021393424450941146 0 -0.0013177850962474695 0.00019295473561920074 0 -0.0013138461605155373 0.0001941799680815058 0 -0.0013049695505173266 0.00021393424450941146 0 -0.0013012685837385063 0.00021006981902493344 0 -0.0013138461605155373 0.0001941799680815058 0 -0.0026867471516839069 0.0002250759599440321 0 -0.0025667752815258021 0.00020362725831497036 0 -0.0027191067644421786 5.7553179930115352e-05 0 -0.0023545536046814474 0.00018406217299538942 0 -0.0021559742305017815 0.00012529478125538262 0 -0.0020453894096033455 0.00018551522406720319 0 -0.0020415118908545964 0.00018970016147753423 0 -0.0020335190809130607 0.0001841493939798766 0 -0.0021559742305017815 0.00012529478125538262 0 -0.0018684567613348557 9.6273263449721976e-05 0 -0.001347330688617913 0.00017021541553610879 0 -0.0013371565698836296 0.00016832896054836259 0 -0.001316783003472327 0.00010035064979525921 0 -0.0013138461605155373 0.0001941799680815058 0 -0.0013371565698836296 0.00016832896054836259 0 -0.0013110817007396932 0.00016189500684304204 0 -0.0021559742305017815 0.00012529478125538262 0 -0.0014552856480785847 0.00038432653463491782 0 -0.0013534386108699263 0.00017119061743374109 0 -0.0013138461605155373 0.0001941799680815058 0 -0.0013371565698836296 0.00016832896054836259 0 -0.0013110817007396932 0.00016189500684304204 0 -0.0012914487270651786 0.00018323120036879096 0 -0.0012908821175953776 0.00015318284665157304 0 -0.0013138461605155373 0.0001941799680815058 0 -0.0013110817007396932 0.00016189500684304204 0 -0.0012914487270651786 0.00018323120036879096 0 -0.0013371565698836296 0.00016832896054836259 0 -0.0013110817007396932 0.00016189500684304204 0 -0.001316783003472327 0.00010035064979525921 0 -0.0021559742305017815 0.00012529478125538262 0 -0.002720187138380781 -8.2543722226894215e-05 0 -0.0034140487566884825 1.0350516311408401e-05 0 -0.0033931903226310993 -3.38711343817266e-05 0 -0.0034245653983287889 -2.6203042655436674e-05 0 -0.0013110817007396932 0.00016189500684304204 0 -0.001316783003472327 0.00010035064979525921 0 -0.0012908821175953776 0.00015318284665157304 0 -0.0021559742305017815 0.00012529478125538262 0 -0.0032245826439529762 -2.8128921058446929e-05 0 -0.0034140487566884825 1.0350516311408401e-05 0 -0.0034245653983287889 -2.6203042655436674e-05 0 -0.0034551393077941399 -3.2939877181203817e-05 0 -0.0034245653983287889 -2.6203042655436674e-05 0 -0.003431571886535506 -4.3874612642809741e-05 0 -0.0034551393077941399 -3.2939877181203817e-05 0 -0.003431571886535506 -4.3874612642809741e-05 0 -0.0034551393077941399 -3.2939877181203817e-05 0 -0.0034685284889497004 -4.0771430431812805e-05 0 -0.0035822330246598343 -0.00012557807398327735 0 -0.0034345875708029932 -2.4343818586106021e-05 0 -0.0035941189842705313 -0.00012874068148247824 0 -0.0035688458836220334 -2.6860593096831793e-05 0 -0.0036638428688015941 -2.9655732436196844e-05 0 -0.0035941189842705313 -0.00012874068148247824 0 -0.0035366357318695266 -8.9523656947270797e-05 0 -0.0035688458836220334 -2.6860593096831793e-05 0 -0.0033931903226310993 -3.38711343817266e-05 0 -0.0034245653983287889 -2.6203042655436674e-05 0 -0.003431571886535506 -4.3874612642809741e-05 0 -0.002720187138380781 -8.2543722226894215e-05 0 -0.0035822330246598343 -0.00012557807398327735 0 -0.0026095850570697285 0.00011664517212190724 0 -0.0025103508458825989 0.00012793431078547503 0 -0.0025704944271199466 4.7865655799775558e-05 0 -0.0026095850570697285 0.00011664517212190724 0 -0.0025904843800464948 0.00017993265435460232 0 -0.0025103508458825989 0.00012793431078547503 0 -0.0026867471516839069 0.0002250759599440321 0 -0.0027949874504800964 7.6274249663055158e-05 0 -0.0027191067644421786 5.7553179930115352e-05 0 -0.0032245826439529762 -2.8128921058446929e-05 0 -0.0031280935388375143 -6.1158768030825827e-05 0 -0.0034551393077941399 -3.2939877181203817e-05 0 -0.0034309217552246861 -3.8947320585366025e-05 0 -0.0034685284889497004 -4.0771430431812805e-05 0 -0.002680986104438053 9.6069317258893952e-05 0 -0.0027109420840937285 -7.1198975921448096e-06 0 -0.0027949874504800964 7.6274249663055158e-05 0 -0.0027191067644421786 5.7553179930115352e-05 0 -0.0028567310410121407 -6.9448183138680006e-05 0 -0.0027949874504800964 7.6274249663055158e-05 0 -0.0028922476816995806 -5.5239627755274965e-05 0 -0.0028567310410121407 -6.9448183138680006e-05 0 -0.0034309217552246861 -3.8947320585366025e-05 0 -0.0034371718560698957 -1.9703186523089221e-06 0 -0.003364540855287132 1.2565731944823845e-05 0 -0.0034309217552246861 -3.8947320585366025e-05 0 -0.0034371718560698957 -1.9703186523089221e-06 0 -0.0034685284889497004 -4.0771430431812805e-05 0 -0.0034685284889497004 -4.0771430431812805e-05 0 -0.0034677102790861172 3.016976472322719e-06 0 -0.0035043481987106001 1.6123465503709148e-05 0 -0.0034371718560698957 -1.9703186523089221e-06 0 -0.0034685284889497004 -4.0771430431812805e-05 0 -0.0034677102790861172 3.016976472322719e-06 0 -0.0034371718560698957 -1.9703186523089221e-06 0 -0.0034677102790861172 3.016976472322719e-06 0 -0.0034648270244452065 4.1191205230574837e-05 0 -0.0034648270244452065 4.1191205230574837e-05 0 -0.0035043481987106001 1.6123465503709148e-05 0 -0.0035277762181390457 7.1652577730643027e-05 0 -0.0034677102790861172 3.016976472322719e-06 0 -0.0034648270244452065 4.1191205230574837e-05 0 -0.0035043481987106001 1.6123465503709148e-05 0 -0.0034648270244452065 4.1191205230574837e-05 0 -0.0034358618689571694 4.7203308283723224e-05 0 -0.0034399541061162641 7.4997586206287898e-05 0 -0.0034371718560698957 -1.9703186523089221e-06 0 -0.0034118366011874676 3.2010652890893083e-05 0 -0.003364540855287132 1.2565731944823845e-05 0 -0.0034358618689571694 4.7203308283723224e-05 0 -0.0034118366011874676 3.2010652890893083e-05 0 -0.0034109379934716111 6.2365175448973319e-05 0 -0.0034371718560698957 -1.9703186523089221e-06 0 -0.0034358618689571694 4.7203308283723224e-05 0 -0.0034118366011874676 3.2010652890893083e-05 0 -0.0034371718560698957 -1.9703186523089221e-06 0 -0.0034648270244452065 4.1191205230574837e-05 0 -0.0034358618689571694 4.7203308283723224e-05 0 -0.0035366357318695266 -8.9523656947270797e-05 0 -0.0034685284889497004 -4.0771430431812805e-05 0 -0.0035688458836220334 -2.6860593096831793e-05 0 -0.0034685284889497004 -4.0771430431812805e-05 0 -0.0035688458836220334 -2.6860593096831793e-05 0 -0.0035043481987106001 1.6123465503709148e-05 0 -0.0035688458836220334 -2.6860593096831793e-05 0 -0.0035043481987106001 1.6123465503709148e-05 0 -0.003564227537636197 3.9484036801630005e-05 0 -0.0035043481987106001 1.6123465503709148e-05 0 -0.003564227537636197 3.9484036801630005e-05 0 -0.0035277762181390457 7.1652577730643027e-05 0 -0.0035688458836220334 -2.6860593096831793e-05 0 -0.003564227537636197 3.9484036801630005e-05 0 -0.0036340718828622217 4.5656417090588587e-05 0 -0.003564227537636197 3.9484036801630005e-05 0 -0.0035898268472647279 0.00010304912369494373 0 -0.0036340718828622217 4.5656417090588587e-05 0 -0.003564227537636197 3.9484036801630005e-05 0 -0.0035898268472647279 0.00010304912369494373 0 -0.0035277762181390457 7.1652577730643027e-05 0 -0.0035898268472647279 0.00010304912369494373 0 -0.0035277762181390457 7.1652577730643027e-05 0 -0.0035146601350090935 0.00012179628467120167 0 -0.0035163273216080207 0.00012581321750424561 0 -0.0035201233103055824 0.00019481445930475284 0 -0.0035898268472647279 0.00010304912369494373 0 -0.0035146601350090935 0.00012179628467120167 0 -0.0035688639288608843 0.00016907123767130185 0 -0.0035146601350090935 0.00012179628467120167 0 -0.0035688639288608843 0.00016907123767130185 0 -0.0035126288288315679 0.00018565223426137282 0 -0.0035898268472647279 0.00010304912369494373 0 -0.0035688639288608843 0.00016907123767130185 0 -0.0036371045906500913 0.00016742989551901821 0 -0.0034348390697674785 0.00015409445353190817 0 -0.003388706577582458 9.4858710663888989e-05 0 -0.0033981302593931052 9.7305880507937833e-05 0 -0.003433046554922969 0.0001127623843251602 0 -0.0034399541061162641 7.4997586206287898e-05 0 -0.0034769788449993781 8.9425201251609905e-05 0 -0.003433046554922969 0.0001127623843251602 0 -0.0034205023634526657 8.6738288010307696e-05 0 -0.0034399541061162641 7.4997586206287898e-05 0 -0.003433046554922969 0.0001127623843251602 0 -0.0034205023634526657 8.6738288010307696e-05 0 -0.0033981302593931052 9.7305880507937833e-05 0 -0.0034205023634526657 8.6738288010307696e-05 0 -0.0034109379934716111 6.2365175448973319e-05 0 -0.0033981302593931052 9.7305880507937833e-05 0 -0.0034205023634526657 8.6738288010307696e-05 0 -0.0034109379934716111 6.2365175448973319e-05 0 -0.0034399541061162641 7.4997586206287898e-05 0 -0.0034358618689571694 4.7203308283723224e-05 0 -0.0034109379934716111 6.2365175448973319e-05 0 -0.0034399541061162641 7.4997586206287898e-05 0 -0.0034648270244452065 4.1191205230574837e-05 0 -0.0035277762181390457 7.1652577730643027e-05 0 -0.0034769788449993781 8.9425201251609905e-05 0 -0.0034648270244452065 4.1191205230574837e-05 0 -0.0034399541061162641 7.4997586206287898e-05 0 -0.0034769788449993781 8.9425201251609905e-05 0 -0.0035277762181390457 7.1652577730643027e-05 0 -0.0035146601350090935 0.00012179628467120167 0 -0.0034769788449993781 8.9425201251609905e-05 0 -0.0035146601350090935 0.00012179628467120167 0 -0.0034769788449993781 8.9425201251609905e-05 0 -0.0034744550816474496 0.00013131381076081361 0 -0.003433046554922969 0.0001127623843251602 0 -0.0034769788449993781 8.9425201251609905e-05 0 -0.0034744550816474496 0.00013131381076081361 0 -0.0035146601350090935 0.00012179628467120167 0 -0.0034744550816474496 0.00013131381076081361 0 -0.0035136038383678419 0.0001797740943556284 0 -0.0034744550816474496 0.00013131381076081361 0 -0.0034348390697674785 0.00015409445353190817 0 -0.0035136038383678419 0.0001797740943556284 0 -0.003433046554922969 0.0001127623843251602 0 -0.0034348390697674785 0.00015409445353190817 0 -0.0033981302593931052 9.7305880507937833e-05 0 -0.0037262393219826889 0.00012076965734415348 0 -0.0037885492949373081 0.00013538715172103075 0 -0.003433046554922969 0.0001127623843251602 0 -0.0034744550816474496 0.00013131381076081361 0 -0.0034348390697674785 0.00015409445353190817 0 -0.0041192901749985819 0.00013503421885136479 0 -0.0041285843421117923 0.0001339805437728091 0 -0.0041220529983129108 0.00014131982056757948 0 -0.0041285843421117923 0.0001339805437728091 0 -0.0041220529983129108 0.00014131982056757948 0 -0.0041283667276396773 0.00013995397836403956 0 -0.0041220529983129108 0.00014131982056757948 0 -0.0041283667276396773 0.00013995397836403956 0 -0.0041220992422227546 0.00014707293584780118 0 -0.0037885492949373081 0.00013538715172103075 0 -0.0035229383872672428 0.00012111023346702166 0 -0.003388706577582458 9.4858710663888989e-05 0 -0.0033981302593931052 9.7305880507937833e-05 0 -0.0033695786489974307 3.5734522276352124e-05 0 -0.0036255013169725014 0.00027901056834645502 0 -0.0035229383872672428 0.00012111023346702166 0 -0.0041283667276396773 0.00013995397836403956 0 -0.0041328203130795473 0.00014130357311547626 0 -0.0041220992422227546 0.00014707293584780118 0 -0.0041285843421117923 0.0001339805437728091 0 -0.0041283667276396773 0.00013995397836403956 0 -0.0041363494993359382 0.00013483290107484621 0 -0.0040231835750128009 0.00024997211705714826 0 -0.0039116723654660729 0.00023534585404326664 0 -0.0039907234775126196 0.00015395355473726323 0 -0.0040754534385968799 0.00018218445871854327 0 -0.0036255013169725014 0.00027901056834645502 0 -0.0041283667276396773 0.00013995397836403956 0 -0.0041363494993359382 0.00013483290107484621 0 -0.0041328203130795473 0.00014130357311547626 0 -0.0038464915002093336 0.00026049660425499552 0 -0.0036255013169725014 0.00027901056834645502 0 -0.0031168496984922411 0.00040981739129853013 0 -0.003111133087048793 0.00045489781538927742 0 -0.0030919032296192191 0.00043645901026869295 0 -0.003111133087048793 0.00045489781538927742 0 -0.0030919032296192191 0.00043645901026869295 0 -0.0031010654727835481 0.00047580409409972755 0 -0.0031168496984922411 0.00040981739129853013 0 -0.003111133087048793 0.00045489781538927742 0 -0.0031483125747301145 0.00043726251050647417 0 -0.0036255013169725014 0.00027901056834645502 0 -0.0029752736571097365 0.00040024483582279825 0 -0.003273609451540991 0.00030917851122951674 0 -0.003252541156244489 0.00025319541679363471 0 -0.0033222882029422282 0.0002572850940060562 0 -0.003252541156244489 0.00025319541679363471 0 -0.0032727331827648453 0.00020465738224645003 0 -0.0033222882029422282 0.0002572850940060562 0 -0.003111133087048793 0.00045489781538927742 0 -0.0031185042761887405 0.00048436057048190936 0 -0.0031381009556775774 0.00047015407191484466 0 -0.0030953419813306159 0.0004612754499859235 0 -0.0029752736571097365 0.00040024483582279825 0 -0.003111133087048793 0.00045489781538927742 0 -0.0031185042761887405 0.00048436057048190936 0 -0.0030906437528927509 0.00049368478396207807 0 -0.0031185042761887405 0.00048436057048190936 0 -0.0031202554445755081 0.00051356172948272233 0 -0.0031406738550809558 0.00050064185331919972 0 -0.0031185042761887405 0.00048436057048190936 0 -0.0030906437528927509 0.00049368478396207807 0 -0.0031202554445755081 0.00051356172948272233 0 -0.0031135092072223538 0.00054760974919098909 0 -0.0030906437528927509 0.00049368478396207807 0 -0.0031202554445755081 0.00051356172948272233 0 -0.0031135092072223538 0.00054760974919098909 0 -0.0031202554445755081 0.00051356172948272233 0 -0.0031368359570507673 0.00053173847801616075 0 -0.0028522428461189926 0.00047559152813079813 0 -0.0029752736571097365 0.00040024483582279825 0 -0.0026146839519188142 0.00038731091985557916 0 -0.0026321565555533885 0.00042539312435002798 0 -0.0026438886391102457 0.00039214907605111869 0 -0.0029752736571097365 0.00040024483582279825 0 -0.0028737031259595748 0.00026747430019900158 0 -0.0030008953557506511 0.00015527160203293036 0 -0.0030037364357092694 0.00015453988933646109 0 -0.003006123319306529 0.00015474551201097135 0 -0.0030013828907213924 0.00015451281951378503 0 -0.0030008953557506511 0.00015527160203293036 0 -0.0030037364357092694 0.00015453988933646109 0 -0.0028737031259595748 0.00026747430019900158 0 -0.0035229383872672428 0.00012111023346702166 0 -0.0030013828907213924 0.00015451281951378503 0 -0.0030037364357092694 0.00015453988933646109 0 -0.003005006420003085 0.00015405895415804494 0 -0.0028309440124410601 9.7293643104690952e-05 0 -0.002969201990455366 -1.0437367606025537e-05 0 -0.0030037364357092694 0.00015453988933646109 0 -0.003005006420003085 0.00015405895415804494 0 -0.0030051767240084552 0.00015419516203575657 0 -0.0028922476816995806 -5.5239627755274965e-05 0 -0.0028567310410121407 -6.9448183138680006e-05 0 -0.0029800331665014242 -0.00016821627775301504 0 -0.0026598666571291964 4.2180701810356648e-05 0 -0.0025704944271199466 4.7865655799775558e-05 0 -0.0026309938142968876 -3.1891108755958459e-05 0 -0.0031280935388375143 -6.1158768030825827e-05 0 -0.0031426517597418378 4.4402819010847077e-05 0 -0.0027109420840937285 -7.1198975921448096e-06 0 -0.002969201990455366 -1.0437367606025537e-05 0 -0.0028567310410121407 -6.9448183138680006e-05 0 -0.0029800331665014242 -0.00016821627775301504 0 -0.0029756375312977486 -0.00017896797029271267 0 -0.003388706577582458 9.4858710663888989e-05 0 -0.0033695786489974307 3.5734522276352124e-05 0 -0.0033536817635669049 5.332401287684831e-05 0 -0.0030051767240084552 0.00015419516203575657 0 -0.0030053544594028318 0.00015413053943157142 0 -0.003006123319306529 0.00015474551201097135 0 -0.0034558051347695711 0.00010081308242391134 0 -0.0031426517597418378 4.4402819010847077e-05 0 -0.0034109379934716111 6.2365175448973319e-05 0 -0.0033981302593931052 9.7305880507937833e-05 0 -0.003364540855287132 1.2565731944823845e-05 0 -0.0030052082280134537 0.00015378767147432933 0 -0.0030051767240084552 0.00015419516203575657 0 -0.0030053544594028318 0.00015413053943157142 0 -0.002969201990455366 -1.0437367606025537e-05 0 -0.0029642889834768258 3.7330613177416045e-06 0 -0.002969201990455366 -1.0437367606025537e-05 0 -0.0031426517597418378 4.4402819010847077e-05 0 -0.0031426517597418378 4.4402819010847077e-05 0 -0.0035229383872672428 0.00012111023346702166 0 -0.0034118366011874676 3.2010652890893083e-05 0 -0.0034109379934716111 6.2365175448973319e-05 0 -0.003364540855287132 1.2565731944823845e-05 0 -0.0030037364357092694 0.00015453988933646109 0 -0.0030051767240084552 0.00015419516203575657 0 -0.003006123319306529 0.00015474551201097135 0 -0.0014508725100676647 0.00035808004836817469 0 -0.0013553401110669582 0.00039917969045212982 0 -0.0013363703218087616 0.00033390176537485486 0 -0.0034989262090178211 -0.00015601184314091972 0 -0.0033365986543608325 -0.00019687460693484731 0 -0.0034203177876221181 -0.00012601327305211007 0 -0.0027931241118434643 -9.7072756272244883e-05 0 -0.0021100337378937807 7.4504098055178848e-05 0 -0.0029705871861945773 -0.00027983939451983037 0 -0.0030572577474082497 -0.00023419192368267326 0 -0.0030886573969813149 -0.00025392452763756004 0 -0.0027931241118434643 -9.7072756272244883e-05 0 -0.0033122143982125488 -0.00023159616910201024 0 -0.0030572577474082497 -0.00023419192368267326 0 -0.0030886573969813149 -0.00025392452763756004 0 -0.0031211264971194061 -0.00022332298138501167 0 -0.0033365986543608325 -0.00019687460693484731 0 -0.0032342969654131724 -0.00015987242274054293 0 -0.003296340737558078 -0.00010442486885039285 0 -0.0013553401110669582 0.00039917969045212982 0 -0.0013363703218087616 0.00033390176537485486 0 -0.0012904493335068135 0.00034627842333295706 0 -0.0021100337378937807 7.4504098055178848e-05 0 -0.0022121883702866337 6.286812380557981e-05 0 -0.0014508725100676647 0.00035808004836817469 0 -0.0013675084612712342 0.00028923228740322112 0 -0.0013363703218087616 0.00033390176537485486 0 -0.0012722139113976775 0.00024897276247862025 0 -0.001293593157603277 0.00024525182582986281 0 -0.0013123989972912602 0.0003124629266590383 0 -0.0013589474071114347 0.0002748121719593409 0 -0.001293593157603277 0.00024525182582986281 0 -0.0013123989972912602 0.0003124629266590383 0 -0.0012722139113976775 0.00024897276247862025 0 -0.0013675084612712342 0.00028923228740322112 0 -0.0012934561748861879 0.00029071427419747589 0 -0.0012779616434869731 0.000252295678675865 0 -0.0013400907778091742 0.00030176882969970624 0 -0.0013675084612712342 0.00028923228740322112 0 -0.0012934561748861879 0.00029071427419747589 0 -0.0013363703218087616 0.00033390176537485486 0 -0.0012934561748861879 0.00029071427419747589 0 -0.0013363703218087616 0.00033390176537485486 0 -0.0012904493335068135 0.00034627842333295706 0 -0.0012581461486648839 0.00028135509914078028 0 -0.0012520667812895342 0.00030600479347164475 0 -0.0012904493335068135 0.00034627842333295706 0 -0.0022309588784633098 1.6191313395182545e-05 0 -0.0022121883702866337 6.286812380557981e-05 0 -0.0012934561748861879 0.00029071427419747589 0 -0.0012581461486648839 0.00028135509914078028 0 -0.0012904493335068135 0.00034627842333295706 0 -0.0012647427429674982 0.00026030361991713019 0 -0.0012934561748861879 0.00029071427419747589 0 -0.0012581461486648839 0.00028135509914078028 0 -0.0012647427429674982 0.00026030361991713019 0 -0.0012722139113976775 0.00024897276247862025 0 -0.0012934561748861879 0.00029071427419747589 0 -0.0012481633419692184 0.00026463944446497112 0 -0.0012581461486648839 0.00028135509914078028 0 -0.0012294162243518809 0.00028091600560339045 0 -0.0012481633419692184 0.00026463944446497112 0 -0.0012647427429674982 0.00026030361991713019 0 -0.0012581461486648839 0.00028135509914078028 0 -0.0012581461486648839 0.00028135509914078028 0 -0.0012520667812895342 0.00030600479347164475 0 -0.0012294162243518809 0.00028091600560339045 0 -0.0031048993920099149 -0.00027334592834680338 0 -0.0031382650562527415 -0.00021945083030069346 0 -0.0030398265693171154 -0.00024366242927905478 0 -0.0030886573969813149 -0.00025392452763756004 0 -0.0031211264971194061 -0.00022332298138501167 0 -0.0031382650562527415 -0.00021945083030069346 0 -0.0031048993920099149 -0.00027334592834680338 0 -0.0031211264971194061 -0.00022332298138501167 0 -0.0031382650562527415 -0.00021945083030069346 0 -0.0032342969654131724 -0.00015987242274054293 0 -0.0031382650562527415 -0.00021945083030069346 0 -0.0031763282951474928 -0.00012498095674502911 0 -0.0033122143982125488 -0.00023159616910201024 0 -0.0030997609030333014 -0.000223988909320651 0 -0.0033365986543608325 -0.00019687460693484731 0 -0.0032342969654131724 -0.00015987242274054293 0 -0.0031382650562527415 -0.00021945083030069346 0 -0.0031382650562527415 -0.00021945083030069346 0 -0.0030992362664177633 -0.00011232416529126299 0 -0.0031763282951474928 -0.00012498095674502911 0 -0.0031382650562527415 -0.00021945083030069346 0 -0.003070595857862827 -0.00018883636461910591 0 -0.0030992362664177633 -0.00011232416529126299 0 -0.003070595857862827 -0.00018883636461910591 0 -0.0030060576037230758 -0.00016948056976213036 0 -0.0030398265693171154 -0.00024366242927905478 0 -0.003070595857862827 -0.00018883636461910591 0 -0.0030060576037230758 -0.00016948056976213036 0 -0.0030992362664177633 -0.00011232416529126299 0 -0.0030060576037230758 -0.00016948056976213036 0 -0.002915383200682116 -0.00017150160670562114 0 -0.0029804807758712164 -8.7256844104157902e-05 0 -0.0030060576037230758 -0.00016948056976213036 0 -0.0029666509534352391 -0.00022665499636468462 0 -0.002915383200682116 -0.00017150160670562114 0 -0.0030060576037230758 -0.00016948056976213036 0 -0.0029666509534352391 -0.00022665499636468462 0 -0.0030398265693171154 -0.00024366242927905478 0 -0.0029666509534352391 -0.00022665499636468462 0 -0.0030398265693171154 -0.00024366242927905478 0 -0.0029522761776714476 -0.00029193953544133511 0 -0.0031382650562527415 -0.00021945083030069346 0 -0.003070595857862827 -0.00018883636461910591 0 -0.0030398265693171154 -0.00024366242927905478 0 -0.0031048993920099149 -0.00027334592834680338 0 -0.0030398265693171154 -0.00024366242927905478 0 -0.0030212489792405543 -0.00032974287396729421 0 -0.0022309588784633098 1.6191313395182545e-05 0 -0.0017676594829219257 0.00011638101994100898 0 -0.0011555614943390032 0.00024797758519753206 0 -0.0017676594829219257 0.00011638101994100898 0 -0.0012326545865441836 0.00015272593791928649 0 -0.0012084848775787535 0.00014298211762192061 0 -0.0012099446896707835 0.00016737154013822197 0 -0.0012084848775787535 0.00014298211762192061 0 -0.0012099446896707835 0.00016737154013822197 0 -0.0011895220336918281 0.00015564395305063438 0 -0.0012136051307994856 0.00016302777091636579 0 -0.0011987439082625769 0.00016993743712145459 0 -0.0011904917196405218 0.00016400663548652529 0 -0.0012136051307994856 0.00016302777091636579 0 -0.0011895220336918281 0.00015564395305063438 0 -0.0011904917196405218 0.00016400663548652529 0 -0.0017676594829219257 0.00011638101994100898 0 -0.0010549326340602164 8.3818201794482304e-05 0 -0.0017676594829219257 0.00011638101994100898 0 -0.0021654387730986571 -0.00011484364223528639 0 -0.0030398265693171154 -0.00024366242927905478 0 -0.0030212489792405543 -0.00032974287396729421 0 -0.0029522761776714476 -0.00029193953544133511 0 -0.0021654387730986571 -0.00011484364223528639 0 -0.001943300143884363 -4.2319967227865777e-06 0 -0.0011987439082625769 0.00016993743712145459 0 -0.0012087391902518747 0.00016821426452988015 0 -0.0012586917556708978 0.00013291243875355934 0 -0.0012478371878869305 0.00016297743455028987 0 -0.0012087391902518747 0.00016821426452988015 0 -0.0012586917556708978 0.00013291243875355934 0 -0.0012478371878869305 0.00016297743455028987 0 -0.0012087391902518747 0.00016821426452988015 0 -0.0012601273212657102 0.00018528791487704751 0 -0.0011987439082625769 0.00016993743712145459 0 -0.0012087391902518747 0.00016821426452988015 0 -0.0011904917196405218 0.00016400663548652529 0 -0.0012055147645886827 0.00018351192376934937 0 -0.0012064184765121942 0.00016744690312672482 0 -0.001261979139551495 0.0002182393472175021 0 -0.0012087391902518747 0.00016821426452988015 0 -0.0012601273212657102 0.00018528791487704751 0 -0.0011528368897333323 0.00015601323788127711 0 -0.0011895220336918281 0.00015564395305063438 0 -0.0011904917196405218 0.00016400663548652529 0 -0.0011528368897333323 0.00015601323788127711 0 -0.0012087391902518747 0.00016821426452988015 0 -0.0011904917196405218 0.00016400663548652529 0 -0.001261979139551495 0.0002182393472175021 0 -0.0012867145587611465 0.00020570568737588758 0 -0.0012601273212657102 0.00018528791487704751 0 -0.0012914487270651786 0.00018323120036879096 0 -0.0012867145587611465 0.00020570568737588758 0 -0.0012601273212657102 0.00018528791487704751 0 -0.0012914487270651786 0.00018323120036879096 0 -0.0012697759432952671 0.00016522399877040659 0 -0.0012908821175953776 0.00015318284665157304 0 -0.0012914487270651786 0.00018323120036879096 0 -0.0012601273212657102 0.00018528791487704751 0 -0.0012697759432952671 0.00016522399877040659 0 -0.0012478371878869305 0.00016297743455028987 0 -0.0012601273212657102 0.00018528791487704751 0 -0.0012697759432952671 0.00016522399877040659 0 -0.0012478371878869305 0.00016297743455028987 0 -0.0012697759432952671 0.00016522399877040659 0 -0.0012586917556708978 0.00013291243875355934 0 -0.0012697759432952671 0.00016522399877040659 0 -0.0012908821175953776 0.00015318284665157304 0 -0.0012586917556708978 0.00013291243875355934 0 -0.001316783003472327 0.00010035064979525921 0 -0.0012908821175953776 0.00015318284665157304 0 -0.0012586917556708978 0.00013291243875355934 0 -0.0027980536478906153 -0.00019915536256918476 0 -0.0028747080523797062 -0.0002474668871766395 0 -0.002915383200682116 -0.00017150160670562114 0 -0.002720187138380781 -8.2543722226894215e-05 0 -0.001943300143884363 -4.2319967227865777e-06 0 -0.0029666509534352391 -0.00022665499636468462 0 -0.0029522761776714476 -0.00029193953544133511 0 -0.0028747080523797062 -0.0002474668871766395 0 -0.0029666509534352391 -0.00022665499636468462 0 -0.0028747080523797062 -0.0002474668871766395 0 -0.002915383200682116 -0.00017150160670562114 0 -0.0027980536478906153 -0.00019915536256918476 0 -0.002915383200682116 -0.00017150160670562114 0 -0.0028680376475941375 -9.446059620358112e-05 0 -0.002720187138380781 -8.2543722226894215e-05 0 -0.0033413387205831532 -5.8971274839316258e-05 0 -0.0035688458836220334 -2.6860593096831793e-05 0 -0.0036638428688015941 -2.9655732436196844e-05 0 -0.0036340718828622217 4.5656417090588587e-05 0 -0.002915383200682116 -0.00017150160670562114 0 -0.0028680376475941375 -9.446059620358112e-05 0 -0.0029804807758712164 -8.7256844104157902e-05 0 -0.0033413387205831532 -5.8971274839316258e-05 0 -0.0033223571920387492 3.9982391386128901e-05 0 -0.0028680376475941375 -9.446059620358112e-05 0 -0.0029382386086222044 2.1269899487298205e-05 0 -0.0029804807758712164 -8.7256844104157902e-05 0 -0.0036638428688015941 -2.9655732436196844e-05 0 -0.0036340718828622217 4.5656417090588587e-05 0 -0.0037312854714541097 6.4888764725623543e-05 0 -0.0035898268472647279 0.00010304912369494373 0 -0.0036340718828622217 4.5656417090588587e-05 0 -0.0036863050940350332 0.00012178905293339262 0 -0.0036340718828622217 4.5656417090588587e-05 0 -0.0036863050940350332 0.00012178905293339262 0 -0.0037312854714541097 6.4888764725623543e-05 0 -0.0036371045906500913 0.00016742989551901821 0 -0.0036863050940350332 0.00012178905293339262 0 -0.0037189180231805767 0.00019456175138058782 0 -0.0035898268472647279 0.00010304912369494373 0 -0.0036371045906500913 0.00016742989551901821 0 -0.0036863050940350332 0.00012178905293339262 0 -0.0036863050940350332 0.00012178905293339262 0 -0.0037935470846761979 0.00016177765213464253 0 -0.0037189180231805767 0.00019456175138058782 0 -0.0036863050940350332 0.00012178905293339262 0 -0.0037312854714541097 6.4888764725623543e-05 0 -0.0037935470846761979 0.00016177765213464253 0 -0.0029382386086222044 2.1269899487298205e-05 0 -0.0030173872734425315 0.00014977093373006597 0 -0.0030707362237814414 1.6162363430572253e-05 0 -0.0033223571920387492 3.9982391386128901e-05 0 -0.0034073217642154154 0.00015678599299584478 0 -0.0030173872734425315 0.00014977093373006597 0 -0.0030707362237814414 1.6162363430572253e-05 0 -0.0031998538999978799 0.00011366708472436004 0 -0.0030707362237814414 1.6162363430572253e-05 0 -0.0029804807758712164 -8.7256844104157902e-05 0 -0.0030992362664177633 -0.00011232416529126299 0 -0.0029382386086222044 2.1269899487298205e-05 0 -0.0030707362237814414 1.6162363430572253e-05 0 -0.0029804807758712164 -8.7256844104157902e-05 0 -0.0030060576037230758 -0.00016948056976213036 0 -0.0029804807758712164 -8.7256844104157902e-05 0 -0.0030992362664177633 -0.00011232416529126299 0 -0.0030992362664177633 -0.00011232416529126299 0 -0.0031763282951474928 -0.00012498095674502911 0 -0.0032150390504945667 -5.7023208114046659e-05 0 -0.0031763282951474928 -0.00012498095674502911 0 -0.0032150390504945667 -5.7023208114046659e-05 0 -0.003296340737558078 -0.00010442486885039285 0 -0.0032342969654131724 -0.00015987242274054293 0 -0.0031763282951474928 -0.00012498095674502911 0 -0.003296340737558078 -0.00010442486885039285 0 -0.0032150390504945667 -5.7023208114046659e-05 0 -0.0032614202736672791 3.8568161018684559e-05 0 -0.0033308296773356416 -2.3228053797467605e-05 0 -0.0032150390504945667 -5.7023208114046659e-05 0 -0.003170317841676457 1.1616939831783621e-05 0 -0.0032614202736672791 3.8568161018684559e-05 0 -0.0032150390504945667 -5.7023208114046659e-05 0 -0.0033308296773356416 -2.3228053797467605e-05 0 -0.003296340737558078 -0.00010442486885039285 0 -0.0030992362664177633 -0.00011232416529126299 0 -0.0032150390504945667 -5.7023208114046659e-05 0 -0.003170317841676457 1.1616939831783621e-05 0 -0.0030707362237814414 1.6162363430572253e-05 0 -0.0030992362664177633 -0.00011232416529126299 0 -0.003170317841676457 1.1616939831783621e-05 0 -0.0030707362237814414 1.6162363430572253e-05 0 -0.003170317841676457 1.1616939831783621e-05 0 -0.0031998538999978799 0.00011366708472436004 0 -0.0030173872734425315 0.00014977093373006597 0 -0.0031998538999978799 0.00011366708472436004 0 -0.0031952977118283694 0.00022270349700927741 0 -0.0031998538999978799 0.00011366708472436004 0 -0.003340493970681277 0.00018663826839085209 0 -0.0031952977118283694 0.00022270349700927741 0 -0.0031998538999978799 0.00011366708472436004 0 -0.0033265737865418588 0.00010323218582492057 0 -0.003340493970681277 0.00018663826839085209 0 -0.003170317841676457 1.1616939831783621e-05 0 -0.0031998538999978799 0.00011366708472436004 0 -0.0032614202736672791 3.8568161018684559e-05 0 -0.0031998538999978799 0.00011366708472436004 0 -0.0032614202736672791 3.8568161018684559e-05 0 -0.0033265737865418588 0.00010323218582492057 0 -0.0032614202736672791 3.8568161018684559e-05 0 -0.0033729768986796413 4.6895136559090788e-05 0 -0.0033265737865418588 0.00010323218582492057 0 -0.0033729768986796413 4.6895136559090788e-05 0 -0.0033265737865418588 0.00010323218582492057 0 -0.0034544945487775865 0.00013046509949698324 0 -0.0032614202736672791 3.8568161018684559e-05 0 -0.0033729768986796413 4.6895136559090788e-05 0 -0.0033308296773356416 -2.3228053797467605e-05 0 -0.0033265737865418588 0.00010323218582492057 0 -0.0034544945487775865 0.00013046509949698324 0 -0.003340493970681277 0.00018663826839085209 0 -0.0033729768986796413 4.6895136559090788e-05 0 -0.0034544945487775865 0.00013046509949698324 0 -0.0034442794967058789 1.1845978449167001e-05 0 -0.0034785381335395338 -6.037598841188724e-05 0 -0.0034442794967058789 1.1845978449167001e-05 0 -0.0033968232335579297 -7.2389585244818727e-05 0 -0.0033729768986796413 4.6895136559090788e-05 0 -0.0034442794967058789 1.1845978449167001e-05 0 -0.0033308296773356416 -2.3228053797467605e-05 0 -0.0034442794967058789 1.1845978449167001e-05 0 -0.0033308296773356416 -2.3228053797467605e-05 0 -0.0033968232335579297 -7.2389585244818727e-05 0 -0.003296340737558078 -0.00010442486885039285 0 -0.0033638504382414256 -0.00013110401504111478 0 -0.0033968232335579297 -7.2389585244818727e-05 0 -0.0033308296773356416 -2.3228053797467605e-05 0 -0.003296340737558078 -0.00010442486885039285 0 -0.0033968232335579297 -7.2389585244818727e-05 0 -0.0033365986543608325 -0.00019687460693484731 0 -0.003296340737558078 -0.00010442486885039285 0 -0.0033638504382414256 -0.00013110401504111478 0 -0.0033365986543608325 -0.00019687460693484731 0 -0.0033638504382414256 -0.00013110401504111478 0 -0.0034203177876221181 -0.00012601327305211007 0 -0.0034785381335395338 -6.037598841188724e-05 0 -0.0034203177876221181 -0.00012601327305211007 0 -0.0033968232335579297 -7.2389585244818727e-05 0 -0.0033638504382414256 -0.00013110401504111478 0 -0.0034203177876221181 -0.00012601327305211007 0 -0.0033968232335579297 -7.2389585244818727e-05 0 -0.0036303134016306871 0.00061080245679054021 0 -0.00355489977868532 0.00046813724598705118 0 -0.0034594829523696049 0.0005921801433403321 0 -0.00355489977868532 0.00046813724598705118 0 -0.0033656075786191093 0.0004429155604234913 0 -0.0034594829523696049 0.0005921801433403321 0 -0.0033656075786191093 0.0004429155604234913 0 -0.0032903041094310905 0.00060498017092176835 0 -0.0034594829523696049 0.0005921801433403321 0 -0.00355489977868532 0.00046813724598705118 0 -0.0033656075786191093 0.0004429155604234913 0 -0.0034764503351325951 0.00028773589968968891 0 -0.0033656075786191093 0.0004429155604234913 0 -0.0034764503351325951 0.00028773589968968891 0 -0.0032763909485714984 0.00030769326167616364 0 -0.0034764503351325951 0.00028773589968968891 0 -0.003340493970681277 0.00018663826839085209 0 -0.0032763909485714984 0.00030769326167616364 0 -0.0034544945487775865 0.00013046509949698324 0 -0.0034764503351325951 0.00028773589968968891 0 -0.003340493970681277 0.00018663826839085209 0 -0.003340493970681277 0.00018663826839085209 0 -0.0032763909485714984 0.00030769326167616364 0 -0.0031952977118283694 0.00022270349700927741 0 -0.0032763909485714984 0.00030769326167616364 0 -0.0031935646644309802 0.00043431601818831828 0 -0.0031044229836495398 0.00028597828663609257 0 -0.0032763909485714984 0.00030769326167616364 0 -0.0031952977118283694 0.00022270349700927741 0 -0.0031044229836495398 0.00028597828663609257 0 -0.0035353220004330282 0.00036344906448652756 0 -0.0034673736953364318 0.00026390440787386259 0 -0.0033656075786191093 0.0004429155604234913 0 -0.0032763909485714984 0.00030769326167616364 0 -0.0031935646644309802 0.00043431601818831828 0 -0.0035353220004330282 0.00036344906448652756 0 -0.0035539193365363734 0.00049953677408965259 0 -0.0033656075786191093 0.0004429155604234913 0 -0.0031935646644309802 0.00043431601818831828 0 -0.0032903041094310905 0.00060498017092176835 0 -0.0038650274451658946 0.00029756507822697954 0 -0.0038650358422256882 0.00035389147577779884 0 -0.0038976382555551991 0.00034670012802878031 0 -0.0038650274451658946 0.00029756507822697954 0 -0.0038367229613890915 0.00034122634878397444 0 -0.0038650358422256882 0.00035389147577779884 0 -0.0038650274451658946 0.00029756507822697954 0 -0.0038125043237052809 0.00031926878352698152 0 -0.0038367229613890915 0.00034122634878397444 0 -0.0038125043237052809 0.00031926878352698152 0 -0.003764840392623398 0.00031108812177863974 0 -0.0037981677598795433 0.00036260393597513287 0 -0.0038125043237052809 0.00031926878352698152 0 -0.0037981812706695921 0.00027994080594251195 0 -0.003764840392623398 0.00031108812177863974 0 -0.0038650274451658946 0.00029756507822697954 0 -0.0038125043237052809 0.00031926878352698152 0 -0.0037981812706695921 0.00027994080594251195 0 -0.0038650274451658946 0.00029756507822697954 0 -0.0037981812706695921 0.00027994080594251195 0 -0.0038330179860300495 0.00024267807655357955 0 -0.0030173872734425315 0.00014977093373006597 0 -0.0031952977118283694 0.00022270349700927741 0 -0.0031044229836495398 0.00028597828663609257 0 -0.0034073217642154154 0.00015678599299584478 0 -0.0034673736953364318 0.00026390440787386259 0 -0.0037935470846761979 0.00016177765213464253 0 -0.0038330179860300495 0.00024267807655357955 0 -0.0037787924087459642 0.00023246160003694355 0 -0.0037935470846761979 0.00016177765213464253 0 -0.0037787924087459642 0.00023246160003694355 0 -0.0037189180231805767 0.00019456175138058782 0 -0.0037981812706695921 0.00027994080594251195 0 -0.0037787924087459642 0.00023246160003694355 0 -0.0037387461670570117 0.00026615477645893014 0 -0.0037981812706695921 0.00027994080594251195 0 -0.0038330179860300495 0.00024267807655357955 0 -0.0037787924087459642 0.00023246160003694355 0 -0.0037387461670570117 0.00026615477645893014 0 -0.0037189180231805767 0.00019456175138058782 0 -0.0036694132506617542 0.00022728402564404533 0 -0.0037787924087459642 0.00023246160003694355 0 -0.0037387461670570117 0.00026615477645893014 0 -0.0037189180231805767 0.00019456175138058782 0 -0.0036371045906500913 0.00016742989551901821 0 -0.0037189180231805767 0.00019456175138058782 0 -0.0036694132506617542 0.00022728402564404533 0 -0.0037387461670570117 0.00026615477645893014 0 -0.0036694132506617542 0.00022728402564404533 0 -0.0036443691699961918 0.00029485472437789045 0 -0.003772556043162538 0.00025995762359935131 0 -0.0035901102279183167 0.00031038140913416723 0 -0.0037387461670570117 0.00026615477645893014 0 -0.0037291064556003663 0.00028185927300760526 0 -0.0037400686863647828 0.00029152346777177321 0 -0.0037291064556003663 0.00028185927300760526 0 -0.0037400686863647828 0.00029152346777177321 0 -0.0037249372114424874 0.00031134109590398568 0 -0.0037981812706695921 0.00027994080594251195 0 -0.0037387461670570117 0.00026615477645893014 0 -0.003764840392623398 0.00031108812177863974 0 -0.0037387461670570117 0.00026615477645893014 0 -0.0037400686863647828 0.00029152346777177321 0 -0.003764840392623398 0.00031108812177863974 0 -0.0037400686863647828 0.00029152346777177321 0 -0.003764840392623398 0.00031108812177863974 0 -0.0037249372114424874 0.00031134109590398568 0 -0.003764840392623398 0.00031108812177863974 0 -0.003751205992412159 0.00034639244809157253 0 -0.0037249372114424874 0.00031134109590398568 0 -0.004985840833923204 -3.8618296882261706e-07 0 -0.0049865986101269117 -2.5347988195424303e-07 0 -0.0049825754545085371 2.0817423238057547e-06 0 -0.0045996560784099137 4.7084673392472194e-05 0 -0.0043571901400046497 0.00016743008917738465 0 -0.0045996560784099137 4.7084673392472194e-05 0 -0.0048824455808342227 6.829204794768646e-05 0 -0.0049865986101269117 -2.5347988195424303e-07 0 -0.0049907228948563743 5.1835331444641149e-07 0 -0.0049890711824462676 3.2912744684452725e-07 0 -0.0049892803161256842 -6.9371602647799078e-07 0 -0.0049865986101269117 -2.5347988195424303e-07 0 -0.0049907228948563743 5.1835331444641149e-07 0 -0.003764840392623398 0.00031108812177863974 0 -0.003751205992412159 0.00034639244809157253 0 -0.0037981677598795433 0.00036260393597513287 0 -0.0045996560784099137 4.7084673392472194e-05 0 -0.0043444164002984396 0.00017266011986027686 0 -0.0045996560784099137 4.7084673392472194e-05 0 -0.0050297986231278881 5.2436243458857099e-06 0 -0.0049892803161256842 -6.9371602647799078e-07 0 -0.0049957591567418701 1.6503309256445543e-06 0 -0.0049934513651511735 1.1086009458582445e-06 0 -0.0049259027823901191 -3.637019499895224e-05 0 -0.0049592018202918361 -7.9860602911587752e-06 0 -0.0049712109957624285 -2.5465028789477625e-05 0 -0.0049934513651511735 1.1086009458582445e-06 0 -0.0049907228948563743 5.1835331444641149e-07 0 -0.0049938221680893256 8.0003650089208771e-07 0 -0.0049892803161256842 -6.9371602647799078e-07 0 -0.0049934513651511735 1.1086009458582445e-06 0 -0.0049907228948563743 5.1835331444641149e-07 0 -0.0049907228948563743 5.1835331444641149e-07 0 -0.0049938221680893256 8.0003650089208771e-07 0 -0.0049919812324483795 4.661620533355291e-07 0 -0.0049934513651511735 1.1086009458582445e-06 0 -0.0049938221680893256 8.0003650089208771e-07 0 -0.0049968946705257842 9.645897769725713e-07 0 -0.0049938221680893256 8.0003650089208771e-07 0 -0.0049968946705257842 9.645897769725713e-07 0 -0.0049966310623061486 4.5960530524764145e-07 0 -0.0049999955418479963 1.3760712633244033e-09 0 -0.0049968946705257842 9.645897769725713e-07 0 -0.0049966310623061486 4.5960530524764145e-07 0 -0.0049999955418479963 1.3760712633244033e-09 0 -0.0049999933893048404 -1.625640275745751e-09 0 -0.0049968946705257842 9.645897769725713e-07 0 -0.0049999933893048404 -1.625640275745751e-09 0 -0.0049964664040013278 9.7542868837512643e-07 0 -0.0049968946705257842 9.645897769725713e-07 0 -0.0049957591567418701 1.6503309256445543e-06 0 -0.0049964664040013278 9.7542868837512643e-07 0 -0.0049968946705257842 9.645897769725713e-07 0 -0.0049957591567418701 1.6503309256445543e-06 0 -0.0049934513651511735 1.1086009458582445e-06 0 -0.0049968946705257842 9.645897769725713e-07 0 -0.0050297986231278881 5.2436243458857099e-06 0 -0.0049735123861751347 -7.608022621407231e-06 0 -0.0049592018202918361 -7.9860602911587752e-06 0 -0.0049925860161854343 1.0895863863984171e-06 0 -0.0049853355962914932 -7.9463480699990604e-06 0 -0.0049957591567418701 1.6503309256445543e-06 0 -0.0049964664040013278 9.7542868837512643e-07 0 -0.0049925860161854343 1.0895863863984171e-06 0 -0.0049999933893048404 -1.625640275745751e-09 0 -0.0049964664040013278 9.7542868837512643e-07 0 -0.0049925860161854343 1.0895863863984171e-06 0 -0.0049999933893048404 -1.625640275745751e-09 0 -0.0049925860161854343 1.0895863863984171e-06 0 -0.0049999876051825317 2.8823783312904017e-09 0 -0.0049925860161854343 1.0895863863984171e-06 0 -0.0049999876051825317 2.8823783312904017e-09 0 -0.0049961323398710683 -1.6621724944189375e-06 0 -0.0049925860161854343 1.0895863863984171e-06 0 -0.0049853355962914932 -7.9463480699990604e-06 0 -0.0049961323398710683 -1.6621724944189375e-06 0 -0.0049853355962914932 -7.9463480699990604e-06 0 -0.0049929928659463276 -1.2676600245068073e-05 0 -0.0049961323398710683 -1.6621724944189375e-06 0 -0.0043444164002984396 0.00017266011986027686 0 -0.0043593614939340958 0.00022825657161353234 0 -0.0038449074574750061 0.00037017233592869344 0 -0.0037981677598795433 0.00036260393597513287 0 -0.003853263820776449 0.00037708334427815666 0 -0.0049853355962914932 -7.9463480699990604e-06 0 -0.0049712109957624285 -2.5465028789477625e-05 0 -0.0049929928659463276 -1.2676600245068073e-05 0 -0.0041702121390394392 0.00018561036937178317 0 -0.0043593614939340958 0.00022825657161353234 0 -0.0049592018202918361 -7.9860602911587752e-06 0 -0.0049853355962914932 -7.9463480699990604e-06 0 -0.0049712109957624285 -2.5465028789477625e-05 0 -0.0038449074574750061 0.00037017233592869344 0 -0.0037981677598795433 0.00036260393597513287 0 -0.0038367229613890915 0.00034122634878397444 0 -0.0038125043237052809 0.00031926878352698152 0 -0.0037981677598795433 0.00036260393597513287 0 -0.0038367229613890915 0.00034122634878397444 0 -0.0038449074574750061 0.00037017233592869344 0 -0.0038367229613890915 0.00034122634878397444 0 -0.0038650358422256882 0.00035389147577779884 0 -0.0038650358422256882 0.00035389147577779884 0 -0.0038976382555551991 0.00034670012802878031 0 -0.0038907765563157342 0.00038591806409746617 0 -0.0038976382555551991 0.00034670012802878031 0 -0.0038907765563157342 0.00038591806409746617 0 -0.0039300818268488413 0.00039540160432309371 0 -0.0038650358422256882 0.00035389147577779884 0 -0.0038907765563157342 0.00038591806409746617 0 -0.0038524571090731937 0.00037640731991677622 0 -0.0041694314497603448 0.00028257824682804392 0 -0.0043593614939340958 0.00022825657161353234 0 -0.0043593614939340958 0.00022825657161353234 0 -0.004755102322336383 9.9931912764773665e-05 0 -0.0044471033170978211 0.00018978276459580569 0 -0.0044375344474794493 0.00018768733111453832 0 -0.0044472507192320722 0.00019404949772579427 0 -0.0038449074574750061 0.00037017233592869344 0 -0.0038650358422256882 0.00035389147577779884 0 -0.0038524571090731937 0.00037640731991677622 0 -0.0049929928659463276 -1.2676600245068073e-05 0 -0.0049961323398710683 -1.6621724944189375e-06 0 -0.0049987599236875398 -3.4636800673498341e-06 0 -0.0049961323398710683 -1.6621724944189375e-06 0 -0.0049999997043743433 -2.5987195501308155e-09 0 -0.0049987599236875398 -3.4636800673498341e-06 0 -0.0049999876051825317 2.8823783312904017e-09 0 -0.0049961323398710683 -1.6621724944189375e-06 0 -0.0049999997043743433 -2.5987195501308155e-09 0 -0.0049999997043743433 -2.5987195501308155e-09 0 -0.0049987599236875398 -3.4636800673498341e-06 0 -0.0049990885106340893 -1.2951433055467339e-06 0 -0.0050001557738250622 -6.9446405203066645e-08 0 -0.004849241547346392 1.7411618411949372e-05 0 -0.0050000000996129031 -5.6371752918376685e-11 0 -0.0049995216696694985 6.429287806374173e-08 0 -0.0049999989739199771 8.2071952939554207e-11 0 -0.004755102322336383 9.9931912764773665e-05 0 -0.004849241547346392 1.7411618411949372e-05 0 -0.0044472507192320722 0.00019404949772579427 0 -0.0044526427255437368 0.0001943397834846734 0 -0.004455739877840887 0.00019830332700403964 0 -0.0044471033170978211 0.00018978276459580569 0 -0.0044472507192320722 0.00019404949772579427 0 -0.0044526427255437368 0.0001943397834846734 0 -0.0044526427255437368 0.0001943397834846734 0 -0.0044591125081087871 0.00019618416872530423 0 -0.0044541090198616526 0.00019211349786148261 0 -0.0044526427255437368 0.0001943397834846734 0 -0.004455739877840887 0.00019830332700403964 0 -0.0044591125081087871 0.00019618416872530423 0 -0.0044471033170978211 0.00018978276459580569 0 -0.0044526427255437368 0.0001943397834846734 0 -0.0044541090198616526 0.00019211349786148261 0 -0.0045953186481923211 0.00017978501403091563 0 -0.0039601615225188071 0.00044425616954096056 0 -0.0049949171005184778 -4.0676286654878644e-07 0 -0.0049977993588208773 -4.4887472168677145e-07 0 -0.0049967430724234263 -8.7665367112186314e-07 0 -0.004849241547346392 1.7411618411949372e-05 0 -0.0045953186481923211 0.00017978501403091563 0 -0.004849241547346392 1.7411618411949372e-05 0 -0.0050000500077830379 5.6913897874722341e-08 0 -0.0049949171005184778 -4.0676286654878644e-07 0 -0.0049999895033348545 2.4723325861622377e-09 0 -0.0049977993588208773 -4.4887472168677145e-07 0 -0.0049995216696694985 6.429287806374173e-08 0 -0.0049999989739199771 8.2071952939554207e-11 0 -0.0049999997644119519 1.1875760223948575e-11 0 -0.0049983424713419804 1.9580550652199659e-06 0 -0.0049999886680246568 8.4784861760332484e-09 0 -0.0049990192414085081 1.3549290045946909e-06 0 -0.0049999890792676738 4.456953868223916e-08 0 -0.0048287050026099773 4.8680976740532491e-05 0 -0.0050000040155793292 -1.2979483638269013e-09 0 -0.0049999895033348545 2.4723325861622377e-09 0 -0.0049981840265973512 -3.8418146281807501e-07 0 -0.0049999895033348545 2.4723325861622377e-09 0 -0.0049977993588208773 -4.4887472168677145e-07 0 -0.0049981840265973512 -3.8418146281807501e-07 0 -0.0048287050026099773 4.8680976740532491e-05 0 -0.0045953186481923211 0.00017978501403091563 0 -0.0049977993588208773 -4.4887472168677145e-07 0 -0.0049973601778224722 -4.0152994478119062e-07 0 -0.0049967430724234263 -8.7665367112186314e-07 0 -0.004887469035988766 3.132112433926378e-05 0 -0.0048287050026099773 4.8680976740532491e-05 0 -0.0042581598653056571 0.00035108798003521171 0 -0.0042278070191185948 0.00036767941900518524 0 -0.0042085949526096183 0.00034032556883599127 0 -0.0041838782204200132 0.00038084809476979556 0 -0.0045953186481923211 0.00017978501403091563 0 -0.0046198194586540313 0.00014866578062783958 0 -0.0046038512592877336 0.00017731685986685329 0 -0.0045664974725452339 0.00017906562074813839 0 -0.0041838782204200132 0.00038084809476979556 0 -0.0039601615225188071 0.00044425616954096056 0 -0.0046374901052116035 0.00018289546901824655 0 -0.0045794441344074455 0.00019870138761502338 0 -0.0046038512592877336 0.00017731685986685329 0 -0.0045794441344074455 0.00019870138761502338 0 -0.0046038512592877336 0.00017731685986685329 0 -0.0045664974725452339 0.00017906562074813839 0 -0.0036646157722422979 0.00089703706986533915 0 -0.0036051077257695514 0.00072055745515850933 0 -0.0034162602277341544 0.00082846893898997048 0 -0.0036051077257695514 0.00072055745515850933 0 -0.0034162602277341544 0.00082846893898997048 0 -0.0034594829523696049 0.0005921801433403321 0 -0.0041694314497603448 0.00028257824682804392 0 -0.0039601615225188071 0.00044425616954096056 0 -0.0035539193365363734 0.00049953677408965259 0 -0.0039601615225188071 0.00044425616954096056 0 -0.0032903041094310905 0.00060498017092176835 0 -0.0034162602277341544 0.00082846893898997048 0 -0.0034594829523696049 0.0005921801433403321 0 -0.0036923611705929503 0.00058472611970350463 0 -0.0034716939043131145 0.00059125491019537517 0 -0.003736382861432973 0.00056054662331168903 0 -0.0036051077257695514 0.00072055745515850933 0 -0.0034594829523696049 0.0005921801433403321 0 -0.0041484185978804813 0.00010986670349093163 0 -0.0041333373816738721 0.00010470305457146309 0 -0.0041369117274633709 0.00011650864347439228 0 -0.0041333373816738721 0.00010470305457146309 0 -0.0041369117274633709 0.00011650864347439228 0 -0.0041223375670400072 0.00011773347125131018 0 -0.0041484185978804813 0.00010986670349093163 0 -0.0041333373816738721 0.00010470305457146309 0 -0.0041492505821118355 9.0124968930724791e-05 0 -0.0049850711946018969 7.6445849028944891e-05 0 -0.0049944148946004224 5.4141588137906001e-05 0 -0.0049752669892101399 5.8045895376040154e-05 0 -0.0049944148946004224 5.4141588137906001e-05 0 -0.0049752669892101399 5.8045895376040154e-05 0 -0.0049757825421569415 4.3000760303489541e-05 0 -0.0045349157559482602 0.00011044398262472369 0 -0.0047215241000602634 4.7005207519867902e-05 0 -0.0049337997441671845 5.6840773368122456e-05 0 -0.0049353358299141295 3.9862098442308577e-05 0 -0.0049505231832777377 4.2773904792609777e-05 0 -0.0049353358299141295 3.9862098442308577e-05 0 -0.0049505231832777377 4.2773904792609777e-05 0 -0.0049538052536464905 2.9302158348508922e-05 0 -0.004532801874889132 6.4365422786847535e-05 0 -0.0047215241000602634 4.7005207519867902e-05 0 -0.0049505231832777377 4.2773904792609777e-05 0 -0.0049628337040447971 4.5158676351949833e-05 0 -0.0049503818991097062 5.3248241256550228e-05 0 -0.0049505231832777377 4.2773904792609777e-05 0 -0.0049628337040447971 4.5158676351949833e-05 0 -0.0049651944656102552 3.1594045855321008e-05 0 -0.0049628337040447971 4.5158676351949833e-05 0 -0.0049651944656102552 3.1594045855321008e-05 0 -0.004976818382966439 3.3571800556885378e-05 0 -0.0049503818991097062 5.3248241256550228e-05 0 -0.0049472277483075854 6.5264790925164708e-05 0 -0.0049607970314467491 5.9630854289616976e-05 0 -0.0049628337040447971 4.5158676351949833e-05 0 -0.0049503818991097062 5.3248241256550228e-05 0 -0.0049607970314467491 5.9630854289616976e-05 0 -0.0049337997441671845 5.6840773368122456e-05 0 -0.0049505231832777377 4.2773904792609777e-05 0 -0.0049503818991097062 5.3248241256550228e-05 0 -0.0049337997441671845 5.6840773368122456e-05 0 -0.0049503818991097062 5.3248241256550228e-05 0 -0.0049472277483075854 6.5264790925164708e-05 0 -0.0049472277483075854 6.5264790925164708e-05 0 -0.0049440083206924107 7.6816839960069941e-05 0 -0.0049304548410490038 7.3235233182141198e-05 0 -0.0049337997441671845 5.6840773368122456e-05 0 -0.0049472277483075854 6.5264790925164708e-05 0 -0.0049304548410490038 7.3235233182141198e-05 0 -0.0049472277483075854 6.5264790925164708e-05 0 -0.0049440083206924107 7.6816839960069941e-05 0 -0.0049548032140908438 7.836104013702042e-05 0 -0.0049472277483075854 6.5264790925164708e-05 0 -0.0049607970314467491 5.9630854289616976e-05 0 -0.0049548032140908438 7.836104013702042e-05 0 -0.0038464915002093336 0.00026049660425499552 0 -0.0040510148695636749 9.3911695504441138e-05 0 -0.0049385339881088588 8.9163815976671485e-05 0 -0.0049440083206924107 7.6816839960069941e-05 0 -0.0049548032140908438 7.836104013702042e-05 0 -0.0040754534385968799 0.00018218445871854327 0 -0.0044190674900480035 0.00021051292412292016 0 -0.0038464915002093336 0.00026049660425499552 0 -0.0044190674900480035 0.00021051292412292016 0 -0.0049385339881088588 8.9163815976671485e-05 0 -0.0049440083206924107 7.6816839960069941e-05 0 -0.0049304548410490038 7.3235233182141198e-05 0 -0.0040231835750128009 0.00024997211705714826 0 -0.0039116723654660729 0.00023534585404326664 0 -0.0040558173921005098 0.00034644677390584895 0 -0.0041285843421117923 0.0001339805437728091 0 -0.0041363494993359382 0.00013483290107484621 0 -0.0041360811225361572 0.00012976290653382095 0 -0.0041363494993359382 0.00013483290107484621 0 -0.0041360811225361572 0.00012976290653382095 0 -0.0041404843255886236 0.000128209422077596 0 -0.0041360811225361572 0.00012976290653382095 0 -0.0041404843255886236 0.000128209422077596 0 -0.0041423467686794021 0.00012453048081682988 0 -0.0041360811225361572 0.00012976290653382095 0 -0.0041423467686794021 0.00012453048081682988 0 -0.0041303149063083404 0.0001250771808827176 0 -0.004532801874889132 6.4365422786847535e-05 0 -0.0044190674900480035 0.00021051292412292016 0 -0.0041484185978804813 0.00010986670349093163 0 -0.0041494398854353721 0.00013039572617828087 0 -0.0041423467686794021 0.00012453048081682988 0 -0.0041484185978804813 0.00010986670349093163 0 -0.0041423467686794021 0.00012453048081682988 0 -0.0041369117274633709 0.00011650864347439228 0 -0.0044190674900480035 0.00021051292412292016 0 -0.0041616805469982142 7.9856634228288312e-05 0 -0.0041423467686794021 0.00012453048081682988 0 -0.0041303149063083404 0.0001250771808827176 0 -0.0041369117274633709 0.00011650864347439228 0 -0.0041303149063083404 0.0001250771808827176 0 -0.0041369117274633709 0.00011650864347439228 0 -0.0041223375670400072 0.00011773347125131018 0 -0.0041285843421117923 0.0001339805437728091 0 -0.0041303149063083404 0.0001250771808827176 0 -0.0041221670816649876 0.00012820102630810252 0 -0.0041285843421117923 0.0001339805437728091 0 -0.0041360811225361572 0.00012976290653382095 0 -0.0041303149063083404 0.0001250771808827176 0 -0.0041192901749985819 0.00013503421885136479 0 -0.0041285843421117923 0.0001339805437728091 0 -0.0041221670816649876 0.00012820102630810252 0 -0.0041192901749985819 0.00013503421885136479 0 -0.0041221670816649876 0.00012820102630810252 0 -0.004114289040422413 0.00012718208211075124 0 -0.0035201233103055824 0.00019481445930475284 0 -0.0040135823910387863 0.00022696111402194886 0 -0.0034348390697674785 0.00015409445353190817 0 -0.0035136038383678419 0.0001797740943556284 0 -0.0034903152202214556 0.00021788970563783573 0 -0.0037262393219826889 0.00012076965734415348 0 -0.0041901365883050892 0.00014301009998431887 0 -0.0035136038383678419 0.0001797740943556284 0 -0.0034903152202214556 0.00021788970563783573 0 -0.0035123854278341564 0.00024177055844050099 0 -0.0041901365883050892 0.00014301009998431887 0 -0.0040135823910387863 0.00022696111402194886 0 -0.0048533331047509818 0.00024313931379895955 0 -0.0048245493531320367 0.00020698267795071987 0 -0.004935457442284962 0.00015309466016122573 0 -0.0040135823910387863 0.00022696111402194886 0 -0.0048486741124071199 3.0950709427438927e-05 0 -0.0041901365883050892 0.00014301009998431887 0 -0.0045615048132067633 0.00011715918090311682 0 -0.0048245493531320367 0.00020698267795071987 0 -0.004935457442284962 0.00015309466016122573 0 -0.0048450634654422214 9.1513888535139524e-05 0 -0.0041221670816649876 0.00012820102630810252 0 -0.004114289040422413 0.00012718208211075124 0 -0.0041223375670400072 0.00011773347125131018 0 -0.0041303149063083404 0.0001250771808827176 0 -0.0041221670816649876 0.00012820102630810252 0 -0.0041223375670400072 0.00011773347125131018 0 -0.0036371045906500913 0.00016742989551901821 0 -0.0036694132506617542 0.00022728402564404533 0 -0.0036036505232038413 0.00022205949970295941 0 -0.0035688639288608843 0.00016907123767130185 0 -0.0036371045906500913 0.00016742989551901821 0 -0.0036036505232038413 0.00022205949970295941 0 -0.0035126288288315679 0.00018565223426137282 0 -0.0035096308700111032 0.0002492361917388724 0 -0.0035507530590818521 0.00021836106526724807 0 -0.0036036505232038413 0.00022205949970295941 0 -0.0035507530590818521 0.00021836106526724807 0 -0.0035703313019049957 0.00026159324391558631 0 -0.0035688639288608843 0.00016907123767130185 0 -0.0036036505232038413 0.00022205949970295941 0 -0.0035507530590818521 0.00021836106526724807 0 -0.0035688639288608843 0.00016907123767130185 0 -0.0035126288288315679 0.00018565223426137282 0 -0.0035507530590818521 0.00021836106526724807 0 -0.0035096308700111032 0.0002492361917388724 0 -0.0035703313019049957 0.00026159324391558631 0 -0.0035660875381669944 0.00031453521320871176 0 -0.0035096308700111032 0.0002492361917388724 0 -0.0035507530590818521 0.00021836106526724807 0 -0.0035703313019049957 0.00026159324391558631 0 -0.0040135823910387863 0.00022696111402194886 0 -0.00411812795864355 0.0002086671260825494 0 -0.0043491713201102905 0.00025270751965878689 0 -0.0042388326342166424 0.00012014499694470948 0 -0.0043706584017971783 8.58921023145345e-05 0 -0.0036694132506617542 0.00022728402564404533 0 -0.0036443691699961918 0.00029485472437789045 0 -0.0036036505232038413 0.00022205949970295941 0 -0.0036443691699961918 0.00029485472437789045 0 -0.0035703313019049957 0.00026159324391558631 0 -0.0035660875381669944 0.00031453521320871176 0 -0.0036443691699961918 0.00029485472437789045 0 -0.0036036505232038413 0.00022205949970295941 0 -0.0035703313019049957 0.00026159324391558631 0 -0.0037291064556003663 0.00028185927300760526 0 -0.0037122619167887535 0.00028860191610240795 0 -0.0037249372114424874 0.00031134109590398568 0 -0.00411812795864355 0.0002086671260825494 0 -0.0043571901400046497 0.00016743008917738465 0 -0.0035901102279183167 0.00031038140913416723 0 -0.00411812795864355 0.0002086671260825494 0 -0.0049786755718572275 4.8200738801346646e-06 0 -0.0049849480515875028 1.9590457947199883e-06 0 -0.0049829967929567523 4.3207437737272721e-06 0 -0.00411812795864355 0.0002086671260825494 0 -0.0048486741124071199 3.0950709427438927e-05 0 -0.0049849480515875028 1.9590457947199883e-06 0 -0.0049825754545085371 2.0817423238057547e-06 0 -0.0049867377719634348 8.3624208077632359e-07 0 -0.0049786755718572275 4.8200738801346646e-06 0 -0.0049849480515875028 1.9590457947199883e-06 0 -0.0049825754545085371 2.0817423238057547e-06 0 -0.0049850711946018969 7.6445849028944891e-05 0 -0.004935457442284962 0.00015309466016122573 0 -0.004955676427015325 7.3018607915976562e-05 0 -0.004935457442284962 0.00015309466016122573 0 -0.004955676427015325 7.3018607915976562e-05 0 -0.0048450634654422214 9.1513888535139524e-05 0 -0.0045349157559482602 0.00011044398262472369 0 -0.0045615048132067633 0.00011715918090311682 0 -0.004955676427015325 7.3018607915976562e-05 0 -0.0049440693126418869 7.486651460924115e-05 0 -0.0049591422731879026 6.00145197056471e-05 0 -0.0049620825671976348 7.5570067992903703e-05 0 -0.0048486741124071199 3.0950709427438927e-05 0 -0.0049440693126418869 7.486651460924115e-05 0 -0.0049591422731879026 6.00145197056471e-05 0 -0.0049532700853025212 4.6653265004280749e-05 0 -0.0048486741124071199 3.0950709427438927e-05 0 -0.0049873331789503476 2.4929678608831371e-05 0 -0.0049849480515875028 1.9590457947199883e-06 0 -0.0049829967929567523 4.3207437737272721e-06 0 -0.0049891336543065106 1.3039139795650173e-06 0 -0.0049850711946018969 7.6445849028944891e-05 0 -0.004955676427015325 7.3018607915976562e-05 0 -0.0049752669892101399 5.8045895376040154e-05 0 -0.004955676427015325 7.3018607915976562e-05 0 -0.0049591422731879026 6.00145197056471e-05 0 -0.0049752669892101399 5.8045895376040154e-05 0 -0.0049591422731879026 6.00145197056471e-05 0 -0.0049752669892101399 5.8045895376040154e-05 0 -0.0049757825421569415 4.3000760303489541e-05 0 -0.0049757825421569415 4.3000760303489541e-05 0 -0.0049532700853025212 4.6653265004280749e-05 0 -0.0049795972108283744 2.7031300379773053e-05 0 -0.0049591422731879026 6.00145197056471e-05 0 -0.0049757825421569415 4.3000760303489541e-05 0 -0.0049532700853025212 4.6653265004280749e-05 0 -0.0049532700853025212 4.6653265004280749e-05 0 -0.0049795972108283744 2.7031300379773053e-05 0 -0.0049733209987899056 1.5456219035387967e-05 0 -0.0049873331789503476 2.4929678608831371e-05 0 -0.004982102479015627 8.9388301279887928e-06 0 -0.0049891336543065106 1.3039139795650173e-06 0 -0.0049900887547320149 5.3641322542098519e-07 0 -0.0049948998346023435 2.3365341460155608e-07 0 -0.0049757825421569415 4.3000760303489541e-05 0 -0.0049795972108283744 2.7031300379773053e-05 0 -0.0049965290940642742 2.6593598861634867e-05 0 -0.0049865986101269117 -2.5347988195424303e-07 0 -0.0049825754545085371 2.0817423238057547e-06 0 -0.0049867377719634348 8.3624208077632359e-07 0 -0.0049865986101269117 -2.5347988195424303e-07 0 -0.0049867377719634348 8.3624208077632359e-07 0 -0.0049890711824462676 3.2912744684452725e-07 0 -0.0049867377719634348 8.3624208077632359e-07 0 -0.0049900887547320149 5.3641322542098519e-07 0 -0.0049890711824462676 3.2912744684452725e-07 0 -0.0049849480515875028 1.9590457947199883e-06 0 -0.0049891336543065106 1.3039139795650173e-06 0 -0.0049900887547320149 5.3641322542098519e-07 0 -0.0049849480515875028 1.9590457947199883e-06 0 -0.0049867377719634348 8.3624208077632359e-07 0 -0.0049900887547320149 5.3641322542098519e-07 0 -0.0049900887547320149 5.3641322542098519e-07 0 -0.0049919812324483795 4.661620533355291e-07 0 -0.0049952091209662227 2.4639490544349388e-07 0 -0.0049900887547320149 5.3641322542098519e-07 0 -0.0049952091209662227 2.4639490544349388e-07 0 -0.0049948998346023435 2.3365341460155608e-07 0 -0.0049900887547320149 5.3641322542098519e-07 0 -0.0049919812324483795 4.661620533355291e-07 0 -0.0049890711824462676 3.2912744684452725e-07 0 -0.0049907228948563743 5.1835331444641149e-07 0 -0.0049919812324483795 4.661620533355291e-07 0 -0.0049890711824462676 3.2912744684452725e-07 0 -0.0049919812324483795 4.661620533355291e-07 0 -0.0049966310623061486 4.5960530524764145e-07 0 -0.0049952091209662227 2.4639490544349388e-07 0 -0.0049938221680893256 8.0003650089208771e-07 0 -0.0049919812324483795 4.661620533355291e-07 0 -0.0049966310623061486 4.5960530524764145e-07 0 -0.0049952091209662227 2.4639490544349388e-07 0 -0.0049948998346023435 2.3365341460155608e-07 0 -0.0049975405434032104 4.4492792813850121e-08 0 -0.0049952091209662227 2.4639490544349388e-07 0 -0.0049999942572487369 -2.0188089411529604e-10 0 -0.0049975405434032104 4.4492792813850121e-08 0 -0.0049966310623061486 4.5960530524764145e-07 0 -0.0049952091209662227 2.4639490544349388e-07 0 -0.0049999942572487369 -2.0188089411529604e-10 0 -0.0049999955418479963 1.3760712633244033e-09 0 -0.0049966310623061486 4.5960530524764145e-07 0 -0.0049999942572487369 -2.0188089411529604e-10 0 -0.0049795972108283744 2.7031300379773053e-05 0 -0.0049733209987899056 1.5456219035387967e-05 0 -0.0049956102731312331 8.8233211435836057e-06 0 -0.0049733209987899056 1.5456219035387967e-05 0 -0.0049924670392803997 5.1758968631995076e-06 0 -0.0049956102731312331 8.8233211435836057e-06 0 -0.0049948998346023435 2.3365341460155608e-07 0 -0.0049975405434032104 4.4492792813850121e-08 0 -0.0049999966171897 1.0337847872383908e-11 0 -0.0049999942572487369 -2.0188089411529604e-10 0 -0.0049975405434032104 4.4492792813850121e-08 0 -0.0049999966171897 1.0337847872383908e-11 0 -0.004982102479015627 8.9388301279887928e-06 0 -0.0049999954730226845 3.8527862772666899e-09 0 -0.0049924670392803997 5.1758968631995076e-06 0 -0.0050000030072916502 2.8120434032147841e-09 0 -0.0049956102731312331 8.8233211435836057e-06 0 -0.0049999733423346446 -2.2975964427795997e-09 0 -0.0049924670392803997 5.1758968631995076e-06 0 -0.0050000030072916502 2.8120434032147841e-09 0 -0.0049733209987899056 1.5456219035387967e-05 0 -0.0049999733423346446 -2.2975964427795997e-09 0 -0.0049924670392803997 5.1758968631995076e-06 0 -0.004999999056031156 3.0543727168690914e-09 0 -0.0049969785256143004 1.7132049875164054e-06 0 -0.0050000000997920489 1.6754198383785699e-10 0 -0.005000074457336981 4.2017957400669853e-07 0 -0.0049997169237523979 4.3687392471655029e-07 0 -0.0049999992716151416 1.8720359123044455e-10 0 -0.0050000000997920489 1.6754198383785699e-10 0 -0.0049997169237523979 4.3687392471655029e-07 0 -0.0050000000997920489 1.6754198383785699e-10 0 -0.005000074457336981 4.2017957400669853e-07 0 -0.0050000001998383283 3.8513549585738616e-11 0 -0.0049787769240009147 4.2579795591505226e-06 0 -0.0050020840743949385 2.8143662378468699e-05 0 -0.0049641882699585083 8.3268201055374111e-06 0 -0.0049580031013334129 1.996095044311701e-05 0 -0.0049694152462141398 1.9953201978580708e-05 0 -0.0049969785256143004 1.7132049875164054e-06 0 -0.0050020840743949385 2.8143662378468699e-05 0 -0.005000074457336981 4.2017957400669853e-07 0 -0.0049997169237523979 4.3687392471655029e-07 0 -0.0049997783342312641 1.2859775312968261e-06 0 -0.0049795972108283744 2.7031300379773053e-05 0 -0.0049956102731312331 8.8233211435836057e-06 0 -0.0049965290940642742 2.6593598861634867e-05 0 -0.0049757299982698417 4.2922071866082977e-05 0 -0.0050020840743949385 2.8143662378468699e-05 0 -0.0049641882699585083 8.3268201055374111e-06 0 -0.0049465794123352731 2.1849725868493239e-05 0 -0.0049580031013334129 1.996095044311701e-05 0 -0.0049465794123352731 2.1849725868493239e-05 0 -0.0049580031013334129 1.996095044311701e-05 0 -0.0049538052536464905 2.9302158348508922e-05 0 -0.0049472581280660052 3.5519601454454651e-05 0 -0.0049465794123352731 2.1849725868493239e-05 0 -0.0049538052536464905 2.9302158348508922e-05 0 -0.0047215241000602634 4.7005207519867902e-05 0 -0.0049891413551533953 -6.2719572567878129e-06 0 -0.0049944148946004224 5.4141588137906001e-05 0 -0.0049757825421569415 4.3000760303489541e-05 0 -0.0049870169552246402 2.8822617472501409e-05 0 -0.0047215241000602634 4.7005207519867902e-05 0 -0.0050020840743949385 2.8143662378468699e-05 0 -0.0049651944656102552 3.1594045855321008e-05 0 -0.0049798070107599408 1.9904226646399034e-05 0 -0.004976818382966439 3.3571800556885378e-05 0 -0.0049538052536464905 2.9302158348508922e-05 0 -0.0049651944656102552 3.1594045855321008e-05 0 -0.0049694152462141398 1.9953201978580708e-05 0 -0.0049505231832777377 4.2773904792609777e-05 0 -0.0049538052536464905 2.9302158348508922e-05 0 -0.0049651944656102552 3.1594045855321008e-05 0 -0.0049580031013334129 1.996095044311701e-05 0 -0.0049538052536464905 2.9302158348508922e-05 0 -0.0049694152462141398 1.9953201978580708e-05 0 -0.0049651944656102552 3.1594045855321008e-05 0 -0.0049694152462141398 1.9953201978580708e-05 0 -0.0049798070107599408 1.9904226646399034e-05 0 -0.0049694152462141398 1.9953201978580708e-05 0 -0.0049798070107599408 1.9904226646399034e-05 0 -0.0049868983561940014 7.5355873482400345e-06 0 -0.0049798070107599408 1.9904226646399034e-05 0 -0.0049868983561940014 7.5355873482400345e-06 0 -0.0049931208216071896 7.3174936745100133e-06 0 -0.0049641882699585083 8.3268201055374111e-06 0 -0.0049694152462141398 1.9953201978580708e-05 0 -0.0049868983561940014 7.5355873482400345e-06 0 -0.0049641882699585083 8.3268201055374111e-06 0 -0.0049868983561940014 7.5355873482400345e-06 0 -0.0049999406212660746 -8.1977864279168127e-09 0 -0.0049787769240009147 4.2579795591505226e-06 0 -0.0049999939095051373 2.3051629131190556e-09 0 -0.0049868983561940014 7.5355873482400345e-06 0 -0.0049999406212660746 -8.1977864279168127e-09 0 -0.004999999489011071 5.9411841638352832e-09 0 -0.0049868983561940014 7.5355873482400345e-06 0 -0.004999999489011071 5.9411841638352832e-09 0 -0.0049931208216071896 7.3174936745100133e-06 0 -0.004999999489011071 5.9411841638352832e-09 0 -0.0049999975224908058 2.4618972240682028e-10 0 -0.0049931208216071896 7.3174936745100133e-06 0 -0.004999996857944884 4.5178374388003985e-08 0 -0.0049863981811551373 -1.2265718318478855e-05 0 -0.0049999787522322543 -2.353595252342408e-08 0 -0.004999996857944884 4.5178374388003985e-08 0 -0.0049863981811551373 -1.2265718318478855e-05 0 -0.004982360567273302 -5.1366221635496688e-05 0 -0.0050000072232710344 6.8671018498498086e-09 0 -0.0049742189788940698 -2.3200965539794725e-05 0 -0.0049999975224908058 2.4618972240682028e-10 0 -0.0049965176013394225 1.2486657703697718e-05 0 -0.0049931208216071896 7.3174936745100133e-06 0 -0.0049965176013394225 1.2486657703697718e-05 0 -0.0049931208216071896 7.3174936745100133e-06 0 -0.0049868021901651981 2.2126661144473456e-05 0 -0.005000581134689314 1.234317821792329e-06 0 -0.0049999787522322543 -2.353595252342408e-08 0 -0.0050000073058606683 8.3482126752318828e-09 0 -0.0049863981811551373 -1.2265718318478855e-05 0 -0.004852597365513499 2.7178315902669318e-05 0 -0.0049130052810899784 -3.5509692786199781e-05 0 -0.0049863981811551373 -1.2265718318478855e-05 0 -0.005000581134689314 1.234317821792329e-06 0 -0.0049999787522322543 -2.353595252342408e-08 0 -0.0049870492573535607 -8.4191760841361384e-06 0 -0.0049182518780584517 1.1866230742984322e-05 0 -0.0049863981811551373 -1.2265718318478855e-05 0 -0.004982360567273302 -5.1366221635496688e-05 0 -0.0049130052810899784 -3.5509692786199781e-05 0 -0.004982360567273302 -5.1366221635496688e-05 0 -0.0049130052810899784 -3.5509692786199781e-05 0 -0.0048854025570694848 -0.00010077335967493531 0 -0.004852597365513499 2.7178315902669318e-05 0 -0.0049130052810899784 -3.5509692786199781e-05 0 -0.0048389772883910952 -4.724705162669635e-05 0 -0.004852597365513499 2.7178315902669318e-05 0 -0.0048389772883910952 -4.724705162669635e-05 0 -0.0047715675470959579 -2.5297554751844564e-05 0 -0.0049130052810899784 -3.5509692786199781e-05 0 -0.0048389772883910952 -4.724705162669635e-05 0 -0.0048854025570694848 -0.00010077335967493531 0 -0.0048389772883910952 -4.724705162669635e-05 0 -0.0048854025570694848 -0.00010077335967493531 0 -0.0047682248230650854 -0.00012232816611648024 0 -0.004982360567273302 -5.1366221635496688e-05 0 -0.0048854025570694848 -0.00010077335967493531 0 -0.0049505570140395859 -0.00016888823700428988 0 -0.0048854025570694848 -0.00010077335967493531 0 -0.0049505570140395859 -0.00016888823700428988 0 -0.0048514258784170521 -0.00019927500269754675 0 -0.0048854025570694848 -0.00010077335967493531 0 -0.0048514258784170521 -0.00019927500269754675 0 -0.0047682248230650854 -0.00012232816611648024 0 -0.0049798070107599408 1.9904226646399034e-05 0 -0.0049868021901651981 2.2126661144473456e-05 0 -0.004976818382966439 3.3571800556885378e-05 0 -0.0049798070107599408 1.9904226646399034e-05 0 -0.0049931208216071896 7.3174936745100133e-06 0 -0.0049868021901651981 2.2126661144473456e-05 0 -0.0049965176013394225 1.2486657703697718e-05 0 -0.0049868021901651981 2.2126661144473456e-05 0 -0.0049903748045561306 3.1074787302652814e-05 0 -0.0049742189788940698 -2.3200965539794725e-05 0 -0.005079591055428238 -5.9852716252432584e-05 0 -0.0049868021901651981 2.2126661144473456e-05 0 -0.0049903748045561306 3.1074787302652814e-05 0 -0.004976818382966439 3.3571800556885378e-05 0 -0.0049628337040447971 4.5158676351949833e-05 0 -0.004976818382966439 3.3571800556885378e-05 0 -0.0049744101752505678 4.776365837712781e-05 0 -0.0049744101752505678 4.776365837712781e-05 0 -0.0049607970314467491 5.9630854289616976e-05 0 -0.0049703854629926615 6.5666314688496457e-05 0 -0.0049628337040447971 4.5158676351949833e-05 0 -0.0049744101752505678 4.776365837712781e-05 0 -0.0049607970314467491 5.9630854289616976e-05 0 -0.0049744101752505678 4.776365837712781e-05 0 -0.0049833808497765459 5.2588618611565739e-05 0 -0.0049703854629926615 6.5666314688496457e-05 0 -0.003667805734275888 -4.9647476984294124e-05 0 -0.0032699631891653074 9.736165838716955e-05 0 -0.0041597532248655233 -9.6888442892434097e-05 0 -0.0040683448436447693 7.7243911483239721e-05 0 -0.0033065259827155889 -5.778534939208581e-05 0 -0.0031901983513892315 5.5163922538964627e-05 0 -0.0032403912751370564 2.5246679266833514e-05 0 -0.0049903748045561306 3.1074787302652814e-05 0 -0.0049744101752505678 4.776365837712781e-05 0 -0.0049833808497765459 5.2588618611565739e-05 0 -0.0049903748045561306 3.1074787302652814e-05 0 -0.004976818382966439 3.3571800556885378e-05 0 -0.0049744101752505678 4.776365837712781e-05 0 -0.005079591055428238 -5.9852716252432584e-05 0 -0.0041597532248655233 -9.6888442892434097e-05 0 -0.0035918349643514012 -0.00023290602850651286 0 -0.0035961040065560375 -0.00022932074657284945 0 -0.0036131088860331126 -0.00022132563137671179 0 -0.0042464504098007321 -0.0002493901462218925 0 -0.0041597532248655233 -9.6888442892434097e-05 0 -0.0049505570140395859 -0.00016888823700428988 0 -0.0048514258784170521 -0.00019927500269754675 0 -0.004921168976111342 -0.00027166257857628664 0 -0.0033860748490505414 -9.2506894173724591e-05 0 -0.003432754057063267 -9.2629919750555865e-05 0 -0.0034617730753471274 -0.0001687468312539107 0 -0.0035918349643514012 -0.00023290602850651286 0 -0.0035961040065560375 -0.00022932074657284945 0 -0.0035853100584693799 -0.0002473919484434508 0 -0.0034612281425312088 -0.00015706625778602704 0 -0.0035314451846818829 -0.00021094650511707913 0 -0.0033860748490505414 -9.2506894173724591e-05 0 -0.0034217544682840009 -4.9525024564249138e-05 0 -0.0033829158107935111 -3.991612274151151e-05 0 -0.003432754057063267 -9.2629919750555865e-05 0 -0.0034217544682840009 -4.9525024564249138e-05 0 -0.0034562505339557422 -7.1070151269369747e-05 0 -0.0033860748490505414 -9.2506894173724591e-05 0 -0.003432754057063267 -9.2629919750555865e-05 0 -0.0034217544682840009 -4.9525024564249138e-05 0 -0.0033860748490505414 -9.2506894173724591e-05 0 -0.0033829158107935111 -3.991612274151151e-05 0 -0.0033508796329306144 -2.260519051792528e-05 0 -0.0034217544682840009 -4.9525024564249138e-05 0 -0.0033829158107935111 -3.991612274151151e-05 0 -0.0033804976221632251 3.9620992273533029e-06 0 -0.0033829158107935111 -3.991612274151151e-05 0 -0.0033804976221632251 3.9620992273533029e-06 0 -0.0033508796329306144 -2.260519051792528e-05 0 -0.0034217544682840009 -4.9525024564249138e-05 0 -0.0033804976221632251 3.9620992273533029e-06 0 -0.0034386567860875028 3.2088547497527149e-06 0 -0.0033860748490505414 -9.2506894173724591e-05 0 -0.0033508796329306144 -2.260519051792528e-05 0 -0.0032976767499083674 -1.7315503153218413e-05 0 -0.0035961040065560375 -0.00022932074657284945 0 -0.0036131088860331126 -0.00022132563137671179 0 -0.0036135880457421146 -0.00022139713153872292 0 -0.0034612281425312088 -0.00015706625778602704 0 -0.003667805734275888 -4.9647476984294124e-05 0 -0.0041597532248655233 -9.6888442892434097e-05 0 -0.003667805734275888 -4.9647476984294124e-05 0 -0.0033804976221632251 3.9620992273533029e-06 0 -0.0033508796329306144 -2.260519051792528e-05 0 -0.0033013311445946394 4.6806138073773523e-05 0 -0.0033508796329306144 -2.260519051792528e-05 0 -0.0032976767499083674 -1.7315503153218413e-05 0 -0.0033013311445946394 4.6806138073773523e-05 0 -0.0032927535920078271 -2.2425513388133447e-05 0 -0.0033013311445946394 4.6806138073773523e-05 0 -0.0032403912751370564 2.5246679266833514e-05 0 -0.0033065259827155889 -5.778534939208581e-05 0 -0.0033097766017865546 -3.6141805169501946e-05 0 -0.0032403912751370564 2.5246679266833514e-05 0 -0.003667805734275888 -4.9647476984294124e-05 0 -0.0034185371613040709 8.3288409562490604e-06 0 -0.0033804976221632251 3.9620992273533029e-06 0 -0.0033013311445946394 4.6806138073773523e-05 0 -0.0033562974279396853 7.3200170402300726e-05 0 -0.0033013311445946394 4.6806138073773523e-05 0 -0.0033562974279396853 7.3200170402300726e-05 0 -0.0033275027362742625 0.00013780433915277707 0 -0.0033013311445946394 4.6806138073773523e-05 0 -0.0033275027362742625 0.00013780433915277707 0 -0.0032468197781115927 0.00010053901478260527 0 -0.0033858358045571121 1.8961644333797587e-05 0 -0.003401293254152823 7.334372445070905e-05 0 -0.0033804976221632251 3.9620992273533029e-06 0 -0.003400963082769908 6.7424553208690659e-05 0 -0.0034386567860875028 3.2088547497527149e-06 0 -0.0033804976221632251 3.9620992273533029e-06 0 -0.0033562974279396853 7.3200170402300726e-05 0 -0.0034168593251785949 0.00010747558487357611 0 -0.0033562974279396853 7.3200170402300726e-05 0 -0.0034168593251785949 0.00010747558487357611 0 -0.0033275027362742625 0.00013780433915277707 0 -0.003401293254152823 7.334372445070905e-05 0 -0.0032963573060239035 0.00031381104610113706 0 -0.0034168593251785949 0.00010747558487357611 0 -0.0034511926274311926 0.00021608115980904517 0 -0.0033828687162963588 0.00017850778041939141 0 -0.0034511926274311926 0.00021608115980904517 0 -0.0033828687162963588 0.00017850778041939141 0 -0.0033397281902735609 0.00024259200649047019 0 -0.0034168593251785949 0.00010747558487357611 0 -0.0033828687162963588 0.00017850778041939141 0 -0.0033275027362742625 0.00013780433915277707 0 -0.0033275027362742625 0.00013780433915277707 0 -0.0032480352803005417 0.00021835678689511817 0 -0.0032468197781115927 0.00010053901478260527 0 -0.0033828687162963588 0.00017850778041939141 0 -0.0033275027362742625 0.00013780433915277707 0 -0.0033397281902735609 0.00024259200649047019 0 -0.0033275027362742625 0.00013780433915277707 0 -0.0032480352803005417 0.00021835678689511817 0 -0.0033397281902735609 0.00024259200649047019 0 -0.0032480352803005417 0.00021835678689511817 0 -0.0031850330915093716 0.00015513712425242626 0 -0.0032468197781115927 0.00010053901478260527 0 -0.0032480352803005417 0.00021835678689511817 0 -0.0031850330915093716 0.00015513712425242626 0 -0.0031439016004972203 0.00024255785673703252 0 -0.0031850330915093716 0.00015513712425242626 0 -0.0030979446510827758 0.00015638985451705195 0 -0.0031439016004972203 0.00024255785673703252 0 -0.0030132939621364766 0.00024981321278319269 0 -0.0030979446510827758 0.00015638985451705195 0 -0.0031439016004972203 0.00024255785673703252 0 -0.0031850330915093716 0.00015513712425242626 0 -0.0030979446510827758 0.00015638985451705195 0 -0.0031901983513892315 5.5163922538964627e-05 0 -0.0049607970314467491 5.9630854289616976e-05 0 -0.0049548032140908438 7.836104013702042e-05 0 -0.0049703854629926615 6.5666314688496457e-05 0 -0.0040510148695636749 9.3911695504441138e-05 0 -0.0040683448436447693 7.7243911483239721e-05 0 -0.0033013311445946394 4.6806138073773523e-05 0 -0.0032403912751370564 2.5246679266833514e-05 0 -0.0032468197781115927 0.00010053901478260527 0 -0.0031901983513892315 5.5163922538964627e-05 0 -0.0032403912751370564 2.5246679266833514e-05 0 -0.0032468197781115927 0.00010053901478260527 0 -0.0031850330915093716 0.00015513712425242626 0 -0.0031901983513892315 5.5163922538964627e-05 0 -0.0032468197781115927 0.00010053901478260527 0 -0.0037355165862292118 0.00026142261035694991 0 -0.0037217003129436923 0.00036476920754371179 0 -0.0036226848661627779 0.00020015907779484017 0 -0.0035678160884537783 0.00031904320165954293 0 -0.003452010494910218 0.0002392524235759523 0 -0.0034433999623214306 7.5568198834423717e-05 0 -0.003452010494910218 0.0002392524235759523 0 -0.0033140528886595124 0.00028445346688102272 0 -0.0034433999623214306 7.5568198834423717e-05 0 -0.0036385326953070731 0.00034614113799821881 0 -0.0035803957757618719 0.00011896658306400062 0 -0.0037355165862292118 0.00026142261035694991 0 -0.0036226848661627779 0.00020015907779484017 0 -0.0037630386510656691 0.00016153208119418008 0 -0.003822668325563848 0.0002442221387038031 0 -0.0037355165862292118 0.00026142261035694991 0 -0.0037630386510656691 0.00016153208119418008 0 -0.003822668325563848 0.0002442221387038031 0 -0.0037355165862292118 0.00026142261035694991 0 -0.0037750653033358133 0.00031362288871595819 0 -0.0037355165862292118 0.00026142261035694991 0 -0.0037750653033358133 0.00031362288871595819 0 -0.0037217003129436923 0.00036476920754371179 0 -0.0037750653033358133 0.00031362288871595819 0 -0.0037580773132076142 0.00039099379437333611 0 -0.0037217003129436923 0.00036476920754371179 0 -0.0035678160884537783 0.00031904320165954293 0 -0.0035084636351719188 0.00037449431441298204 0 -0.0036072769661003637 0.00038020524097537387 0 -0.0035678160884537783 0.00031904320165954293 0 -0.0034609203893891734 0.00031789307414516557 0 -0.0035084636351719188 0.00037449431441298204 0 -0.0035678160884537783 0.00031904320165954293 0 -0.003452010494910218 0.0002392524235759523 0 -0.0034609203893891734 0.00031789307414516557 0 -0.003452010494910218 0.0002392524235759523 0 -0.0034609203893891734 0.00031789307414516557 0 -0.0033140528886595124 0.00028445346688102272 0 -0.0034609203893891734 0.00031789307414516557 0 -0.003418228963238804 0.00040736066403917554 0 -0.0035084636351719188 0.00037449431441298204 0 -0.0034609203893891734 0.00031789307414516557 0 -0.0033140528886595124 0.00028445346688102272 0 -0.003418228963238804 0.00040736066403917554 0 -0.0031323798146882125 0.00037443772816489679 0 -0.0032725138237944557 0.00033055993764355819 0 -0.0033123478454449911 0.00015221010748546186 0 -0.0034170362224928323 0.00029554806621385403 0 -0.0032725138237944557 0.00033055993764355819 0 -0.0032281616489669186 0.00048581395902857973 0 -0.003400963082769908 6.7424553208690659e-05 0 -0.003422728042462529 0.00014075733548694425 0 -0.0034924545935729502 3.6872027854114457e-05 0 -0.0032963573060239035 0.00031381104610113706 0 -0.0034034972674377106 8.5824564135455347e-05 0 -0.0034170362224928323 0.00029554806621385403 0 -0.0032725138237944557 0.00033055993764355819 0 -0.0033123478454449911 0.00015221010748546186 0 -0.003400963082769908 6.7424553208690659e-05 0 -0.0034924545935729502 3.6872027854114457e-05 0 -0.0034386567860875028 3.2088547497527149e-06 0 -0.0034924545935729502 3.6872027854114457e-05 0 -0.0034386567860875028 3.2088547497527149e-06 0 -0.003474789234971529 -6.8734136776953502e-06 0 -0.0033592074240513256 0.0002843760894040525 0 -0.0035803957757618719 0.00011896658306400062 0 -0.0034170362224928323 0.00029554806621385403 0 -0.0033123478454449911 0.00015221010748546186 0 -0.0035891706691357364 7.7132398605533718e-05 0 -0.0035338304057558863 -5.2005605880435315e-05 0 -0.0035320789353025183 -7.8793336768141791e-05 0 -0.0035891706691357364 7.7132398605533718e-05 0 -0.0033123478454449911 0.00015221010748546186 0 -0.0035338304057558863 -5.2005605880435315e-05 0 -0.0035891706691357364 7.7132398605533718e-05 0 -0.0034924545935729502 3.6872027854114457e-05 0 -0.0035000992963112516 -2.9335999922111497e-05 0 -0.0035338304057558863 -5.2005605880435315e-05 0 -0.0034034972674377106 8.5824564135455347e-05 0 -0.0035210280274423581 -3.8754996840367455e-05 0 -0.0035000992963112516 -2.9335999922111497e-05 0 -0.003518212904741773 -6.0813313438537178e-05 0 -0.0035338304057558863 -5.2005605880435315e-05 0 -0.0035000992963112516 -2.9335999922111497e-05 0 -0.003518212904741773 -6.0813313438537178e-05 0 -0.0035014421300046052 -5.6339819009050484e-05 0 -0.0034924545935729502 3.6872027854114457e-05 0 -0.0035000992963112516 -2.9335999922111497e-05 0 -0.003474789234971529 -6.8734136776953502e-06 0 -0.0034386567860875028 3.2088547497527149e-06 0 -0.003474789234971529 -6.8734136776953502e-06 0 -0.0034720162043403715 -3.9754730942569586e-05 0 -0.0035000992963112516 -2.9335999922111497e-05 0 -0.003474789234971529 -6.8734136776953502e-06 0 -0.0034720162043403715 -3.9754730942569586e-05 0 -0.0035000992963112516 -2.9335999922111497e-05 0 -0.0034720162043403715 -3.9754730942569586e-05 0 -0.0035014421300046052 -5.6339819009050484e-05 0 -0.0034720162043403715 -3.9754730942569586e-05 0 -0.0035014421300046052 -5.6339819009050484e-05 0 -0.0034923888089247093 -7.9121691384831849e-05 0 -0.0034217544682840009 -4.9525024564249138e-05 0 -0.0034720162043403715 -3.9754730942569586e-05 0 -0.0034562505339557422 -7.1070151269369747e-05 0 -0.0034217544682840009 -4.9525024564249138e-05 0 -0.0034386567860875028 3.2088547497527149e-06 0 -0.0034720162043403715 -3.9754730942569586e-05 0 -0.0034562505339557422 -7.1070151269369747e-05 0 -0.0034923888089247093 -7.9121691384831849e-05 0 -0.0034653456639513035 -0.00010270220013541118 0 -0.003432754057063267 -9.2629919750555865e-05 0 -0.0034562505339557422 -7.1070151269369747e-05 0 -0.0034653456639513035 -0.00010270220013541118 0 -0.0034720162043403715 -3.9754730942569586e-05 0 -0.0034562505339557422 -7.1070151269369747e-05 0 -0.0034923888089247093 -7.9121691384831849e-05 0 -0.0035014421300046052 -5.6339819009050484e-05 0 -0.0034923888089247093 -7.9121691384831849e-05 0 -0.0035148670997917492 -7.5199943677598435e-05 0 -0.0034923888089247093 -7.9121691384831849e-05 0 -0.0035030384123147557 -0.00011533468798966615 0 -0.003529053065793669 -0.0001003605561006763 0 -0.0034923888089247093 -7.9121691384831849e-05 0 -0.0035030384123147557 -0.00011533468798966615 0 -0.0034653456639513035 -0.00010270220013541118 0 -0.003432754057063267 -9.2629919750555865e-05 0 -0.0034653456639513035 -0.00010270220013541118 0 -0.0034617730753471274 -0.0001687468312539107 0 -0.0035030384123147557 -0.00011533468798966615 0 -0.0034653456639513035 -0.00010270220013541118 0 -0.0034617730753471274 -0.0001687468312539107 0 -0.0035320789353025183 -7.8793336768141791e-05 0 -0.003529053065793669 -0.0001003605561006763 0 -0.0035541977514252465 -0.0001433772391169891 0 -0.0035839719154157593 -4.8066320369654298e-05 0 -0.0035504775131586712 -0.00013684518295735548 0 -0.0036286117168129058 -1.2578842402232198e-05 0 -0.0036455168239161498 -0.00011025436803402263 0 -0.0035541977514252465 -0.0001433772391169891 0 -0.003518212904741773 -6.0813313438537178e-05 0 -0.0035338304057558863 -5.2005605880435315e-05 0 -0.0035320789353025183 -7.8793336768141791e-05 0 -0.003518212904741773 -6.0813313438537178e-05 0 -0.0035320789353025183 -7.8793336768141791e-05 0 -0.0035238768978370001 -7.9216597462445357e-05 0 -0.0035320789353025183 -7.8793336768141791e-05 0 -0.0035238768978370001 -7.9216597462445357e-05 0 -0.003529053065793669 -0.0001003605561006763 0 -0.003518212904741773 -6.0813313438537178e-05 0 -0.0035238768978370001 -7.9216597462445357e-05 0 -0.0035148670997917492 -7.5199943677598435e-05 0 -0.003518212904741773 -6.0813313438537178e-05 0 -0.0035014421300046052 -5.6339819009050484e-05 0 -0.0035148670997917492 -7.5199943677598435e-05 0 -0.0034923888089247093 -7.9121691384831849e-05 0 -0.0035148670997917492 -7.5199943677598435e-05 0 -0.003529053065793669 -0.0001003605561006763 0 -0.0035238768978370001 -7.9216597462445357e-05 0 -0.0035148670997917492 -7.5199943677598435e-05 0 -0.003529053065793669 -0.0001003605561006763 0 -0.0035030384123147557 -0.00011533468798966615 0 -0.003529053065793669 -0.0001003605561006763 0 -0.0035541977514252465 -0.0001433772391169891 0 -0.0036455168239161498 -0.00011025436803402263 0 -0.0036941099567975324 -3.7825777395478751e-05 0 -0.0037106351175175706 -0.00013491438688515372 0 -0.0036941099567975324 -3.7825777395478751e-05 0 -0.0037920286994238077 -4.6104192155450756e-05 0 -0.0037106351175175706 -0.00013491438688515372 0 -0.0036286117168129058 -1.2578842402232198e-05 0 -0.0036455168239161498 -0.00011025436803402263 0 -0.0036941099567975324 -3.7825777395478751e-05 0 -0.0035839719154157593 -4.8066320369654298e-05 0 -0.0035803957757618719 0.00011896658306400062 0 -0.0035803957757618719 0.00011896658306400062 0 -0.0037782652371314376 -2.52568458974152e-05 0 -0.0036941099567975324 -3.7825777395478751e-05 0 -0.0036929053477934891 0.00011336129628690655 0 -0.0037920286994238077 -4.6104192155450756e-05 0 -0.0036226848661627779 0.00020015907779484017 0 -0.0037630386510656691 0.00016153208119418008 0 -0.0037407846458277012 -9.273370109021778e-06 0 -0.0036286117168129058 -1.2578842402232198e-05 0 -0.0036941099567975324 -3.7825777395478751e-05 0 -0.0036929053477934891 0.00011336129628690655 0 -0.0037630386510656691 0.00016153208119418008 0 -0.0037407846458277012 -9.273370109021778e-06 0 -0.003923835499527969 8.3627790568379089e-05 0 -0.003822668325563848 0.0002442221387038031 0 -0.0037630386510656691 0.00016153208119418008 0 -0.003923835499527969 8.3627790568379089e-05 0 -0.0037407846458277012 -9.273370109021778e-06 0 -0.003923835499527969 8.3627790568379089e-05 0 -0.0038723425080496349 -4.2106203381197822e-05 0 -0.0037407846458277012 -9.273370109021778e-06 0 -0.0038832531873083422 -0.0001963445905384828 0 -0.0038723425080496349 -4.2106203381197822e-05 0 -0.0037913619889686739 -0.00015896975715916779 0 -0.0038327035844156862 -0.00026879910232284655 0 -0.0038832531873083422 -0.0001963445905384828 0 -0.0037920286994238077 -4.6104192155450756e-05 0 -0.0037913619889686739 -0.00015896975715916779 0 -0.0038832531873083422 -0.0001963445905384828 0 -0.0037782652371314376 -2.52568458974152e-05 0 -0.0038719307863835212 -0.0001862909366581024 0 -0.0037920286994238077 -4.6104192155450756e-05 0 -0.0037913619889686739 -0.00015896975715916779 0 -0.0037106351175175706 -0.00013491438688515372 0 -0.0037913619889686739 -0.00015896975715916779 0 -0.0037106351175175706 -0.00013491438688515372 0 -0.0037440051590186571 -0.00024906953270665129 0 -0.0037106351175175706 -0.00013491438688515372 0 -0.0037440051590186571 -0.00024906953270665129 0 -0.0036461765701863978 -0.00020484024454538993 0 -0.0036455168239161498 -0.00011025436803402263 0 -0.0037106351175175706 -0.00013491438688515372 0 -0.0036461765701863978 -0.00020484024454538993 0 -0.0037440051590186571 -0.00024906953270665129 0 -0.0036804663673109272 -0.00029060317725085766 0 -0.0036461765701863978 -0.00020484024454538993 0 -0.0037440051590186571 -0.00024906953270665129 0 -0.0036804663673109272 -0.00029060317725085766 0 -0.0037539111580885878 -0.00032970994506723538 0 -0.0037440051590186571 -0.00024906953270665129 0 -0.0038327035844156862 -0.00026879910232284655 0 -0.0037539111580885878 -0.00032970994506723538 0 -0.0038327035844156862 -0.00026879910232284655 0 -0.0038453339366438743 -0.00035730732031859208 0 -0.0037539111580885878 -0.00032970994506723538 0 -0.0038327035844156862 -0.00026879910232284655 0 -0.0038832531873083422 -0.0001963445905384828 0 -0.0039119117565994252 -0.00030577837970822952 0 -0.0037913619889686739 -0.00015896975715916779 0 -0.0037440051590186571 -0.00024906953270665129 0 -0.0038327035844156862 -0.00026879910232284655 0 -0.0038327035844156862 -0.00026879910232284655 0 -0.0038453339366438743 -0.00035730732031859208 0 -0.0039119117565994252 -0.00030577837970822952 0 -0.0042464504098007321 -0.0002493901462218925 0 -0.0041829165671422837 -0.00018848301404217154 0 -0.0034617730753471274 -0.0001687468312539107 0 -0.0035678798504915079 -0.0002006451635720863 0 -0.0036105898179121009 -0.00028555323627131563 0 -0.0035314451846818829 -0.00021094650511707913 0 -0.003600275117919942 -0.00027771493208691739 0 -0.0035918349643514012 -0.00023290602850651286 0 -0.0035853100584693799 -0.0002473919484434508 0 -0.0035834592997327796 -0.0002678115623252646 0 -0.0034617730753471274 -0.0001687468312539107 0 -0.0035678798504915079 -0.0002006451635720863 0 -0.0035541977514252465 -0.0001433772391169891 0 -0.0035030384123147557 -0.00011533468798966615 0 -0.0034617730753471274 -0.0001687468312539107 0 -0.0035541977514252465 -0.0001433772391169891 0 -0.0035678798504915079 -0.0002006451635720863 0 -0.0035541977514252465 -0.0001433772391169891 0 -0.0036461765701863978 -0.00020484024454538993 0 -0.0035678798504915079 -0.0002006451635720863 0 -0.0036461765701863978 -0.00020484024454538993 0 -0.0036105898179121009 -0.00028555323627131563 0 -0.0036455168239161498 -0.00011025436803402263 0 -0.0035541977514252465 -0.0001433772391169891 0 -0.0036461765701863978 -0.00020484024454538993 0 -0.0036105898179121009 -0.00028555323627131563 0 -0.0035834592997327796 -0.0002678115623252646 0 -0.0036583427285945933 -0.00036947739092014798 0 -0.0036804663673109272 -0.00029060317725085766 0 -0.0036105898179121009 -0.00028555323627131563 0 -0.0036583427285945933 -0.00036947739092014798 0 -0.0041829165671422837 -0.00018848301404217154 0 -0.0040999433751337001 -0.00022393735991473081 0 -0.0036804663673109272 -0.00029060317725085766 0 -0.0036461765701863978 -0.00020484024454538993 0 -0.0036105898179121009 -0.00028555323627131563 0 -0.0035853100584693799 -0.0002473919484434508 0 -0.0036105898179121009 -0.00028555323627131563 0 -0.0035834592997327796 -0.0002678115623252646 0 -0.0048389772883910952 -4.724705162669635e-05 0 -0.0047682248230650854 -0.00012232816611648024 0 -0.0047715675470959579 -2.5297554751844564e-05 0 -0.0047682248230650854 -0.00012232816611648024 0 -0.0047715675470959579 -2.5297554751844564e-05 0 -0.0046764584227930997 -3.6573220905044444e-05 0 -0.0047715675470959579 -2.5297554751844564e-05 0 -0.0047190789209425746 4.2646544203659022e-05 0 -0.0046764584227930997 -3.6573220905044444e-05 0 -0.0049999961663945878 -2.2482717037644211e-09 0 -0.0049996394384056756 7.1075342322407634e-09 0 -0.0050000073058606683 8.3482126752318828e-09 0 -0.0049182518780584517 1.1866230742984322e-05 0 -0.0048942055720801857 2.6123373533017008e-05 0 -0.005000581134689314 1.234317821792329e-06 0 -0.0049996394384056756 7.1075342322407634e-09 0 -0.0050000073058606683 8.3482126752318828e-09 0 -0.004852597365513499 2.7178315902669318e-05 0 -0.0047715675470959579 -2.5297554751844564e-05 0 -0.0047190789209425746 4.2646544203659022e-05 0 -0.0038453339366438743 -0.00035730732031859208 0 -0.0038730286591934062 -0.00043357433567387812 0 -0.0039124814401715786 -0.0003739997526839156 0 -0.0037882409173342598 -0.00040184012265806734 0 -0.0038453339366438743 -0.00035730732031859208 0 -0.0038730286591934062 -0.00043357433567387812 0 -0.0037882409173342598 -0.00040184012265806734 0 -0.0038453339366438743 -0.00035730732031859208 0 -0.0037539111580885878 -0.00032970994506723538 0 -0.0037882409173342598 -0.00040184012265806734 0 -0.0037539111580885878 -0.00032970994506723538 0 -0.0036583427285945933 -0.00036947739092014798 0 -0.0036804663673109272 -0.00029060317725085766 0 -0.0037539111580885878 -0.00032970994506723538 0 -0.0036583427285945933 -0.00036947739092014798 0 -0.0037882409173342598 -0.00040184012265806734 0 -0.0036583427285945933 -0.00036947739092014798 0 -0.0038106632005135213 -0.00051842861334013457 0 -0.0047190789209425746 4.2646544203659022e-05 0 -0.0046764584227930997 -3.6573220905044444e-05 0 -0.004585882859575412 5.4644394305091813e-05 0 -0.0048942055720801857 2.6123373533017008e-05 0 -0.0046391904498059395 -1.493298011430934e-05 0 -0.0040999433751337001 -0.00022393735991473081 0 -0.0046391904498059395 -1.493298011430934e-05 0 -0.0049999961663945878 -2.2482717037644211e-09 0 -0.0049996394384056756 7.1075342322407634e-09 0 -0.0049996708521998735 5.6719607163897373e-08 0 -0.0049999961663945878 -2.2482717037644211e-09 0 -0.004999997444131341 1.2737132927037082e-09 0 -0.0049996708521998735 5.6719607163897373e-08 0 -0.0037882409173342598 -0.00040184012265806734 0 -0.0038106632005135213 -0.00051842861334013457 0 -0.0038730286591934062 -0.00043357433567387812 0 -0.0049999990719413927 1.7243479429400887e-09 0 -0.0049995180516728055 2.0460305590663597e-07 0 -0.0049999989361317297 -2.2717775968303422e-09 0 -0.0049993047087368413 -2.9707375531911788e-07 0 -0.0046391904498059395 -1.493298011430934e-05 0 -0.0038106632005135213 -0.00051842861334013457 0 -0.0038730286591934062 -0.00043357433567387812 0 -0.0038619062880708597 -0.00052203416742204291 0 -0.0049995180516728055 2.0460305590663597e-07 0 -0.0049999989361317297 -2.2717775968303422e-09 0 -0.0049995036414104367 -5.2501015223866713e-07 0 -0.0046391904498059395 -1.493298011430934e-05 0 -0.0046656008770965991 -0.00014871708573957861 0 -0.0049994176501980342 -9.6515658285058859e-08 0 -0.0046656008770965991 -0.00014871708573957861 0 -0.0049929184729978317 -1.2104392458273393e-06 0 -0.0049999796204294308 -1.1422805125374266e-08 0 -0.0049966752384776629 -9.6604720674289943e-07 0 -0.0038730286591934062 -0.00043357433567387812 0 -0.0038619062880708597 -0.00052203416742204291 0 -0.0040185083153693917 -0.00039923293472748873 0 -0.0046656008770965991 -0.00014871708573957861 0 -0.0050002841443761653 -2.2798199520347024e-08 0 -0.0046656008770965991 -0.00014871708573957861 0 -0.0045064216811953241 -0.00026472468672857514 0 -0.0049999968782371059 1.1259318321171859e-10 0 -0.0049998108992319532 -8.33075924738984e-08 0 -0.0049999999261211873 -8.1933537107617722e-10 0 -0.0038730286591934062 -0.00043357433567387812 0 -0.0039124814401715786 -0.0003739997526839156 0 -0.0040185083153693917 -0.00039923293472748873 0 -0.0039124814401715786 -0.0003739997526839156 0 -0.0040185083153693917 -0.00039923293472748873 0 -0.0039119117565994252 -0.00030577837970822952 0 -0.0038453339366438743 -0.00035730732031859208 0 -0.0039124814401715786 -0.0003739997526839156 0 -0.0039119117565994252 -0.00030577837970822952 0 -0.0050071792280475336 -1.6342454320525252e-05 0 -0.0049936897192392653 -6.4218578776485349e-06 0 -0.0049865139867880321 -4.0678755050327714e-05 0 -0.0045064216811953241 -0.00026472468672857514 0 -0.0040065362913083947 -0.0003529461931157611 0 -0.0045064216811953241 -0.00026472468672857514 0 -0.0046640097790855038 -0.00025027565673173046 0 -0.0050071792280475336 -1.6342454320525252e-05 0 -0.0050000242142240817 -8.8171746165623412e-09 0 -0.0049936897192392653 -6.4218578776485349e-06 0 -0.0049999796204294308 -1.1422805125374266e-08 0 -0.0049966752384776629 -9.6604720674289943e-07 0 -0.0050000073281351136 4.6612205298655425e-09 0 -0.0045064216811953241 -0.00026472468672857514 0 -0.0050000662504497018 1.7326547457262271e-07 0 -0.0049936897192392653 -6.4218578776485349e-06 0 -0.004999945677250258 1.4713325551959824e-08 0 -0.0049741774797050966 -7.5705904576675971e-06 0 -0.0050000242142240817 -8.8171746165623412e-09 0 -0.0049936897192392653 -6.4218578776485349e-06 0 -0.004999945677250258 1.4713325551959824e-08 0 -0.004999945677250258 1.4713325551959824e-08 0 -0.0049999464384194092 -8.7571671619333804e-09 0 -0.0049668465316334391 6.6924822040549065e-06 0 -0.004999945677250258 1.4713325551959824e-08 0 -0.0049741774797050966 -7.5705904576675971e-06 0 -0.0049668465316334391 6.6924822040549065e-06 0 -0.0049741774797050966 -7.5705904576675971e-06 0 -0.0049865139867880321 -4.0678755050327714e-05 0 -0.004914248648127212 -3.2121371047053684e-05 0 -0.0049741774797050966 -7.5705904576675971e-06 0 -0.0049668465316334391 6.6924822040549065e-06 0 -0.004914248648127212 -3.2121371047053684e-05 0 -0.0049936897192392653 -6.4218578776485349e-06 0 -0.0049741774797050966 -7.5705904576675971e-06 0 -0.0049865139867880321 -4.0678755050327714e-05 0 -0.0043294864788616817 -0.00045643020206090871 0 -0.0045392286029092141 -0.00029541601219617197 0 -0.0044159966837376084 -0.00016492371472375783 0 -0.0046640097790855038 -0.00025027565673173046 0 -0.004724925339064579 -0.00018007323575774421 0 -0.0049865139867880321 -4.0678755050327714e-05 0 -0.0049152484290549388 -7.9571961766245557e-05 0 -0.004914248648127212 -3.2121371047053684e-05 0 -0.0045392286029092141 -0.00029541601219617197 0 -0.0044159966837376084 -0.00016492371472375783 0 -0.0045474991401816701 -2.6979290920646216e-05 0 -0.0045392286029092141 -0.00029541601219617197 0 -0.0047658009525082872 -8.6681000549104198e-05 0 -0.0045474991401816701 -2.6979290920646216e-05 0 -0.0043294864788616817 -0.00045643020206090871 0 -0.0044159966837376084 -0.00016492371472375783 0 -0.0042548210711591625 -0.00023083478553920833 0 -0.0044159966837376084 -0.00016492371472375783 0 -0.0042548210711591625 -0.00023083478553920833 0 -0.0043171064987960091 -2.9833357546791931e-05 0 -0.0042548210711591625 -0.00023083478553920833 0 -0.0041526856056316938 -0.00014804304090145886 0 -0.0040757113515924835 -0.00037620191723244885 0 -0.0042548210711591625 -0.00023083478553920833 0 -0.0041526856056316938 -0.00014804304090145886 0 -0.0043171064987960091 -2.9833357546791931e-05 0 -0.0041526856056316938 -0.00014804304090145886 0 -0.0040122268226506315 -0.00014936352949209845 0 -0.0040757113515924835 -0.00037620191723244885 0 -0.0039545732963045237 -0.00010379915105552513 0 -0.0038832531873083422 -0.0001963445905384828 0 -0.0038723425080496349 -4.2106203381197822e-05 0 -0.0039545732963045237 -0.00010379915105552513 0 -0.0038832531873083422 -0.0001963445905384828 0 -0.0039842087085023995 -0.00026219991207891599 0 -0.0039813978229767703 -0.00011458844784360308 0 -0.0040065362913083947 -0.0003529461931157611 0 -0.0038832531873083422 -0.0001963445905384828 0 -0.0039842087085023995 -0.00026219991207891599 0 -0.0039119117565994252 -0.00030577837970822952 0 -0.0040185083153693917 -0.00039923293472748873 0 -0.0039842087085023995 -0.00026219991207891599 0 -0.0039119117565994252 -0.00030577837970822952 0 -0.0041330420782805235 -0.0006050430732759569 0 -0.0043294864788616817 -0.00045643020206090871 0 -0.0040757113515924835 -0.00037620191723244885 0 -0.0043294864788616817 -0.00045643020206090871 0 -0.0042548210711591625 -0.00023083478553920833 0 -0.0040757113515924835 -0.00037620191723244885 0 -0.0049999419352206127 4.2110202476836152e-06 0 -0.0049999972426867031 1.0269480915592171e-09 0 -0.0050000114639634566 4.7085078336017478e-09 0 -0.0049999419352206127 4.2110202476836152e-06 0 -0.0049999972426867031 1.0269480915592171e-09 0 -0.0050010525527100936 2.4203688075021704e-06 0 -0.0049999419352206127 4.2110202476836152e-06 0 -0.0050000114639634566 4.7085078336017478e-09 0 -0.0049983939796559226 2.2172739860622567e-06 0 -0.0049974820908390378 9.5424361639236321e-06 0 -0.0049983939796559226 2.2172739860622567e-06 0 -0.0049668465316334391 6.6924822040549065e-06 0 -0.0049999419352206127 4.2110202476836152e-06 0 -0.0049974820908390378 9.5424361639236321e-06 0 -0.0049983939796559226 2.2172739860622567e-06 0 -0.0050000114639634566 4.7085078336017478e-09 0 -0.0049983939796559226 2.2172739860622567e-06 0 -0.0049999464384194092 -8.7571671619333804e-09 0 -0.0049983939796559226 2.2172739860622567e-06 0 -0.0049999464384194092 -8.7571671619333804e-09 0 -0.0049668465316334391 6.6924822040549065e-06 0 -0.0049151509546744021 -1.6180759726670284e-05 0 -0.0049586498406111691 4.8418028906169645e-06 0 -0.0048278996110926254 -3.8377748213643659e-05 0 -0.0049668465316334391 6.6924822040549065e-06 0 -0.004914248648127212 -3.2121371047053684e-05 0 -0.0048278996110926254 -3.8377748213643659e-05 0 -0.004914248648127212 -3.2121371047053684e-05 0 -0.0048305975088615751 -6.3590880254825742e-05 0 -0.0049152484290549388 -7.9571961766245557e-05 0 -0.004914248648127212 -3.2121371047053684e-05 0 -0.0048305975088615751 -6.3590880254825742e-05 0 -0.0049152484290549388 -7.9571961766245557e-05 0 -0.0048305975088615751 -6.3590880254825742e-05 0 -0.0047658009525082872 -8.6681000549104198e-05 0 -0.004724925339064579 -0.00018007323575774421 0 -0.0047721591635473291 -9.9640527379008778e-05 0 -0.0048305975088615751 -6.3590880254825742e-05 0 -0.0047658009525082872 -8.6681000549104198e-05 0 -0.0048136019512418421 -5.191204079536764e-05 0 -0.0047658009525082872 -8.6681000549104198e-05 0 -0.0048136019512418421 -5.191204079536764e-05 0 -0.004810013561588793 1.3804722468769257e-05 0 -0.0048278996110926254 -3.8377748213643659e-05 0 -0.0048305975088615751 -6.3590880254825742e-05 0 -0.0048136019512418421 -5.191204079536764e-05 0 -0.0048278996110926254 -3.8377748213643659e-05 0 -0.0048136019512418421 -5.191204079536764e-05 0 -0.0048371746122186487 -5.330522849615813e-05 0 -0.0049999419352206127 4.2110202476836152e-06 0 -0.0049974820908390378 9.5424361639236321e-06 0 -0.0049987816488613083 6.0863501009381183e-06 0 -0.0049151509546744021 -1.6180759726670284e-05 0 -0.0049186707077113478 -2.1957831576314831e-05 0 -0.0048136019512418421 -5.191204079536764e-05 0 -0.0048371746122186487 -5.330522849615813e-05 0 -0.0048548549994067297 -1.3646263179874645e-05 0 -0.0048136019512418421 -5.191204079536764e-05 0 -0.0048548549994067297 -1.3646263179874645e-05 0 -0.004846340723604136 1.4350396169059084e-05 0 -0.0048548549994067297 -1.3646263179874645e-05 0 -0.0048817064142212948 1.9782575557569728e-05 0 -0.004921938379551149 1.9889121948983947e-05 0 -0.0048371746122186487 -5.330522849615813e-05 0 -0.0048548549994067297 -1.3646263179874645e-05 0 -0.0048938948145720281 -1.7046830001647052e-05 0 -0.0049186707077113478 -2.1957831576314831e-05 0 -0.0049466340925255108 1.6473714361681797e-06 0 -0.0049987816488613083 6.0863501009381183e-06 0 -0.0049996128213454522 6.5447200284904783e-06 0 -0.0049997670429965451 5.5767596330376143e-06 0 -0.0048548549994067297 -1.3646263179874645e-05 0 -0.0048938948145720281 -1.7046830001647052e-05 0 -0.004921938379551149 1.9889121948983947e-05 0 -0.0049466340925255108 1.6473714361681797e-06 0 -0.0049238148728771129 2.8405394067117425e-06 0 -0.0049466340925255108 1.6473714361681797e-06 0 -0.0049728951089019575 9.7974652563690598e-06 0 -0.0049999419352206127 4.2110202476836152e-06 0 -0.0049987816488613083 6.0863501009381183e-06 0 -0.0049997670429965451 5.5767596330376143e-06 0 -0.0049999419352206127 4.2110202476836152e-06 0 -0.0049997670429965451 5.5767596330376143e-06 0 -0.0050005966115427292 4.9612142962621137e-06 0 -0.0049996128213454522 6.5447200284904783e-06 0 -0.0049997670429965451 5.5767596330376143e-06 0 -0.0050005966115427292 4.9612142962621137e-06 0 -0.0048754107606423106 0.00010043864673827364 0 -0.0048881307046997526 5.7977935509756952e-05 0 -0.0048310431120564884 0.0001101873124023979 0 -0.0048754107606423106 0.00010043864673827364 0 -0.0048635258618826499 0.00013872356288322337 0 -0.0049128797459415735 9.5312265228538796e-05 0 -0.0048754107606423106 0.00010043864673827364 0 -0.0048310431120564884 0.0001101873124023979 0 -0.0048635258618826499 0.00013872356288322337 0 -0.0048754107606423106 0.00010043864673827364 0 -0.0048881307046997526 5.7977935509756952e-05 0 -0.0049128797459415735 9.5312265228538796e-05 0 -0.0048881307046997526 5.7977935509756952e-05 0 -0.0048817064142212948 1.9782575557569728e-05 0 -0.0049212549215036762 5.0399311065289151e-05 0 -0.0048881307046997526 5.7977935509756952e-05 0 -0.004846340723604136 1.4350396169059084e-05 0 -0.0048310431120564884 0.0001101873124023979 0 -0.0048817064142212948 1.9782575557569728e-05 0 -0.004921938379551149 1.9889121948983947e-05 0 -0.0049212549215036762 5.0399311065289151e-05 0 -0.0048548549994067297 -1.3646263179874645e-05 0 -0.0048817064142212948 1.9782575557569728e-05 0 -0.004846340723604136 1.4350396169059084e-05 0 -0.0048881307046997526 5.7977935509756952e-05 0 -0.0048817064142212948 1.9782575557569728e-05 0 -0.004846340723604136 1.4350396169059084e-05 0 -0.0048136019512418421 -5.191204079536764e-05 0 -0.004846340723604136 1.4350396169059084e-05 0 -0.004810013561588793 1.3804722468769257e-05 0 -0.004846340723604136 1.4350396169059084e-05 0 -0.0048310431120564884 0.0001101873124023979 0 -0.004810013561588793 1.3804722468769257e-05 0 -0.0048310431120564884 0.0001101873124023979 0 -0.0047712156547983784 8.9849475755085243e-05 0 -0.004810013561588793 1.3804722468769257e-05 0 -0.0048310431120564884 0.0001101873124023979 0 -0.0047712156547983784 8.9849475755085243e-05 0 -0.004792880502835984 0.00021069692245730966 0 -0.0047658009525082872 -8.6681000549104198e-05 0 -0.0047712156547983784 8.9849475755085243e-05 0 -0.004810013561588793 1.3804722468769257e-05 0 -0.0047658009525082872 -8.6681000549104198e-05 0 -0.0046403366005330002 0.00012087289868212143 0 -0.0045474991401816701 -2.6979290920646216e-05 0 -0.0047658009525082872 -8.6681000549104198e-05 0 -0.0047712156547983784 8.9849475755085243e-05 0 -0.0046403366005330002 0.00012087289868212143 0 -0.0047712156547983784 8.9849475755085243e-05 0 -0.0046403366005330002 0.00012087289868212143 0 -0.004699320018163808 0.00020338532559775559 0 -0.0046403366005330002 0.00012087289868212143 0 -0.004699320018163808 0.00020338532559775559 0 -0.0045979574074715814 0.00022950043443040148 0 -0.004699320018163808 0.00020338532559775559 0 -0.0046913583788430998 0.00033838711213700557 0 -0.0045979574074715814 0.00022950043443040148 0 -0.0043720405276990804 0.00014436685616818582 0 -0.0041973980931673486 0.0002880470411731313 0 -0.0044145132831781841 0.00037224007346414994 0 -0.0044921551635536084 0.0002473660312260241 0 -0.0041383179164616929 0.00034637625434524199 0 -0.0044921551635536084 0.0002473660312260241 0 -0.0046568614747109875 0.00019500308598815455 0 -0.0043720405276990804 0.00014436685616818582 0 -0.0045638983363206521 0.0001757306838841543 0 -0.0044145132831781841 0.00037224007346414994 0 -0.004673695216835908 0.00019433164821235489 0 -0.0047408213677997161 0.00020730691332723609 0 -0.0047389282958462727 0.00014895274347147958 0 -0.0047712156547983784 8.9849475755085243e-05 0 -0.004699320018163808 0.00020338532559775559 0 -0.004792880502835984 0.00021069692245730966 0 -0.004699320018163808 0.00020338532559775559 0 -0.0046913583788430998 0.00033838711213700557 0 -0.004792880502835984 0.00021069692245730966 0 -0.0044921551635536084 0.0002473660312260241 0 -0.0047863370674458465 0.00016927976923347584 0 -0.0048143461885021268 0.00012863669350969637 0 -0.0047863370674458465 0.00016927976923347584 0 -0.0048310431120564884 0.0001101873124023979 0 -0.0047389282958462727 0.00014895274347147958 0 -0.0047994068940125402 0.00016412206895505556 0 -0.0048310431120564884 0.0001101873124023979 0 -0.0047994068940125402 0.00016412206895505556 0 -0.0048635258618826499 0.00013872356288322337 0 -0.0047408213677997161 0.00020730691332723609 0 -0.0047389282958462727 0.00014895274347147958 0 -0.0047994068940125402 0.00016412206895505556 0 -0.0046568614747109875 0.00019500308598815455 0 -0.0047586772715165352 0.00021732013703281677 0 -0.0047408213677997161 0.00020730691332723609 0 -0.0047994068940125402 0.00016412206895505556 0 -0.004773723672178448 0.00022231221197665935 0 -0.0045638983363206521 0.0001757306838841543 0 -0.004773723672178448 0.00022231221197665935 0 -0.0046058523347685945 0.00035623289067000531 0 -0.0047994068940125402 0.00016412206895505556 0 -0.004773723672178448 0.00022231221197665935 0 -0.0048406109532546952 0.00018522617485479612 0 -0.004773723672178448 0.00022231221197665935 0 -0.0048406109532546952 0.00018522617485479612 0 -0.0049288024198852623 0.00024666284220844142 0 -0.0048406109532546952 0.00018522617485479612 0 -0.0049288024198852623 0.00024666284220844142 0 -0.0049045753514704261 0.00019982415835270752 0 -0.0048406109532546952 0.00018522617485479612 0 -0.0048809720316199314 0.00016503430331679526 0 -0.0049045753514704261 0.00019982415835270752 0 -0.0048406109532546952 0.00018522617485479612 0 -0.0048809720316199314 0.00016503430331679526 0 -0.0048635258618826499 0.00013872356288322337 0 -0.0048809720316199314 0.00016503430331679526 0 -0.0048635258618826499 0.00013872356288322337 0 -0.0049121075037325806 0.00014473273672979317 0 -0.0047994068940125402 0.00016412206895505556 0 -0.0048406109532546952 0.00018522617485479612 0 -0.0048635258618826499 0.00013872356288322337 0 -0.0041278994991793229 6.395098366971198e-06 0 -0.0043171064987960091 -2.9833357546791931e-05 0 -0.0042772946019324822 0.00015541980365931576 0 -0.0040851877274403758 0.00014503076345889638 0 -0.0041278994991793229 6.395098366971198e-06 0 -0.0042772946019324822 0.00015541980365931576 0 -0.0040851877274403758 0.00014503076345889638 0 -0.0042772946019324822 0.00015541980365931576 0 -0.0041651583300348956 0.0003222179616511698 0 -0.003822668325563848 0.0002442221387038031 0 -0.0040851877274403758 0.00014503076345889638 0 -0.003923835499527969 8.3627790568379089e-05 0 -0.0040851877274403758 0.00014503076345889638 0 -0.003923835499527969 8.3627790568379089e-05 0 -0.0041278994991793229 6.395098366971198e-06 0 -0.0039545732963045237 -0.00010379915105552513 0 -0.003923835499527969 8.3627790568379089e-05 0 -0.0038723425080496349 -4.2106203381197822e-05 0 -0.0040122268226506315 -0.00014936352949209845 0 -0.003923835499527969 8.3627790568379089e-05 0 -0.0041278994991793229 6.395098366971198e-06 0 -0.0039813978229767703 -0.00011458844784360308 0 -0.0039306083932065588 6.7197193630319651e-05 0 -0.0041526856056316938 -0.00014804304090145886 0 -0.0040122268226506315 -0.00014936352949209845 0 -0.0041278994991793229 6.395098366971198e-06 0 -0.0041526856056316938 -0.00014804304090145886 0 -0.0041278994991793229 6.395098366971198e-06 0 -0.0043171064987960091 -2.9833357546791931e-05 0 -0.0044159966837376084 -0.00016492371472375783 0 -0.0043171064987960091 -2.9833357546791931e-05 0 -0.0045474991401816701 -2.6979290920646216e-05 0 -0.0043171064987960091 -2.9833357546791931e-05 0 -0.0045474991401816701 -2.6979290920646216e-05 0 -0.0044764905529228538 0.00013605667090764095 0 -0.0046403366005330002 0.00012087289868212143 0 -0.0045474991401816701 -2.6979290920646216e-05 0 -0.0044764905529228538 0.00013605667090764095 0 -0.0046403366005330002 0.00012087289868212143 0 -0.0044764905529228538 0.00013605667090764095 0 -0.0045979574074715814 0.00022950043443040148 0 -0.0043171064987960091 -2.9833357546791931e-05 0 -0.0044764905529228538 0.00013605667090764095 0 -0.0042772946019324822 0.00015541980365931576 0 -0.0042593189916856162 0.00031627118802480321 0 -0.0040403853617346714 0.00028618567751292624 0 -0.0044764905529228538 0.00013605667090764095 0 -0.0042772946019324822 0.00015541980365931576 0 -0.0044617604374291454 0.00034102539366814675 0 -0.0042772946019324822 0.00015541980365931576 0 -0.0044617604374291454 0.00034102539366814675 0 -0.0041651583300348956 0.0003222179616511698 0 -0.0046913583788430998 0.00033838711213700557 0 -0.0044617604374291454 0.00034102539366814675 0 -0.0045979574074715814 0.00022950043443040148 0 -0.0044764905529228538 0.00013605667090764095 0 -0.0044617604374291454 0.00034102539366814675 0 -0.0045979574074715814 0.00022950043443040148 0 -0.0042294402735615936 0.00030491955181430748 0 -0.0040730033778225115 0.00027656798628317251 0 -0.0041290103947314331 0.00037741267524232704 0 -0.0044921551635536084 0.0002473660312260241 0 -0.0042593189916856162 0.00031627118802480321 0 -0.0040730033778225115 0.00027656798628317251 0 -0.0041290103947314331 0.00037741267524232704 0 -0.003992797530889115 0.00035214188413809004 0 -0.0040730033778225115 0.00027656798628317251 0 -0.003992797530889115 0.00035214188413809004 0 -0.0039183606700503868 0.00025840701829115347 0 -0.003992797530889115 0.00035214188413809004 0 -0.0038955449538379725 0.00034690632198246371 0 -0.0039165792458541451 0.00041596638007111074 0 -0.003992797530889115 0.00035214188413809004 0 -0.0038955449538379725 0.00034690632198246371 0 -0.0039183606700503868 0.00025840701829115347 0 -0.0038955449538379725 0.00034690632198246371 0 -0.0039183606700503868 0.00025840701829115347 0 -0.0038295152188185058 0.00032213036334952886 0 -0.003822668325563848 0.0002442221387038031 0 -0.0039183606700503868 0.00025840701829115347 0 -0.0038295152188185058 0.00032213036334952886 0 -0.003822668325563848 0.0002442221387038031 0 -0.0037750653033358133 0.00031362288871595819 0 -0.0038295152188185058 0.00032213036334952886 0 -0.0038364334654834684 0.00024799495679262307 0 -0.0040403853617346714 0.00028618567751292624 0 -0.003822668325563848 0.0002442221387038031 0 -0.0040851877274403758 0.00014503076345889638 0 -0.0041651583300348956 0.0003222179616511698 0 -0.0037750653033358133 0.00031362288871595819 0 -0.0037580773132076142 0.00039099379437333611 0 -0.0038295152188185058 0.00032213036334952886 0 -0.0038955449538379725 0.00034690632198246371 0 -0.0038295152188185058 0.00032213036334952886 0 -0.0038284840188850242 0.00039835312064847862 0 -0.0037580773132076142 0.00039099379437333611 0 -0.0038295152188185058 0.00032213036334952886 0 -0.0038284840188850242 0.00039835312064847862 0 -0.0037580773132076142 0.00039099379437333611 0 -0.0038284840188850242 0.00039835312064847862 0 -0.0037582258602005683 0.00045245328752591146 0 -0.0037580773132076142 0.00039099379437333611 0 -0.0037582258602005683 0.00045245328752591146 0 -0.0037219548058132165 0.00049205645558490828 0 -0.0038284840188850242 0.00039835312064847862 0 -0.0037582258602005683 0.00045245328752591146 0 -0.0038605251704935516 0.00046927341792566671 0 -0.0037261530545981496 0.00052411427882382569 0 -0.0037031172195583699 0.00053304348520476739 0 -0.0037219548058132165 0.00049205645558490828 0 -0.0037606942313062309 0.00047100676790887217 0 -0.0037649136804593216 0.00051874507522657847 0 -0.0037582258602005683 0.00045245328752591146 0 -0.0038476876308283199 0.0005730913646855055 0 -0.0038605251704935516 0.00046927341792566671 0 -0.0037582258602005683 0.00045245328752591146 0 -0.0037261530545981496 0.00052411427882382569 0 -0.0037219548058132165 0.00049205645558490828 0 -0.0038476876308283199 0.0005730913646855055 0 -0.0039474586180004729 0.00051431185017833685 0 -0.0039382115996650759 0.00071438409155494254 0 -0.0038476876308283199 0.0005730913646855055 0 -0.0039474586180004729 0.00051431185017833685 0 -0.0038605251704935516 0.00046927341792566671 0 -0.0039474586180004729 0.00051431185017833685 0 -0.0038605251704935516 0.00046927341792566671 0 -0.0039165792458541451 0.00041596638007111074 0 -0.0038955449538379725 0.00034690632198246371 0 -0.0038284840188850242 0.00039835312064847862 0 -0.0039165792458541451 0.00041596638007111074 0 -0.0038284840188850242 0.00039835312064847862 0 -0.0038605251704935516 0.00046927341792566671 0 -0.0039165792458541451 0.00041596638007111074 0 -0.003992797530889115 0.00035214188413809004 0 -0.0039165792458541451 0.00041596638007111074 0 -0.0040400054574212078 0.00043878091742476923 0 -0.0041290103947314331 0.00037741267524232704 0 -0.003992797530889115 0.00035214188413809004 0 -0.0040400054574212078 0.00043878091742476923 0 -0.0039474586180004729 0.00051431185017833685 0 -0.0039165792458541451 0.00041596638007111074 0 -0.0040400054574212078 0.00043878091742476923 0 -0.0041383179164616929 0.00034637625434524199 0 -0.0040603144030023968 0.00042001487645631428 0 -0.0041973980931673486 0.0002880470411731313 0 -0.0040400054574212078 0.00043878091742476923 0 -0.0042393335186640809 0.00051205323906568202 0 -0.0040400054574212078 0.00043878091742476923 0 -0.0042393335186640809 0.00051205323906568202 0 -0.0040701332709670371 0.00062072336163993946 0 -0.0039474586180004729 0.00051431185017833685 0 -0.0040400054574212078 0.00043878091742476923 0 -0.0040701332709670371 0.00062072336163993946 0 -0.0039474586180004729 0.00051431185017833685 0 -0.0040701332709670371 0.00062072336163993946 0 -0.0039382115996650759 0.00071438409155494254 0 -0.0040701332709670371 0.00062072336163993946 0 -0.0040417977544995511 0.00086346473141969346 0 -0.0039382115996650759 0.00071438409155494254 0 -0.0040701332709670371 0.00062072336163993946 0 -0.0040417977544995511 0.00086346473141969346 0 -0.0042511390555954581 0.0007410205420596501 0 -0.0042393335186640809 0.00051205323906568202 0 -0.0040701332709670371 0.00062072336163993946 0 -0.0042511390555954581 0.0007410205420596501 0 -0.0031145477541855791 0.00027564179340674056 0 -0.0032438257905769937 0.00027676436520490937 0 -0.0020361431413813609 -7.4268977120219888e-05 0 -0.0022712966566083587 -0.00023055773005664493 0 -0.002183509981261959 -3.4964125682944174e-05 0 -0.0031145477541855791 0.00027564179340674056 0 -0.003934791472071316 0.00074068445313361356 0 -0.0036953650779135076 0.0005432158214908583 0 -0.0037037554680465811 0.00054237646488758666 0 -0.0037026589126290324 0.00054231753010258287 0 -0.0036868339010691256 0.00054122670762156314 0 -0.0036953650779135076 0.0005432158214908583 0 -0.0037026589126290324 0.00054231753010258287 0 -0.0036953650779135076 0.0005432158214908583 0 -0.0036936798349823351 0.00054742899888061535 0 -0.0037037554680465811 0.00054237646488758666 0 -0.0036936798349823351 0.00054742899888061535 0 -0.0037037554680465811 0.00054237646488758666 0 -0.0036828667171529767 0.00054781272312715132 0 -0.0037261530545981496 0.00052411427882382569 0 -0.0037037554680465811 0.00054237646488758666 0 -0.0037031172195583699 0.00053304348520476739 0 -0.0037037554680465811 0.00054237646488758666 0 -0.0037031172195583699 0.00053304348520476739 0 -0.0036828667171529767 0.00054781272312715132 0 -0.0037261530545981496 0.00052411427882382569 0 -0.0037037554680465811 0.00054237646488758666 0 -0.0037026589126290324 0.00054231753010258287 0 -0.0037649136804593216 0.00051874507522657847 0 -0.003934791472071316 0.00074068445313361356 0 -0.0027179837980033286 -0.00047992518999672384 0 -0.0027504131502007721 -0.00029463098011468124 0 -0.0029606150652226821 -0.00038809459600790814 0 -0.004773723672178448 0.00022231221197665935 0 -0.0047708997102372643 0.00041070910600362698 0 -0.0049288024198852623 0.00024666284220844142 0 -0.0037631530593879282 -5.0319501643827068e-05 0 -0.0038000874978013697 -9.3856332709355757e-05 0 -0.004773723672178448 0.00022231221197665935 0 -0.0047708997102372643 0.00041070910600362698 0 -0.0046058523347685945 0.00035623289067000531 0 -0.0037631530593879282 -5.0319501643827068e-05 0 -0.0035040553867821127 0.000113574524286447 0 -0.0027179837980033286 -0.00047992518999672384 0 -0.0025094168602286175 -0.0003699234485991636 0 -0.0027504131502007721 -0.00029463098011468124 0 -0.0047708997102372643 0.00041070910600362698 0 -0.0045009507577356582 0.0005991858226782567 0 -0.0046058523347685945 0.00035623289067000531 0 -0.0045638983363206521 0.0001757306838841543 0 -0.0046058523347685945 0.00035623289067000531 0 -0.0044145132831781841 0.00037224007346414994 0 -0.0045009507577356582 0.0005991858226782567 0 -0.0046058523347685945 0.00035623289067000531 0 -0.0044145132831781841 0.00037224007346414994 0 -0.0041973980931673486 0.0002880470411731313 0 -0.0042393335186640809 0.00051205323906568202 0 -0.0044145132831781841 0.00037224007346414994 0 -0.0042393335186640809 0.00051205323906568202 0 -0.0045009507577356582 0.0005991858226782567 0 -0.0044145132831781841 0.00037224007346414994 0 -0.0042393335186640809 0.00051205323906568202 0 -0.0045009507577356582 0.0005991858226782567 0 -0.0042511390555954581 0.0007410205420596501 0 -0.0035040553867821127 0.000113574524286447 0 -0.0032438257905769937 0.00027676436520490937 0 -0.0025094168602286175 -0.0003699234485991636 0 -0.0022712966566083587 -0.00023055773005664493 0 -0.0024456781544879777 -0.0001341916338817315 0 -0.0022712966566083587 -0.00023055773005664493 0 -0.0024456781544879777 -0.0001341916338817315 0 -0.0023057303327623908 -3.0993815721282736e-05 0 -0.0022712966566083587 -0.00023055773005664493 0 -0.0023057303327623908 -3.0993815721282736e-05 0 -0.002183509981261959 -3.4964125682944174e-05 0 -0.0024456781544879777 -0.0001341916338817315 0 -0.0025983956702171295 -0.00017733774873290674 0 -0.0025764870843535278 -2.4503400638354983e-05 0 -0.0025094168602286175 -0.0003699234485991636 0 -0.0024456781544879777 -0.0001341916338817315 0 -0.0025983956702171295 -0.00017733774873290674 0 -0.0025094168602286175 -0.0003699234485991636 0 -0.0025983956702171295 -0.00017733774873290674 0 -0.0027504131502007721 -0.00029463098011468124 0 -0.0025983956702171295 -0.00017733774873290674 0 -0.002724083650095235 -8.6057244364309691e-05 0 -0.0027504131502007721 -0.00029463098011468124 0 -0.0025983956702171295 -0.00017733774873290674 0 -0.002724083650095235 -8.6057244364309691e-05 0 -0.0025764870843535278 -2.4503400638354983e-05 0 -0.002724083650095235 -8.6057244364309691e-05 0 -0.0028534873475843108 -0.00014664168083740003 0 -0.0027504131502007721 -0.00029463098011468124 0 -0.0028534873475843108 -0.00014664168083740003 0 -0.0027504131502007721 -0.00029463098011468124 0 -0.0028950242734720102 -0.00025579330926635578 0 -0.002712748503657571 8.7246652154090873e-05 0 -0.0027277623444850658 0.0002627802835949965 0 -0.0028702815307479622 0.00011294410092114569 0 -0.0027277623444850658 0.0002627802835949965 0 -0.0028702815307479622 0.00011294410092114569 0 -0.0028797161890228443 0.00036569276096777738 0 -0.002845789356599565 -0.00012738738603671344 0 -0.0029427552187294512 -1.7473359348838233e-05 0 -0.002724083650095235 -8.6057244364309691e-05 0 -0.002712748503657571 8.7246652154090873e-05 0 -0.0028702815307479622 0.00011294410092114569 0 -0.002724083650095235 -8.6057244364309691e-05 0 -0.0028534873475843108 -0.00014664168083740003 0 -0.0028702815307479622 0.00011294410092114569 0 -0.002724083650095235 -8.6057244364309691e-05 0 -0.002712748503657571 8.7246652154090873e-05 0 -0.0025764870843535278 -2.4503400638354983e-05 0 -0.002712748503657571 8.7246652154090873e-05 0 -0.0025764870843535278 -2.4503400638354983e-05 0 -0.0025531614760882192 0.00012472021182605568 0 -0.002712748503657571 8.7246652154090873e-05 0 -0.0025531614760882192 0.00012472021182605568 0 -0.0025780541242147138 0.00036232023235836233 0 -0.002712748503657571 8.7246652154090873e-05 0 -0.0025512651410181746 0.00037054841111860184 0 -0.0027277623444850658 0.0002627802835949965 0 -0.0028926502116816046 2.2952001806192914e-05 0 -0.0019852680168023023 0.00046366020787743159 0 -0.0024669834679428705 0.00022834877978434456 0 -0.0025531614760882192 0.00012472021182605568 0 -0.0025780541242147138 0.00036232023235836233 0 -0.0024669834679428705 0.00022834877978434456 0 -0.0024022027177624146 0.00014954917092280904 0 -0.0023334242021434922 0.00022419796500691388 0 -0.0024022027177624146 0.00014954917092280904 0 -0.0025531614760882192 0.00012472021182605568 0 -0.0024235715939585501 3.1274262995431367e-05 0 -0.0024669834679428705 0.00022834877978434456 0 -0.0024022027177624146 0.00014954917092280904 0 -0.0025531614760882192 0.00012472021182605568 0 -0.0025764870843535278 -2.4503400638354983e-05 0 -0.0025531614760882192 0.00012472021182605568 0 -0.0024235715939585501 3.1274262995431367e-05 0 -0.0024456781544879777 -0.0001341916338817315 0 -0.0025764870843535278 -2.4503400638354983e-05 0 -0.0024235715939585501 3.1274262995431367e-05 0 -0.0024022027177624146 0.00014954917092280904 0 -0.0024235715939585501 3.1274262995431367e-05 0 -0.0023131668914798532 9.955316485629909e-05 0 -0.0024235715939585501 3.1274262995431367e-05 0 -0.0023057303327623908 -3.0993815721282736e-05 0 -0.0023131668914798532 9.955316485629909e-05 0 -0.0024456781544879777 -0.0001341916338817315 0 -0.0024235715939585501 3.1274262995431367e-05 0 -0.0023057303327623908 -3.0993815721282736e-05 0 -0.0023057303327623908 -3.0993815721282736e-05 0 -0.0023131668914798532 9.955316485629909e-05 0 -0.0022333778211917235 5.5750754004963792e-05 0 -0.0023131668914798532 9.955316485629909e-05 0 -0.0022333778211917235 5.5750754004963792e-05 0 -0.0022148170196266029 0.00014996368208184242 0 -0.0023131668914798532 9.955316485629909e-05 0 -0.0023334242021434922 0.00022419796500691388 0 -0.0022148170196266029 0.00014996368208184242 0 -0.0024022027177624146 0.00014954917092280904 0 -0.0023131668914798532 9.955316485629909e-05 0 -0.0023334242021434922 0.00022419796500691388 0 -0.0023334242021434922 0.00022419796500691388 0 -0.0022148170196266029 0.00014996368208184242 0 -0.0022125452490429748 0.00023783980738360558 0 -0.0019664445073898414 0.00014189906139410976 0 -0.0019845150896236389 0.00014005499934193207 0 -0.0020094374192073765 0.00015522603554419092 0 -0.0023334242021434922 0.00022419796500691388 0 -0.0023551870464148905 0.00036646413958758947 0 -0.0022125452490429748 0.00023783980738360558 0 -0.002086858096898625 0.00028484464691497181 0 -0.0021148462149750578 0.00019328796204485583 0 -0.0024669834679428705 0.00022834877978434456 0 -0.0023334242021434922 0.00022419796500691388 0 -0.0023551870464148905 0.00036646413958758947 0 -0.0018949652359671423 0.00015967038722233861 0 -0.0019845150896236389 0.00014005499934193207 0 -0.0018861674520809205 9.4843037430632012e-05 0 -0.0019845150896236389 0.00014005499934193207 0 -0.0019857794251878225 0.00011671216999965102 0 -0.0018861674520809205 9.4843037430632012e-05 0 -0.002086858096898625 0.00028484464691497181 0 -0.0019537233567761309 0.00020021335351481424 0 0.00053148620968085987 0.0012017307788732994 0 0.00055095771728764977 0.0011386369973768967 0 0.00066330539204917567 0.001091123102720341 0 -0.00078392705816674141 0.00064951768407357823 0 -0.00039609556464852375 0.00071014376969068141 0 -0.0019857794251878225 0.00011671216999965102 0 -0.0018861674520809205 9.4843037430632012e-05 0 -0.0018018645274722898 -2.2289848667856391e-05 0 -0.0018949652359671423 0.00015967038722233861 0 -0.0018861674520809205 9.4843037430632012e-05 0 -0.0017635581463069584 5.9286297641935859e-05 0 -0.002086858096898625 0.00028484464691497181 0 -0.0013044788230740405 0.0004248716648402523 0 -0.0018861674520809205 9.4843037430632012e-05 0 -0.0017635581463069584 5.9286297641935859e-05 0 -0.0018018645274722898 -2.2289848667856391e-05 0 -0.0013044788230740405 0.0004248716648402523 0 -0.00039609556464852375 0.00071014376969068141 0 -0.0013044788230740405 0.0004248716648402523 0 -0.0019852680168023023 0.00046366020787743159 0 -0.0018807025375403327 0.00042182675505969303 0 -0.0017836730061889126 0.00033376013502294752 0 -0.0017391716870857382 0.00042399181542581284 0 -0.0024669834679428705 0.00022834877978434456 0 -0.0023551870464148905 0.00036646413958758947 0 -0.0025780541242147138 0.00036232023235836233 0 -0.002086858096898625 0.00028484464691497181 0 -0.0019852680168023023 0.00046366020787743159 0 -0.00099575853733839688 0.000741174842167565 0 -0.0010963222871488241 0.00075533749913077233 0 -0.0011360337601413889 0.00068831784577791507 0 -0.00099575853733839688 0.000741174842167565 0 -0.0010613449983401103 0.00061719375557855256 0 -0.0011360337601413889 0.00068831784577791507 0 -0.0013044788230740405 0.0004248716648402523 0 -0.0010475731478661653 0.00081711334032238275 0 -0.00099575853733839688 0.000741174842167565 0 -0.0010963222871488241 0.00075533749913077233 0 -0.0011030722247273028 0.00085158728678665226 0 -0.0010963222871488241 0.00075533749913077233 0 -0.0011565046662322428 0.00079041276909723359 0 -0.0011677389796251924 0.00073332412189189874 0 -0.0010963222871488241 0.00075533749913077233 0 -0.0011565046662322428 0.00079041276909723359 0 -0.0011030722247273028 0.00085158728678665226 0 -0.0010963222871488241 0.00075533749913077233 0 -0.0011677389796251924 0.00073332412189189874 0 -0.0011360337601413889 0.00068831784577791507 0 -0.0011677389796251924 0.00073332412189189874 0 -0.0011360337601413889 0.00068831784577791507 0 -0.0012286527986878095 0.00070119658320095244 0 -0.0011360337601413889 0.00068831784577791507 0 -0.0012286527986878095 0.00070119658320095244 0 -0.0013255070075848055 0.00061224631842864271 0 -0.0011677389796251924 0.00073332412189189874 0 -0.0012286527986878095 0.00070119658320095244 0 -0.0012325225160603316 0.00075810381285988985 0 -0.0011565046662322428 0.00079041276909723359 0 -0.0012325225160603316 0.00075810381285988985 0 -0.0012093888841507722 0.00083982074586567176 0 -0.0011565046662322428 0.00079041276909723359 0 -0.0011677389796251924 0.00073332412189189874 0 -0.0012325225160603316 0.00075810381285988985 0 -0.0012325225160603316 0.00075810381285988985 0 -0.0012770486463571104 0.0008151501017651479 0 -0.0012093888841507722 0.00083982074586567176 0 -0.0012842815458258051 0.0007550722134623618 0 -0.0013302418114505565 0.00075445493263806985 0 -0.0012770486463571104 0.0008151501017651479 0 -0.0012325225160603316 0.00075810381285988985 0 -0.0012842815458258051 0.0007550722134623618 0 -0.0012770486463571104 0.0008151501017651479 0 -0.0012325225160603316 0.00075810381285988985 0 -0.0012842815458258051 0.0007550722134623618 0 -0.0012815242659256296 0.00071470175535712146 0 -0.0012842815458258051 0.0007550722134623618 0 -0.0012815242659256296 0.00071470175535712146 0 -0.0013302418114505565 0.00075445493263806985 0 -0.0012286527986878095 0.00070119658320095244 0 -0.0012815242659256296 0.00071470175535712146 0 -0.0013255070075848055 0.00061224631842864271 0 -0.0012286527986878095 0.00070119658320095244 0 -0.0012325225160603316 0.00075810381285988985 0 -0.0012815242659256296 0.00071470175535712146 0 -0.0010613449983401103 0.00061719375557855256 0 -0.0011360337601413889 0.00068831784577791507 0 -0.0013255070075848055 0.00061224631842864271 0 -0.0019852680168023023 0.00046366020787743159 0 -0.0021037258997567833 0.00032838021977315754 0 -0.0025512651410181746 0.00037054841111860184 0 -0.0027277623444850658 0.0002627802835949965 0 -0.0028797161890228443 0.00036569276096777738 0 -0.0018654664630421126 0.00064374667751443859 0 -0.00063550633554411906 0.00070562296167557038 0 0.00024113485065309562 0.001412000472689199 0 0.0003873149127969945 0.0013096983342448061 0 0.00025462827552557741 0.0012860292064435614 0 0.0001469584914695749 0.0013425404557788933 0 0.00024113485065309562 0.001412000472689199 0 0.00025462827552557741 0.0012860292064435614 0 -0.00068981499239664996 0.0013255988933954408 0 -0.0018654664630421126 0.00064374667751443859 0 -0.0036953650779135076 0.0005432158214908583 0 -0.0036936798349823351 0.00054742899888061535 0 -0.0036847600891047371 0.00054169383824739402 0 -0.0030731923781929242 0.00085756748927775888 0 -0.0018654664630421126 0.00064374667751443859 0 -0.0021823695886137176 0.0010149208900243048 0 -0.0021765930747178765 0.0009337557868845396 0 -0.0021209356820807213 0.00096979321950745783 0 -0.0036868339010691256 0.00054122670762156314 0 -0.0036953650779135076 0.0005432158214908583 0 -0.0036847600891047371 0.00054169383824739402 0 -0.0031145477541855791 0.00027564179340674056 0 -0.0018654664630421126 0.00064374667751443859 0 -0.0020424837331690844 1.8313016766197547e-05 0 -0.0019467130323282903 0.00010531772209182589 0 -0.0020587705927602967 0.00011716914041630821 0 -0.0031145477541855791 0.00027564179340674056 0 -0.0018780544620217517 -0.00013672039547366671 0 -0.0020424837331690844 1.8313016766197547e-05 0 -0.0020587705927602967 0.00011716914041630821 0 -0.0021449557224459885 9.5115261805694501e-05 0 -0.0020361431413813609 -7.4268977120219888e-05 0 -0.002183509981261959 -3.4964125682944174e-05 0 -0.0021449557224459885 9.5115261805694501e-05 0 -0.0023057303327623908 -3.0993815721282736e-05 0 -0.002183509981261959 -3.4964125682944174e-05 0 -0.0022333778211917235 5.5750754004963792e-05 0 -0.002183509981261959 -3.4964125682944174e-05 0 -0.0021449557224459885 9.5115261805694501e-05 0 -0.0022333778211917235 5.5750754004963792e-05 0 -0.0021449557224459885 9.5115261805694501e-05 0 -0.0022333778211917235 5.5750754004963792e-05 0 -0.0022148170196266029 0.00014996368208184242 0 -0.0020587705927602967 0.00011716914041630821 0 -0.0020094374192073765 0.00015522603554419092 0 -0.0020352141438106765 0.000156746074335442 0 -0.0020587705927602967 0.00011716914041630821 0 -0.0022148170196266029 0.00014996368208184242 0 -0.0022125452490429748 0.00023783980738360558 0 -0.0020587705927602967 0.00011716914041630821 0 -0.0021449557224459885 9.5115261805694501e-05 0 -0.0022148170196266029 0.00014996368208184242 0 -0.002055091867449301 0.00012285494496279154 0 -0.0021148462149750578 0.00019328796204485583 0 -0.0019467130323282903 0.00010531772209182589 0 -0.0020587705927602967 0.00011716914041630821 0 -0.0020352141438106765 0.000156746074335442 0 0.0003873149127969945 0.0013096983342448061 0 0.00033709909666091294 0.001232142202510696 0 0.00025462827552557741 0.0012860292064435614 0 0.0003873149127969945 0.0013096983342448061 0 0.00041940093631445539 0.0012283966008772408 0 0.00033709909666091294 0.001232142202510696 0 0.00041940093631445539 0.0012283966008772408 0 0.00033709909666091294 0.001232142202510696 0 0.00039696632906488066 0.0011758230783334267 0 -0.0019845150896236389 0.00014005499934193207 0 -0.0019857794251878225 0.00011671216999965102 0 -0.0020352141438106765 0.000156746074335442 0 -0.00078392705816674141 0.00064951768407357823 0 -0.00063550633554411906 0.00070562296167557038 0 0.00053148620968085987 0.0012017307788732994 0 0.0003873149127969945 0.0013096983342448061 0 0.00041940093631445539 0.0012283966008772408 0 -0.0019845150896236389 0.00014005499934193207 0 -0.0020094374192073765 0.00015522603554419092 0 -0.0020352141438106765 0.000156746074335442 0 0.00053148620968085987 0.0012017307788732994 0 0.00041940093631445539 0.0012283966008772408 0 0.00046593248599308417 0.001186382362894518 0 0.00053148620968085987 0.0012017307788732994 0 0.00055095771728764977 0.0011386369973768967 0 0.00050811326921870975 0.0011675077268847331 0 0.00053148620968085987 0.0012017307788732994 0 0.00050811326921870975 0.0011675077268847331 0 0.00046593248599308417 0.001186382362894518 0 0.00050811326921870975 0.0011675077268847331 0 0.00046593248599308417 0.001186382362894518 0 0.00048692454357630513 0.0011353974074563304 0 0.00046593248599308417 0.001186382362894518 0 0.00048692454357630513 0.0011353974074563304 0 0.00039696632906488066 0.0011758230783334267 0 0.00055095771728764977 0.0011386369973768967 0 0.00050811326921870975 0.0011675077268847331 0 0.00048692454357630513 0.0011353974074563304 0 0.00055095771728764977 0.0011386369973768967 0 0.00048692454357630513 0.0011353974074563304 0 0.00056290316592813409 0.0010917958536269096 0 0.00033709909666091294 0.001232142202510696 0 0.00039696632906488066 0.0011758230783334267 0 0.00032764006570809042 0.0011355517481908702 0 0.00041940093631445539 0.0012283966008772408 0 0.00046593248599308417 0.001186382362894518 0 0.00039696632906488066 0.0011758230783334267 0 0.00048692454357630513 0.0011353974074563304 0 0.00039696632906488066 0.0011758230783334267 0 0.00040613908305592468 0.001093485549325197 0 0.00039696632906488066 0.0011758230783334267 0 0.00032764006570809042 0.0011355517481908702 0 0.00040613908305592468 0.001093485549325197 0 0.00032764006570809042 0.0011355517481908702 0 0.00022086694005413494 0.0011733470601333555 0 0.00026472142686492474 0.0010795992299651497 0 0.00033709909666091294 0.001232142202510696 0 0.00032764006570809042 0.0011355517481908702 0 0.00022086694005413494 0.0011733470601333555 0 0.00033709909666091294 0.001232142202510696 0 0.00025462827552557741 0.0012860292064435614 0 0.00022086694005413494 0.0011733470601333555 0 0.0001469584914695749 0.0013425404557788933 0 0.00025462827552557741 0.0012860292064435614 0 0.00014692618311625797 0.001246016155555896 0 0.00025462827552557741 0.0012860292064435614 0 0.00014692618311625797 0.001246016155555896 0 0.00022086694005413494 0.0011733470601333555 0 0.00014692618311625797 0.001246016155555896 0 0.00022086694005413494 0.0011733470601333555 0 5.3176824731214813e-05 0.0011315534627840832 0 0.00022086694005413494 0.0011733470601333555 0 5.3176824731214813e-05 0.0011315534627840832 0 0.00016911111843142599 0.0010507398970315109 0 -0.0011799110625534469 0.00097178795386099941 0 -0.0020993951921818342 0.00096421177466215959 0 -0.0025763485997397527 0.00073190386437040034 0 -0.0028047821373763807 0.00081769105730843702 0 -0.0027858576457253674 0.0005954454218814613 0 -0.0025763485997397527 0.00073190386437040034 0 -0.0025606764033477033 0.0009850724358040526 0 -0.0028047821373763807 0.00081769105730843702 0 -0.0031686085890033837 0.00060855740676734617 0 -0.0031537145666867541 0.00060076991128489013 0 -0.0031424992896237282 0.00061838100740124779 0 -0.0020993951921818342 0.00096421177466215959 0 -0.0031360866478255967 0.00064805516963035742 0 0.00014692618311625797 0.001246016155555896 0 5.3176824731214813e-05 0.0011315534627840832 0 4.3947526624880129e-05 0.0012712019423621187 0 0.0001469584914695749 0.0013425404557788933 0 0.00014692618311625797 0.001246016155555896 0 4.3947526624880129e-05 0.0012712019423621187 0 -0.0021765930747178765 0.0009337557868845396 0 -0.0022310455424859473 0.00089760266862840801 0 -0.0022361492658324214 0.00097575751336570829 0 -0.0020993951921818342 0.00096421177466215959 0 -0.0027350220337830538 0.00074897248778541838 0 -0.00068981499239664996 0.0013255988933954408 0 -0.0020993951921818342 0.00096421177466215959 0 -0.0031806966528503439 0.00058828190479357466 0 -0.0031692854717712089 0.0005886798875027559 0 -0.0031537145666867541 0.00060076991128489013 0 -0.0031686085890033837 0.00060855740676734617 0 -0.0031806966528503439 0.00058828190479357466 0 -0.0031537145666867541 0.00060076991128489013 0 -0.0031806966528503439 0.00058828190479357466 0 -0.0031692854717712089 0.0005886798875027559 0 -0.0031903726978426829 0.00058072205300482578 0 -0.0021823695886137176 0.0010149208900243048 0 -0.0021765930747178765 0.0009337557868845396 0 -0.0022361492658324214 0.00097575751336570829 0 -0.0031536267657108754 0.00059044286094632914 0 -0.0031692854717712089 0.0005886798875027559 0 -0.0031837715627192256 0.00057919437495607389 0 -0.0031536267657108754 0.00059044286094632914 0 -0.0031692854717712089 0.0005886798875027559 0 -0.0031412407335924234 0.00059836250008329537 0 -0.0031692854717712089 0.0005886798875027559 0 -0.0031537145666867541 0.00060076991128489013 0 -0.0031412407335924234 0.00059836250008329537 0 -0.0031536267657108754 0.00059044286094632914 0 -0.0031412407335924234 0.00059836250008329537 0 -0.0031355777788817161 0.00059894363323208222 0 -0.0031412407335924234 0.00059836250008329537 0 -0.0031203832191707766 0.00060571155648894346 0 -0.0031129724075418088 0.00060559839311761414 0 -0.0031537145666867541 0.00060076991128489013 0 -0.0031412407335924234 0.00059836250008329537 0 -0.0031203832191707766 0.00060571155648894346 0 -0.0031537145666867541 0.00060076991128489013 0 -0.0031203832191707766 0.00060571155648894346 0 -0.0031424992896237282 0.00061838100740124779 0 -0.0031360866478255967 0.00064805516963035742 0 -0.0029884672327824412 0.00065697627041420652 0 -0.0031203832191707766 0.00060571155648894346 0 -0.0031424992896237282 0.00061838100740124779 0 -0.0030543630672127636 0.00061418612801954046 0 -0.0031203832191707766 0.00060571155648894346 0 -0.0031129724075418088 0.00060559839311761414 0 -0.0030543630672127636 0.00061418612801954046 0 -0.0031129724075418088 0.00060559839311761414 0 -0.0031264150968575645 0.00057288608406061209 0 -0.0030543630672127636 0.00061418612801954046 0 -0.0031129724075418088 0.00060559839311761414 0 -0.0031450041081176479 0.00059137743718857931 0 -0.0031264150968575645 0.00057288608406061209 0 -0.0031455303860069232 0.00059638404042267653 0 -0.0031129724075418088 0.00060559839311761414 0 -0.0031450041081176479 0.00059137743718857931 0 -0.0031455303860069232 0.00059638404042267653 0 -0.0031129724075418088 0.00060559839311761414 0 -0.0031355777788817161 0.00059894363323208222 0 -0.0025923598605532778 0.00034530639119734972 0 -0.0025855259934282272 0.00034451456427784014 0 -0.0025848785393281118 0.00034319514623557592 0 -0.0025855259934282272 0.00034451456427784014 0 -0.0025848785393281118 0.00034319514623557592 0 -0.0025814120575877102 0.00034535894531039369 0 -0.0031559006861710029 0.00058671207580169248 0 -0.0031450041081176479 0.00059137743718857931 0 -0.0031738625555217683 0.00055085879392505329 0 -0.0031455303860069232 0.00059638404042267653 0 -0.0031450041081176479 0.00059137743718857931 0 -0.0031483433192848261 0.00058500007906684337 0 -0.0031559006861710029 0.00058671207580169248 0 -0.0031450041081176479 0.00059137743718857931 0 -0.0031483433192848261 0.00058500007906684337 0 -0.0025964137871366164 0.00035118728850985184 0 -0.0025969692700337659 0.0003579307029103783 0 -0.0025855259934282272 0.00034451456427784014 0 -0.0028663858269712622 0.00046678447647995129 0 -0.002870446406324076 0.00046704741583326556 0 -0.0031333848279436042 0.00058241326042512769 0 -0.0031559006861710029 0.00058671207580169248 0 -0.0031483433192848261 0.00058500007906684337 0 -0.0031333848279436042 0.00058241326042512769 0 -0.0031483433192848261 0.00058500007906684337 0 -0.0031514917971395945 0.0005535172925616186 0 -0.0031514917971395945 0.0005535172925616186 0 -0.0031846652868956576 0.00055563181404229864 0 -0.0031764127439558717 0.00053414870250650633 0 -0.0031483433192848261 0.00058500007906684337 0 -0.0031514917971395945 0.0005535172925616186 0 -0.0031846652868956576 0.00055563181404229864 0 -0.0031135092072223538 0.00054760974919098909 0 -0.0031514917971395945 0.0005535172925616186 0 -0.0031368359570507673 0.00053173847801616075 0 -0.0031333848279436042 0.00058241326042512769 0 -0.0031135092072223538 0.00054760974919098909 0 -0.0031514917971395945 0.0005535172925616186 0 -0.0031412407335924234 0.00059836250008329537 0 -0.0031129724075418088 0.00060559839311761414 0 -0.0031355777788817161 0.00059894363323208222 0 -0.0031455303860069232 0.00059638404042267653 0 -0.0031355777788817161 0.00059894363323208222 0 -0.0031354815130531285 0.00059348950729464411 0 -0.0031455303860069232 0.00059638404042267653 0 -0.0031483433192848261 0.00058500007906684337 0 -0.0031846652868956576 0.00055563181404229864 0 -0.003148302584737524 0.00059323306815314033 0 -0.0031592273990837024 0.00057332095670587109 0 -0.0031536267657108754 0.00059044286094632914 0 -0.0031355777788817161 0.00059894363323208222 0 -0.0031354815130531285 0.00059348950729464411 0 -0.0031536267657108754 0.00059044286094632914 0 -0.0031354815130531285 0.00059348950729464411 0 -0.0031577752479678544 0.00057553333578362967 0 -0.0031354815130531285 0.00059348950729464411 0 -0.0031577752479678544 0.00057553333578362967 0 -0.0031465492969482978 0.00056050869515608638 0 -0.0031592273990837024 0.00057332095670587109 0 -0.003167695204598535 0.00054209018375094172 0 -0.0031846652868956576 0.00055563181404229864 0 -0.0031852429370090507 0.00052441200317621334 0 -0.0031893826685235262 0.000520326400524404 0 -0.0031846652868956576 0.00055563181404229864 0 -0.0031852429370090507 0.00052441200317621334 0 -0.0031764127439558717 0.00053414870250650633 0 -0.0031852429370090507 0.00052441200317621334 0 -0.0031764127439558717 0.00053414870250650633 0 -0.003194170138642189 0.00051433236791982573 0 -0.003194170138642189 0.00051433236791982573 0 -0.0032155469166198613 0.00046626877001383811 0 -0.0033379165721129354 0.00036876307591880307 0 -0.0031842955803270123 0.00052064575932021849 0 -0.003194170138642189 0.00051433236791982573 0 -0.003179764606497527 0.00052787015265814139 0 -0.0031852429370090507 0.00052441200317621334 0 -0.0031842955803270123 0.00052064575932021849 0 -0.0031893826685235262 0.000520326400524404 0 -0.0031852429370090507 0.00052441200317621334 0 -0.0031842955803270123 0.00052064575932021849 0 -0.003194170138642189 0.00051433236791982573 0 -0.0031577752479678544 0.00057553333578362967 0 -0.0031465492969482978 0.00056050869515608638 0 -0.0031775508261828074 0.00054694717895235141 0 -0.0031465492969482978 0.00056050869515608638 0 -0.0031709950416423374 0.00052698758811162616 0 -0.0031775508261828074 0.00054694717895235141 0 -0.0031842955803270123 0.00052064575932021849 0 -0.0031893826685235262 0.000520326400524404 0 -0.0031709950416423374 0.00052698758811162616 0 -0.003167695204598535 0.00054209018375094172 0 -0.0031704564009678699 0.00052927269648496932 0 -0.0031514917971395945 0.0005535172925616186 0 -0.0031368359570507673 0.00053173847801616075 0 -0.0031655265360234111 0.00051958844595427077 0 -0.0031202554445755081 0.00051356172948272233 0 -0.0031368359570507673 0.00053173847801616075 0 -0.0031406738550809558 0.00050064185331919972 0 -0.0031368359570507673 0.00053173847801616075 0 -0.0031655265360234111 0.00051958844595427077 0 -0.0031406738550809558 0.00050064185331919972 0 -0.0031514917971395945 0.0005535172925616186 0 -0.0031655265360234111 0.00051958844595427077 0 -0.0031764127439558717 0.00053414870250650633 0 -0.0031655265360234111 0.00051958844595427077 0 -0.0031764127439558717 0.00053414870250650633 0 -0.003194170138642189 0.00051433236791982573 0 -0.0032155469166198613 0.00046626877001383811 0 -0.0031848611750839111 0.00049465572198187889 0 -0.003167124178626348 0.00048326933993691714 0 -0.003194170138642189 0.00051433236791982573 0 -0.0032155469166198613 0.00046626877001383811 0 -0.0031848611750839111 0.00049465572198187889 0 -0.0031655265360234111 0.00051958844595427077 0 -0.003194170138642189 0.00051433236791982573 0 -0.0031848611750839111 0.00049465572198187889 0 -0.0031655265360234111 0.00051958844595427077 0 -0.0031848611750839111 0.00049465572198187889 0 -0.003167124178626348 0.00048326933993691714 0 -0.0031655265360234111 0.00051958844595427077 0 -0.003167124178626348 0.00048326933993691714 0 -0.0031406738550809558 0.00050064185331919972 0 -0.003167124178626348 0.00048326933993691714 0 -0.0031381009556775774 0.00047015407191484466 0 -0.0031406738550809558 0.00050064185331919972 0 -0.0031185042761887405 0.00048436057048190936 0 -0.0031381009556775774 0.00047015407191484466 0 -0.0031406738550809558 0.00050064185331919972 0 -0.003111133087048793 0.00045489781538927742 0 -0.0031381009556775774 0.00047015407191484466 0 -0.0031483125747301145 0.00043726251050647417 0 -0.003167124178626348 0.00048326933993691714 0 -0.0031381009556775774 0.00047015407191484466 0 -0.0031483125747301145 0.00043726251050647417 0 -0.0032155469166198613 0.00046626877001383811 0 -0.003167124178626348 0.00048326933993691714 0 -0.0031483125747301145 0.00043726251050647417 0 -0.0032617476415417374 0.00048684982992466309 0 -0.003001417812899906 0.00036021871990594745 0 -0.0032155469166198613 0.00046626877001383811 0 -0.0031204510109230955 0.00035005786019893674 0 -0.0032202053702070879 0.00033995987194283632 0 -0.0031204510109230955 0.00035005786019893674 0 -0.0032202053702070879 0.00033995987194283632 0 -0.0031439016004972203 0.00024255785673703252 0 -0.0032480352803005417 0.00021835678689511817 0 -0.0032202053702070879 0.00033995987194283632 0 -0.0031439016004972203 0.00024255785673703252 0 -0.0032480352803005417 0.00021835678689511817 0 -0.0032202053702070879 0.00033995987194283632 0 -0.0032872121451239969 0.00030021311135591507 0 -0.0038464915002093336 0.00026049660425499552 0 -0.003001417812899906 0.00036021871990594745 0 -0.0030132939621364766 0.00024981321278319269 0 -0.0031204510109230955 0.00035005786019893674 0 -0.0031439016004972203 0.00024255785673703252 0 -0.0031842955803270123 0.00052064575932021849 0 -0.0031709950416423374 0.00052698758811162616 0 -0.003179764606497527 0.00052787015265814139 0 -0.0032155469166198613 0.00046626877001383811 0 -0.0032202053702070879 0.00033995987194283632 0 -0.0033379165721129354 0.00036876307591880307 0 -0.0032015119683800153 0.00050655971675696244 0 -0.0032570542074029027 0.00045776971589953747 0 -0.0033379165721129354 0.00036876307591880307 0 -0.0032872121451239969 0.00030021311135591507 0 -0.0033397281902735609 0.00024259200649047019 0 -0.0032202053702070879 0.00033995987194283632 0 -0.0033379165721129354 0.00036876307591880307 0 -0.0032872121451239969 0.00030021311135591507 0 -0.0032480352803005417 0.00021835678689511817 0 -0.0032872121451239969 0.00030021311135591507 0 -0.0033397281902735609 0.00024259200649047019 0 -0.0031725634203373177 0.00052655181760297642 0 -0.0031709950416423374 0.00052698758811162616 0 -0.0031748439217778811 0.00052679760740156759 0 -0.0034511926274311926 0.00021608115980904517 0 -0.0033379165721129354 0.00036876307591880307 0 -0.0033397281902735609 0.00024259200649047019 0 -0.0031725634203373177 0.00052655181760297642 0 -0.0031709950416423374 0.00052698758811162616 0 -0.003179764606497527 0.00052787015265814139 0 -0.0032963573060239035 0.00031381104610113706 0 -0.0032570542074029027 0.00045776971589953747 0 -0.0031323798146882125 0.00037443772816489679 0 -0.0032725138237944557 0.00033055993764355819 0 -0.0032281616489669186 0.00048581395902857973 0 -0.0031323798146882125 0.00037443772816489679 0 -0.0032281616489669186 0.00048581395902857973 0 -0.0031847375827636251 0.00053382409844518767 0 -0.0032963573060239035 0.00031381104610113706 0 -0.0031761086942480544 0.00054683238551771814 0 -0.0032281616489669186 0.00048581395902857973 0 -0.0032299264599736787 0.00054602276291085999 0 -0.0033074346167628111 0.00046527523271708157 0 -0.0032299264599736787 0.00054602276291085999 0 -0.0032630211800761797 0.00057143404480451893 0 -0.0032154273631937805 0.00058892943283564317 0 -0.0031847375827636251 0.00053382409844518767 0 -0.0032299264599736787 0.00054602276291085999 0 -0.0032154273631937805 0.00058892943283564317 0 -0.0031761086942480544 0.00054683238551771814 0 -0.0031928039367632314 0.00056446428661312991 0 -0.0031709950416423374 0.00052698758811162616 0 -0.0031748439217778811 0.00052679760740156759 0 -0.0031775508261828074 0.00054694717895235141 0 -0.0032281616489669186 0.00048581395902857973 0 -0.0031847375827636251 0.00053382409844518767 0 -0.0032299264599736787 0.00054602276291085999 0 -0.0032630211800761797 0.00057143404480451893 0 -0.0033904959843164013 0.00052796189692477997 0 -0.0034265351650635857 0.00071080106793163737 0 -0.0032519272023241131 0.00057215288981401428 0 -0.0033486167580459233 0.00066100419802502344 0 -0.0032299264599736787 0.00054602276291085999 0 -0.0032630211800761797 0.00057143404480451893 0 -0.0033074346167628111 0.00046527523271708157 0 -0.0032630211800761797 0.00057143404480451893 0 -0.0033074346167628111 0.00046527523271708157 0 -0.0033904959843164013 0.00052796189692477997 0 -0.0033140528886595124 0.00028445346688102272 0 -0.0032281616489669186 0.00048581395902857973 0 -0.0033074346167628111 0.00046527523271708157 0 -0.0033592074240513256 0.0002843760894040525 0 -0.0032420231010553391 0.0004715149070016046 0 -0.0033074346167628111 0.00046527523271708157 0 -0.003418228963238804 0.00040736066403917554 0 -0.0033904959843164013 0.00052796189692477997 0 -0.0033140528886595124 0.00028445346688102272 0 -0.0033074346167628111 0.00046527523271708157 0 -0.003418228963238804 0.00040736066403917554 0 -0.0035084636351719188 0.00037449431441298204 0 -0.0034960374892070169 0.00048105412657718354 0 -0.0036072769661003637 0.00038020524097537387 0 -0.003418228963238804 0.00040736066403917554 0 -0.0035084636351719188 0.00037449431441298204 0 -0.0034960374892070169 0.00048105412657718354 0 -0.003418228963238804 0.00040736066403917554 0 -0.0034960374892070169 0.00048105412657718354 0 -0.0033904959843164013 0.00052796189692477997 0 -0.0034960374892070169 0.00048105412657718354 0 -0.0036072769661003637 0.00038020524097537387 0 -0.0035837991022039774 0.0006092654770764827 0 -0.0036072769661003637 0.00038020524097537387 0 -0.0037219548058132165 0.00049205645558490828 0 -0.0036691089221013002 0.00051816692546799881 0 -0.0035678160884537783 0.00031904320165954293 0 -0.0036072769661003637 0.00038020524097537387 0 -0.0037219548058132165 0.00049205645558490828 0 -0.0036062394529951711 0.00039762552839051296 0 -0.0036677557730381981 0.0005369889092840844 0 -0.0037580773132076142 0.00039099379437333611 0 -0.0037217003129436923 0.00036476920754371179 0 -0.0037219548058132165 0.00049205645558490828 0 -0.0036385326953070731 0.00034614113799821881 0 -0.0037233883582691611 0.0004906879682797775 0 -0.0037031172195583699 0.00053304348520476739 0 -0.0037219548058132165 0.00049205645558490828 0 -0.0036691089221013002 0.00051816692546799881 0 -0.0033904959843164013 0.00052796189692477997 0 -0.0034780714907423882 0.00059004040407993359 0 -0.0034265351650635857 0.00071080106793163737 0 -0.0034960374892070169 0.00048105412657718354 0 -0.0033904959843164013 0.00052796189692477997 0 -0.0034780714907423882 0.00059004040407993359 0 -0.0034960374892070169 0.00048105412657718354 0 -0.0035837991022039774 0.0006092654770764827 0 -0.0034780714907423882 0.00059004040407993359 0 -0.0035837991022039774 0.0006092654770764827 0 -0.0034780714907423882 0.00059004040407993359 0 -0.0034265351650635857 0.00071080106793163737 0 -0.0035837991022039774 0.0006092654770764827 0 -0.0034265351650635857 0.00071080106793163737 0 -0.0035691761306680257 0.00083171399962927582 0 -0.0032050045212063515 0.00058409185436632586 0 -0.0031902948126102887 0.00058306558046415289 0 -0.0031903726978426829 0.00058072205300482578 0 -0.0033486167580459233 0.00066100419802502344 0 -0.0030788803081800327 0.00076446390647114603 0 -0.0037031172195583699 0.00053304348520476739 0 -0.0036691089221013002 0.00051816692546799881 0 -0.0036828667171529767 0.00054781272312715132 0 -0.0036677557730381981 0.0005369889092840844 0 -0.0030788803081800327 0.00076446390647114603 0 -0.0021823695886137176 0.0010149208900243048 0 -0.0022361492658324214 0.00097575751336570829 0 -0.0022441439126780227 0.0010579859276465444 0 -0.0030731923781929242 0.00085756748927775888 0 -0.0030788803081800327 0.00076446390647114603 0 -0.0027350220337830538 0.00074897248778541838 0 -0.0030788803081800327 0.00076446390647114603 0 -0.0031806966528503439 0.00058828190479357466 0 -0.0031902948126102887 0.00058306558046415289 0 -0.0031903726978426829 0.00058072205300482578 0 -0.0031692854717712089 0.0005886798875027559 0 -0.0031903726978426829 0.00058072205300482578 0 -0.0031837715627192256 0.00057919437495607389 0 -0.0031903726978426829 0.00058072205300482578 0 -0.0031837715627192256 0.00057919437495607389 0 -0.0032094546162787941 0.00058262054875565772 0 -0.0031577752479678544 0.00057553333578362967 0 -0.0031837715627192256 0.00057919437495607389 0 -0.0031775508261828074 0.00054694717895235141 0 -0.0031536267657108754 0.00059044286094632914 0 -0.0031577752479678544 0.00057553333578362967 0 -0.0031837715627192256 0.00057919437495607389 0 -0.0031888760545287207 0.0005807891370731489 0 -0.0031928039367632314 0.00056446428661312991 0 -0.0032050045212063515 0.00058409185436632586 0 -0.0031903726978426829 0.00058072205300482578 0 -0.0032094546162787941 0.00058262054875565772 0 -0.0031837715627192256 0.00057919437495607389 0 -0.0032154273631937805 0.00058892943283564317 0 -0.0032094546162787941 0.00058262054875565772 0 -0.0032630211800761797 0.00057143404480451893 0 -0.0032050045212063515 0.00058409185436632586 0 -0.0032094546162787941 0.00058262054875565772 0 -0.0032630211800761797 0.00057143404480451893 0 -0.0032154273631937805 0.00058892943283564317 0 -0.0032094546162787941 0.00058262054875565772 0 -0.0042974756170220821 -6.0907028589752979e-05 0 -0.0040048189629374002 -1.1093358602399646e-07 0 -0.0043056766405006356 4.321389560569469e-05 0 -0.0042974756170220821 -6.0907028589752979e-05 0 -0.0040048189629374002 -1.1093358602399646e-07 0 -0.0041524530340042495 -0.00031795526371831311 0 -0.0040043204920506437 -2.2252354686649221e-07 0 -0.003821221881503844 -4.0520581373898863e-05 0 -0.0040040292021722122 1.6821146503478418e-10 0 -0.0037568403125288604 -3.6862064703850555e-10 0 -0.0037434428897473795 -1.1881668727491972e-07 0 -0.004060379544752849 0.00019305496723831728 0 -0.0039363050129597749 0.00014521781339055682 0 -0.0038500976467191416 0.00014320045124172683 0 -0.0041965464181827903 4.8659277905542386e-05 0 -0.003821221881503844 -4.0520581373898863e-05 0 -0.004060379544752849 0.00019305496723831728 0 -0.0041087067225325079 0.00019263844922964745 0 -0.0039363050129597749 0.00014521781339055682 0 -0.0041087067225325079 0.00019263844922964745 0 -0.0041017949433896474 0.00017242739453735044 0 -0.0039363050129597749 0.00014521781339055682 0 -0.0041087067225325079 0.00019263844922964745 0 -0.0042738401564334279 0.00021192661926702975 0 -0.0041017949433896474 0.00017242739453735044 0 -0.0041087067225325079 0.00019263844922964745 0 -0.0043012490119688409 0.0002103948154140683 0 -0.0043973817656649756 0.00020685602388737103 0 -0.0041087067225325079 0.00019263844922964745 0 -0.0043012490119688409 0.0002103948154140683 0 -0.0042738401564334279 0.00021192661926702975 0 -0.0041449824012651454 0.00018486601846078003 0 -0.0043199013140366683 0.00015398169881742925 0 -0.004060379544752849 0.00019305496723831728 0 -0.0041087067225325079 0.00019263844922964745 0 -0.0042529901020747409 0.00011025593024607664 0 -0.004060379544752849 0.00019305496723831728 0 -0.0042529901020747409 0.00011025593024607664 0 -0.0043081684461104422 8.2519465365792221e-05 0 -0.0043012490119688409 0.0002103948154140683 0 -0.0042738401564334279 0.00021192661926702975 0 -0.0043920071178187199 0.00019222048719309335 0 -0.0043012490119688409 0.0002103948154140683 0 -0.0043973817656649756 0.00020685602388737103 0 -0.0043920071178187199 0.00019222048719309335 0 -0.0043973817656649756 0.00020685602388737103 0 -0.0043920071178187199 0.00019222048719309335 0 -0.004500201460663376 0.00015311115405629625 0 -0.0043920071178187199 0.00019222048719309335 0 -0.004500201460663376 0.00015311115405629625 0 -0.0044770995740342195 0.00014572577133345442 0 -0.0043973817656649756 0.00020685602388737103 0 -0.004500201460663376 0.00015311115405629625 0 -0.0046033842603353942 0.00012326141416265114 0 -0.0043199013140366683 0.00015398169881742925 0 -0.0045479079310474825 7.4445834345113218e-05 0 -0.0043081684461104422 8.2519465365792221e-05 0 -0.0044189514252448861 3.6243553331328699e-05 0 -0.0044819045914096627 1.5185013236752778e-05 0 -0.0042529901020747409 0.00011025593024607664 0 -0.0043081684461104422 8.2519465365792221e-05 0 -0.0044819045914096627 1.5185013236752778e-05 0 -0.0040048189629374002 -1.1093358602399646e-07 0 -0.0043056766405006356 4.321389560569469e-05 0 -0.0043916004701584355 2.7977452708225406e-05 0 -0.0043081684461104422 8.2519465365792221e-05 0 -0.0044189514252448861 3.6243553331328699e-05 0 -0.0043056766405006356 4.321389560569469e-05 0 -0.0044189514252448861 3.6243553331328699e-05 0 -0.0043056766405006356 4.321389560569469e-05 0 -0.0043916004701584355 2.7977452708225406e-05 0 -0.0040048189629374002 -1.1093358602399646e-07 0 -0.0043916004701584355 2.7977452708225406e-05 0 -0.0045816236845225792 1.3405345048928189e-07 0 -0.0041965464181827903 4.8659277905542386e-05 0 -0.0042740395923912891 7.2850295107387565e-05 0 -0.0042974756170220821 -6.0907028589752979e-05 0 -0.0043081684461104422 8.2519465365792221e-05 0 -0.0043056766405006356 4.321389560569469e-05 0 -0.0043916004701584355 2.7977452708225406e-05 0 -0.0045778266589722094 1.3330301559628178e-05 0 -0.0045816236845225792 1.3405345048928189e-07 0 -0.0044189514252448861 3.6243553331328699e-05 0 -0.0043916004701584355 2.7977452708225406e-05 0 -0.0045778266589722094 1.3330301559628178e-05 0 -0.0045778266589722094 1.3330301559628178e-05 0 -0.0047867569419537299 1.5038624864903588e-05 0 -0.0047597973062069717 2.6347216952903702e-05 0 -0.0045778266589722094 1.3330301559628178e-05 0 -0.0045816236845225792 1.3405345048928189e-07 0 -0.0047867569419537299 1.5038624864903588e-05 0 -0.0045816236845225792 1.3405345048928189e-07 0 -0.0049997873678571383 -2.9721773662945097e-08 0 -0.0047867569419537299 1.5038624864903588e-05 0 -0.0049997873678571383 -2.9721773662945097e-08 0 -0.0047867569419537299 1.5038624864903588e-05 0 -0.0049998161059310008 7.5785677015528768e-08 0 -0.0049998161059310008 7.5785677015528768e-08 0 -0.0047741013578774362 2.4855166403491757e-05 0 -0.0049992591088636115 -2.1955281216911176e-07 0 -0.0047867569419537299 1.5038624864903588e-05 0 -0.0049998161059310008 7.5785677015528768e-08 0 -0.0047597973062069717 2.6347216952903702e-05 0 -0.0049998161059310008 7.5785677015528768e-08 0 -0.0047597973062069717 2.6347216952903702e-05 0 -0.0047741013578774362 2.4855166403491757e-05 0 -0.0047597973062069717 2.6347216952903702e-05 0 -0.0046151750966635747 8.992159243350569e-05 0 -0.0046033842603353942 0.00012326141416265114 0 -0.0047597973062069717 2.6347216952903702e-05 0 -0.0046151750966635747 8.992159243350569e-05 0 -0.0047741013578774362 2.4855166403491757e-05 0 -0.0045778266589722094 1.3330301559628178e-05 0 -0.0047597973062069717 2.6347216952903702e-05 0 -0.0044819045914096627 1.5185013236752778e-05 0 -0.004723563856790805 3.2822962929537815e-05 0 -0.0045479079310474825 7.4445834345113218e-05 0 -0.0044189514252448861 3.6243553331328699e-05 0 -0.0045778266589722094 1.3330301559628178e-05 0 -0.0044819045914096627 1.5185013236752778e-05 0 -0.004500201460663376 0.00015311115405629625 0 -0.0046151750966635747 8.992159243350569e-05 0 -0.0044770995740342195 0.00014572577133345442 0 -0.004500201460663376 0.00015311115405629625 0 -0.0046151750966635747 8.992159243350569e-05 0 -0.0046033842603353942 0.00012326141416265114 0 -0.0046151750966635747 8.992159243350569e-05 0 -0.0045369436852266401 7.9800565109217181e-05 0 -0.0044770995740342195 0.00014572577133345442 0 -0.0045369436852266401 7.9800565109217181e-05 0 -0.0043648205711044287 9.6288261727451124e-05 0 -0.0044183142165732502 0.00013835847525662799 0 -0.0045369436852266401 7.9800565109217181e-05 0 -0.0044183142165732502 0.00013835847525662799 0 -0.0044770995740342195 0.00014572577133345442 0 -0.0046151750966635747 8.992159243350569e-05 0 -0.0045369436852266401 7.9800565109217181e-05 0 -0.0047741013578774362 2.4855166403491757e-05 0 -0.0045369436852266401 7.9800565109217181e-05 0 -0.0047741013578774362 2.4855166403491757e-05 0 -0.0046299135331517947 -3.0394204164392746e-05 0 -0.0045369436852266401 7.9800565109217181e-05 0 -0.0046299135331517947 -3.0394204164392746e-05 0 -0.0044500899686373586 1.4288390874938354e-05 0 -0.0049991311643109151 8.8414087672655636e-07 0 -0.004999999919926645 1.3188640023697984e-09 0 -0.0049999931622807508 -9.3123659793003163e-10 0 -0.0049991311643109151 8.8414087672655636e-07 0 -0.004999999919926645 1.3188640023697984e-09 0 -0.0049999999079599206 -6.8242038297730617e-10 0 -0.0048142743079419717 -1.5769229768282024e-06 0 -0.0049999042872307118 8.7636001082359262e-10 0 -0.0047741013578774362 2.4855166403491757e-05 0 -0.0046299135331517947 -3.0394204164392746e-05 0 -0.0049992591088636115 -2.1955281216911176e-07 0 -0.0049999969436397528 5.5433113238505293e-10 0 -0.0049971825327397865 9.6602659113406535e-07 0 -0.0049999954912730163 6.3888263378645917e-10 0 -0.0049991311643109151 8.8414087672655636e-07 0 -0.0049999931622807508 -9.3123659793003163e-10 0 -0.0049950365030816488 2.742363569038848e-06 0 -0.0050001556452187786 -7.3138268753361422e-09 0 -0.0047039616958509944 -3.7399248352336527e-06 0 -0.0048142743079419717 -1.5769229768282024e-06 0 -0.0047039616958509944 -3.7399248352336527e-06 0 -0.0049964743182702009 1.4827229378958958e-06 0 -0.0049971825327397865 9.6602659113406535e-07 0 -0.0049940251338521265 2.2320594710829303e-06 0 -0.0049999969436397528 5.5433113238505293e-10 0 -0.0049964743182702009 1.4827229378958958e-06 0 -0.0049971825327397865 9.6602659113406535e-07 0 -0.0047039616958509944 -3.7399248352336527e-06 0 -0.0046287148644501832 1.335256987749911e-05 0 -0.0043792588647114912 -4.2029703434612338e-05 0 -0.0043648205711044287 9.6288261727451124e-05 0 -0.0042734401260018538 2.9075687303549921e-05 0 -0.0047039616958509944 -3.7399248352336527e-06 0 -0.0042963450534340948 9.4632077927965172e-05 0 -0.0045369436852266401 7.9800565109217181e-05 0 -0.0044500899686373586 1.4288390874938354e-05 0 -0.0043648205711044287 9.6288261727451124e-05 0 -0.0043648205711044287 9.6288261727451124e-05 0 -0.0042733611500043369 9.6043957341561496e-05 0 -0.0042734401260018538 2.9075687303549921e-05 0 -0.0042625198458192378 0.00012840923645463968 0 -0.0043369026058431232 0.00014775344558257665 0 -0.0042733611500043369 9.6043957341561496e-05 0 -0.0043648205711044287 9.6288261727451124e-05 0 -0.0043369026058431232 0.00014775344558257665 0 -0.0042733611500043369 9.6043957341561496e-05 0 -0.0042625198458192378 0.00012840923645463968 0 -0.0042870862389689252 0.00015308945285115487 0 -0.004213721086363198 0.00012177787471274466 0 -0.0042625198458192378 0.00012840923645463968 0 -0.0042870862389689252 0.00015308945285115487 0 -0.0043369026058431232 0.00014775344558257665 0 -0.0042870862389689252 0.00015308945285115487 0 -0.0043369026058431232 0.00014775344558257665 0 -0.0043111451923773187 0.00018412838100647727 0 -0.0043648205711044287 9.6288261727451124e-05 0 -0.0043369026058431232 0.00014775344558257665 0 -0.0044183142165732502 0.00013835847525662799 0 -0.0043369026058431232 0.00014775344558257665 0 -0.0044183142165732502 0.00013835847525662799 0 -0.0043620218755194735 0.00019116806532852847 0 -0.0044183142165732502 0.00013835847525662799 0 -0.0044770995740342195 0.00014572577133345442 0 -0.0043620218755194735 0.00019116806532852847 0 -0.0043920071178187199 0.00019222048719309335 0 -0.0044770995740342195 0.00014572577133345442 0 -0.0043620218755194735 0.00019116806532852847 0 -0.0042738401564334279 0.00021192661926702975 0 -0.0043920071178187199 0.00019222048719309335 0 -0.0043620218755194735 0.00019116806532852847 0 -0.0043369026058431232 0.00014775344558257665 0 -0.0043620218755194735 0.00019116806532852847 0 -0.0043111451923773187 0.00018412838100647727 0 -0.0043620218755194735 0.00019116806532852847 0 -0.004272376961043785 0.00020072514767374144 0 -0.0043111451923773187 0.00018412838100647727 0 -0.0042738401564334279 0.00021192661926702975 0 -0.0043620218755194735 0.00019116806532852847 0 -0.004272376961043785 0.00020072514767374144 0 -0.004272376961043785 0.00020072514767374144 0 -0.004213740884394866 0.00014165543810899106 0 -0.0041017949433896474 0.00017242739453735044 0 -0.0042738401564334279 0.00021192661926702975 0 -0.004272376961043785 0.00020072514767374144 0 -0.0041017949433896474 0.00017242739453735044 0 -0.004272376961043785 0.00020072514767374144 0 -0.0042871788366225638 0.00018205964482587535 0 -0.004213740884394866 0.00014165543810899106 0 -0.004272376961043785 0.00020072514767374144 0 -0.0042871788366225638 0.00018205964482587535 0 -0.0043111451923773187 0.00018412838100647727 0 -0.0042871788366225638 0.00018205964482587535 0 -0.0042806744019972818 0.00017906664475894664 0 -0.0043111451923773187 0.00018412838100647727 0 -0.0042806744019972818 0.00017906664475894664 0 -0.0042281412270021674 0.00018261435791941993 0 -0.0042897093511459605 0.00020367572969086912 0 -0.0042806744019972818 0.00017906664475894664 0 -0.004213721086363198 0.00012177787471274466 0 -0.0042281412270021674 0.00018261435791941993 0 -0.0042870862389689252 0.00015308945285115487 0 -0.0042806744019972818 0.00017906664475894664 0 -0.004213721086363198 0.00012177787471274466 0 -0.0042870862389689252 0.00015308945285115487 0 -0.0042806744019972818 0.00017906664475894664 0 -0.0043111451923773187 0.00018412838100647727 0 -0.0041571556883349906 0.00010588312456182134 0 -0.0039436698917330202 -0.0001585909004859561 0 -0.0041384965432143738 9.0883170823806113e-05 0 -0.004213721086363198 0.00012177787471274466 0 -0.004186647677911973 0.0001153235953049348 0 -0.0041384965432143738 9.0883170823806113e-05 0 -0.004213721086363198 0.00012177787471274466 0 -0.0042281412270021674 0.00018261435791941993 0 -0.0041384965432143738 9.0883170823806113e-05 0 -0.0042281412270021674 0.00018261435791941993 0 -0.0041701220388110369 0.00029467366614570708 0 -0.0041384965432143738 9.0883170823806113e-05 0 -0.0037746211514259882 0.00029884082404594393 0 -0.0041701220388110369 0.00029467366614570708 0 -0.0041384965432143738 9.0883170823806113e-05 0 -0.0037746211514259882 0.00029884082404594393 0 -0.0035010389579992474 -0.00014401594182102768 0 -0.0037746211514259882 0.00029884082404594393 0 -0.0035010389579992474 -0.00014401594182102768 0 -0.0031889072077040184 6.1336507503815364e-05 0 -0.0034105093275789322 0.00015219283325133354 0 -0.0032025307326480875 7.3146902954282736e-05 0 -0.0035010389579992474 -0.00014401594182102768 0 -0.0032847933554327139 -0.00035557276324754244 0 -0.0031889072077040184 6.1336507503815364e-05 0 -0.0041384965432143738 9.0883170823806113e-05 0 -0.0035010389579992474 -0.00014401594182102768 0 -0.0038535540540614007 -0.00031149153764908156 0 -0.0035010389579992474 -0.00014401594182102768 0 -0.0038535540540614007 -0.00031149153764908156 0 -0.003613572121705102 -0.00060377842248250863 0 -0.0039436698917330202 -0.0001585909004859561 0 -0.0044381050003887562 -6.128537492355102e-05 0 -0.0035010389579992474 -0.00014401594182102768 0 -0.003613572121705102 -0.00060377842248250863 0 -0.0032847933554327139 -0.00035557276324754244 0 -0.0050216519022524943 5.8405124642083764e-05 0 -0.0049959740119417005 5.1602956520322738e-05 0 -0.0050029343047018875 7.8306438840466386e-05 0 -0.0044381050003887562 -6.128537492355102e-05 0 -0.0041409069916614125 -0.00015648878708622609 0 -0.0044381050003887562 -6.128537492355102e-05 0 -0.0046225517081458587 4.7875026005766054e-05 0 -0.0041750938246558249 9.6780430542360015e-05 0 -0.0042169282346327707 0.00011147864976187173 0 -0.0042097073609303854 7.5608716659513362e-05 0 -0.004186647677911973 0.0001153235953049348 0 -0.0041750938246558249 9.6780430542360015e-05 0 -0.0042169282346327707 0.00011147864976187173 0 -0.004213721086363198 0.00012177787471274466 0 -0.004186647677911973 0.0001153235953049348 0 -0.0042169282346327707 0.00011147864976187173 0 -0.0042625198458192378 0.00012840923645463968 0 -0.004213721086363198 0.00012177787471274466 0 -0.0042169282346327707 0.00011147864976187173 0 -0.0042169282346327707 0.00011147864976187173 0 -0.0042733611500043369 9.6043957341561496e-05 0 -0.0042097073609303854 7.5608716659513362e-05 0 -0.0042625198458192378 0.00012840923645463968 0 -0.0042169282346327707 0.00011147864976187173 0 -0.0042733611500043369 9.6043957341561496e-05 0 -0.0046225517081458587 4.7875026005766054e-05 0 -0.0046287148644501832 1.335256987749911e-05 0 -0.0042733611500043369 9.6043957341561496e-05 0 -0.0042097073609303854 7.5608716659513362e-05 0 -0.0042734401260018538 2.9075687303549921e-05 0 -0.0049912701728480084 2.1141640625071257e-06 0 -0.0049960511741372364 1.1525233596214375e-06 0 -0.0049937053564897355 1.4144366418674672e-06 0 -0.0049912701728480084 2.1141640625071257e-06 0 -0.0049940251338521265 2.2320594710829303e-06 0 -0.0049960511741372364 1.1525233596214375e-06 0 -0.0049971825327397865 9.6602659113406535e-07 0 -0.0049940251338521265 2.2320594710829303e-06 0 -0.0049960511741372364 1.1525233596214375e-06 0 -0.0049960511741372364 1.1525233596214375e-06 0 -0.0049999954912730163 6.3888263378645917e-10 0 -0.0049999959760491514 7.4363303571646137e-10 0 -0.0049971825327397865 9.6602659113406535e-07 0 -0.0049960511741372364 1.1525233596214375e-06 0 -0.0049999954912730163 6.3888263378645917e-10 0 -0.0049999959760491514 7.4363303571646137e-10 0 -0.0049971892956100937 9.9146019671145535e-07 0 -0.0049999973473748398 1.2275629885668847e-09 0 -0.0049960511741372364 1.1525233596214375e-06 0 -0.0049999959760491514 7.4363303571646137e-10 0 -0.0049971892956100937 9.9146019671145535e-07 0 -0.0049971892956100937 9.9146019671145535e-07 0 -0.0049937053564897355 1.4144366418674672e-06 0 -0.0049955647537456823 1.0242690034632239e-06 0 -0.0049960511741372364 1.1525233596214375e-06 0 -0.0049971892956100937 9.9146019671145535e-07 0 -0.0049937053564897355 1.4144366418674672e-06 0 -0.0049889714591124694 4.2751624106777098e-07 0 -0.0049912701728480084 2.1141640625071257e-06 0 -0.0049937053564897355 1.4144366418674672e-06 0 -0.0049889714591124694 4.2751624106777098e-07 0 -0.0049937053564897355 1.4144366418674672e-06 0 -0.0049955647537456823 1.0242690034632239e-06 0 -0.0044381050003887562 -6.128537492355102e-05 0 -0.0051006355248737556 5.6772926582959764e-05 0 -0.0050216519022524943 5.8405124642083764e-05 0 -0.0050068034151135553 2.8238531421276572e-05 0 -0.0049959740119417005 5.1602956520322738e-05 0 -0.0050068034151135553 2.8238531421276572e-05 0 -0.0049824634313296295 2.4218442076930056e-05 0 -0.0049959740119417005 5.1602956520322738e-05 0 -0.0049824634313296295 2.4218442076930056e-05 0 -0.0049690339549324477 4.6215679359238404e-05 0 -0.0049959740119417005 5.1602956520322738e-05 0 -0.0049824634313296295 2.4218442076930056e-05 0 -0.0049587782198135706 2.1211375198707139e-05 0 -0.0049690339549324477 4.6215679359238404e-05 0 -0.0049824634313296295 2.4218442076930056e-05 0 -0.0049893407535758537 3.2182849341084968e-06 0 -0.0049740583752220791 8.1222155320361132e-06 0 -0.0049971892956100937 9.9146019671145535e-07 0 -0.0049955647537456823 1.0242690034632239e-06 0 -0.0049987638211554161 5.9950896980511135e-07 0 -0.0051006355248737556 5.6772926582959764e-05 0 -0.0049765279795605973 -1.002802930306631e-05 0 -0.0050068034151135553 2.8238531421276572e-05 0 -0.0049824634313296295 2.4218442076930056e-05 0 -0.0049893407535758537 3.2182849341084968e-06 0 -0.0049971892956100937 9.9146019671145535e-07 0 -0.0049987638211554161 5.9950896980511135e-07 0 -0.0049999973473748398 1.2275629885668847e-09 0 -0.0049893407535758537 3.2182849341084968e-06 0 -0.0049871788931258529 1.0142364836319663e-06 0 -0.0049740583752220791 8.1222155320361132e-06 0 -0.0049987638211554161 5.9950896980511135e-07 0 -0.0049999973473748398 1.2275629885668847e-09 0 -0.0049999997963259763 -4.4306964402362105e-10 0 -0.0049765279795605973 -1.002802930306631e-05 0 -0.005000020632659306 2.4934109333340273e-08 0 -0.0049893407535758537 3.2182849341084968e-06 0 -0.0049999760499539452 -2.8794795140668506e-09 0 -0.0049871788931258529 1.0142364836319663e-06 0 -0.0049999972426867031 1.0269480915592171e-09 0 -0.0050000045076305675 1.0699773930309424e-09 0 -0.0050010525527100936 2.4203688075021704e-06 0 -0.0049999814179121716 -7.2520153142396381e-09 0 -0.0049871788931258529 1.0142364836319663e-06 0 -0.0049697544284640575 1.2565721219834153e-07 0 -0.0049999912620982091 3.6539975015774595e-09 0 -0.0049849615862634818 3.1951378221943203e-06 0 -0.0049999814179121716 -7.2520153142396381e-09 0 -0.0049999760499539452 -2.8794795140668506e-09 0 -0.0049871788931258529 1.0142364836319663e-06 0 -0.0049871788931258529 1.0142364836319663e-06 0 -0.0049740583752220791 8.1222155320361132e-06 0 -0.0049697544284640575 1.2565721219834153e-07 0 -0.0049740583752220791 8.1222155320361132e-06 0 -0.0049697544284640575 1.2565721219834153e-07 0 -0.00494413496582313 1.040842125789054e-05 0 -0.0049849615862634818 3.1951378221943203e-06 0 -0.0049728951089019575 9.7974652563690598e-06 0 -0.0049999419352206127 4.2110202476836152e-06 0 -0.0050010525527100936 2.4203688075021704e-06 0 -0.0050005966115427292 4.9612142962621137e-06 0 -0.00494413496582313 1.040842125789054e-05 0 -0.0049587782198135706 2.1211375198707139e-05 0 -0.0049371799838656806 2.0832118696343796e-05 0 -0.0049824634313296295 2.4218442076930056e-05 0 -0.0049740583752220791 8.1222155320361132e-06 0 -0.0049587782198135706 2.1211375198707139e-05 0 -0.0049740583752220791 8.1222155320361132e-06 0 -0.00494413496582313 1.040842125789054e-05 0 -0.0049587782198135706 2.1211375198707139e-05 0 -0.0049587782198135706 2.1211375198707139e-05 0 -0.0049439702297402631 3.359529422400015e-05 0 -0.0049690339549324477 4.6215679359238404e-05 0 -0.0049252638452047717 2.0945744068521918e-05 0 -0.00494413496582313 1.040842125789054e-05 0 -0.0049371799838656806 2.0832118696343796e-05 0 -0.0049587782198135706 2.1211375198707139e-05 0 -0.0049371799838656806 2.0832118696343796e-05 0 -0.0049439702297402631 3.359529422400015e-05 0 -0.0049371799838656806 2.0832118696343796e-05 0 -0.0049439702297402631 3.359529422400015e-05 0 -0.004921938379551149 1.9889121948983947e-05 0 -0.0049252638452047717 2.0945744068521918e-05 0 -0.0049371799838656806 2.0832118696343796e-05 0 -0.004921938379551149 1.9889121948983947e-05 0 -0.0049212549215036762 5.0399311065289151e-05 0 -0.0049128797459415735 9.5312265228538796e-05 0 -0.0049449349541524816 6.0713388260827873e-05 0 -0.0049439702297402631 3.359529422400015e-05 0 -0.004921938379551149 1.9889121948983947e-05 0 -0.0049212549215036762 5.0399311065289151e-05 0 -0.0049439702297402631 3.359529422400015e-05 0 -0.0049212549215036762 5.0399311065289151e-05 0 -0.0049449349541524816 6.0713388260827873e-05 0 -0.0048881307046997526 5.7977935509756952e-05 0 -0.0049212549215036762 5.0399311065289151e-05 0 -0.0049128797459415735 9.5312265228538796e-05 0 -0.0049128797459415735 9.5312265228538796e-05 0 -0.0049553406325602602 0.00010088716352145838 0 -0.0049449349541524816 6.0713388260827873e-05 0 -0.0049553406325602602 0.00010088716352145838 0 -0.0049635404349886725 6.9952899353684783e-05 0 -0.0049449349541524816 6.0713388260827873e-05 0 -0.0049439702297402631 3.359529422400015e-05 0 -0.0049449349541524816 6.0713388260827873e-05 0 -0.0049690339549324477 4.6215679359238404e-05 0 -0.0049635404349886725 6.9952899353684783e-05 0 -0.0049449349541524816 6.0713388260827873e-05 0 -0.0049690339549324477 4.6215679359238404e-05 0 -0.0049690339549324477 4.6215679359238404e-05 0 -0.0049959740119417005 5.1602956520322738e-05 0 -0.0049827092404549416 7.5155917991943062e-05 0 -0.0049635404349886725 6.9952899353684783e-05 0 -0.0049690339549324477 4.6215679359238404e-05 0 -0.0049827092404549416 7.5155917991943062e-05 0 -0.0049959740119417005 5.1602956520322738e-05 0 -0.0050029343047018875 7.8306438840466386e-05 0 -0.0049827092404549416 7.5155917991943062e-05 0 -0.0050029343047018875 7.8306438840466386e-05 0 -0.0049827092404549416 7.5155917991943062e-05 0 -0.0049828142615967385 0.00011148444582358427 0 -0.0041409069916614125 -0.00015648878708622609 0 -0.0040331810746084447 -6.0017971139250674e-06 0 -0.0049553406325602602 0.00010088716352145838 0 -0.0049635404349886725 6.9952899353684783e-05 0 -0.0049827092404549416 7.5155917991943062e-05 0 -0.0049553406325602602 0.00010088716352145838 0 -0.0049827092404549416 7.5155917991943062e-05 0 -0.0049828142615967385 0.00011148444582358427 0 -0.0040331810746084447 -6.0017971139250674e-06 0 -0.0040278801211183152 8.3289794060956564e-05 0 -0.0032847933554327139 -0.00035557276324754244 0 -0.0030763084071354038 -0.00011892375183476057 0 -0.0031889072077040184 6.1336507503815364e-05 0 -0.0031889072077040184 6.1336507503815364e-05 0 -0.0030986549371465732 2.4455963882663439e-05 0 -0.0030886296161959474 1.4587370260846654e-05 0 -0.0030763084071354038 -0.00011892375183476057 0 -0.0031889072077040184 6.1336507503815364e-05 0 -0.0030986549371465732 2.4455963882663439e-05 0 -0.0030763084071354038 -0.00011892375183476057 0 -0.0030986549371465732 2.4455963882663439e-05 0 -0.0030632501182821532 -1.4221587120940319e-05 0 -0.0030986549371465732 2.4455963882663439e-05 0 -0.0030632501182821532 -1.4221587120940319e-05 0 -0.0030815415473416006 1.0164864915841921e-05 0 -0.0030632501182821532 -1.4221587120940319e-05 0 -0.0030814246537703197 5.316463016287751e-06 0 -0.0030815415473416006 1.0164864915841921e-05 0 -0.0049509906618387979 0.00016044113541055754 0 -0.0049045753514704261 0.00019982415835270752 0 -0.0049121075037325806 0.00014473273672979317 0 -0.0049509906618387979 0.00016044113541055754 0 -0.0049075183331804464 0.00021539449712905888 0 -0.0049045753514704261 0.00019982415835270752 0 -0.0040278801211183152 8.3289794060956564e-05 0 -0.0038000874978013697 -9.3856332709355757e-05 0 -0.0038000874978013697 -9.3856332709355757e-05 0 -0.0043638204861164865 0.00034028347677891283 0 -0.0048809720316199314 0.00016503430331679526 0 -0.0049045753514704261 0.00019982415835270752 0 -0.0049121075037325806 0.00014473273672979317 0 -0.0049128797459415735 9.5312265228538796e-05 0 -0.0049553406325602602 0.00010088716352145838 0 -0.0049121075037325806 0.00014473273672979317 0 -0.0048635258618826499 0.00013872356288322337 0 -0.0049128797459415735 9.5312265228538796e-05 0 -0.0049121075037325806 0.00014473273672979317 0 -0.0049553406325602602 0.00010088716352145838 0 -0.0049509906618387979 0.00016044113541055754 0 -0.0049121075037325806 0.00014473273672979317 0 -0.0049553406325602602 0.00010088716352145838 0 -0.0049828142615967385 0.00011148444582358427 0 -0.0049509906618387979 0.00016044113541055754 0 -0.0027179837980033286 -0.00047992518999672384 0 -0.0028944354836677438 -0.00058688379432607124 0 -0.0029606150652226821 -0.00038809459600790814 0 -0.0038000874978013697 -9.3856332709355757e-05 0 -0.0029056710598346874 -0.00026663451644286316 0 -0.0030814246537703197 5.316463016287751e-06 0 -0.003093097257024665 -3.0603434788327296e-06 0 -0.0030815415473416006 1.0164864915841921e-05 0 -0.003093097257024665 -3.0603434788327296e-06 0 -0.0030815415473416006 1.0164864915841921e-05 0 -0.0030769099126472443 9.3027675399625549e-06 0 -0.0030986549371465732 2.4455963882663439e-05 0 -0.0030815415473416006 1.0164864915841921e-05 0 -0.0030769099126472443 9.3027675399625549e-06 0 -0.003093097257024665 -3.0603434788327296e-06 0 -0.0030769099126472443 9.3027675399625549e-06 0 -0.0030458450384705993 -1.8609600181243464e-05 0 -0.0030986549371465732 2.4455963882663439e-05 0 -0.0030769099126472443 9.3027675399625549e-06 0 -0.0030886296161959474 1.4587370260846654e-05 0 -0.0030769099126472443 9.3027675399625549e-06 0 -0.0030458450384705993 -1.8609600181243464e-05 0 -0.0030886296161959474 1.4587370260846654e-05 0 -0.0030458450384705993 -1.8609600181243464e-05 0 -0.0030111764797158191 -7.8317138774510613e-06 0 -0.0030886296161959474 1.4587370260846654e-05 0 -0.0030458450384705993 -1.8609600181243464e-05 0 -0.0029633852937726414 -8.2580500461988554e-05 0 -0.0030111764797158191 -7.8317138774510613e-06 0 -0.0030215155800032787 -9.0305083647250581e-05 0 -0.0029798555898106014 -0.00015493967037704087 0 -0.0029633852937726414 -8.2580500461988554e-05 0 -0.0030458450384705993 -1.8609600181243464e-05 0 -0.0030215155800032787 -9.0305083647250581e-05 0 -0.0029633852937726414 -8.2580500461988554e-05 0 -0.0030215155800032787 -9.0305083647250581e-05 0 -0.0030773901603351607 -5.8716697740212909e-05 0 -0.0030184155367399585 -0.00011365291600262885 0 -0.0030458450384705993 -1.8609600181243464e-05 0 -0.0030215155800032787 -9.0305083647250581e-05 0 -0.0030773901603351607 -5.8716697740212909e-05 0 -0.0030541078741576138 -0.00011428195136781672 0 -0.0030165747376886807 -0.0001228217604496077 0 -0.003093097257024665 -3.0603434788327296e-06 0 -0.0030458450384705993 -1.8609600181243464e-05 0 -0.0030773901603351607 -5.8716697740212909e-05 0 -0.0029056710598346874 -0.00026663451644286316 0 -0.0030541078741576138 -0.00011428195136781672 0 -0.0029606150652226821 -0.00038809459600790814 0 -0.0029954776183288615 -0.00020716658031351171 0 -0.0028950242734720102 -0.00025579330926635578 0 -0.0027504131502007721 -0.00029463098011468124 0 -0.0029606150652226821 -0.00038809459600790814 0 -0.0028950242734720102 -0.00025579330926635578 0 -0.0028534873475843108 -0.00014664168083740003 0 -0.0029954776183288615 -0.00020716658031351171 0 -0.0029190974469476653 -0.00012333525193483313 0 -0.0028534873475843108 -0.00014664168083740003 0 -0.0029954776183288615 -0.00020716658031351171 0 -0.0028950242734720102 -0.00025579330926635578 0 -0.0028534873475843108 -0.00014664168083740003 0 -0.0029190974469476653 -0.00012333525193483313 0 -0.0028838136813662883 -8.8185360721517689e-05 0 -0.0029190974469476653 -0.00012333525193483313 0 -0.0028838136813662883 -8.8185360721517689e-05 0 -0.0029250882383196342 -9.187811992225369e-05 0 -0.0029190974469476653 -0.00012333525193483313 0 -0.0029642631400307591 -0.00010863062377495032 0 -0.0029250882383196342 -9.187811992225369e-05 0 -0.0029954776183288615 -0.00020716658031351171 0 -0.0029642631400307591 -0.00010863062377495032 0 -0.0030184155367399585 -0.00011365291600262885 0 -0.0029954776183288615 -0.00020716658031351171 0 -0.0029190974469476653 -0.00012333525193483313 0 -0.0029642631400307591 -0.00010863062377495032 0 -0.0029642631400307591 -0.00010863062377495032 0 -0.0029846794572428201 -7.6662436595544079e-05 0 -0.0030184155367399585 -0.00011365291600262885 0 -0.0029642631400307591 -0.00010863062377495032 0 -0.0029465146195311659 -7.561289031691498e-05 0 -0.0029846794572428201 -7.6662436595544079e-05 0 -0.0029642631400307591 -0.00010863062377495032 0 -0.0029465146195311659 -7.561289031691498e-05 0 -0.0029250882383196342 -9.187811992225369e-05 0 -0.0029580708185595558 -5.5940262478486221e-05 0 -0.0029465146195311659 -7.561289031691498e-05 0 -0.002932653768139221 -4.6458356814048056e-05 0 -0.0029580708185595558 -5.5940262478486221e-05 0 -0.0029465146195311659 -7.561289031691498e-05 0 -0.0029846794572428201 -7.6662436595544079e-05 0 -0.0029427552187294512 -1.7473359348838233e-05 0 -0.0021037258997567833 0.00032838021977315754 0 -0.0028838136813662883 -8.8185360721517689e-05 0 -0.0029129200575716643 -6.4681166631931302e-05 0 -0.0028821462261357216 -1.5274923459002964e-05 0 -0.0028838136813662883 -8.8185360721517689e-05 0 -0.0029250882383196342 -9.187811992225369e-05 0 -0.0029129200575716643 -6.4681166631931302e-05 0 -0.0029465146195311659 -7.561289031691498e-05 0 -0.0029250882383196342 -9.187811992225369e-05 0 -0.0029129200575716643 -6.4681166631931302e-05 0 -0.0029465146195311659 -7.561289031691498e-05 0 -0.0029129200575716643 -6.4681166631931302e-05 0 -0.002932653768139221 -4.6458356814048056e-05 0 -0.0028821462261357216 -1.5274923459002964e-05 0 -0.002932653768139221 -4.6458356814048056e-05 0 -0.0029698311560105296 -2.2550346899524371e-05 0 -0.0012824654961502008 0.00033660745459861081 0 -0.0018415084291011007 0.00033651862071080204 0 -0.0014368025391978297 0.00052505902565454037 0 -0.0021037258997567833 0.00032838021977315754 0 -0.0022152949309614048 0.00020906093624432293 0 -0.0029129200575716643 -6.4681166631931302e-05 0 -0.0028821462261357216 -1.5274923459002964e-05 0 -0.002932653768139221 -4.6458356814048056e-05 0 -0.0029580708185595558 -5.5940262478486221e-05 0 -0.002932653768139221 -4.6458356814048056e-05 0 -0.0029698311560105296 -2.2550346899524371e-05 0 -0.0018415084291011007 0.00033651862071080204 0 -0.0017914169800281167 0.00037578309372856829 0 -0.0014368025391978297 0.00052505902565454037 0 -0.0029580708185595558 -5.5940262478486221e-05 0 -0.0029846794572428201 -7.6662436595544079e-05 0 -0.0029698311560105296 -2.2550346899524371e-05 0 -0.0016657859760478373 0.00042064921813347151 0 -0.0016567374968879259 0.00046807629804829866 0 -0.001693507865114673 0.00048501784464768802 0 -0.0016381229318693106 0.00042296765978895508 0 -0.0015966963315099498 0.00046336878684054267 0 -0.0016567374968879259 0.00046807629804829866 0 -0.0016657859760478373 0.00042064921813347151 0 -0.0016381229318693106 0.00042296765978895508 0 -0.0016567374968879259 0.00046807629804829866 0 -0.0021712190691209024 0.00021379370723671447 0 -0.0022152949309614048 0.00020906093624432293 0 -0.0022152949309614048 0.00020906093624432293 0 -0.0018673889066691204 0.00040613523167019346 0 -0.0015966963315099498 0.00046336878684054267 0 -0.0015947974022271977 0.00050061847344274278 0 -0.0016572051547852815 0.00050856327700304178 0 -0.0015947974022271977 0.00050061847344274278 0 -0.0016572051547852815 0.00050856327700304178 0 -0.0016415285525069139 0.00055419453538634185 0 -0.0015966963315099498 0.00046336878684054267 0 -0.0016567374968879259 0.00046807629804829866 0 -0.0016572051547852815 0.00050856327700304178 0 -0.0016657859760478373 0.00042064921813347151 0 -0.001693507865114673 0.00048501784464768802 0 -0.0017387289307932475 0.00047558506794432339 0 -0.0016567374968879259 0.00046807629804829866 0 -0.0016572051547852815 0.00050856327700304178 0 -0.001693507865114673 0.00048501784464768802 0 -0.0016572051547852815 0.00050856327700304178 0 -0.001693507865114673 0.00048501784464768802 0 -0.0017101151084390773 0.00053757851609406509 0 -0.001693507865114673 0.00048501784464768802 0 -0.0017101151084390773 0.00053757851609406509 0 -0.0017387289307932475 0.00047558506794432339 0 -0.0015966963315099498 0.00046336878684054267 0 -0.0015727388551289993 0.00052484814421636515 0 -0.0015311466977058119 0.00055396990130447351 0 -0.0015966963315099498 0.00046336878684054267 0 -0.0015947974022271977 0.00050061847344274278 0 -0.0015727388551289993 0.00052484814421636515 0 -0.0015947974022271977 0.00050061847344274278 0 -0.0015727388551289993 0.00052484814421636515 0 -0.0015909581080775785 0.00055187954519893365 0 -0.0015966963315099498 0.00046336878684054267 0 -0.0015311466977058119 0.00055396990130447351 0 -0.0013207843941054349 0.00072728156305047276 0 -0.0015311466977058119 0.00055396990130447351 0 -0.0015364242094436035 0.00058710607007261427 0 -0.0014968607593698995 0.0006382749009601281 0 -0.0015727388551289993 0.00052484814421636515 0 -0.0015311466977058119 0.00055396990130447351 0 -0.0015598977575195907 0.0005596894368120345 0 -0.0015727388551289993 0.00052484814421636515 0 -0.0015598977575195907 0.0005596894368120345 0 -0.0015909581080775785 0.00055187954519893365 0 -0.0015909581080775785 0.00055187954519893365 0 -0.0015580219021004845 0.00059627166894836295 0 -0.0016075142021883867 0.00060073057755018569 0 -0.0015598977575195907 0.0005596894368120345 0 -0.0015909581080775785 0.00055187954519893365 0 -0.0015580219021004845 0.00059627166894836295 0 -0.0015598977575195907 0.0005596894368120345 0 -0.0015364242094436035 0.00058710607007261427 0 -0.0015580219021004845 0.00059627166894836295 0 -0.0015311466977058119 0.00055396990130447351 0 -0.0015598977575195907 0.0005596894368120345 0 -0.0015364242094436035 0.00058710607007261427 0 -0.0015580219021004845 0.00059627166894836295 0 -0.0015662591934202624 0.00064439398200648887 0 -0.0014968607593698995 0.0006382749009601281 0 -0.0015580219021004845 0.00059627166894836295 0 -0.0015662591934202624 0.00064439398200648887 0 -0.0016075142021883867 0.00060073057755018569 0 -0.0015364242094436035 0.00058710607007261427 0 -0.0015580219021004845 0.00059627166894836295 0 -0.0014968607593698995 0.0006382749009601281 0 -0.0016572051547852815 0.00050856327700304178 0 -0.0017101151084390773 0.00053757851609406509 0 -0.0016415285525069139 0.00055419453538634185 0 -0.0017101151084390773 0.00053757851609406509 0 -0.001675540796319592 0.00060220648945468478 0 -0.0017662788996850294 0.00060210892700924515 0 -0.0017101151084390773 0.00053757851609406509 0 -0.0016415285525069139 0.00055419453538634185 0 -0.001675540796319592 0.00060220648945468478 0 -0.0016415285525069139 0.00055419453538634185 0 -0.0016075142021883867 0.00060073057755018569 0 -0.001675540796319592 0.00060220648945468478 0 -0.0015947974022271977 0.00050061847344274278 0 -0.0015909581080775785 0.00055187954519893365 0 -0.0016415285525069139 0.00055419453538634185 0 -0.0015909581080775785 0.00055187954519893365 0 -0.0016415285525069139 0.00055419453538634185 0 -0.0016075142021883867 0.00060073057755018569 0 -0.0016075142021883867 0.00060073057755018569 0 -0.001675540796319592 0.00060220648945468478 0 -0.0016251620181680776 0.00066795373346143015 0 -0.0015662591934202624 0.00064439398200648887 0 -0.0016075142021883867 0.00060073057755018569 0 -0.0016251620181680776 0.00066795373346143015 0 -0.001675540796319592 0.00060220648945468478 0 -0.0016946321759947827 0.00067478047437112391 0 -0.0017662788996850294 0.00060210892700924515 0 -0.001675540796319592 0.00060220648945468478 0 -0.0016946321759947827 0.00067478047437112391 0 -0.0016251620181680776 0.00066795373346143015 0 -0.0016946321759947827 0.00067478047437112391 0 -0.0016251620181680776 0.00066795373346143015 0 -0.0016525947105513808 0.00075425160022771416 0 -0.0016251620181680776 0.00066795373346143015 0 -0.0016525947105513808 0.00075425160022771416 0 -0.0015601016990556887 0.00073244822181114011 0 -0.0016525947105513808 0.00075425160022771416 0 -0.0015601016990556887 0.00073244822181114011 0 -0.0015825911509899987 0.00082225127945792184 0 -0.0016946321759947827 0.00067478047437112391 0 -0.0016525947105513808 0.00075425160022771416 0 -0.0017567288795102725 0.00073028960168566208 0 -0.0014968607593698995 0.0006382749009601281 0 -0.0015090771251536391 0.0006929759339543806 0 -0.0014482676783841811 0.00069815050016998066 0 -0.0015662591934202624 0.00064439398200648887 0 -0.0014968607593698995 0.0006382749009601281 0 -0.0015090771251536391 0.0006929759339543806 0 -0.0015662591934202624 0.00064439398200648887 0 -0.0015090771251536391 0.0006929759339543806 0 -0.0015601016990556887 0.00073244822181114011 0 -0.0015662591934202624 0.00064439398200648887 0 -0.0016251620181680776 0.00066795373346143015 0 -0.0015601016990556887 0.00073244822181114011 0 -0.0015090771251536391 0.0006929759339543806 0 -0.0015601016990556887 0.00073244822181114011 0 -0.0014762521672146225 0.00075010935923389968 0 -0.0014762521672146225 0.00075010935923389968 0 -0.0014482676783841811 0.00069815050016998066 0 -0.0014147584947233772 0.0007492432195542961 0 -0.0021037258997567833 0.00032838021977315754 0 -0.0013429149736673145 0.00073697100817811292 0 -0.0012815242659256296 0.00071470175535712146 0 -0.0013255070075848055 0.00061224631842864271 0 -0.0013302418114505565 0.00075445493263806985 0 -0.0014968607593698995 0.0006382749009601281 0 -0.0014482676783841811 0.00069815050016998066 0 -0.0013207843941054349 0.00072728156305047276 0 -0.0014482676783841811 0.00069815050016998066 0 -0.0014147584947233772 0.0007492432195542961 0 -0.0013207843941054349 0.00072728156305047276 0 -0.0012824654961502008 0.00033660745459861081 0 -0.0013018771277535908 0.0006959542001708193 0 -0.0014368025391978297 0.00052505902565454037 0 -0.0018673889066691204 0.00040613523167019346 0 -0.0012812760168329897 0.00072876674073090754 0 -0.0014762521672146225 0.00075010935923389968 0 -0.0014147584947233772 0.0007492432195542961 0 -0.00141585688157616 0.00082133729191534498 0 -0.0017914169800281167 0.00037578309372856829 0 -0.0013207843941054349 0.00072728156305047276 0 -0.0014368025391978297 0.00052505902565454037 0 -0.0015090771251536391 0.0006929759339543806 0 -0.0014762521672146225 0.00075010935923389968 0 -0.0014482676783841811 0.00069815050016998066 0 -0.0014147584947233772 0.0007492432195542961 0 -0.0013207843941054349 0.00072728156305047276 0 -0.00141585688157616 0.00082133729191534498 0 -0.0013207843941054349 0.00072728156305047276 0 -0.0013018771277535908 0.0006959542001708193 0 -0.0014368025391978297 0.00052505902565454037 0 -0.0015311466977058119 0.00055396990130447351 0 -0.0014968607593698995 0.0006382749009601281 0 -0.0013207843941054349 0.00072728156305047276 0 -0.0021142818141640001 0.00058423275219468811 0 -0.0020376432626667659 0.00071378252591493675 0 -0.0019912086914909951 0.00056950636556690715 0 -0.0021142818141640001 0.00058423275219468811 0 -0.0019912086914909951 0.00056950636556690715 0 -0.0020383054310748102 0.00042969911801033064 0 -0.0021142818141640001 0.00058423275219468811 0 -0.0022500109424915533 0.00050798170114386618 0 -0.0022891311498043905 0.00067662846793103948 0 -0.0020376432626667659 0.00071378252591493675 0 -0.0022891311498043905 0.00067662846793103948 0 -0.0021624721321448631 0.00084084453203159466 0 -0.0021142818141640001 0.00058423275219468811 0 -0.0020376432626667659 0.00071378252591493675 0 -0.0022891311498043905 0.00067662846793103948 0 -0.0020376432626667659 0.00071378252591493675 0 -0.0018816510010615586 0.00063095793649487093 0 -0.0018669422094721173 0.000789402128443912 0 -0.0017567288795102725 0.00073028960168566208 0 -0.0018816510010615586 0.00063095793649487093 0 -0.0018669422094721173 0.000789402128443912 0 -0.0017567288795102725 0.00073028960168566208 0 -0.0017662788996850294 0.00060210892700924515 0 -0.0018816510010615586 0.00063095793649487093 0 -0.0016946321759947827 0.00067478047437112391 0 -0.0017567288795102725 0.00073028960168566208 0 -0.0017662788996850294 0.00060210892700924515 0 -0.0017662788996850294 0.00060210892700924515 0 -0.0018084604397706075 0.00053452735671492304 0 -0.0018816510010615586 0.00063095793649487093 0 -0.0017101151084390773 0.00053757851609406509 0 -0.0017662788996850294 0.00060210892700924515 0 -0.0018084604397706075 0.00053452735671492304 0 -0.0020376432626667659 0.00071378252591493675 0 -0.0018816510010615586 0.00063095793649487093 0 -0.0019912086914909951 0.00056950636556690715 0 -0.0018084604397706075 0.00053452735671492304 0 -0.0018816510010615586 0.00063095793649487093 0 -0.0019033844747300261 0.00051632698226822293 0 -0.0018816510010615586 0.00063095793649487093 0 -0.0019912086914909951 0.00056950636556690715 0 -0.0019033844747300261 0.00051632698226822293 0 -0.0019033844747300261 0.00051632698226822293 0 -0.0018498090612515344 0.00044033907180542346 0 -0.0020383054310748102 0.00042969911801033064 0 -0.0016657859760478373 0.00042064921813347151 0 -0.0016383846771120399 0.00041976902514022092 0 -0.001998837944592094 0.00017137775681691625 0 -0.0016657859760478373 0.00042064921813347151 0 -0.0018992488687665677 0.00034659411592919786 0 -0.001998837944592094 0.00017137775681691625 0 -0.0019912086914909951 0.00056950636556690715 0 -0.0019033844747300261 0.00051632698226822293 0 -0.0020383054310748102 0.00042969911801033064 0 -0.0018498090612515344 0.00044033907180542346 0 -0.0018992488687665677 0.00034659411592919786 0 -0.0020383054310748102 0.00042969911801033064 0 -0.0022152949309614048 0.00020906093624432293 0 -0.0025166259273134398 3.3150982210942191e-05 0 -0.0016657859760478373 0.00042064921813347151 0 -0.0018498090612515344 0.00044033907180542346 0 -0.0018992488687665677 0.00034659411592919786 0 -0.0016657859760478373 0.00042064921813347151 0 -0.0017387289307932475 0.00047558506794432339 0 -0.0018498090612515344 0.00044033907180542346 0 -0.0017101151084390773 0.00053757851609406509 0 -0.0018084604397706075 0.00053452735671492304 0 -0.0017387289307932475 0.00047558506794432339 0 -0.0018084604397706075 0.00053452735671492304 0 -0.0019033844747300261 0.00051632698226822293 0 -0.0018498090612515344 0.00044033907180542346 0 -0.0018084604397706075 0.00053452735671492304 0 -0.0017387289307932475 0.00047558506794432339 0 -0.0018498090612515344 0.00044033907180542346 0 -0.0018992488687665677 0.00034659411592919786 0 -0.0020383054310748102 0.00042969911801033064 0 -0.001998837944592094 0.00017137775681691625 0 -0.0020383054310748102 0.00042969911801033064 0 -0.002278844704271951 0.00031809344061853388 0 -0.001998837944592094 0.00017137775681691625 0 -0.0021142818141640001 0.00058423275219468811 0 -0.0020383054310748102 0.00042969911801033064 0 -0.0022500109424915533 0.00050798170114386618 0 -0.0020383054310748102 0.00042969911801033064 0 -0.0022500109424915533 0.00050798170114386618 0 -0.002278844704271951 0.00031809344061853388 0 -0.0025166259273134398 3.3150982210942191e-05 0 -0.0026668756670322068 -8.1230389732476251e-05 0 -0.0030129814836144953 -0.00010075764698667476 0 -0.0030184155367399585 -0.00011365291600262885 0 -0.0029798555898106014 -0.00015493967037704087 0 -0.002278844704271951 0.00031809344061853388 0 -0.001998837944592094 0.00017137775681691625 0 -0.002378049978206738 -3.2508840472096082e-05 0 -0.0029846794572428201 -7.6662436595544079e-05 0 -0.0029698311560105296 -2.2550346899524371e-05 0 -0.0030129814836144953 -0.00010075764698667476 0 -0.0029846794572428201 -7.6662436595544079e-05 0 -0.0030129814836144953 -0.00010075764698667476 0 -0.0030184155367399585 -0.00011365291600262885 0 -0.0030215155800032787 -9.0305083647250581e-05 0 -0.0030184155367399585 -0.00011365291600262885 0 -0.0029798555898106014 -0.00015493967037704087 0 -0.0026668756670322068 -8.1230389732476251e-05 0 -0.0027549508336566822 -0.00012775642474411312 0 -0.002378049978206738 -3.2508840472096082e-05 0 -0.0026634467159993218 2.6579566264527375e-05 0 -0.0027747150060866196 -0.00013570751262326675 0 -0.0028405764995457407 3.7459969177715602e-05 0 -0.0027747150060866196 -0.00013570751262326675 0 -0.0027811323979395571 -0.00014073774815056837 0 -0.0029469973150682066 2.9764751172064717e-05 0 -0.0029061339520338536 -6.9758426690595134e-05 0 -0.003029264026593322 2.718943420191418e-05 0 -0.0030384831550120776 8.3820588465668681e-06 0 -0.0030215138782053743 3.513230512475331e-07 0 -0.0026634467159993218 2.6579566264527375e-05 0 -0.0028405764995457407 3.7459969177715602e-05 0 -0.0027747150060866196 -0.00013570751262326675 0 -0.0026634467159993218 2.6579566264527375e-05 0 -0.0027673468199988192 0.00021534289080519766 0 -0.0025678592590140732 0.00028216839057559651 0 -0.0026634467159993218 2.6579566264527375e-05 0 -0.0027673468199988192 0.00021534289080519766 0 -0.0028405764995457407 3.7459969177715602e-05 0 -0.002378049978206738 -3.2508840472096082e-05 0 -0.0026634467159993218 2.6579566264527375e-05 0 -0.0025678592590140732 0.00028216839057559651 0 -0.002278844704271951 0.00031809344061853388 0 -0.002378049978206738 -3.2508840472096082e-05 0 -0.0025678592590140732 0.00028216839057559651 0 -0.0025678592590140732 0.00028216839057559651 0 -0.0026324496210059665 0.00051629960027597737 0 -0.0024445804328404527 0.0005330533128949051 0 -0.002278844704271951 0.00031809344061853388 0 -0.0025678592590140732 0.00028216839057559651 0 -0.0024445804328404527 0.0005330533128949051 0 -0.0022500109424915533 0.00050798170114386618 0 -0.002278844704271951 0.00031809344061853388 0 -0.0024445804328404527 0.0005330533128949051 0 -0.0027673468199988192 0.00021534289080519766 0 -0.0025678592590140732 0.00028216839057559651 0 -0.0027801121700190994 0.00042062064874231889 0 -0.0025678592590140732 0.00028216839057559651 0 -0.0027801121700190994 0.00042062064874231889 0 -0.0026324496210059665 0.00051629960027597737 0 -0.0026324496210059665 0.00051629960027597737 0 -0.0026069334940955519 0.00071469502921653696 0 -0.0024445804328404527 0.0005330533128949051 0 -0.0026324496210059665 0.00051629960027597737 0 -0.0027501463613552467 0.00064877474077333326 0 -0.0026069334940955519 0.00071469502921653696 0 -0.0027801121700190994 0.00042062064874231889 0 -0.0026324496210059665 0.00051629960027597737 0 -0.0027501463613552467 0.00064877474077333326 0 -0.0027501463613552467 0.00064877474077333326 0 -0.0028294896023259102 0.00080505972252366709 0 -0.0026815838500908774 0.00085553476545185741 0 -0.0027501463613552467 0.00064877474077333326 0 -0.0026069334940955519 0.00071469502921653696 0 -0.0026815838500908774 0.00085553476545185741 0 -0.0026069334940955519 0.00071469502921653696 0 -0.0024419984709868493 0.0006962076780156676 0 -0.0024240887616479127 0.00086177473358756639 0 -0.0024419984709868493 0.0006962076780156676 0 -0.0022891311498043905 0.00067662846793103948 0 -0.0024240887616479127 0.00086177473358756639 0 -0.0022500109424915533 0.00050798170114386618 0 -0.0022891311498043905 0.00067662846793103948 0 -0.0024445804328404527 0.0005330533128949051 0 -0.0024419984709868493 0.0006962076780156676 0 -0.0022891311498043905 0.00067662846793103948 0 -0.0024445804328404527 0.0005330533128949051 0 -0.0026069334940955519 0.00071469502921653696 0 -0.0024419984709868493 0.0006962076780156676 0 -0.0024445804328404527 0.0005330533128949051 0 -0.0028924042691722677 0.00032270110050361688 0 -0.0029025378704399408 0.00030051666737937363 0 -0.0029314270525983934 0.00031709888322143314 0 -0.0028828414487513864 0.00031458429888897859 0 -0.0028924042691722677 0.00032270110050361688 0 -0.0029025378704399408 0.00030051666737937363 0 -0.0028924042691722677 0.00032270110050361688 0 -0.002933313856159431 0.00037339086066244786 0 -0.0029314270525983934 0.00031709888322143314 0 -0.0028924042691722677 0.00032270110050361688 0 -0.002933313856159431 0.00037339086066244786 0 -0.0028679530365367739 0.00038753193613427057 0 -0.0028828414487513864 0.00031458429888897859 0 -0.0028924042691722677 0.00032270110050361688 0 -0.0028682399909598882 0.00039103621648664658 0 -0.0028828414487513864 0.00031458429888897859 0 -0.0028126315028814608 0.00032747787548292531 0 -0.0028682399909598882 0.00039103621648664658 0 -0.002912614015205069 0.00028177778669341303 0 -0.0028307843768975785 0.00059686371293574938 0 -0.0028949224566111298 0.00052103080586344381 0 -0.0028307843768975785 0.00059686371293574938 0 -0.0029206377207919368 0.0006058195901643878 0 -0.0029346879161346157 0.0008745199136685792 0 -0.0031059114992436376 0.00081268149733666078 0 -0.0029206377207919368 0.0006058195901643878 0 -0.0028294896023259102 0.00080505972252366709 0 -0.0029346879161346157 0.0008745199136685792 0 -0.0027501463613552467 0.00064877474077333326 0 -0.0029316827014266487 0.00059753938896565386 0 -0.0028294896023259102 0.00080505972252366709 0 -0.0028949224566111298 0.00052103080586344381 0 -0.0028305273106047683 0.00077970686706585338 0 -0.0027801121700190994 0.00042062064874231889 0 -0.0027501463613552467 0.00064877474077333326 0 -0.0029316827014266487 0.00059753938896565386 0 -0.0027801121700190994 0.00042062064874231889 0 -0.002924131620475761 0.00057900382372693478 0 -0.0030298961358164941 0.00035116639242465677 0 -0.0028949224566111298 0.00052103080586344381 0 -0.0029493259176083522 0.00024158396347885155 0 -0.0027673468199988192 0.00021534289080519766 0 -0.0027801121700190994 0.00042062064874231889 0 -0.0030298961358164941 0.00035116639242465677 0 -0.0028828414487513864 0.00031458429888897859 0 -0.0028126315028814608 0.00032747787548292531 0 -0.002847328884381225 0.00025447112802155081 0 -0.0028167603899198882 0.00045884146882297451 0 -0.0028949224566111298 0.00052103080586344381 0 -0.0028458260158222117 0.00025074038505321739 0 -0.0028866865832114538 0.00027067758034488975 0 -0.002897296484719045 0.00023045745502468646 0 -0.0028828414487513864 0.00031458429888897859 0 -0.0028458260158222117 0.00025074038505321739 0 -0.0028866865832114538 0.00027067758034488975 0 -0.0028804550151563797 0.00028985566163337964 0 -0.0029493259176083522 0.00024158396347885155 0 -0.0028828414487513864 0.00031458429888897859 0 -0.0028866865832114538 0.00027067758034488975 0 -0.0029025378704399408 0.00030051666737937363 0 -0.0029025378704399408 0.00030051666737937363 0 -0.0029211945477783776 0.00027662610580022164 0 -0.0029314270525983934 0.00031709888322143314 0 -0.0028866865832114538 0.00027067758034488975 0 -0.0029025378704399408 0.00030051666737937363 0 -0.0029211945477783776 0.00027662610580022164 0 -0.0029211945477783776 0.00027662610580022164 0 -0.002897296484719045 0.00023045745502468646 0 -0.0029529224887341302 0.00024198326807291671 0 -0.0028866865832114538 0.00027067758034488975 0 -0.0029211945477783776 0.00027662610580022164 0 -0.002897296484719045 0.00023045745502468646 0 -0.002897296484719045 0.00023045745502468646 0 -0.0028800214101775833 0.00017835512969896429 0 -0.0029417608585274153 0.00018540563449909368 0 -0.0028800214101775833 0.00017835512969896429 0 -0.00291377498166234 0.00010681277471786781 0 -0.0029417608585274153 0.00018540563449909368 0 -0.0028458260158222117 0.00025074038505321739 0 -0.002897296484719045 0.00023045745502468646 0 -0.0028800214101775833 0.00017835512969896429 0 -0.0029493259176083522 0.00024158396347885155 0 -0.0029710776078101238 0.00010113149562324078 0 -0.0030439808906789312 5.9239195344222772e-05 0 -0.0030538380553188421 3.7852756797428222e-05 0 -0.003029264026593322 2.718943420191418e-05 0 -0.0027673468199988192 0.00021534289080519766 0 -0.0030298961358164941 0.00035116639242465677 0 -0.0028405764995457407 3.7459969177715602e-05 0 -0.0029493259176083522 0.00024158396347885155 0 -0.0029469973150682066 2.9764751172064717e-05 0 -0.0030538380553188421 3.7852756797428222e-05 0 -0.003029264026593322 2.718943420191418e-05 0 -0.0030460090372197409 2.2659028890223839e-05 0 -0.003029264026593322 2.718943420191418e-05 0 -0.0030460090372197409 2.2659028890223839e-05 0 -0.0030384831550120776 8.3820588465668681e-06 0 -0.0030460090372197409 2.2659028890223839e-05 0 -0.0030619093804468921 1.8615275023031018e-05 0 -0.0030384831550120776 8.3820588465668681e-06 0 -0.003031712233648491 -5.1203631395243002e-06 0 -0.0030311042282245119 -6.9014793105408191e-06 0 -0.0030289319532853347 -4.8237058178766413e-06 0 -0.0029972303933215273 4.082886950868567e-05 0 -0.0030406657564795523 1.5226342772193137e-06 0 -0.0029710776078101238 0.00010113149562324078 0 -0.0029972303933215273 4.082886950868567e-05 0 -0.0030538380553188421 3.7852756797428222e-05 0 -0.0030460090372197409 2.2659028890223839e-05 0 -0.0030619093804468921 1.8615275023031018e-05 0 -0.003031712233648491 -5.1203631395243002e-06 0 -0.0030311042282245119 -6.9014793105408191e-06 0 -0.0030322302469666215 -7.7049321122069566e-06 0 -0.0030311042282245119 -6.9014793105408191e-06 0 -0.0030306367594494089 -1.018649622064691e-05 0 -0.0030322302469666215 -7.7049321122069566e-06 0 -0.0030311042282245119 -6.9014793105408191e-06 0 -0.0030306367594494089 -1.018649622064691e-05 0 -0.0030289319532853347 -4.8237058178766413e-06 0 -0.0030306367594494089 -1.018649622064691e-05 0 -0.003034238433104896 -2.2959420647087026e-05 0 -0.0030322302469666215 -7.7049321122069566e-06 0 -0.0030306367594494089 -1.018649622064691e-05 0 -0.0030310052226566199 -1.3340840371071345e-05 0 -0.003034238433104896 -2.2959420647087026e-05 0 -0.0030310052226566199 -1.3340840371071345e-05 0 -0.0030282646569056494 -7.477508971507961e-06 0 -0.0030268314568438681 -8.009966540543445e-06 0 -0.0030306367594494089 -1.018649622064691e-05 0 -0.0030310052226566199 -1.3340840371071345e-05 0 -0.0030282646569056494 -7.477508971507961e-06 0 -0.0030282646569056494 -7.477508971507961e-06 0 -0.0030289319532853347 -4.8237058178766413e-06 0 -0.0030219819428785443 -1.324870075661728e-06 0 -0.0030306367594494089 -1.018649622064691e-05 0 -0.0030282646569056494 -7.477508971507961e-06 0 -0.0030289319532853347 -4.8237058178766413e-06 0 -0.0030215138782053743 3.513230512475331e-07 0 -0.0030219819428785443 -1.324870075661728e-06 0 -0.0030111764797158191 -7.8317138774510613e-06 0 -0.0030384831550120776 8.3820588465668681e-06 0 -0.0030215138782053743 3.513230512475331e-07 0 -0.0030219819428785443 -1.324870075661728e-06 0 -0.0030406657564795523 1.5226342772193137e-06 0 -0.0030199920375753577 -2.2281850941711752e-06 0 -0.0027811323979395571 -0.00014073774815056837 0 -0.0029633852937726414 -8.2580500461988554e-05 0 -0.0030111764797158191 -7.8317138774510613e-06 0 -0.0027747150060866196 -0.00013570751262326675 0 -0.0027811323979395571 -0.00014073774815056837 0 -0.0029633852937726414 -8.2580500461988554e-05 0 -0.0029798555898106014 -0.00015493967037704087 0 -0.0027747150060866196 -0.00013570751262326675 0 -0.0029633852937726414 -8.2580500461988554e-05 0 -0.0029061339520338536 -6.9758426690595134e-05 0 -0.0029914598568751664 -1.5759432187258244e-05 0 -0.0030219819428785443 -1.324870075661728e-06 0 -0.0030111764797158191 -7.8317138774510613e-06 0 -0.0030268314568438681 -8.009966540543445e-06 0 -0.0030282646569056494 -7.477508971507961e-06 0 -0.0030219819428785443 -1.324870075661728e-06 0 -0.0030268314568438681 -8.009966540543445e-06 0 -0.0030310052226566199 -1.3340840371071345e-05 0 -0.0030268314568438681 -8.009966540543445e-06 0 -0.003037508615500352 -5.6585462251982298e-06 0 -0.0030111764797158191 -7.8317138774510613e-06 0 -0.0030268314568438681 -8.009966540543445e-06 0 -0.003037508615500352 -5.6585462251982298e-06 0 -0.0030111764797158191 -7.8317138774510613e-06 0 -0.003037508615500352 -5.6585462251982298e-06 0 -0.0030886296161959474 1.4587370260846654e-05 0 -0.0030521721695257881 2.9366301282509628e-05 0 -0.0031889072077040184 6.1336507503815364e-05 0 -0.0030886296161959474 1.4587370260846654e-05 0 -0.0030521721695257881 2.9366301282509628e-05 0 -0.003037508615500352 -5.6585462251982298e-06 0 -0.0030886296161959474 1.4587370260846654e-05 0 -0.0034105093275789322 0.00015219283325133354 0 -0.0035938461072014751 0.00014106792492090013 0 -0.0030521721695257881 2.9366301282509628e-05 0 -0.003037508615500352 -5.6585462251982298e-06 0 -0.0030323121981259533 -1.0408063346043952e-05 0 -0.0035938461072014751 0.00014106792492090013 0 -0.0036636293473489329 8.0284749908202734e-05 0 -0.0042281412270021674 0.00018261435791941993 0 -0.0041701220388110369 0.00029467366614570708 0 -0.0042897093511459605 0.00020367572969086912 0 -0.0030323121981259533 -1.0408063346043952e-05 0 -0.003034238433104896 -2.2959420647087026e-05 0 -0.003046622952042079 -4.0917283116026399e-05 0 -0.0030310052226566199 -1.3340840371071345e-05 0 -0.0030323121981259533 -1.0408063346043952e-05 0 -0.003034238433104896 -2.2959420647087026e-05 0 -0.0030310052226566199 -1.3340840371071345e-05 0 -0.003037508615500352 -5.6585462251982298e-06 0 -0.0030323121981259533 -1.0408063346043952e-05 0 -0.003046622952042079 -4.0917283116026399e-05 0 -0.0030826077398952529 -7.6772177329937006e-05 0 -0.0030526213081036803 -3.2986269750453554e-05 0 -0.0036636293473489329 8.0284749908202734e-05 0 -0.0036713509455786114 4.5568294031868387e-06 0 -0.003034238433104896 -2.2959420647087026e-05 0 -0.003046622952042079 -4.0917283116026399e-05 0 -0.0030526213081036803 -3.2986269750453554e-05 0 -0.0042871788366225638 0.00018205964482587535 0 -0.0042806744019972818 0.00017906664475894664 0 -0.0042897093511459605 0.00020367572969086912 0 -0.0042871788366225638 0.00018205964482587535 0 -0.0042897093511459605 0.00020367572969086912 0 -0.0042629371126142067 8.8035700810948817e-05 0 -0.0042871788366225638 0.00018205964482587535 0 -0.004213740884394866 0.00014165543810899106 0 -0.0042629371126142067 8.8035700810948817e-05 0 -0.004213740884394866 0.00014165543810899106 0 -0.0040773886513847998 -2.6560970661625699e-05 0 -0.0041017949433896474 0.00017242739453735044 0 -0.0036713509455786114 4.5568294031868387e-06 0 -0.0036300504952294561 -7.2402867877261365e-05 0 -0.004213740884394866 0.00014165543810899106 0 -0.0042629371126142067 8.8035700810948817e-05 0 -0.0040773886513847998 -2.6560970661625699e-05 0 -0.0030919166493074586 -5.217722357916805e-05 0 -0.0030721100871167273 -8.5984018650757976e-06 0 -0.0030526213081036803 -3.2986269750453554e-05 0 -0.0030826077398952529 -7.6772177329937006e-05 0 -0.0030919166493074586 -5.217722357916805e-05 0 -0.0030526213081036803 -3.2986269750453554e-05 0 -0.0030826077398952529 -7.6772177329937006e-05 0 -0.0030919166493074586 -5.217722357916805e-05 0 -0.0031800481733146226 -0.00013629462454383296 0 -0.0030919166493074586 -5.217722357916805e-05 0 -0.0031800481733146226 -0.00013629462454383296 0 -0.0031271260258067812 -1.4496925639307353e-05 0 -0.0031800481733146226 -0.00013629462454383296 0 -0.0031271260258067812 -1.4496925639307353e-05 0 -0.0032673353120735607 -1.0886892662115716e-05 0 -0.0031271260258067812 -1.4496925639307353e-05 0 -0.0031558295201002656 4.1423884435596388e-05 0 -0.0032673353120735607 -1.0886892662115716e-05 0 -0.0030919166493074586 -5.217722357916805e-05 0 -0.0031271260258067812 -1.4496925639307353e-05 0 -0.0030721100871167273 -8.5984018650757976e-06 0 -0.0031271260258067812 -1.4496925639307353e-05 0 -0.0030721100871167273 -8.5984018650757976e-06 0 -0.0030903138180135353 4.6344692645673492e-05 0 -0.0030721100871167273 -8.5984018650757976e-06 0 -0.0030493643397646424 8.3645388436929946e-06 0 -0.0030526213081036803 -3.2986269750453554e-05 0 -0.0030721100871167273 -8.5984018650757976e-06 0 -0.0030493643397646424 8.3645388436929946e-06 0 -0.0030685943291848799 3.1918747235210219e-05 0 -0.003034238433104896 -2.2959420647087026e-05 0 -0.0030526213081036803 -3.2986269750453554e-05 0 -0.0030322302469666215 -7.7049321122069566e-06 0 -0.0030157920595100694 2.1448805928400962e-05 0 -0.0030493643397646424 8.3645388436929946e-06 0 -0.0030322302469666215 -7.7049321122069566e-06 0 -0.0029972303933215273 4.082886950868567e-05 0 -0.0030371429997237396 -1.8436941137933137e-05 0 -0.0030493643397646424 8.3645388436929946e-06 0 -0.0030526213081036803 -3.2986269750453554e-05 0 -0.0030322302469666215 -7.7049321122069566e-06 0 -0.0030157920595100694 2.1448805928400962e-05 0 -0.0030493643397646424 8.3645388436929946e-06 0 -0.0030488314370164561 4.1125846046804877e-05 0 -0.0029972303933215273 4.082886950868567e-05 0 -0.0030327421163887686 9.8303191116155559e-05 0 -0.00291377498166234 0.00010681277471786781 0 -0.0030170496820209028 0.00015096476448431593 0 -0.0029417608585274153 0.00018540563449909368 0 -0.0030493643397646424 8.3645388436929946e-06 0 -0.0030488314370164561 4.1125846046804877e-05 0 -0.0030685943291848799 3.1918747235210219e-05 0 -0.0030488314370164561 4.1125846046804877e-05 0 -0.0030798078088529824 5.9253372883891275e-05 0 -0.0030685943291848799 3.1918747235210219e-05 0 -0.0030170496820209028 0.00015096476448431593 0 -0.002986041075997703 0.00020302782508171922 0 -0.0030207787398184123 0.00022833269898253698 0 -0.0030170496820209028 0.00015096476448431593 0 -0.0030207787398184123 0.00022833269898253698 0 -0.0031203196874128613 0.00019414654979553657 0 -0.0030327421163887686 9.8303191116155559e-05 0 -0.0030757770368895097 0.00012560347750954578 0 -0.0030170496820209028 0.00015096476448431593 0 -0.0029417608585274153 0.00018540563449909368 0 -0.002986041075997703 0.00020302782508171922 0 -0.002986041075997703 0.00020302782508171922 0 -0.0029529224887341302 0.00024198326807291671 0 -0.0030207787398184123 0.00022833269898253698 0 -0.002897296484719045 0.00023045745502468646 0 -0.0029417608585274153 0.00018540563449909368 0 -0.0029529224887341302 0.00024198326807291671 0 -0.0029417608585274153 0.00018540563449909368 0 -0.002986041075997703 0.00020302782508171922 0 -0.0029529224887341302 0.00024198326807291671 0 -0.0029211945477783776 0.00027662610580022164 0 -0.0029529224887341302 0.00024198326807291671 0 -0.0029774820130884271 0.00028613359095943134 0 -0.0029211945477783776 0.00027662610580022164 0 -0.0029774820130884271 0.00028613359095943134 0 -0.0029314270525983934 0.00031709888322143314 0 -0.0029529224887341302 0.00024198326807291671 0 -0.0029774820130884271 0.00028613359095943134 0 -0.0030207787398184123 0.00022833269898253698 0 -0.0030674359532504697 0.00029291829816533111 0 -0.0030207787398184123 0.00022833269898253698 0 -0.0031203196874128613 0.00019414654979553657 0 -0.0029774820130884271 0.00028613359095943134 0 -0.0030674359532504697 0.00029291829816533111 0 -0.0030207787398184123 0.00022833269898253698 0 -0.0029776937746303612 0.00014479997598685056 0 -0.0030125323868629979 0.00019534231822662614 0 -0.0029367489988037197 0.00020118173613805108 0 -0.0030166387832289807 0.00022974545292997313 0 -0.0030046140584461343 0.00026875262943662774 0 -0.0029774820130884271 0.00028613359095943134 0 -0.0030674359532504697 0.00029291829816533111 0 -0.0029775972250330475 0.00033459236965863442 0 -0.0030674359532504697 0.00029291829816533111 0 -0.0029775972250330475 0.00033459236965863442 0 -0.003013165928538539 0.00039174526104618118 0 -0.002933313856159431 0.00037339086066244786 0 -0.0029775972250330475 0.00033459236965863442 0 -0.003013165928538539 0.00039174526104618118 0 -0.002933313856159431 0.00037339086066244786 0 -0.0029314270525983934 0.00031709888322143314 0 -0.0029775972250330475 0.00033459236965863442 0 -0.0029774820130884271 0.00028613359095943134 0 -0.0029314270525983934 0.00031709888322143314 0 -0.0029775972250330475 0.00033459236965863442 0 -0.0030490405608048143 0.00016190986237179278 0 -0.0030600279081606997 0.00019932513039707094 0 -0.0030125323868629979 0.00019534231822662614 0 -0.0030490405608048143 0.00016190986237179278 0 -0.003034205305375604 0.00013138162065458992 0 -0.0030125323868629979 0.00019534231822662614 0 -0.0029776937746303612 0.00014479997598685056 0 -0.003034205305375604 0.00013138162065458992 0 -0.0030125323868629979 0.00019534231822662614 0 -0.0029776937746303612 0.00014479997598685056 0 -0.003034205305375604 0.00013138162065458992 0 -0.0030263841245699091 9.4888456376157829e-05 0 -0.0030166387832289807 0.00022974545292997313 0 -0.0030757770368895097 0.00012560347750954578 0 -0.003034205305375604 0.00013138162065458992 0 -0.0030579741698017289 0.0001109219099495991 0 -0.0030351132814886023 9.8064785953480861e-05 0 -0.003034205305375604 0.00013138162065458992 0 -0.0030595116564045657 0.00012144273850037161 0 -0.0030579741698017289 0.0001109219099495991 0 -0.0030490405608048143 0.00016190986237179278 0 -0.003034205305375604 0.00013138162065458992 0 -0.0030595116564045657 0.00012144273850037161 0 -0.0030595116564045657 0.00012144273850037161 0 -0.0030579741698017289 0.0001109219099495991 0 -0.0030928772452419261 8.770555806881451e-05 0 -0.0030579741698017289 0.0001109219099495991 0 -0.0030616050982604404 8.8384440849593348e-05 0 -0.0030928772452419261 8.770555806881451e-05 0 -0.0030579741698017289 0.0001109219099495991 0 -0.0030616050982604404 8.8384440849593348e-05 0 -0.0030351132814886023 9.8064785953480861e-05 0 -0.0030616050982604404 8.8384440849593348e-05 0 -0.0030928772452419261 8.770555806881451e-05 0 -0.0030903138180135353 4.6344692645673492e-05 0 -0.0030616050982604404 8.8384440849593348e-05 0 -0.0030248883608241998 9.4519098255827934e-05 0 -0.0030903138180135353 4.6344692645673492e-05 0 -0.0030757770368895097 0.00012560347750954578 0 -0.0030857610723147777 4.0364565473289851e-05 0 -0.003034205305375604 0.00013138162065458992 0 -0.0030263841245699091 9.4888456376157829e-05 0 -0.0030351132814886023 9.8064785953480861e-05 0 -0.0030616050982604404 8.8384440849593348e-05 0 -0.0030248883608241998 9.4519098255827934e-05 0 -0.0030351132814886023 9.8064785953480861e-05 0 -0.0030757770368895097 0.00012560347750954578 0 -0.003061805138344636 0.00011884065273043278 0 -0.0030721100871167273 -8.5984018650757976e-06 0 -0.0030685943291848799 3.1918747235210219e-05 0 -0.0030903138180135353 4.6344692645673492e-05 0 -0.0030798078088529824 5.9253372883891275e-05 0 -0.0030685943291848799 3.1918747235210219e-05 0 -0.0030903138180135353 4.6344692645673492e-05 0 -0.0031271260258067812 -1.4496925639307353e-05 0 -0.0030903138180135353 4.6344692645673492e-05 0 -0.0031558295201002656 4.1423884435596388e-05 0 -0.0030928772452419261 8.770555806881451e-05 0 -0.0030903138180135353 4.6344692645673492e-05 0 -0.0031558295201002656 4.1423884435596388e-05 0 -0.0031558295201002656 4.1423884435596388e-05 0 -0.0032388313614038779 2.9686071563732899e-05 0 -0.0031108290121346694 9.2407345869447501e-05 0 -0.0030928772452419261 8.770555806881451e-05 0 -0.0031558295201002656 4.1423884435596388e-05 0 -0.0031108290121346694 9.2407345869447501e-05 0 -0.0032388313614038779 2.9686071563732899e-05 0 -0.0031996269712911262 4.4346248049635206e-05 0 -0.0033552027197922799 -1.1878253584223236e-05 0 -0.0032388313614038779 2.9686071563732899e-05 0 -0.0033552027197922799 -1.1878253584223236e-05 0 -0.0033992463982893445 -2.4455956069897414e-05 0 -0.0032388313614038779 2.9686071563732899e-05 0 -0.0031996269712911262 4.4346248049635206e-05 0 -0.0031108290121346694 9.2407345869447501e-05 0 -0.0031996269712911262 4.4346248049635206e-05 0 -0.0031108290121346694 9.2407345869447501e-05 0 -0.0029708874390238678 0.00013359996474955174 0 -0.0031996269712911262 4.4346248049635206e-05 0 -0.0029708874390238678 0.00013359996474955174 0 -0.0033381484935004965 1.1497816162404618e-05 0 -0.0029905109509880865 0.00011064432326051774 0 -0.0030599860747537867 3.5983710303343931e-05 0 -0.0030595116564045657 0.00012144273850037161 0 -0.0030928772452419261 8.770555806881451e-05 0 -0.0031108290121346694 9.2407345869447501e-05 0 -0.0030441355442528159 0.00011812304679203504 0 -0.0030343148654649503 0.00014226461908613814 0 -0.0030595116564045657 0.00012144273850037161 0 -0.0031108290121346694 9.2407345869447501e-05 0 -0.0029708874390238678 0.00013359996474955174 0 -0.0030595116564045657 0.00012144273850037161 0 -0.0029708874390238678 0.00013359996474955174 0 -0.0029391087375781723 5.386749201359533e-05 0 -0.0029708874390238678 0.00013359996474955174 0 -0.0028340818252235739 8.3641025731161052e-05 0 -0.0027877972583858078 8.0992085378098566e-05 0 -0.0029708874390238678 0.00013359996474955174 0 -0.0028340818252235739 8.3641025731161052e-05 0 -0.0028156485481417221 5.0208521734442424e-05 0 -0.0029708874390238678 0.00013359996474955174 0 -0.0028156485481417221 5.0208521734442424e-05 0 -0.0029391087375781723 5.386749201359533e-05 0 -0.0028340818252235739 8.3641025731161052e-05 0 -0.0028156485481417221 5.0208521734442424e-05 0 -0.002743802914607376 4.9315211544007427e-05 0 -0.0028340818252235739 8.3641025731161052e-05 0 -0.002743802914607376 4.9315211544007427e-05 0 -0.0027166212220492226 6.2367590404487839e-05 0 -0.0028156485481417221 5.0208521734442424e-05 0 -0.002743802914607376 4.9315211544007427e-05 0 -0.0027261664816328004 2.6973977962842961e-05 0 -0.002743802914607376 4.9315211544007427e-05 0 -0.0027261664816328004 2.6973977962842961e-05 0 -0.0026658595410116023 3.0549538681444301e-05 0 -0.0028156485481417221 5.0208521734442424e-05 0 -0.0027261664816328004 2.6973977962842961e-05 0 -0.0027364664367475681 -5.0985450522224714e-06 0 -0.0028156485481417221 5.0208521734442424e-05 0 -0.0029391087375781723 5.386749201359533e-05 0 -0.0027364664367475681 -5.0985450522224714e-06 0 -0.0030343148654649503 0.00014226461908613814 0 -0.002455624123029649 0.00014348588307678929 0 -0.0030490405608048143 0.00016190986237179278 0 -0.0030595116564045657 0.00012144273850037161 0 -0.0030819724023400351 0.00016785729566570998 0 -0.0030490405608048143 0.00016190986237179278 0 -0.0030819724023400351 0.00016785729566570998 0 -0.0030600279081606997 0.00019932513039707094 0 -0.002582220486928276 -3.3767929159160832e-09 0 -0.0025853459892811737 -5.1640442434094275e-06 0 -0.0027801157584178833 5.8204316783398165e-05 0 -0.0025395887311695209 6.4374900606446235e-05 0 -0.002614415377767236 5.0406910881050476e-05 0 -0.0026864709186513731 6.7377335498028897e-05 0 -0.002614415377767236 5.0406910881050476e-05 0 -0.0026658595410116023 3.0549538681444301e-05 0 -0.0027166212220492226 6.2367590404487839e-05 0 -0.002743802914607376 4.9315211544007427e-05 0 -0.0026658595410116023 3.0549538681444301e-05 0 -0.0027166212220492226 6.2367590404487839e-05 0 -0.002614415377767236 5.0406910881050476e-05 0 -0.0027166212220492226 6.2367590404487839e-05 0 -0.0026864709186513731 6.7377335498028897e-05 0 -0.0026864709186513731 6.7377335498028897e-05 0 -0.0027877972583858078 8.0992085378098566e-05 0 -0.0027801157584178833 5.8204316783398165e-05 0 -0.0027166212220492226 6.2367590404487839e-05 0 -0.0026864709186513731 6.7377335498028897e-05 0 -0.0027877972583858078 8.0992085378098566e-05 0 -0.0028340818252235739 8.3641025731161052e-05 0 -0.0027166212220492226 6.2367590404487839e-05 0 -0.0027877972583858078 8.0992085378098566e-05 0 -0.002582220486928276 -3.3767929159160832e-09 0 -0.0027801157584178833 5.8204316783398165e-05 0 -0.0028681984351796477 2.1577007495378185e-07 0 -0.0025395887311695209 6.4374900606446235e-05 0 -0.0026864709186513731 6.7377335498028897e-05 0 -0.0027801157584178833 5.8204316783398165e-05 0 -0.0025628373557762996 3.1204218768985838e-05 0 -0.0027422209483634868 5.9031024797851311e-05 0 -0.0027801157584178833 5.8204316783398165e-05 0 -0.002868382453545992 3.0320738734473737e-05 0 -0.0027865593535784223 4.3077750072959582e-05 0 -0.0027801157584178833 5.8204316783398165e-05 0 -0.0028681984351796477 2.1577007495378185e-07 0 -0.002868382453545992 3.0320738734473737e-05 0 -0.0029708874390238678 0.00013359996474955174 0 -0.0027877972583858078 8.0992085378098566e-05 0 -0.0027865593535784223 4.3077750072959582e-05 0 -0.0027877972583858078 8.0992085378098566e-05 0 -0.0027801157584178833 5.8204316783398165e-05 0 -0.0027865593535784223 4.3077750072959582e-05 0 -0.0033381484935004965 1.1497816162404618e-05 0 -0.0033552027197922799 -1.1878253584223236e-05 0 -0.0031547967952964247 -1.5665133190263055e-07 0 -0.0031996269712911262 4.4346248049635206e-05 0 -0.0033381484935004965 1.1497816162404618e-05 0 -0.0033552027197922799 -1.1878253584223236e-05 0 -0.0030599860747537867 3.5983710303343931e-05 0 -0.0031541695650918453 4.4263986386208815e-08 0 -0.0028681984351796477 2.1577007495378185e-07 0 -0.002868382453545992 3.0320738734473737e-05 0 -0.0031539072260598671 -1.9459809539671427e-07 0 -0.002868382453545992 3.0320738734473737e-05 0 -0.0027865593535784223 4.3077750072959582e-05 0 -0.0031539072260598671 -1.9459809539671427e-07 0 -0.0031547967952964247 -1.5665133190263055e-07 0 -0.0033088833363232369 3.4823559320505485e-06 0 -0.0033714391050230154 -1.2482310223219167e-05 0 -0.0031547967952964247 -1.5665133190263055e-07 0 -0.0033088833363232369 3.4823559320505485e-06 0 -0.0033318543096136667 3.7221531023788881e-08 0 -0.0033088833363232369 3.4823559320505485e-06 0 -0.0033923147148095024 9.5594367437031556e-08 0 -0.0033714391050230154 -1.2482310223219167e-05 0 -0.0033318543096136667 3.7221531023788881e-08 0 -0.0033923147148095024 9.5594367437031556e-08 0 -0.0035091666008514374 5.8481035813608167e-08 0 -0.0033088833363232369 3.4823559320505485e-06 0 -0.0033318543096136667 3.7221531023788881e-08 0 -0.0033923147148095024 9.5594367437031556e-08 0 -0.0033923147148095024 9.5594367437031556e-08 0 -0.0035526621483176852 -8.2675448407322999e-06 0 -0.0034555360727081615 9.1559683092790535e-06 0 -0.0033923147148095024 9.5594367437031556e-08 0 -0.0034609431186144188 -4.1640044468541995e-05 0 -0.0033714391050230154 -1.2482310223219167e-05 0 -0.0033923147148095024 9.5594367437031556e-08 0 -0.0035526621483176852 -8.2675448407322999e-06 0 -0.0034609431186144188 -4.1640044468541995e-05 0 -0.0034609431186144188 -4.1640044468541995e-05 0 -0.0033714391050230154 -1.2482310223219167e-05 0 -0.0033992463982893445 -2.4455956069897414e-05 0 -0.0033552027197922799 -1.1878253584223236e-05 0 -0.0031547967952964247 -1.5665133190263055e-07 0 -0.0033714391050230154 -1.2482310223219167e-05 0 -0.0033552027197922799 -1.1878253584223236e-05 0 -0.0033714391050230154 -1.2482310223219167e-05 0 -0.0033992463982893445 -2.4455956069897414e-05 0 -0.0032388313614038779 2.9686071563732899e-05 0 -0.0033992463982893445 -2.4455956069897414e-05 0 -0.0032673353120735607 -1.0886892662115716e-05 0 -0.0033992463982893445 -2.4455956069897414e-05 0 -0.0032673353120735607 -1.0886892662115716e-05 0 -0.0035376505747673689 -9.5149295370139568e-05 0 -0.0034609431186144188 -4.1640044468541995e-05 0 -0.0033992463982893445 -2.4455956069897414e-05 0 -0.0035376505747673689 -9.5149295370139568e-05 0 -0.0031558295201002656 4.1423884435596388e-05 0 -0.0032388313614038779 2.9686071563732899e-05 0 -0.0032673353120735607 -1.0886892662115716e-05 0 -0.0036300504952294561 -7.2402867877261365e-05 0 -0.003553796142234176 -9.4719527054817215e-05 0 -0.0040773886513847998 -2.6560970661625699e-05 0 -0.0035376505747673689 -9.5149295370139568e-05 0 -0.0037270603096436375 2.8617346634976288e-05 0 -0.0031800481733146226 -0.00013629462454383296 0 -0.0032673353120735607 -1.0886892662115716e-05 0 -0.0035376505747673689 -9.5149295370139568e-05 0 -0.0035526621483176852 -8.2675448407322999e-06 0 -0.0034609431186144188 -4.1640044468541995e-05 0 -0.0035376505747673689 -9.5149295370139568e-05 0 -0.0035526621483176852 -8.2675448407322999e-06 0 -0.0035376505747673689 -9.5149295370139568e-05 0 -0.0037270603096436375 2.8617346634976288e-05 0 -0.0037270603096436375 2.8617346634976288e-05 0 -0.0038983291800402586 0.00010145677155434762 0 -0.003761306231010932 8.2819786040957944e-05 0 -0.0040773886513847998 -2.6560970661625699e-05 0 -0.0037270603096436375 2.8617346634976288e-05 0 -0.0038983291800402586 0.00010145677155434762 0 -0.0040773886513847998 -2.6560970661625699e-05 0 -0.0041017949433896474 0.00017242739453735044 0 -0.0038983291800402586 0.00010145677155434762 0 -0.0039363050129597749 0.00014521781339055682 0 -0.0038983291800402586 0.00010145677155434762 0 -0.003761306231010932 8.2819786040957944e-05 0 -0.0041017949433896474 0.00017242739453735044 0 -0.0039363050129597749 0.00014521781339055682 0 -0.0038983291800402586 0.00010145677155434762 0 -0.003821221881503844 -4.0520581373898863e-05 0 -0.0036000454268828091 5.5068011181449106e-05 0 -0.0039363050129597749 0.00014521781339055682 0 -0.0038500976467191416 0.00014320045124172683 0 -0.003761306231010932 8.2819786040957944e-05 0 -0.0034785829502902298 -2.6286993539471315e-05 0 -0.0035091666008514374 5.8481035813608167e-08 0 -0.003458817444403039 1.0811701519707197e-05 0 -0.003821221881503844 -4.0520581373898863e-05 0 -0.0035093808259420178 -1.8959170498553911e-08 0 -0.0037568403125288604 -3.6862064703850555e-10 0 -0.0037434428897473795 -1.1881668727491972e-07 0 -0.0035096503875389593 -1.0195708866808223e-10 0 -0.0035091666008514374 5.8481035813608167e-08 0 -0.003458817444403039 1.0811701519707197e-05 0 -0.0034555360727081615 9.1559683092790535e-06 0 -0.0033923147148095024 9.5594367437031556e-08 0 -0.0035091666008514374 5.8481035813608167e-08 0 -0.0034555360727081615 9.1559683092790535e-06 0 -0.0035867403464165371 -2.4816691907633196e-05 0 -0.0036000454268828091 5.5068011181449106e-05 0 -0.0035526621483176852 -8.2675448407322999e-06 0 -0.0037270603096436375 2.8617346634976288e-05 0 -0.003761306231010932 8.2819786040957944e-05 0 -0.0035526621483176852 -8.2675448407322999e-06 0 -0.003458817444403039 1.0811701519707197e-05 0 -0.0034555360727081615 9.1559683092790535e-06 0 -0.0014205801366140669 -3.3460593283328743e-05 0 -0.0014004730985047119 -3.1245231865863474e-05 0 -0.0011653034964654971 -8.6380180608810456e-06 0 -0.0014004730985047119 -3.1245231865863474e-05 0 -0.0012730035791582177 -6.8792331856174757e-05 0 -0.0012915820559073212 -6.8170821115247562e-08 0 -0.0012322176494235855 1.8521047560175356e-05 0 -0.0015678945311496811 -9.10021482487858e-06 0 -0.0016032386855742633 -9.4725585669114045e-06 0 -0.001583482364587957 1.2296705516030643e-05 0 -0.0012730035791582177 -6.8792331856174757e-05 0 -0.0012322176494235855 1.8521047560175356e-05 0 -0.0011922863947209899 -8.2060926649137682e-05 0 -0.0015678945311496811 -9.10021482487858e-06 0 -0.0015500827010726799 1.0355559275849752e-07 0 -0.0014680923787383753 -1.1060048576960949e-07 0 -0.0014205801366140669 -3.3460593283328743e-05 0 -0.0014675868762056871 -2.1514194321341744e-08 0 -0.0015678945311496811 -9.10021482487858e-06 0 -0.0015500827010726799 1.0355559275849752e-07 0 -0.001583482364587957 1.2296705516030643e-05 0 -0.0012730035791582177 -6.8792331856174757e-05 0 -0.0014672440656423999 -1.8539283051555528e-07 0 -0.0012915820559073212 -6.8170821115247562e-08 0 -0.0014672440656423999 -1.8539283051555528e-07 0 -0.0012915820559073212 -6.8170821115247562e-08 0 -0.0012417128630582443 1.8690732156118995e-05 0 -0.0014672440656423999 -1.8539283051555528e-07 0 -0.0012417128630582443 1.8690732156118995e-05 0 -0.0011673244499682538 1.8141485551156829e-07 0 -0.0012417128630582443 1.8690732156118995e-05 0 -0.0012322176494235855 1.8521047560175356e-05 0 -0.0011708989607874768 2.0049902272345475e-05 0 -0.0011434075940332299 1.0517188226187592e-06 0 -0.0011218463976512189 -6.9910327489896456e-06 0 -0.001124990734300233 -4.4120535886462718e-05 0 -0.0012915820559073212 -6.8170821115247562e-08 0 -0.0012417128630582443 1.8690732156118995e-05 0 -0.0012322176494235855 1.8521047560175356e-05 0 -0.0011434075940332299 1.0517188226187592e-06 0 -0.0011345762492161436 1.2228980770248284e-05 0 -0.0011554688127291589 1.2317412236406172e-05 0 -0.0011434075940332299 1.0517188226187592e-06 0 -0.0011345762492161436 1.2228980770248284e-05 0 -0.0011218463976512189 -6.9910327489896456e-06 0 -0.0011345762492161436 1.2228980770248284e-05 0 -0.0011218463976512189 -6.9910327489896456e-06 0 -0.0011103603214895033 1.7250976317252124e-05 0 -0.00055398830513640447 9.0054055994851363e-05 0 -0.00060970175148516862 0.0001510899561386693 0 -0.0011218463976512189 -6.9910327489896456e-06 0 -0.0010970673615939785 -2.4582364129943807e-05 0 -0.0011103603214895033 1.7250976317252124e-05 0 -0.0010638167573867295 -1.847655803865047e-05 0 -0.0010970673615939785 -2.4582364129943807e-05 0 -0.0011103603214895033 1.7250976317252124e-05 0 -9.5535934924934697e-05 0.00023619553953764942 0 -9.6457993944011258e-05 0.00029232704951827571 0 -0.00013481902864530469 0.00027442314903351278 0 -9.5535934924934697e-05 0.00023619553953764942 0 -6.5184334371586346e-05 0.00027485409065798665 0 -9.6457993944011258e-05 0.00029232704951827571 0 -0.0010638167573867295 -1.847655803865047e-05 0 -0.0010593350741510364 -6.4721128229049875e-05 0 -0.0010043162450722423 -7.1556596793830287e-05 0 -0.00055398830513640447 9.0054055994851363e-05 0 -0.00069671881360531846 0.00011685356241694329 0 -0.0010638167573867295 -1.847655803865047e-05 0 -0.0010970673615939785 -2.4582364129943807e-05 0 -0.0010593350741510364 -6.4721128229049875e-05 0 -0.0010431651543601616 -8.4429969101113269e-05 0 -0.0012442277068527355 8.9547203400499678e-05 0 -0.001124990734300233 -4.4120535886462718e-05 0 -0.0010970673615939785 -2.4582364129943807e-05 0 -0.0010746570490237071 -5.0396397141517063e-05 0 -0.0011218463976512189 -6.9910327489896456e-06 0 -0.001124990734300233 -4.4120535886462718e-05 0 -0.0010970673615939785 -2.4582364129943807e-05 0 -0.0014004730985047119 -3.1245231865863474e-05 0 -0.0012442277068527355 8.9547203400499678e-05 0 -0.001619664960760337 2.5141665099855458e-05 0 -0.0016328237976485983 4.8382555256076827e-05 0 -0.0016480680074168511 3.1553664110754048e-05 0 -0.0014004730985047119 -3.1245231865863474e-05 0 -0.0016483877744717789 5.5264929988788274e-05 0 -0.0016480680074168511 3.1553664110754048e-05 0 -0.0016512226298053788 5.3302873347244247e-05 0 -0.0016656251969808685 5.3857445813563538e-05 0 -0.0016328237976485983 4.8382555256076827e-05 0 -0.0016480680074168511 3.1553664110754048e-05 0 -0.0016512226298053788 5.3302873347244247e-05 0 -0.0012442277068527355 8.9547203400499678e-05 0 -0.00069671881360531846 0.00011685356241694329 0 -0.0016328237976485983 4.8382555256076827e-05 0 -0.0016512226298053788 5.3302873347244247e-05 0 -0.0016497191182322192 6.5973242662672562e-05 0 -0.0016512226298053788 5.3302873347244247e-05 0 -0.0016586879044528454 6.2405289195368942e-05 0 -0.0016497191182322192 6.5973242662672562e-05 0 -0.0016259944248596401 2.4822198041785361e-05 0 -0.0016221001116244805 6.0839078041671363e-05 0 -0.0016497191182322192 6.5973242662672562e-05 0 -0.0016259944248596401 2.4822198041785361e-05 0 -0.0015999534010538166 3.6339888939604685e-05 0 -0.0016221001116244805 6.0839078041671363e-05 0 -0.0016483877744717789 5.5264929988788274e-05 0 -0.0016421394246972077 5.5792621426987421e-05 0 -0.0015999534010538166 3.6339888939604685e-05 0 -0.0015704117937706914 3.4000326811344168e-05 0 -0.0015927184549400328 7.4901736004734419e-05 0 -0.0015999534010538166 3.6339888939604685e-05 0 -0.001583482364587957 1.2296705516030643e-05 0 -0.0015704117937706914 3.4000326811344168e-05 0 -0.0016259944248596401 2.4822198041785361e-05 0 -0.0015999534010538166 3.6339888939604685e-05 0 -0.001583482364587957 1.2296705516030643e-05 0 -0.0016032386855742633 -9.4725585669114045e-06 0 -0.0016259944248596401 2.4822198041785361e-05 0 -0.001583482364587957 1.2296705516030643e-05 0 -0.0015506453093610199 3.0979764898225661e-08 0 -0.001734294887299005 1.9079900979387666e-05 0 -0.0015500827010726799 1.0355559275849752e-07 0 -0.001583482364587957 1.2296705516030643e-05 0 -0.0015704117937706914 3.4000326811344168e-05 0 -0.0015506939497381706 -7.2640049728405294e-08 0 -0.0018847033450427938 -2.8489880047094136e-05 0 -0.0017991956077065714 -5.2824385830399871e-08 0 -0.0018847033450427938 -2.8489880047094136e-05 0 -0.0017991956077065714 -5.2824385830399871e-08 0 -0.0020051287547640838 -1.7867752357600723e-05 0 -0.0018847033450427938 -2.8489880047094136e-05 0 -0.0020051287547640838 -1.7867752357600723e-05 0 -0.0021911141928210743 -4.3621296694665582e-05 0 -0.0020051287547640838 -1.7867752357600723e-05 0 -0.0021911141928210743 -4.3621296694665582e-05 0 -0.0020477183520352582 -4.3973160634163844e-08 0 -0.0017991956077065714 -5.2824385830399871e-08 0 -0.0020051287547640838 -1.7867752357600723e-05 0 -0.0020477183520352582 -4.3973160634163844e-08 0 -0.001734294887299005 1.9079900979387666e-05 0 -0.0019001624429375939 3.0215352763280881e-05 0 -0.0015999534010538166 3.6339888939604685e-05 0 -0.0015927184549400328 7.4901736004734419e-05 0 -0.0016221001116244805 6.0839078041671363e-05 0 -0.0019001624429375939 3.0215352763280881e-05 0 -0.0020341655056481476 8.1650753761925658e-05 0 -0.0021911141928210743 -4.3621296694665582e-05 0 -0.0023765274366309261 -8.0069933382046795e-06 0 -0.0024791582760366635 -4.02203979308237e-05 0 -0.0021911141928210743 -4.3621296694665582e-05 0 -0.0020477183520352582 -4.3973160634163844e-08 0 -0.0023765274366309261 -8.0069933382046795e-06 0 -0.0022961184298288025 5.667781370333571e-08 0 -0.0023765274366309261 -8.0069933382046795e-06 0 -0.0024772180478556624 2.4317637939666415e-05 0 -0.0020477183520352582 -4.3973160634163844e-08 0 -0.0022961184298288025 5.667781370333571e-08 0 -0.0023765274366309261 -8.0069933382046795e-06 0 -0.0023765274366309261 -8.0069933382046795e-06 0 -0.0026135305343375909 7.3795137257214562e-07 0 -0.0024791582760366635 -4.02203979308237e-05 0 -0.0023765274366309261 -8.0069933382046795e-06 0 -0.002552237660049791 2.0162747470396015e-05 0 -0.0026135305343375909 7.3795137257214562e-07 0 -0.0023765274366309261 -8.0069933382046795e-06 0 -0.002552237660049791 2.0162747470396015e-05 0 -0.0024772180478556624 2.4317637939666415e-05 0 -0.0026658595410116023 3.0549538681444301e-05 0 -0.002552237660049791 2.0162747470396015e-05 0 -0.0026135305343375909 7.3795137257214562e-07 0 -0.002614415377767236 5.0406910881050476e-05 0 -0.0026658595410116023 3.0549538681444301e-05 0 -0.002552237660049791 2.0162747470396015e-05 0 -0.002614415377767236 5.0406910881050476e-05 0 -0.002552237660049791 2.0162747470396015e-05 0 -0.0024772180478556624 2.4317637939666415e-05 0 -0.0025395887311695209 6.4374900606446235e-05 0 -0.002614415377767236 5.0406910881050476e-05 0 -0.0024772180478556624 2.4317637939666415e-05 0 -0.0025395887311695209 6.4374900606446235e-05 0 -0.0022961184298288025 5.667781370333571e-08 0 -0.0024772180478556624 2.4317637939666415e-05 0 -0.002582220486928276 -3.3767929159160832e-09 0 -0.0025853459892811737 -5.1640442434094275e-06 0 -0.0022962129421377235 -3.1746106824766806e-08 0 -0.0025628373557762996 3.1204218768985838e-05 0 -0.0022962211509508614 5.3508034445886386e-09 0 -0.0030819724023400351 0.00016785729566570998 0 -0.0030600279081606997 0.00019932513039707094 0 -0.0031006756387229406 0.00021267160880676186 0 -0.0029391087375781723 5.386749201359533e-05 0 -0.0027364664367475681 -5.0985450522224714e-06 0 -0.0027696723716777458 -4.0423593130737805e-05 0 -0.0030600279081606997 0.00019932513039707094 0 -0.0031006756387229406 0.00021267160880676186 0 -0.003055280302686337 0.000262704079963281 0 -0.0027364664367475681 -5.0985450522224714e-06 0 -0.0026135305343375909 7.3795137257214562e-07 0 -0.0027279083726010093 -9.4388800351112731e-06 0 -0.0025941116984891702 2.7489521242846486e-05 0 -0.002455624123029649 0.00014348588307678929 0 -0.0027364664367475681 -5.0985450522224714e-06 0 -0.0026823925893161324 1.1662175995705117e-05 0 -0.0026135305343375909 7.3795137257214562e-07 0 -0.0026658595410116023 3.0549538681444301e-05 0 -0.0026823925893161324 1.1662175995705117e-05 0 -0.0026135305343375909 7.3795137257214562e-07 0 -0.0027261664816328004 2.6973977962842961e-05 0 -0.0026658595410116023 3.0549538681444301e-05 0 -0.0026823925893161324 1.1662175995705117e-05 0 -0.0027261664816328004 2.6973977962842961e-05 0 -0.0027364664367475681 -5.0985450522224714e-06 0 -0.0026823925893161324 1.1662175995705117e-05 0 -0.0017346815838255266 0.00037982491859798155 0 -0.0016295849281896737 0.000178923619734149 0 -0.0017537231553917218 0.00019473782496228864 0 -0.002455624123029649 0.00014348588307678929 0 -0.0020341655056481476 8.1650753761925658e-05 0 -0.0026135305343375909 7.3795137257214562e-07 0 -0.0027279083726010093 -9.4388800351112731e-06 0 -0.0024791582760366635 -4.02203979308237e-05 0 -0.0017346815838255266 0.00037982491859798155 0 -0.0017537231553917218 0.00019473782496228864 0 -0.0018866039179015488 0.00022622834608868002 0 -0.002455624123029649 0.00014348588307678929 0 -0.0024874975679526831 0.0002667185778468197 0 -0.0017537231553917218 0.00019473782496228864 0 -0.0018529263922067037 8.4412653626373394e-05 0 -0.0016565744060221849 0.00013014701623234129 0 -0.0017557496596962551 0.00012127090769396347 0 -0.0016495769598717401 8.6606419781608349e-05 0 -0.0017777326320356571 7.1543079730345186e-05 0 -0.0017537231553917218 0.00019473782496228864 0 -0.0018529263922067037 8.4412653626373394e-05 0 -0.0018866039179015488 0.00022622834608868002 0 -0.0017370463525068654 0.00010911599387265449 0 -0.0016957815120015849 0.00012320191543944406 0 -0.0017557496596962551 0.00012127090769396347 0 -0.0016565744060221849 0.00013014701623234129 0 -0.0016495769598717401 8.6606419781608349e-05 0 -0.0015927184549400328 7.4901736004734419e-05 0 -0.0016565744060221849 0.00013014701623234129 0 -0.0016495769598717401 8.6606419781608349e-05 0 -0.0015927184549400328 7.4901736004734419e-05 0 -0.0016295849281896737 0.000178923619734149 0 -0.0016565744060221849 0.00013014701623234129 0 -0.0016295849281896737 0.000178923619734149 0 -0.0017537231553917218 0.00019473782496228864 0 -0.0016565744060221849 0.00013014701623234129 0 -0.0015927184549400328 7.4901736004734419e-05 0 -0.0016495769598717401 8.6606419781608349e-05 0 -0.0016221001116244805 6.0839078041671363e-05 0 -0.0016495769598717401 8.6606419781608349e-05 0 -0.0016221001116244805 6.0839078041671363e-05 0 -0.0016497191182322192 6.5973242662672562e-05 0 -0.0016495769598717401 8.6606419781608349e-05 0 -0.0016497191182322192 6.5973242662672562e-05 0 -0.0016607306749292358 7.3339707257299937e-05 0 -0.001654321731207747 8.5292876196426716e-05 0 -0.0017168381894512516 6.6991192608053661e-05 0 -0.0016586879044528454 6.2405289195368942e-05 0 -0.0016497191182322192 6.5973242662672562e-05 0 -0.0016607306749292358 7.3339707257299937e-05 0 -0.0016586879044528454 6.2405289195368942e-05 0 -0.0016675017390637592 6.6620291027022708e-05 0 -0.0016607306749292358 7.3339707257299937e-05 0 -0.0017168381894512516 6.6991192608053661e-05 0 -0.0018088650082001855 0.00014121639631207387 0 -0.0016675017390637592 6.6620291027022708e-05 0 -0.0016607306749292358 7.3339707257299937e-05 0 -0.0016754707650616916 7.2137966797644482e-05 0 -0.0017777326320356571 7.1543079730345186e-05 0 -0.001921377535285777 6.1824629330940398e-05 0 -0.001877928446817037 0.00010734840610814629 0 -0.0016675017390637592 6.6620291027022708e-05 0 -0.0016775652908617084 6.9868462098843012e-05 0 -0.0016656251969808685 5.3857445813563538e-05 0 -0.0016675017390637592 6.6620291027022708e-05 0 -0.0016754707650616916 7.2137966797644482e-05 0 -0.0016775652908617084 6.9868462098843012e-05 0 -0.0018088650082001855 0.00014121639631207387 0 -0.0023056175792731935 0.00012369855077354357 0 -0.0021495999724076213 0.00025526562238887591 0 -0.0021299017213487581 0.00025731007175089371 0 -0.0021164514085548554 0.00024217138791853446 0 -0.0018088650082001855 0.00014121639631207387 0 -0.0018165970093829448 0.000287319007989067 0 -0.0016627641367518377 0.00019420808863729224 0 -0.0016010240130214007 0.00019917295023771719 0 -0.0016287359005767411 0.0002300506637855484 0 -0.0018088650082001855 0.00014121639631207387 0 -0.001417664479628217 0.00018331851429746418 0 -0.0018165970093829448 0.000287319007989067 0 -0.001417664479628217 0.00018331851429746418 0 -0.0030056680654986087 0.00031324026941328498 0 -0.0029767448029524596 0.00025845682021735558 0 -0.0029539488489286956 0.00032139215021661534 0 -0.0021495999724076213 0.00025526562238887591 0 -0.0021712583860772445 0.00023219411717877335 0 -0.0021164514085548554 0.00024217138791853446 0 -0.0023056175792731935 0.00012369855077354357 0 -0.0024283231585465813 0.00042220111468572292 0 -0.0023056175792731935 0.00012369855077354357 0 -0.0024874975679526831 0.0002667185778468197 0 -0.0017370463525068654 0.00010911599387265449 0 -0.0023056175792731935 0.00012369855077354357 0 -0.0017557496596962551 0.00012127090769396347 0 -0.0017777326320356571 7.1543079730345186e-05 0 -0.001877928446817037 0.00010734840610814629 0 -0.0018529263922067037 8.4412653626373394e-05 0 -0.0020556114339872126 5.6463779412056195e-05 0 -0.0018866039179015488 0.00022622834608868002 0 -0.0030056680654986087 0.00031324026941328498 0 -0.003055280302686337 0.000262704079963281 0 -0.0029767448029524596 0.00025845682021735558 0 -0.003055280302686337 0.000262704079963281 0 -0.0029767448029524596 0.00025845682021735558 0 -0.0030125323868629979 0.00019534231822662614 0 -0.0029767448029524596 0.00025845682021735558 0 -0.0030125323868629979 0.00019534231822662614 0 -0.0029367489988037197 0.00020118173613805108 0 -0.0030600279081606997 0.00019932513039707094 0 -0.003055280302686337 0.000262704079963281 0 -0.0030125323868629979 0.00019534231822662614 0 -0.002933313856159431 0.00037339086066244786 0 -0.003013165928538539 0.00039174526104618118 0 -0.0029583498503291681 0.00048922280849407408 0 -0.0030046140584461343 0.00026875262943662774 0 -0.0027119585995150752 0.00046283674964788934 0 -0.0029767448029524596 0.00025845682021735558 0 -0.0029367489988037197 0.00020118173613805108 0 -0.00290082043876111 0.00025949436010814093 0 -0.0029767448029524596 0.00025845682021735558 0 -0.00290082043876111 0.00025949436010814093 0 -0.0029539488489286956 0.00032139215021661534 0 -0.0027119585995150752 0.00046283674964788934 0 -0.0021907272421562902 0.00068193520457334811 0 -0.0023291431266043881 0.00045998250291270183 0 -0.0024063856550956167 0.00054709384643230165 0 -0.0023078025095698961 0.00056197362696786761 0 -0.0023291431266043881 0.00045998250291270183 0 -0.0023078025095698961 0.00056197362696786761 0 -0.002285603184212592 0.00053572292333342337 0 -0.0027119585995150752 0.00046283674964788934 0 -0.0024283231585465813 0.00042220111468572292 0 -0.00209290745989599 0.00046869402411588661 0 -0.0020354218050587102 0.00040496383860139768 0 -0.0017734590970741048 0.00049479284326064174 0 -0.0018165970093829448 0.000287319007989067 0 -0.0015011842878920032 0.00052005372561632487 0 -0.001417664479628217 0.00018331851429746418 0 -0.0010384582702442843 0.00036054517465659418 0 -0.0014734070312327214 0.00035473780760136755 0 -0.0014069401049497424 0.00036123647681260125 0 -0.0014416218017813381 0.0004027565908837241 0 -0.0014734070312327214 0.00035473780760136755 0 -0.0014808135342783474 0.00036306773256187597 0 -0.0014416218017813381 0.0004027565908837241 0 -0.0018165970093829448 0.000287319007989067 0 -0.0024283231585465813 0.00042220111468572292 0 -0.0015011842878920032 0.00052005372561632487 0 -0.0010384582702442843 0.00036054517465659418 0 -0.0024283231585465813 0.00042220111468572292 0 -0.0018899330030142786 0.00060701541088585998 0 -0.0020354218050587102 0.00040496383860139768 0 -0.0017734590970741048 0.00049479284326064174 0 -0.0017353365053814755 0.00045049859359100325 0 -0.0015011842878920032 0.00052005372561632487 0 -0.0018899330030142786 0.00060701541088585998 0 -0.0010221560576401151 0.00070708112367452584 0 -0.0010349290476279163 0.00061141343993962173 0 -0.0010656142565859744 0.00066817500177908081 0 -0.0010349290476279163 0.00061141343993962173 0 -0.00099991083909115345 0.0005252059145660397 0 -0.00092984912206927391 0.00060040970927047643 0 -0.0010349290476279163 0.00061141343993962173 0 -0.00099991083909115345 0.0005252059145660397 0 -0.0011042580004567597 0.00054495680106189778 0 -0.0010221560576401151 0.00070708112367452584 0 -0.0010349290476279163 0.00061141343993962173 0 -0.00092984912206927391 0.00060040970927047643 0 -0.00053098485089086327 0.00038151170276006581 0 -0.0010384582702442843 0.00036054517465659418 0 7.4469287280717913e-05 0.00017523725838734379 0 6.6031399595457504e-05 0.00022181843890027353 0 0.00011288914715855061 0.00021387723742709156 0 -0.00053098485089086327 0.00038151170276006581 0 0.00042843961284565738 0.00086737301390923916 0 -0.00078922640058678246 0.00022339778282241728 0 -0.00086005638493816738 0.00021622136672476945 0 -0.00082873391687786758 0.00018200986560358849 0 -0.00078922640058678246 0.00022339778282241728 0 -0.00086005638493816738 0.00021622136672476945 0 -0.00086435252419776959 0.0002288529489084599 0 -0.00053098485089086327 0.00038151170276006581 0 -0.00034668754322216894 0.00019028484237890817 0 7.4469287280717913e-05 0.00017523725838734379 0 9.214058135367602e-06 0.0001832836076525286 0 6.6031399595457504e-05 0.00022181843890027353 0 -0.00085985918251441182 0.00019764170645578076 0 -0.00087153218361475649 0.00017430675913750518 0 -0.00087000688999032622 0.00020583623578894662 0 -0.00088928073621144976 0.00014010002398854858 0 -0.0008384173986533569 0.00019332744075962991 0 -0.00087153218361475649 0.00017430675913750518 0 -0.00080987274021487182 0.00015217638555154421 0 -0.0010384582702442843 0.00036054517465659418 0 -0.00086005638493816738 0.00021622136672476945 0 -0.00085985918251441182 0.00019764170645578076 0 -0.00087000688999032622 0.00020583623578894662 0 -0.00086005638493816738 0.00021622136672476945 0 -0.00085985918251441182 0.00019764170645578076 0 -0.0008384173986533569 0.00019332744075962991 0 -0.00085985918251441182 0.00019764170645578076 0 -0.0008384173986533569 0.00019332744075962991 0 -0.00087153218361475649 0.00017430675913750518 0 -0.00088928073621144976 0.00014010002398854858 0 -0.00087153218361475649 0.00017430675913750518 0 -0.00092197107538487917 0.00022097748410108425 0 -0.001417664479628217 0.00018331851429746418 0 -0.0013051555476098131 0.00012620111858428591 0 -0.00088928073621144976 0.00014010002398854858 0 -0.00092197107538487917 0.00022097748410108425 0 -0.00095947343835829169 0.00020733302900284757 0 -0.00086208526680909116 0.0001663427182645386 0 -0.0009357971564373695 0.00024723829978905441 0 -0.00087153218361475649 0.00017430675913750518 0 -0.00088471482217712845 0.00020995112102711251 0 -0.00087000688999032622 0.00020583623578894662 0 -0.0016512226298053788 5.3302873347244247e-05 0 -0.0016586879044528454 6.2405289195368942e-05 0 -0.0016656251969808685 5.3857445813563538e-05 0 -0.0016586879044528454 6.2405289195368942e-05 0 -0.0016675017390637592 6.6620291027022708e-05 0 -0.0016656251969808685 5.3857445813563538e-05 0 -0.0010250824051484064 0.00027369827435147969 0 -0.00095947343835829169 0.00020733302900284757 0 -0.00096866304159982247 0.00026610313516958745 0 -0.00092197107538487917 0.00022097748410108425 0 -0.00095947343835829169 0.00020733302900284757 0 -0.00096866304159982247 0.00026610313516958745 0 -0.0012442277068527355 8.9547203400499678e-05 0 -0.0013051555476098131 0.00012620111858428591 0 -0.0009357971564373695 0.00024723829978905441 0 -0.00069671881360531846 0.00011685356241694329 0 -0.00069671881360531846 0.00011685356241694329 0 -0.00034668754322216894 0.00019028484237890817 0 -0.00088471482217712845 0.00020995112102711251 0 -0.0009012199794456964 0.00022991023848278818 0 -0.00086435252419776959 0.0002288529489084599 0 -0.00086005638493816738 0.00021622136672476945 0 -0.00087000688999032622 0.00020583623578894662 0 -0.00086435252419776959 0.0002288529489084599 0 -0.00088471482217712845 0.00020995112102711251 0 -0.00087000688999032622 0.00020583623578894662 0 -0.00086435252419776959 0.0002288529489084599 0 9.214058135367602e-06 0.0001832836076525286 0 -2.7727041048232397e-05 0.0002479607681197897 0 2.6288917968566374e-05 0.0002466105609933983 0 -5.5655789075582559e-05 0.00019258465244889635 0 9.214058135367602e-06 0.0001832836076525286 0 -2.7727041048232397e-05 0.0002479607681197897 0 -9.5535934924934697e-05 0.00023619553953764942 0 -5.5655789075582559e-05 0.00019258465244889635 0 -2.7727041048232397e-05 0.0002479607681197897 0 -6.5184334371586346e-05 0.00027485409065798665 0 -2.7727041048232397e-05 0.0002479607681197897 0 -3.8410197967079151e-05 0.00029278826676633644 0 -9.5535934924934697e-05 0.00023619553953764942 0 -6.5184334371586346e-05 0.00027485409065798665 0 -2.7727041048232397e-05 0.0002479607681197897 0 -2.7727041048232397e-05 0.0002479607681197897 0 2.6288917968566374e-05 0.0002466105609933983 0 1.639011751010168e-05 0.00031180813010683449 0 2.6288917968566374e-05 0.0002466105609933983 0 6.3349679758090602e-05 0.0002701545105306156 0 1.639011751010168e-05 0.00031180813010683449 0 2.6288917968566374e-05 0.0002466105609933983 0 6.3349679758090602e-05 0.0002701545105306156 0 6.6031399595457504e-05 0.00022181843890027353 0 0.00056834624912199968 0.00058878883431948245 0 0.00084864725897474736 0.00048883849883024101 0 0.00010152773059049672 0.00025869369434211364 0 6.3349679758090602e-05 0.0002701545105306156 0 9.1916599431119398e-05 0.00030467507396717941 0 0.00010152773059049672 0.00025869369434211364 0 6.3349679758090602e-05 0.0002701545105306156 0 6.6031399595457504e-05 0.00022181843890027353 0 0.00010152773059049672 0.00025869369434211364 0 6.6031399595457504e-05 0.00022181843890027353 0 0.00011288914715855061 0.00021387723742709156 0 9.214058135367602e-06 0.0001832836076525286 0 2.6288917968566374e-05 0.0002466105609933983 0 6.6031399595457504e-05 0.00022181843890027353 0 0.00028308004245018113 0.0011076067120535146 0 0.00041105918735824445 0.00094644908657608607 0 0.00039842210598748257 0.0012796650482123724 0 0.00028308004245018113 0.0011076067120535146 0 0.00027966210747908571 0.0012395290410451294 0 0.00039842210598748257 0.0012796650482123724 0 0.00066642217361094719 0.0012364188073353171 0 0.00041105918735824445 0.00094644908657608607 0 0.00039842210598748257 0.0012796650482123724 0 0.00042843961284565738 0.00086737301390923916 0 0.00064876027627273956 0.001029936678015034 0 0.001030631863131888 0.00095496069480382768 0 0.00095835154180684047 0.0011867475222148061 0 0.00073331730236906385 0.00096007233772415091 0 0.00056834624912199968 0.00058878883431948245 0 0.00042843961284565738 0.00086737301390923916 0 0.001030631863131888 0.00095496069480382768 0 0.00087623967464559613 0.00074751728389156732 0 0.0011009997540298076 0.00071070094610647353 0 0.001030631863131888 0.00095496069480382768 0 0.00073331730236906385 0.00096007233772415091 0 0.00087623967464559613 0.00074751728389156732 0 0.00028308004245018113 0.0011076067120535146 0 0.00041105918735824445 0.00094644908657608607 0 0.00014964524849205225 0.00093869084656309973 0 0.00073331730236906385 0.00096007233772415091 0 0.00061703303225675544 0.00077373454163308429 0 0.00087623967464559613 0.00074751728389156732 0 0.00073331730236906385 0.00096007233772415091 0 0.00039339958885543431 0.00068063083037155428 0 0.00061703303225675544 0.00077373454163308429 0 0.00064876027627273956 0.001029936678015034 0 0.00024073655820648824 0.00061707052380230182 0 -8.3526499645790273e-06 0.00077860846529900437 0 0.00014964524849205225 0.00093869084656309973 0 0.00014536336878635356 0.00061553764004337516 0 -8.3526499645790273e-06 0.00077860846529900437 0 0.00014964524849205225 0.00093869084656309973 0 -8.3117817106852189e-05 0.0011312595029005206 0 0.00041105918735824445 0.00094644908657608607 0 0.00014964524849205225 0.00093869084656309973 0 0.00014536336878635356 0.00061553764004337516 0 -8.3526499645790273e-06 0.00077860846529900437 0 -0.00027292481558044532 0.00079411761668466633 0 -8.3117817106852189e-05 0.0011312595029005206 0 -0.00027292481558044532 0.00079411761668466633 0 -8.3117817106852189e-05 0.0011312595029005206 0 -0.00044915806158662915 0.0010988237659409854 0 -8.3117817106852189e-05 0.0011312595029005206 0 1.8556435413877635e-05 0.0014372928574926025 0 -0.00031758743429016674 0.0014424459690836515 0 -8.3117817106852189e-05 0.0011312595029005206 0 -0.00031758743429016674 0.0014424459690836515 0 -0.00044915806158662915 0.0010988237659409854 0 -8.0146565483171507e-05 0.0011410524703448493 0 2.623280798961833e-05 0.0014821945701445857 0 0.00028308004245018113 0.0011076067120535146 0 0.00014964524849205225 0.00093869084656309973 0 0.00014330704146387117 0.0011966392916279807 0 0.00014964524849205225 0.00093869084656309973 0 -8.3117817106852189e-05 0.0011312595029005206 0 0.00014330704146387117 0.0011966392916279807 0 -8.3117817106852189e-05 0.0011312595029005206 0 0.00014330704146387117 0.0011966392916279807 0 1.6209101388000412e-05 0.0013559397920011116 0 0.00028308004245018113 0.0011076067120535146 0 0.00027966210747908571 0.0012395290410451294 0 0.00014330704146387117 0.0011966392916279807 0 0.00027966210747908571 0.0012395290410451294 0 0.00014330704146387117 0.0011966392916279807 0 0.00021356246757878153 0.001366694531908564 0 0.00014330704146387117 0.0011966392916279807 0 0.00021356246757878153 0.001366694531908564 0 1.6209101388000412e-05 0.0013559397920011116 0 2.623280798961833e-05 0.0014821945701445857 0 -0.00061673707228029776 0.001307779478027165 0 0.00021356246757878153 0.001366694531908564 0 1.6209101388000412e-05 0.0013559397920011116 0 0.00010055794038013529 0.0015850089447107766 0 0.00021356246757878153 0.001366694531908564 0 0.00010055794038013529 0.0015850089447107766 0 0.00034507021828878549 0.0015411061235983531 0 1.8556435413877635e-05 0.0014372928574926025 0 -0.00031758743429016674 0.0014424459690836515 0 -0.00028215941362725677 0.001806593286155743 0 1.8556435413877635e-05 0.0014372928574926025 0 -0.00028215941362725677 0.001806593286155743 0 0.00012051533561568784 0.0017311755372115896 0 -0.000950497559864699 0.0015078179351699051 0 -0.00061673707228029776 0.001307779478027165 0 -0.0015680593299269923 0.001172260288013891 0 -0.0015927775421556184 0.0011552977458565766 0 -0.0016061245007556665 0.0011775363829842934 0 -0.0015680593299269923 0.001172260288013891 0 -0.0015927775421556184 0.0011552977458565766 0 -0.0015763314773882607 0.0011452346722350033 0 -0.0015680593299269923 0.001172260288013891 0 -0.0015763314773882607 0.0011452346722350033 0 -0.0015564809228932827 0.0011415404204642122 0 -0.00089595852969057046 0.0010123878703404308 0 -0.00083893537862873564 0.0010550311759750278 0 -0.00086497577251340929 0.0011091601599984042 0 -0.00061673707228029776 0.001307779478027165 0 -0.0016149740478655378 0.0011396857938521837 0 -0.0015927775421556184 0.0011552977458565766 0 -0.0016061245007556665 0.0011775363829842934 0 -0.0016133932560325518 0.0011367066484697967 0 -0.00061673707228029776 0.001307779478027165 0 -0.00017176114280862466 0.0012406487895830569 0 -0.00083893537862873564 0.0010550311759750278 0 -0.00082178397307527962 0.00099709531874547157 0 -0.00078006512422314179 0.0010846167365871544 0 -0.00082178397307527962 0.00099709531874547157 0 -0.0007450445668726423 0.00098225654722153581 0 -0.00078006512422314179 0.0010846167365871544 0 -0.00089595852969057046 0.0010123878703404308 0 -0.00083893537862873564 0.0010550311759750278 0 -0.00082178397307527962 0.00099709531874547157 0 0.00021356246757878153 0.001366694531908564 0 0.00034507021828878549 0.0015411061235983531 0 0.00039842210598748257 0.0012796650482123724 0 0.00034507021828878549 0.0015411061235983531 0 0.00039842210598748257 0.0012796650482123724 0 0.0005872035419473698 0.0014948539966713062 0 -0.00017176114280862466 0.0012406487895830569 0 -0.0004002380848906882 0.00091854598508590661 0 0.00027966210747908571 0.0012395290410451294 0 0.00021356246757878153 0.001366694531908564 0 0.00039842210598748257 0.0012796650482123724 0 -0.00053098485089086327 0.00038151170276006581 0 -0.0004002380848906882 0.00091854598508590661 0 0.00042843961284565738 0.00086737301390923916 0 -0.0004002380848906882 0.00091854598508590661 0 -0.00028699751542903907 0.00067628946585257326 0 -0.00013435065586372524 0.00083564411112678808 0 -8.1262962841919322e-05 0.00064218502656576118 0 0.00066642217361094719 0.0012364188073353171 0 0.00039842210598748257 0.0012796650482123724 0 0.0005872035419473698 0.0014948539966713062 0 -0.0011042580004567597 0.00054495680106189778 0 -0.0010860100681590807 0.00062594079682296044 0 -0.00112487388671132 0.000659172768820552 0 -0.0010349290476279163 0.00061141343993962173 0 -0.0011042580004567597 0.00054495680106189778 0 -0.0010860100681590807 0.00062594079682296044 0 -0.0004002380848906882 0.00091854598508590661 0 -0.0012182386956700426 0.00078345833602225007 0 -0.0011042580004567597 0.00054495680106189778 0 -0.00112487388671132 0.000659172768820552 0 -0.0011468016921513003 0.00067115658489901085 0 -0.0010860100681590807 0.00062594079682296044 0 -0.001096828958043484 0.00065318878579968104 0 -0.00112487388671132 0.000659172768820552 0 -0.0010349290476279163 0.00061141343993962173 0 -0.0010860100681590807 0.00062594079682296044 0 -0.0010656142565859744 0.00066817500177908081 0 -0.0010860100681590807 0.00062594079682296044 0 -0.0010656142565859744 0.00066817500177908081 0 -0.001096828958043484 0.00065318878579968104 0 -0.0010221560576401151 0.00070708112367452584 0 -0.0010656142565859744 0.00066817500177908081 0 -0.0011165000448131784 0.00070253418926987722 0 -0.0010656142565859744 0.00066817500177908081 0 -0.0011072791522152537 0.00067078195780963788 0 -0.0011165000448131784 0.00070253418926987722 0 -0.0010656142565859744 0.00066817500177908081 0 -0.001096828958043484 0.00065318878579968104 0 -0.0011072791522152537 0.00067078195780963788 0 -0.0011072791522152537 0.00067078195780963788 0 -0.00112487388671132 0.000659172768820552 0 -0.0011332880699284223 0.00067371865381284134 0 -0.001096828958043484 0.00065318878579968104 0 -0.0011072791522152537 0.00067078195780963788 0 -0.00112487388671132 0.000659172768820552 0 -0.00112487388671132 0.000659172768820552 0 -0.0011332880699284223 0.00067371865381284134 0 -0.0011523557010413878 0.00067209531498805175 0 -0.0011710530061775305 0.00074697664011631412 0 -0.0012182386956700426 0.00078345833602225007 0 -0.0012182386956700426 0.00078345833602225007 0 -0.0015119671403561296 0.00083947514977176011 0 -0.0011332880699284223 0.00067371865381284134 0 -0.0011143987231360061 0.00071123579318072049 0 -0.0011635707936114509 0.00070778746388540045 0 -0.0011332880699284223 0.00067371865381284134 0 -0.0011523557010413878 0.00067209531498805175 0 -0.0011635707936114509 0.00070778746388540045 0 -0.0013530392152186221 0.00077247903586130727 0 -0.0014487225358197999 0.00075937719106857295 0 -0.0011072791522152537 0.00067078195780963788 0 -0.0011332880699284223 0.00067371865381284134 0 -0.0011165000448131784 0.00070253418926987722 0 -0.0016175594473145183 0.00081109198139471235 0 -0.0016275924165255113 0.00079274243032007822 0 -0.0015794875670759659 0.00080009616720958182 0 -0.0020871253487061785 0.00076743098910187 0 -0.0021839065933371982 0.00075417039920883306 0 -0.002166017919948757 0.00088693939330822366 0 -0.0017731844521453549 0.00071145937914909385 0 -0.0017283203920371297 0.00088613959514156708 0 -0.0014487225358197999 0.00075937719106857295 0 -0.0017731844521453549 0.00071145937914909385 0 -0.0016175594473145183 0.00081109198139471235 0 -0.0015833729847546786 0.00081400099643950052 0 -0.0015794875670759659 0.00080009616720958182 0 -0.0014487225358197999 0.00075937719106857295 0 -0.0015119671403561296 0.00083947514977176011 0 -0.0018899330030142786 0.00060701541088585998 0 -0.0017731844521453549 0.00071145937914909385 0 -0.0015011842878920032 0.00052005372561632487 0 -0.0014487225358197999 0.00075937719106857295 0 -0.0019859212404726434 0.00066304088550442732 0 -0.0019483362005891006 0.00066869688223970261 0 -0.0019652766338382394 0.00063866114939624841 0 -0.0016918306793951884 0.00064320756104220425 0 -0.0016767322297245773 0.00062562050235033702 0 -0.0016181554647038004 0.00064997018118356342 0 -0.0016767322297245773 0.00062562050235033702 0 -0.0016181554647038004 0.00064997018118356342 0 -0.0016271296223025549 0.0006335947750271474 0 -0.00082317737160215901 0.001086239863455416 0 -0.00083464191899429506 0.0011135580993639801 0 -0.00086497577251340929 0.0011091601599984042 0 -0.00083893537862873564 0.0010550311759750278 0 -0.00082317737160215901 0.001086239863455416 0 -0.00086497577251340929 0.0011091601599984042 0 -0.0014076228917636281 0.00086651406113694336 0 -0.0014282447867747031 0.00093704980933978011 0 -0.0015743011117997307 0.0009588849942246719 0 -0.0012182386956700426 0.00078345833602225007 0 -0.0015298365071650449 0.0010096749727423558 0 -0.00083893537862873564 0.0010550311759750278 0 -0.00078006512422314179 0.0010846167365871544 0 -0.00082317737160215901 0.001086239863455416 0 -0.00078006512422314179 0.0010846167365871544 0 -0.00082317737160215901 0.001086239863455416 0 -0.00083464191899429506 0.0011135580993639801 0 -0.0017283203920371297 0.00088613959514156708 0 -0.0015298365071650449 0.0010096749727423558 0 -0.0014282447867747031 0.00093704980933978011 0 -0.0014400250304843316 0.00097720765187892032 0 -0.0015743011117997307 0.0009588849942246719 0 -0.0015119671403561296 0.00083947514977176011 0 -0.0017283203920371297 0.00088613959514156708 0 -0.0019454817449753152 0.0010197438139937338 0 -0.0019839416507785269 0.0010147574446408741 0 -0.002006380982096581 0.0010270791023763537 0 -0.001704962965636287 0.0010261790689463826 0 -0.001771108993194565 0.0010626621445590082 0 -0.0017884567106761454 0.0010150387988253926 0 -0.0015298365071650449 0.0010096749727423558 0 -0.0020143137108304542 0.0011703268009102632 0 -0.0015298365071650449 0.0010096749727423558 0 -0.0016149740478655378 0.0011396857938521837 0 -0.0020143137108304542 0.0011703268009102632 0 -0.0016149740478655378 0.0011396857938521837 0 -0.0028005062226743758 0.0016232656299866341 0 -0.0029296483441411977 0.0012959037266552695 0 -0.0027331087982747186 0.0014397520703163288 0 -0.0020143137108304542 0.0011703268009102632 0 -0.0023848133356791632 0.0011220816908414694 0 -0.0017283203920371297 0.00088613959514156708 0 -0.0023848133356791632 0.0011220816908414694 0 -0.0021839065933371982 0.00075417039920883306 0 -0.002166017919948757 0.00088693939330822366 0 -0.0022562090666815335 0.00098998188031130109 0 -0.0019454817449753152 0.0010197438139937338 0 -0.002006380982096581 0.0010270791023763537 0 -0.0019774221658333448 0.001115851537598207 0 -0.0029296483441411977 0.0012959037266552695 0 -0.0027722442551988981 0.0013180909920713127 0 -0.0027331087982747186 0.0014397520703163288 0 -0.0021907272421562902 0.00068193520457334811 0 -0.0026208209198236914 0.00098039083190850653 0 -0.0020393224406753023 0.00085744458272115839 0 -0.002166017919948757 0.00088693939330822366 0 -0.0022268897599885232 0.0010724240055613662 0 -0.0017731844521453549 0.00071145937914909385 0 -0.0021907272421562902 0.00068193520457334811 0 -0.0018899330030142786 0.00060701541088585998 0 -0.0021907272421562902 0.00068193520457334811 0 -0.0020871253487061785 0.00076743098910187 0 -0.0020393224406753023 0.00085744458272115839 0 -0.002166017919948757 0.00088693939330822366 0 -0.0025764990573360074 0.0006856986314976763 0 -0.0025917353313754635 0.00068756420361360134 0 -0.0025894383920075617 0.00069797909770276086 0 -0.0025764990573360074 0.0006856986314976763 0 -0.0025799523313803719 0.00067577844122917161 0 -0.0025917353313754635 0.00068756420361360134 0 -0.002166017919948757 0.00088693939330822366 0 -0.0022562090666815335 0.00098998188031130109 0 -0.0022268897599885232 0.0010724240055613662 0 -0.0029296483441411977 0.0012959037266552695 0 -0.0028995211345438192 0.0012135890513009975 0 -0.0029784126654785383 0.0011696673094362306 0 -0.0023848133356791632 0.0011220816908414694 0 -0.0026208209198236914 0.00098039083190850653 0 -0.0028995211345438192 0.0012135890513009975 0 -0.0028141573567195652 0.0011630701315677239 0 -0.0029784126654785383 0.0011696673094362306 0 -0.0029296483441411977 0.0012959037266552695 0 -0.0028695803022123077 0.0012529247050112793 0 -0.0027722442551988981 0.0013180909920713127 0 -0.0028695803022123077 0.0012529247050112793 0 -0.0028141573567195652 0.0011630701315677239 0 -0.0027722442551988981 0.0013180909920713127 0 -0.0029296483441411977 0.0012959037266552695 0 -0.0028695803022123077 0.0012529247050112793 0 -0.0028995211345438192 0.0012135890513009975 0 -0.0028695803022123077 0.0012529247050112793 0 -0.0028995211345438192 0.0012135890513009975 0 -0.0028141573567195652 0.0011630701315677239 0 -0.0028141573567195652 0.0011630701315677239 0 -0.0029784126654785383 0.0011696673094362306 0 -0.0028366109536365714 0.00099377512185505807 0 -0.0026208209198236914 0.00098039083190850653 0 -0.0028986226505674597 0.001109013120136984 0 -0.0029781191956214864 0.001157455162098256 0 -0.0029346879161346157 0.0008745199136685792 0 -0.0031059114992436376 0.00081268149733666078 0 -0.0029781191956214864 0.001157455162098256 0 -0.0028366109536365714 0.00099377512185505807 0 -0.0029346879161346157 0.0008745199136685792 0 -0.0026208209198236914 0.00098039083190850653 0 -0.0028307843768975785 0.00059686371293574938 0 -0.0028366109536365714 0.00099377512185505807 0 -0.0028294896023259102 0.00080505972252366709 0 -0.0029346879161346157 0.0008745199136685792 0 -0.002933313856159431 0.00037339086066244786 0 -0.0029583498503291681 0.00048922280849407408 0 -0.0028679530365367739 0.00038753193613427057 0 -0.0027119585995150752 0.00046283674964788934 0 -0.0028307843768975785 0.00059686371293574938 0 -0.0024240887616479127 0.00086177473358756639 0 -0.002607813083557529 0.00099361890899188452 0 -0.0024658559142556797 0.0010820967446513775 0 -0.0024240887616479127 0.00086177473358756639 0 -0.0024658559142556797 0.0010820967446513775 0 -0.0022498288393787065 0.0010116763119434992 0 -0.0024240887616479127 0.00086177473358756639 0 -0.0021624721321448631 0.00084084453203159466 0 -0.0022498288393787065 0.0010116763119434992 0 -0.0022891311498043905 0.00067662846793103948 0 -0.0024240887616479127 0.00086177473358756639 0 -0.0021624721321448631 0.00084084453203159466 0 -0.0024240887616479127 0.00086177473358756639 0 -0.0026815838500908774 0.00085553476545185741 0 -0.002607813083557529 0.00099361890899188452 0 -0.0026069334940955519 0.00071469502921653696 0 -0.0024240887616479127 0.00086177473358756639 0 -0.0026815838500908774 0.00085553476545185741 0 -0.0028366109536365714 0.00099377512185505807 0 -0.0028294896023259102 0.00080505972252366709 0 -0.0026815838500908774 0.00085553476545185741 0 -0.0028366109536365714 0.00099377512185505807 0 -0.0026815838500908774 0.00085553476545185741 0 -0.0027194994693010804 0.001067525830133345 0 -0.0026815838500908774 0.00085553476545185741 0 -0.002607813083557529 0.00099361890899188452 0 -0.0027194994693010804 0.001067525830133345 0 -0.0026409653724653059 0.001176746286771068 0 -0.002508228391544486 0.0012395934103397021 0 -0.0024658559142556797 0.0010820967446513775 0 -0.002607813083557529 0.00099361890899188452 0 -0.0026409653724653059 0.001176746286771068 0 -0.0027194994693010804 0.001067525830133345 0 -0.002607813083557529 0.00099361890899188452 0 -0.0026409653724653059 0.001176746286771068 0 -0.0024658559142556797 0.0010820967446513775 0 -0.0028141573567195652 0.0011630701315677239 0 -0.0026409653724653059 0.001176746286771068 0 -0.0027194994693010804 0.001067525830133345 0 -0.0028141573567195652 0.0011630701315677239 0 -0.0028366109536365714 0.00099377512185505807 0 -0.0027194994693010804 0.001067525830133345 0 -0.0026409653724653059 0.001176746286771068 0 -0.0027722442551988981 0.0013180909920713127 0 -0.0026242123636542576 0.001340838851451986 0 -0.0028141573567195652 0.0011630701315677239 0 -0.0026409653724653059 0.001176746286771068 0 -0.0027722442551988981 0.0013180909920713127 0 -0.0026409653724653059 0.001176746286771068 0 -0.002508228391544486 0.0012395934103397021 0 -0.0026242123636542576 0.001340838851451986 0 -0.0023542345562171498 0.0012077016059864527 0 -0.0024652330804839093 0.001446564992038009 0 -0.0021007420075636477 0.0012756225998711804 0 -0.002508228391544486 0.0012395934103397021 0 -0.0023542345562171498 0.0012077016059864527 0 -0.0024652330804839093 0.001446564992038009 0 -0.002508228391544486 0.0012395934103397021 0 -0.0024658559142556797 0.0010820967446513775 0 -0.0023542345562171498 0.0012077016059864527 0 -0.0024658559142556797 0.0010820967446513775 0 -0.0023542345562171498 0.0012077016059864527 0 -0.0022498288393787065 0.0010116763119434992 0 -0.0020744910021649335 0.0013101474506914423 0 -0.0018217184897442184 0.0011662062174530173 0 -0.0015897714642950163 0.0011020596662065388 0 -0.0015703322127968312 0.0011061738585419793 0 -0.0015711395072724903 0.0010882158993271542 0 -0.0015897714642950163 0.0011020596662065388 0 -0.0015741080545985762 0.0011245285980620388 0 -0.0015703322127968312 0.0011061738585419793 0 -0.0028005062226743758 0.0016232656299866341 0 -0.0024652330804839093 0.001446564992038009 0 -0.0027331087982747186 0.0014397520703163288 0 -0.0024652330804839093 0.001446564992038009 0 -0.0026242123636542576 0.001340838851451986 0 -0.0027331087982747186 0.0014397520703163288 0 -0.0020143137108304542 0.0011703268009102632 0 -0.0020744910021649335 0.0013101474506914423 0 -0.0027722442551988981 0.0013180909920713127 0 -0.0026242123636542576 0.001340838851451986 0 -0.0027331087982747186 0.0014397520703163288 0 -0.002508228391544486 0.0012395934103397021 0 -0.0024652330804839093 0.001446564992038009 0 -0.0026242123636542576 0.001340838851451986 0 -0.0015897714642950163 0.0011020596662065388 0 -0.0016133932560325518 0.0011367066484697967 0 -0.0015883339608010315 0.0011325075295653768 0 -0.0016061245007556665 0.0011775363829842934 0 -0.0016268963137389255 0.001134868662953017 0 -0.0016133932560325518 0.0011367066484697967 0 -0.0016330125966590393 0.0011270886355347299 0 -0.0015897714642950163 0.0011020596662065388 0 -0.0016133932560325518 0.0011367066484697967 0 -0.0016330125966590393 0.0011270886355347299 0 -0.0016297805848060653 0.0011350781279776377 0 -0.0016133932560325518 0.0011367066484697967 0 -0.0016149740478655378 0.0011396857938521837 0 -0.0016181535831250149 0.0011381051748634919 0 -0.0015927775421556184 0.0011552977458565766 0 -0.0016133932560325518 0.0011367066484697967 0 -0.0015883339608010315 0.0011325075295653768 0 -0.0015897714642950163 0.0011020596662065388 0 -0.0015741080545985762 0.0011245285980620388 0 -0.0015883339608010315 0.0011325075295653768 0 -0.0015927775421556184 0.0011552977458565766 0 -0.0015883339608010315 0.0011325075295653768 0 -0.0015763314773882607 0.0011452346722350033 0 -0.0015741080545985762 0.0011245285980620388 0 -0.0015883339608010315 0.0011325075295653768 0 -0.0015763314773882607 0.0011452346722350033 0 -0.0015741080545985762 0.0011245285980620388 0 -0.0015763314773882607 0.0011452346722350033 0 -0.0015564809228932827 0.0011415404204642122 0 -0.0015393324165504495 0.0011200998547756511 0 -0.0015703322127968312 0.0011061738585419793 0 -0.0015272883184376791 0.0011358205952816949 0 -0.0015564809228932827 0.0011415404204642122 0 -0.0015703322127968312 0.0011061738585419793 0 -0.0015176447070162785 0.0011608387699520435 0 -0.0016299089067674424 0.0010619089994044473 0 -0.0013243977250074585 0.0012236035873524245 0 -0.0015393324165504495 0.0011200998547756511 0 -0.0015485847554695582 0.0011102148392067945 0 -0.0015703322127968312 0.0011061738585419793 0 -0.0015393324165504495 0.0011200998547756511 0 -0.0015485847554695582 0.0011102148392067945 0 -0.0015337297592637889 0.0011169804712238304 0 -0.0015741080545985762 0.0011245285980620388 0 -0.0015564809228932827 0.0011415404204642122 0 -0.0015703322127968312 0.0011061738585419793 0 -0.0014969692050684129 0.0011264874428825596 0 -0.0015169920342066373 0.0011217496729935559 0 -0.0015136430544503644 0.0011169061730062694 0 -0.0014969692050684129 0.0011264874428825596 0 -0.0015169920342066373 0.0011217496729935559 0 -0.0015096520802102705 0.0011280581545500053 0 -0.0015393324165504495 0.0011200998547756511 0 -0.001523606311356313 0.0011277562611789365 0 -0.0015272883184376791 0.0011358205952816949 0 -0.0015169920342066373 0.0011217496729935559 0 -0.0015253028739339528 0.0011227394127280666 0 -0.0015337297592637889 0.0011169804712238304 0 -0.0015253028739339528 0.0011227394127280666 0 -0.0015096520802102705 0.0011280581545500053 0 -0.001523606311356313 0.0011277562611789365 0 -0.0015169920342066373 0.0011217496729935559 0 -0.0015253028739339528 0.0011227394127280666 0 -0.0015096520802102705 0.0011280581545500053 0 -0.0015096520802102705 0.0011280581545500053 0 -0.001523606311356313 0.0011277562611789365 0 -0.0015109796329521553 0.0011318145206838876 0 -0.0015393324165504495 0.0011200998547756511 0 -0.0015253028739339528 0.0011227394127280666 0 -0.001523606311356313 0.0011277562611789365 0 -0.0015393324165504495 0.0011200998547756511 0 -0.0015253028739339528 0.0011227394127280666 0 -0.0015337297592637889 0.0011169804712238304 0 -0.0015485847554695582 0.0011102148392067945 0 -0.0015337297592637889 0.0011169804712238304 0 -0.0015354174953679457 0.0011116211985588115 0 -0.0015169920342066373 0.0011217496729935559 0 -0.0015337297592637889 0.0011169804712238304 0 -0.0015354174953679457 0.0011116211985588115 0 -0.0015169920342066373 0.0011217496729935559 0 -0.0015354174953679457 0.0011116211985588115 0 -0.0015136430544503644 0.0011169061730062694 0 -0.0015354174953679457 0.0011116211985588115 0 -0.0015136430544503644 0.0011169061730062694 0 -0.0015343049131051167 0.0011063381449067048 0 -0.0015136430544503644 0.0011169061730062694 0 -0.0015343049131051167 0.0011063381449067048 0 -0.0015191083629900325 0.001108209434605029 0 -0.0015599775375277694 0.0010956926510402086 0 -0.0015711395072724903 0.0010882158993271542 0 -0.001587322555166032 0.0010813434846518423 0 -0.0015343049131051167 0.0011063381449067048 0 -0.0015447413996641146 0.0010976079935747988 0 -0.0015191083629900325 0.001108209434605029 0 -0.0015343049131051167 0.0011063381449067048 0 -0.0015599775375277694 0.0010956926510402086 0 -0.0015447413996641146 0.0010976079935747988 0 -0.0015354174953679457 0.0011116211985588115 0 -0.0015343049131051167 0.0011063381449067048 0 -0.0015599775375277694 0.0010956926510402086 0 -0.0015485847554695582 0.0011102148392067945 0 -0.0015354174953679457 0.0011116211985588115 0 -0.0015599775375277694 0.0010956926510402086 0 -0.0015599775375277694 0.0010956926510402086 0 -0.001587322555166032 0.0010813434846518423 0 -0.0015447413996641146 0.0010976079935747988 0 -0.0015703322127968312 0.0011061738585419793 0 -0.0015613621700706853 0.00110014973474493 0 -0.0015711395072724903 0.0010882158993271542 0 -0.0015485847554695582 0.0011102148392067945 0 -0.0015599775375277694 0.0010956926510402086 0 -0.0015613621700706853 0.00110014973474493 0 -0.0015485847554695582 0.0011102148392067945 0 -0.0015703322127968312 0.0011061738585419793 0 -0.0015613621700706853 0.00110014973474493 0 -0.0015599775375277694 0.0010956926510402086 0 -0.0015613621700706853 0.00110014973474493 0 -0.0015711395072724903 0.0010882158993271542 0 -0.0021007420075636477 0.0012756225998711804 0 -0.0022498288393787065 0.0010116763119434992 0 -0.0019665976806831102 0.0009242539598995033 0 -0.0023542345562171498 0.0012077016059864527 0 -0.0021007420075636477 0.0012756225998711804 0 -0.0022498288393787065 0.0010116763119434992 0 -0.0021007420075636477 0.0012756225998711804 0 -0.0016538703094542166 0.0010384906163569136 0 -0.0019665976806831102 0.0009242539598995033 0 -0.0018217184897442184 0.0011662062174530173 0 -0.0016633245570309698 0.0010544306623501932 0 -0.0015711395072724903 0.0010882158993271542 0 -0.001587322555166032 0.0010813434846518423 0 -0.0016538703094542166 0.0010384906163569136 0 -0.0016538703094542166 0.0010384906163569136 0 -0.0017023531642807277 0.00086681523793072379 0 -0.0019665976806831102 0.0009242539598995033 0 -0.0016525947105513808 0.00075425160022771416 0 -0.0017567288795102725 0.00073028960168566208 0 -0.0017023531642807277 0.00086681523793072379 0 -0.0017567288795102725 0.00073028960168566208 0 -0.0017023531642807277 0.00086681523793072379 0 -0.0018669422094721173 0.000789402128443912 0 -0.0017023531642807277 0.00086681523793072379 0 -0.0018669422094721173 0.000789402128443912 0 -0.0019665976806831102 0.0009242539598995033 0 -0.0020376432626667659 0.00071378252591493675 0 -0.0018669422094721173 0.000789402128443912 0 -0.0019665976806831102 0.0009242539598995033 0 -0.0020376432626667659 0.00071378252591493675 0 -0.0021624721321448631 0.00084084453203159466 0 -0.0019665976806831102 0.0009242539598995033 0 -0.0021624721321448631 0.00084084453203159466 0 -0.0022498288393787065 0.0010116763119434992 0 -0.0019665976806831102 0.0009242539598995033 0 -0.0013207843941054349 0.00072728156305047276 0 -0.0013018771277535908 0.0006959542001708193 0 -0.0013341292942438381 0.00090626597792833744 0 -0.0013302418114505565 0.00075445493263806985 0 -0.0013341292942438381 0.00090626597792833744 0 -0.0012770486463571104 0.0008151501017651479 0 -0.0013429149736673145 0.00073697100817811292 0 -0.0013313025398798725 0.00087618341600392662 0 -0.0014548796261620121 0.00096329556334624387 0 -0.0013341292942438381 0.00090626597792833744 0 -0.00141585688157616 0.00082133729191534498 0 -0.0014548796261620121 0.00096329556334624387 0 -0.0013341292942438381 0.00090626597792833744 0 -0.0013080991637692406 0.00098597698946539694 0 -0.0013341292942438381 0.00090626597792833744 0 -0.0013080991637692406 0.00098597698946539694 0 -0.001264751708806974 0.00090157094794162491 0 -0.0013207843941054349 0.00072728156305047276 0 -0.0013341292942438381 0.00090626597792833744 0 -0.00141585688157616 0.00082133729191534498 0 -0.0014548796261620121 0.00096329556334624387 0 -0.00141585688157616 0.00082133729191534498 0 -0.001507262041977782 0.00084222698468740644 0 -0.0014762521672146225 0.00075010935923389968 0 -0.00141585688157616 0.00082133729191534498 0 -0.001507262041977782 0.00084222698468740644 0 -0.0015601016990556887 0.00073244822181114011 0 -0.0014762521672146225 0.00075010935923389968 0 -0.001507262041977782 0.00084222698468740644 0 -0.0015601016990556887 0.00073244822181114011 0 -0.001507262041977782 0.00084222698468740644 0 -0.0015825911509899987 0.00082225127945792184 0 -0.001507262041977782 0.00084222698468740644 0 -0.0015825911509899987 0.00082225127945792184 0 -0.0015702911098994642 0.00093509075705121324 0 -0.0017023531642807277 0.00086681523793072379 0 -0.0015825911509899987 0.00082225127945792184 0 -0.0015702911098994642 0.00093509075705121324 0 -0.0016525947105513808 0.00075425160022771416 0 -0.0017023531642807277 0.00086681523793072379 0 -0.0015825911509899987 0.00082225127945792184 0 -0.0016538703094542166 0.0010384906163569136 0 -0.0017023531642807277 0.00086681523793072379 0 -0.0015702911098994642 0.00093509075705121324 0 -0.0014548796261620121 0.00096329556334624387 0 -0.001507262041977782 0.00084222698468740644 0 -0.0015702911098994642 0.00093509075705121324 0 -0.0014548796261620121 0.00096329556334624387 0 -0.0015702911098994642 0.00093509075705121324 0 -0.0015397604047226723 0.0010851665746252192 0 -0.0016538703094542166 0.0010384906163569136 0 -0.0015702911098994642 0.00093509075705121324 0 -0.0015397604047226723 0.0010851665746252192 0 -0.001587322555166032 0.0010813434846518423 0 -0.0016538703094542166 0.0010384906163569136 0 -0.0015397604047226723 0.0010851665746252192 0 -0.0014548796261620121 0.00096329556334624387 0 -0.0015397604047226723 0.0010851665746252192 0 -0.0013783690493981893 0.0010996966738065939 0 -0.0014548796261620121 0.00096329556334624387 0 -0.0013080991637692406 0.00098597698946539694 0 -0.0013783690493981893 0.0010996966738065939 0 -0.0015397604047226723 0.0010851665746252192 0 -0.0013783690493981893 0.0010996966738065939 0 -0.0013830062969161538 0.001261321768961635 0 -0.0013783690493981893 0.0010996966738065939 0 -0.0013830062969161538 0.001261321768961635 0 -0.0012112544214196504 0.0011227313159631244 0 -0.001618413197500993 0.0010806033401177808 0 -0.0010164639349087325 0.001059071872985844 0 -0.0014597282877100676 0.0011051246361996521 0 -0.0015106400506544502 0.0011020568805211949 0 -0.0014707617541007154 0.0011172545825035515 0 -0.0010164639349087325 0.001059071872985844 0 -0.0013253278586138457 0.0011982355583034542 0 -0.0015397604047226723 0.0010851665746252192 0 -0.0014597282877100676 0.0011051246361996521 0 -0.0015106400506544502 0.0011020568805211949 0 -0.001587322555166032 0.0010813434846518423 0 -0.0015397604047226723 0.0010851665746252192 0 -0.0015447413996641146 0.0010976079935747988 0 -0.0015397604047226723 0.0010851665746252192 0 -0.0015447413996641146 0.0010976079935747988 0 -0.0015106400506544502 0.0011020568805211949 0 -0.0015106400506544502 0.0011020568805211949 0 -0.0014925672133286182 0.0011160662049836572 0 -0.0014707617541007154 0.0011172545825035515 0 -0.0015106400506544502 0.0011020568805211949 0 -0.0015191083629900325 0.001108209434605029 0 -0.0014925672133286182 0.0011160662049836572 0 -0.0015447413996641146 0.0010976079935747988 0 -0.0015106400506544502 0.0011020568805211949 0 -0.0015191083629900325 0.001108209434605029 0 -0.0015191083629900325 0.001108209434605029 0 -0.001493231637067738 0.0011215966827329456 0 -0.0014925672133286182 0.0011160662049836572 0 -0.0015136430544503644 0.0011169061730062694 0 -0.0015191083629900325 0.001108209434605029 0 -0.001493231637067738 0.0011215966827329456 0 -0.0014925672133286182 0.0011160662049836572 0 -0.0014692287261898356 0.0011288602011762746 0 -0.0014707617541007154 0.0011172545825035515 0 -0.001493231637067738 0.0011215966827329456 0 -0.0014925672133286182 0.0011160662049836572 0 -0.0014692287261898356 0.0011288602011762746 0 -0.001493231637067738 0.0011215966827329456 0 -0.0014692287261898356 0.0011288602011762746 0 -0.001467944174639688 0.0011337849673067116 0 -0.0014969692050684129 0.0011264874428825596 0 -0.001493231637067738 0.0011215966827329456 0 -0.001467944174639688 0.0011337849673067116 0 -0.0014969692050684129 0.0011264874428825596 0 -0.0015136430544503644 0.0011169061730062694 0 -0.001493231637067738 0.0011215966827329456 0 -0.0014531344269853681 0.0011300420441940041 0 -0.00144395275436671 0.0011398795362032451 0 -0.0014395540445702154 0.0011382313799263996 0 -0.0010164639349087325 0.001059071872985844 0 -0.00050722217764564482 0.0010882058242420224 0 -0.0014532185387379237 0.0011105254410302657 0 -0.0014531344269853681 0.0011300420441940041 0 -0.0014395540445702154 0.0011382313799263996 0 -0.0014692287261898356 0.0011288602011762746 0 -0.0014707617541007154 0.0011172545825035515 0 -0.0014531344269853681 0.0011300420441940041 0 -0.0014532185387379237 0.0011105254410302657 0 -0.0014707617541007154 0.0011172545825035515 0 -0.0014531344269853681 0.0011300420441940041 0 -0.0014692287261898356 0.0011288602011762746 0 -0.0014531344269853681 0.0011300420441940041 0 -0.00144395275436671 0.0011398795362032451 0 -0.00144395275436671 0.0011398795362032451 0 -0.0014105408082420081 0.0011302241102139488 0 -0.0014461739649022005 0.001137310069838797 0 -0.00144395275436671 0.0011398795362032451 0 -0.0014395540445702154 0.0011382313799263996 0 -0.0014461739649022005 0.001137310069838797 0 -0.00144395275436671 0.0011398795362032451 0 -0.0014105408082420081 0.0011302241102139488 0 -0.0014371345341233541 0.0011378231597001555 0 -0.0014105408082420081 0.0011302241102139488 0 -0.0014461739649022005 0.001137310069838797 0 -0.0014811998322231863 0.0010973263509596132 0 -0.0014105408082420081 0.0011302241102139488 0 -0.0014371345341233541 0.0011378231597001555 0 -0.0014180975790874654 0.0011401495642572234 0 -0.0014105408082420081 0.0011302241102139488 0 -0.0014180975790874654 0.0011401495642572234 0 -0.0013078453088090983 0.0010437177666027891 0 -0.0014515262726829609 0.0011381193266687905 0 -0.0014371345341233541 0.0011378231597001555 0 -0.0014180975790874654 0.0011401495642572234 0 -0.0014515262726829609 0.0011381193266687905 0 -0.0014371345341233541 0.0011378231597001555 0 -0.001467944174639688 0.0011337849673067116 0 -0.0014692287261898356 0.0011288602011762746 0 -0.00144395275436671 0.0011398795362032451 0 -0.001467944174639688 0.0011337849673067116 0 -0.00144395275436671 0.0011398795362032451 0 -0.0014371345341233541 0.0011378231597001555 0 -0.001467944174639688 0.0011337849673067116 0 -0.0014515262726829609 0.0011381193266687905 0 -0.001467944174639688 0.0011337849673067116 0 -0.0014829938238994792 0.0011364065908931356 0 -0.0014969692050684129 0.0011264874428825596 0 -0.001467944174639688 0.0011337849673067116 0 -0.0014829938238994792 0.0011364065908931356 0 -0.0011281842987642687 0.0014091994858994505 0 -0.0011909734282973471 0.0013260278861527638 0 -0.0014515262726829609 0.0011381193266687905 0 -0.0014829938238994792 0.0011364065908931356 0 -0.0014180975790874654 0.0011401495642572234 0 -0.0014969692050684129 0.0011264874428825596 0 -0.0015096520802102705 0.0011280581545500053 0 -0.0014829938238994792 0.0011364065908931356 0 -0.0014829938238994792 0.0011364065908931356 0 -0.0015198767012674702 0.0011403122813910401 0 -0.0014180975790874654 0.0011401495642572234 0 -0.0015096520802102705 0.0011280581545500053 0 -0.0014829938238994792 0.0011364065908931356 0 -0.0015109796329521553 0.0011318145206838876 0 -0.0014829938238994792 0.0011364065908931356 0 -0.0015272883184376791 0.0011358205952816949 0 -0.0015198767012674702 0.0011403122813910401 0 -0.0014829938238994792 0.0011364065908931356 0 -0.0015109796329521553 0.0011318145206838876 0 -0.0015272883184376791 0.0011358205952816949 0 -0.001523606311356313 0.0011277562611789365 0 -0.0015109796329521553 0.0011318145206838876 0 -0.0015272883184376791 0.0011358205952816949 0 -0.0013243977250074585 0.0012236035873524245 0 -0.0011281842987642687 0.0014091994858994505 0 -0.00069615698370525546 0.001885778467276553 0 -0.000493386393352726 0.0016939904425723787 0 -0.00059900159242613652 0.0014516871491866198 0 -0.0015680593299269923 0.001172260288013891 0 -0.0015564809228932827 0.0011415404204642122 0 -0.0015176447070162785 0.0011608387699520435 0 -0.0015680593299269923 0.001172260288013891 0 -0.0015176447070162785 0.0011608387699520435 0 -0.001514215365060052 0.0011656284185744114 0 -0.00028215941362725677 0.001806593286155743 0 -0.00069615698370525546 0.001885778467276553 0 -0.000493386393352726 0.0016939904425723787 0 -0.000950497559864699 0.0015078179351699051 0 -0.0011281842987642687 0.0014091994858994505 0 -0.00031758743429016674 0.0014424459690836515 0 -0.00028215941362725677 0.001806593286155743 0 -0.000493386393352726 0.0016939904425723787 0 -0.00031758743429016674 0.0014424459690836515 0 -0.000493386393352726 0.0016939904425723787 0 -0.00059900159242613652 0.0014516871491866198 0 -0.00069615698370525546 0.001885778467276553 0 -0.00059900159242613652 0.0014516871491866198 0 -0.00097206983353456667 0.0014985942385735539 0 -0.00059900159242613652 0.0014516871491866198 0 -0.00097206983353456667 0.0014985942385735539 0 -0.00084353075475779066 0.0010928735663717974 0 -0.00031758743429016674 0.0014424459690836515 0 -0.00059900159242613652 0.0014516871491866198 0 -0.00044915806158662915 0.0010988237659409854 0 -0.00059900159242613652 0.0014516871491866198 0 -0.00084353075475779066 0.0010928735663717974 0 -0.00044915806158662915 0.0010988237659409854 0 -0.00084353075475779066 0.0010928735663717974 0 -0.00044915806158662915 0.0010988237659409854 0 -0.00062947848939640409 0.00076706434154629854 0 -0.00027292481558044532 0.00079411761668466633 0 -0.00044915806158662915 0.0010988237659409854 0 -0.00062947848939640409 0.00076706434154629854 0 -0.00084353075475779066 0.0010928735663717974 0 -0.00062947848939640409 0.00076706434154629854 0 -0.0010786742199270277 0.0007974965858476425 0 -0.00084353075475779066 0.0010928735663717974 0 -0.0010786742199270277 0.0007974965858476425 0 -0.0013078453088090983 0.0010437177666027891 0 -0.0010786742199270277 0.0007974965858476425 0 -0.0014571227295524891 0.0009037784593902956 0 -0.0013078453088090983 0.0010437177666027891 0 -0.0014571227295524891 0.0009037784593902956 0 -0.0013078453088090983 0.0010437177666027891 0 -0.0014811998322231863 0.0010973263509596132 0 -0.0014105408082420081 0.0011302241102139488 0 -0.0013078453088090983 0.0010437177666027891 0 -0.0014811998322231863 0.0010973263509596132 0 -0.0011909734282973471 0.0013260278861527638 0 -0.0013168360042158684 0.0010510435771796068 0 -0.00097206983353456667 0.0014985942385735539 0 -0.00084353075475779066 0.0010928735663717974 0 -0.0013078453088090983 0.0010437177666027891 0 -0.0012664013747383969 0.00046915523750609283 0 -0.0008355727014491952 0.00052099803413975391 0 -0.0010183047763684364 1.8929904489360062e-05 0 0.00090627632982874919 0.00047142487009709953 0 0.00090779717390872901 0.00045697466170637179 0 0.00087970423091812417 0.00047429391561271329 0 -0.00017337755979458501 0.00046949022783410155 0 -0.00012144877257123886 0.00022110343537034562 0 0.00090627632982874919 0.00047142487009709953 0 0.00090779717390872901 0.00045697466170637179 0 0.00092294609464163937 0.00046663855916920618 0 0.00093400011702511696 0.0004842942688994978 0 0.00092175145202282418 0.00045886791070415809 0 0.00090779717390872901 0.00045697466170637179 0 -0.00024842519188223285 0.00068062605407413497 0 -0.00017337755979458501 0.00046949022783410155 0 0.00092175145202282418 0.00045886791070415809 0 0.00090779717390872901 0.00045697466170637179 0 0.00092294609464163937 0.00046663855916920618 0 -0.0010786742199270277 0.0007974965858476425 0 -0.0012664013747383969 0.00046915523750609283 0 -0.0008355727014491952 0.00052099803413975391 0 -0.0010786742199270277 0.0007974965858476425 0 -0.0014571227295524891 0.0009037784593902956 0 -0.0012664013747383969 0.00046915523750609283 0 -0.00062947848939640409 0.00076706434154629854 0 -0.0010786742199270277 0.0007974965858476425 0 -0.0008355727014491952 0.00052099803413975391 0 -0.0008355727014491952 0.00052099803413975391 0 -0.00039490817889869216 0.00052676612024185631 0 -0.00060745623637003501 0.00026462848322343142 0 -0.00062947848939640409 0.00076706434154629854 0 -0.0008355727014491952 0.00052099803413975391 0 -0.00039490817889869216 0.00052676612024185631 0 -0.00027292481558044532 0.00079411761668466633 0 -0.00062947848939640409 0.00076706434154629854 0 -0.00039490817889869216 0.00052676612024185631 0 -0.00060745623637003501 0.00026462848322343142 0 -0.00059452610565914339 -9.9044274618360789e-05 0 -0.00011115844895444354 0.00024858555170275581 0 -0.00039490817889869216 0.00052676612024185631 0 -0.00060745623637003501 0.00026462848322343142 0 -0.00011115844895444354 0.00024858555170275581 0 -0.0008355727014491952 0.00052099803413975391 0 -0.00060745623637003501 0.00026462848322343142 0 -0.0010183047763684364 1.8929904489360062e-05 0 -0.00060745623637003501 0.00026462848322343142 0 -0.00059452610565914339 -9.9044274618360789e-05 0 -0.0010183047763684364 1.8929904489360062e-05 0 0.00058462055186153954 0.00031559813878741054 0 -0.00012144877257123886 0.00022110343537034562 0 -0.00059452610565914339 -9.9044274618360789e-05 0 -0.00075582504780117785 -0.00043762651529045081 0 -0.0010183047763684364 1.8929904489360062e-05 0 -0.00059452610565914339 -9.9044274618360789e-05 0 -0.00075582504780117785 -0.00043762651529045081 0 -0.00022249195746800016 -0.00024665619817730659 0 -0.00059452610565914339 -9.9044274618360789e-05 0 -0.00022249195746800016 -0.00024665619817730659 0 -0.00011115844895444354 0.00024858555170275581 0 0.00058462055186153954 0.00031559813878741054 0 0.0004329090777606911 -1.2774995045806929e-06 0 0.0012496238047575688 0.00036803061886743227 0 0.0012309922253655712 0.00037413882128953073 0 0.0012536308684905004 0.00036478762357389097 0 0.0012496238047575688 0.00036803061886743227 0 0.0012309922253655712 0.00037413882128953073 0 0.0012353764467785378 0.00037204134872244202 0 0.00058462055186153954 0.00031559813878741054 0 0.0011830688319558924 0.00027172481565338597 0 0.00058462055186153954 0.00031559813878741054 0 0.0011219676837294894 0.00045028297448805696 0 0.00085889981473111449 0.00050283059750427946 0 0.00088844647139177217 0.00049468017229434562 0 0.00090071119483396342 0.00051856313977875974 0 0.00085889981473111449 0.00050283059750427946 0 0.00088844647139177217 0.00049468017229434562 0 0.00087970423091812417 0.00047429391561271329 0 0.00090627632982874919 0.00047142487009709953 0 0.00088844647139177217 0.00049468017229434562 0 0.00087970423091812417 0.00047429391561271329 0 0.00090627632982874919 0.00047142487009709953 0 0.0009138801490483217 0.00048984719621108066 0 0.00092294609464163937 0.00046663855916920618 0 0.00096569401209610863 0.00043931085715622354 0 0.00095855441936706887 0.00042757674611716679 0 0.00090627632982874919 0.00047142487009709953 0 0.00088844647139177217 0.00049468017229434562 0 0.0009138801490483217 0.00048984719621108066 0 0.00088844647139177217 0.00049468017229434562 0 0.0009138801490483217 0.00048984719621108066 0 0.00090071119483396342 0.00051856313977875974 0 0.0010406483652749417 0.0003799075885911614 0 0.0010601957689634765 0.00037518335252678149 0 0.0010790689426592181 0.00037701368431312173 0 0.00096569401209610863 0.00043931085715622354 0 0.0011219676837294894 0.00045028297448805696 0 0.0010601957689634765 0.00037518335252678149 0 0.001082644898590742 0.00037935431411914035 0 0.0010580912923438645 0.00036565646050353435 0 0.0010601957689634765 0.00037518335252678149 0 0.0010790689426592181 0.00037701368431312173 0 0.001082644898590742 0.00037935431411914035 0 0.0011219676837294894 0.00045028297448805696 0 0.0010795858960874444 0.0004081017504154081 0 0.0011140571468530899 0.0003927861181496841 0 0.001082644898590742 0.00037935431411914035 0 0.0011069544228460757 0.00035714603456779353 0 0.001082644898590742 0.00037935431411914035 0 0.0011069544228460757 0.00035714603456779353 0 0.0010580912923438645 0.00036565646050353435 0 0.0011219676837294894 0.00045028297448805696 0 0.0011844719002144447 0.00032447127261940172 0 0.0011630454776988919 0.00038516248635411837 0 0.0011791847568139214 0.00034921139966588176 0 0.0012017232694216168 0.00037302474592868819 0 0.0012140039930506449 0.00040377377215530883 0 0.0011630454776988919 0.00038516248635411837 0 0.0012017232694216168 0.00037302474592868819 0 0.0011140571468530899 0.0003927861181496841 0 0.0011791847568139214 0.00034921139966588176 0 0.0011069544228460757 0.00035714603456779353 0 0.0011069544228460757 0.00035714603456779353 0 0.0011487184222276705 0.00032067994104541502 0 0.0010817669952243785 0.0003463708088668887 0 0.0011791847568139214 0.00034921139966588176 0 0.0011069544228460757 0.00035714603456779353 0 0.0011487184222276705 0.00032067994104541502 0 0.0011791847568139214 0.00034921139966588176 0 0.0011487184222276705 0.00032067994104541502 0 0.0012184044383740165 0.00032494904051664293 0 0.0011487184222276705 0.00032067994104541502 0 0.0012083966485317385 0.00030066194848737618 0 0.0012184044383740165 0.00032494904051664293 0 0.0012083966485317385 0.00030066194848737618 0 0.0012339301069052573 0.00027767534962874828 0 0.00118365036666451 0.0002861218491319462 0 0.0011487184222276705 0.00032067994104541502 0 0.0012083966485317385 0.00030066194848737618 0 0.00118365036666451 0.0002861218491319462 0 0.0011487184222276705 0.00032067994104541502 0 0.0011189953719979693 0.00029308725944350822 0 0.00118365036666451 0.0002861218491319462 0 0.0012522867811472513 0.00029803193923499022 0 0.0012883533737549702 0.00030043091454967923 0 0.0012871885590036594 0.00027380445397063994 0 0.0012522867811472513 0.00029803193923499022 0 0.0012586200061209956 0.00031733920144984138 0 0.0012883533737549702 0.00030043091454967923 0 0.0012083966485317385 0.00030066194848737618 0 0.0012522867811472513 0.00029803193923499022 0 0.0012184044383740165 0.00032494904051664293 0 0.0012083966485317385 0.00030066194848737618 0 0.0012522867811472513 0.00029803193923499022 0 0.0012339301069052573 0.00027767534962874828 0 0.0012522867811472513 0.00029803193923499022 0 0.0012184044383740165 0.00032494904051664293 0 0.0012586200061209956 0.00031733920144984138 0 0.0012586200061209956 0.00031733920144984138 0 0.001248814907158229 0.00033688332475696194 0 0.0012794892334361358 0.00032523327730889934 0 0.0012586200061209956 0.00031733920144984138 0 0.0012794892334361358 0.00032523327730889934 0 0.0012883533737549702 0.00030043091454967923 0 0.0012184044383740165 0.00032494904051664293 0 0.0012586200061209956 0.00031733920144984138 0 0.001248814907158229 0.00033688332475696194 0 0.001248814907158229 0.00033688332475696194 0 0.0012646158778895536 0.00034383918620958266 0 0.0012794892334361358 0.00032523327730889934 0 0.001248814907158229 0.00033688332475696194 0 0.0012461076989309903 0.00035694319735243157 0 0.0012646158778895536 0.00034383918620958266 0 0.001248814907158229 0.00033688332475696194 0 0.0012461076989309903 0.00035694319735243157 0 0.0012221601779317175 0.00035323252382890867 0 0.0012461076989309903 0.00035694319735243157 0 0.001260225920259601 0.00035728333617302937 0 0.0012646158778895536 0.00034383918620958266 0 0.0012184044383740165 0.00032494904051664293 0 0.001248814907158229 0.00033688332475696194 0 0.0012221601779317175 0.00035323252382890867 0 0.0011791847568139214 0.00034921139966588176 0 0.0012184044383740165 0.00032494904051664293 0 0.0012221601779317175 0.00035323252382890867 0 0.0011791847568139214 0.00034921139966588176 0 0.0012221601779317175 0.00035323252382890867 0 0.0012017232694216168 0.00037302474592868819 0 0.0012140039930506449 0.00040377377215530883 0 0.0012017232694216168 0.00037302474592868819 0 0.0012353764467785378 0.00037204134872244202 0 0.0012221601779317175 0.00035323252382890867 0 0.0012017232694216168 0.00037302474592868819 0 0.0012353764467785378 0.00037204134872244202 0 0.0012496238047575688 0.00036803061886743227 0 0.0012461076989309903 0.00035694319735243157 0 0.001260225920259601 0.00035728333617302937 0 0.0012496238047575688 0.00036803061886743227 0 0.0012461076989309903 0.00035694319735243157 0 0.0012353764467785378 0.00037204134872244202 0 0.0012461076989309903 0.00035694319735243157 0 0.0012221601779317175 0.00035323252382890867 0 0.0012353764467785378 0.00037204134872244202 0 0.0012496238047575688 0.00036803061886743227 0 0.0012568853931293378 0.00036573443535183639 0 0.001260225920259601 0.00035728333617302937 0 0.0012568853931293378 0.00036573443535183639 0 0.001260225920259601 0.00035728333617302937 0 0.0012703761709325458 0.00035828712095920667 0 0.0012568853931293378 0.00036573443535183639 0 0.0012703761709325458 0.00035828712095920667 0 0.0012505445834862414 0.0003661706316683644 0 0.0012703761709325458 0.00035828712095920667 0 0.0012977064659989868 0.00033344226461855367 0 0.0012959918290117629 0.00034169288259825229 0 0.0012703761709325458 0.00035828712095920667 0 0.0012977064659989868 0.00033344226461855367 0 0.0012785167403752662 0.00034150335486953431 0 0.0012977064659989868 0.00033344226461855367 0 0.0012785167403752662 0.00034150335486953431 0 0.0012973845531388728 0.00032568478699452204 0 0.001260225920259601 0.00035728333617302937 0 0.0012703761709325458 0.00035828712095920667 0 0.0012785167403752662 0.00034150335486953431 0 0.001260225920259601 0.00035728333617302937 0 0.0012785167403752662 0.00034150335486953431 0 0.0012646158778895536 0.00034383918620958266 0 0.0012785167403752662 0.00034150335486953431 0 0.0012646158778895536 0.00034383918620958266 0 0.0012794892334361358 0.00032523327730889934 0 0.0012794892334361358 0.00032523327730889934 0 0.0012973845531388728 0.00032568478699452204 0 0.0013129255512433068 0.00030697526703083177 0 0.0012785167403752662 0.00034150335486953431 0 0.0012794892334361358 0.00032523327730889934 0 0.0012973845531388728 0.00032568478699452204 0 0.0012977064659989868 0.00033344226461855367 0 0.0012973845531388728 0.00032568478699452204 0 0.0013160550098804326 0.00031827232270917398 0 0.0012973845531388728 0.00032568478699452204 0 0.0013160550098804326 0.00031827232270917398 0 0.0013129255512433068 0.00030697526703083177 0 0.0013129255512433068 0.00030697526703083177 0 0.0013377219684210411 0.00030370492184414552 0 0.0013375272900014578 0.0002881485954303777 0 0.0013129255512433068 0.00030697526703083177 0 0.0013182005444258257 0.00028027139636514114 0 0.0013375272900014578 0.0002881485954303777 0 0.0013160550098804326 0.00031827232270917398 0 0.0013129255512433068 0.00030697526703083177 0 0.0013377219684210411 0.00030370492184414552 0 0.0013129255512433068 0.00030697526703083177 0 0.0012883533737549702 0.00030043091454967923 0 0.0013182005444258257 0.00028027139636514114 0 0.0012794892334361358 0.00032523327730889934 0 0.0013129255512433068 0.00030697526703083177 0 0.0012883533737549702 0.00030043091454967923 0 0.0013618154613386784 0.00029947592790500826 0 0.0013338232275648336 0.00031173331387236144 0 0.0013465986051939772 0.00030628120900821822 0 0.0013548099041620733 0.000301407978951715 0 0.0013618154613386784 0.00029947592790500826 0 0.0013465986051939772 0.00030628120900821822 0 0.0013548099041620733 0.000301407978951715 0 0.0013465986051939772 0.00030628120900821822 0 0.001349392804937769 0.00030224060117916895 0 0.0013548099041620733 0.000301407978951715 0 0.0013526414392079249 0.00030040205870522543 0 0.001349392804937769 0.00030224060117916895 0 0.0013548099041620733 0.000301407978951715 0 0.0013607668046849506 0.00029965410309976289 0 0.0013526414392079249 0.00030040205870522543 0 0.0013548099041620733 0.000301407978951715 0 0.0013618154613386784 0.00029947592790500826 0 0.0013607668046849506 0.00029965410309976289 0 0.0013618154613386784 0.00029947592790500826 0 0.0013377219684210411 0.00030370492184414552 0 0.001366621070473731 0.00028444092605052371 0 0.0013377219684210411 0.00030370492184414552 0 0.001366621070473731 0.00028444092605052371 0 0.0013375272900014578 0.0002881485954303777 0 0.0013618154613386784 0.00029947592790500826 0 0.0013377219684210411 0.00030370492184414552 0 0.0013338232275648336 0.00031173331387236144 0 0.0013160550098804326 0.00031827232270917398 0 0.0013377219684210411 0.00030370492184414552 0 0.0013338232275648336 0.00031173331387236144 0 0.0012977064659989868 0.00033344226461855367 0 0.0013160550098804326 0.00031827232270917398 0 0.0013153369728880382 0.00032532613140222197 0 0.0013160550098804326 0.00031827232270917398 0 0.0013338232275648336 0.00031173331387236144 0 0.0013153369728880382 0.00032532613140222197 0 0.0013338232275648336 0.00031173331387236144 0 0.0013153369728880382 0.00032532613140222197 0 0.0013337022781957628 0.0003162933454169336 0 0.0013337022781957628 0.0003162933454169336 0 0.0013465986051939772 0.00030628120900821822 0 0.0013425286136180615 0.0003097657679397046 0 0.0013338232275648336 0.00031173331387236144 0 0.0013337022781957628 0.0003162933454169336 0 0.0013465986051939772 0.00030628120900821822 0 0.0013465986051939772 0.00030628120900821822 0 0.0013451451848649593 0.00030615484447696573 0 0.001349392804937769 0.00030224060117916895 0 0.0013465986051939772 0.00030628120900821822 0 0.0013451451848649593 0.00030615484447696573 0 0.0013425286136180615 0.0003097657679397046 0 0.0013337022781957628 0.0003162933454169336 0 0.0013430345024261936 0.00031296972219300805 0 0.0013322530991975866 0.00032237045105928025 0 0.0013337022781957628 0.0003162933454169336 0 0.0013425286136180615 0.0003097657679397046 0 0.0013430345024261936 0.00031296972219300805 0 0.0013451451848649593 0.00030615484447696573 0 0.0013425286136180615 0.0003097657679397046 0 0.0013430345024261936 0.00031296972219300805 0 0.0013322530991975866 0.00032237045105928025 0 0.0013149175177313889 0.00033905714183278323 0 0.0013505825854628227 0.00032216804890192429 0 0.0013430345024261936 0.00031296972219300805 0 0.0013322530991975866 0.00032237045105928025 0 0.0013505825854628227 0.00032216804890192429 0 0.0013149175177313889 0.00033905714183278323 0 0.0012979065385900885 0.00036698671687292997 0 0.0013505825854628227 0.00032216804890192429 0 0.0013337022781957628 0.0003162933454169336 0 0.0013322530991975866 0.00032237045105928025 0 0.0013194951200397186 0.00032758960839626819 0 0.0013322530991975866 0.00032237045105928025 0 0.0013194951200397186 0.00032758960839626819 0 0.0013149175177313889 0.00033905714183278323 0 0.0012977064659989868 0.00033344226461855367 0 0.0013153369728880382 0.00032532613140222197 0 0.0012959918290117629 0.00034169288259825229 0 0.0013153369728880382 0.00032532613140222197 0 0.0013337022781957628 0.0003162933454169336 0 0.0013194951200397186 0.00032758960839626819 0 0.0013153369728880382 0.00032532613140222197 0 0.0013194951200397186 0.00032758960839626819 0 0.0012959918290117629 0.00034169288259825229 0 0.0013149175177313889 0.00033905714183278323 0 0.0012959918290117629 0.00034169288259825229 0 0.0012801775718981777 0.00035611170355637889 0 0.0013194951200397186 0.00032758960839626819 0 0.0013149175177313889 0.00033905714183278323 0 0.0012959918290117629 0.00034169288259825229 0 0.0012703761709325458 0.00035828712095920667 0 0.0012959918290117629 0.00034169288259825229 0 0.0012801775718981777 0.00035611170355637889 0 0.0012703761709325458 0.00035828712095920667 0 0.0012801775718981777 0.00035611170355637889 0 0.0012525863740875734 0.00036648156097347312 0 0.0012801775718981777 0.00035611170355637889 0 0.0012979065385900885 0.00036698671687292997 0 0.0012525863740875734 0.00036648156097347312 0 0.0011331567038175843 0.00041943275101341017 0 0.001165246702462989 0.00039952987726889682 0 0.001183287437912397 0.00037181555736302927 0 0.0012165179475253014 0.00038710245645910961 0 0.0012669538951099873 0.00034997917452201348 0 0.0013149175177313889 0.00033905714183278323 0 0.0012801775718981777 0.00035611170355637889 0 0.0012979065385900885 0.00036698671687292997 0 0.0011331567038175843 0.00041943275101341017 0 0.0011328784284240256 0.0004187713403972872 0 0.001165246702462989 0.00039952987726889682 0 0.0011331567038175843 0.00041943275101341017 0 0.0011305096807503515 0.00037819624370351713 0 0.0011328784284240256 0.0004187713403972872 0 0.0011305096807503515 0.00037819624370351713 0 0.0010888087966368016 0.00032091945082203305 0 0.0011328784284240256 0.0004187713403972872 0 0.0011331567038175843 0.00041943275101341017 0 0.0011305096807503515 0.00037819624370351713 0 0.0011931976474944563 0.00036141053971155772 0 0.0010975499013578948 0.00032210210046954344 0 0.0011206743745673354 0.0003534076956590573 0 0.0011305096807503515 0.00037819624370351713 0 0.0011319593828587103 0.00034739793385195697 0 0.0010888087966368016 0.00032091945082203305 0 0.0011319593828587103 0.00034739793385195697 0 0.0010888087966368016 0.00032091945082203305 0 0.0011310674938096957 0.00033141176712677968 0 0.0010888087966368016 0.00032091945082203305 0 0.0011310674938096957 0.00033141176712677968 0 0.0010397025433773409 0.00028822672570783767 0 0.0010888087966368016 0.00032091945082203305 0 0.0010397025433773409 0.00028822672570783767 0 0.0011062668047929535 0.0003192858469673754 0 0.0011310674938096957 0.00033141176712677968 0 0.0011931976474944563 0.00036141053971155772 0 0.0012430846090772641 0.00032722680674334261 0 0.0011310674938096957 0.00033141176712677968 0 0.0012430846090772641 0.00032722680674334261 0 0.0010397025433773409 0.00028822672570783767 0 0.0011319593828587103 0.00034739793385195697 0 0.0011310674938096957 0.00033141176712677968 0 0.0011931976474944563 0.00036141053971155772 0 0.0011305096807503515 0.00037819624370351713 0 0.0011319593828587103 0.00034739793385195697 0 0.0011931976474944563 0.00036141053971155772 0 0.0011931976474944563 0.00036141053971155772 0 0.0012525863740875734 0.00036648156097347312 0 0.0012505445834862414 0.0003661706316683644 0 0.0012979065385900885 0.00036698671687292997 0 0.0011931976474944563 0.00036141053971155772 0 0.0012525863740875734 0.00036648156097347312 0 0.0012165179475253014 0.00038710245645910961 0 0.0012014284792853114 0.00036079221889001123 0 0.0012703761709325458 0.00035828712095920667 0 0.0012525863740875734 0.00036648156097347312 0 0.0012505445834862414 0.0003661706316683644 0 0.0012568853931293378 0.00036573443535183639 0 0.0012505445834862414 0.0003661706316683644 0 0.0012536308684905004 0.00036478762357389097 0 0.0012496238047575688 0.00036803061886743227 0 0.0012568853931293378 0.00036573443535183639 0 0.0012536308684905004 0.00036478762357389097 0 0.0004329090777606911 -1.2774995045806929e-06 0 0.00084510935382093786 0.00016612670146820666 0 -0.00022249195746800016 -0.00024665619817730659 0 0.00041235123131718262 -3.53616005703328e-05 0 -0.00011115844895444354 0.00024858555170275581 0 0.0011931976474944563 0.00036141053971155772 0 0.0012505445834862414 0.0003661706316683644 0 0.0012430846090772641 0.00032722680674334261 0 0.0012505445834862414 0.0003661706316683644 0 0.0012536308684905004 0.00036478762357389097 0 0.0012430846090772641 0.00032722680674334261 0 0.00041235123131718262 -3.53616005703328e-05 0 0.0003173568618055594 0.00031693371629858185 0 0.00063891884322965476 0.00034668805060543336 0 0.0003173568618055594 0.00031693371629858185 0 -0.00011115844895444354 0.00024858555170275581 0 0.00039339958885543431 0.00068063083037155428 0 0.00041235123131718262 -3.53616005703328e-05 0 0.0003173568618055594 0.00031693371629858185 0 -0.00011115844895444354 0.00024858555170275581 0 0.0003173568618055594 0.00031693371629858185 0 0.00056711519251886173 0.00053551447873371571 0 0.00063891884322965476 0.00034668805060543336 0 -0.00011115844895444354 0.00024858555170275581 0 -0.00012308226420176786 0.00059432233832521148 0 0.00014536336878635356 0.00061553764004337516 0 -0.00039490817889869216 0.00052676612024185631 0 -0.00011115844895444354 0.00024858555170275581 0 -0.00012308226420176786 0.00059432233832521148 0 -8.3526499645790273e-06 0.00077860846529900437 0 -0.00027292481558044532 0.00079411761668466633 0 -0.00012308226420176786 0.00059432233832521148 0 -0.00027292481558044532 0.00079411761668466633 0 -0.00039490817889869216 0.00052676612024185631 0 -0.00012308226420176786 0.00059432233832521148 0 -8.3503243473291228e-05 0.00027752152823185141 0 0.00024073655820648824 0.00061707052380230182 0 0.0003173568618055594 0.00031693371629858185 0 0.00039339958885543431 0.00068063083037155428 0 0.00056711519251886173 0.00053551447873371571 0 -8.3526499645790273e-06 0.00077860846529900437 0 -0.00012308226420176786 0.00059432233832521148 0 0.00014536336878635356 0.00061553764004337516 0 0.00039339958885543431 0.00068063083037155428 0 0.00061703303225675544 0.00077373454163308429 0 0.00056711519251886173 0.00053551447873371571 0 0.00061703303225675544 0.00077373454163308429 0 0.00082989679065009964 0.00051063825433758506 0 0.00097751980306836229 0.00066847128911082612 0 0.00063830725534108417 0.00076465207445232809 0 0.00095269720567619034 0.00069696793927041519 0 0.00061703303225675544 0.00077373454163308429 0 0.00056711519251886173 0.00053551447873371571 0 0.00082989679065009964 0.00051063825433758506 0 0.00056711519251886173 0.00053551447873371571 0 0.00082989679065009964 0.00051063825433758506 0 0.00063891884322965476 0.00034668805060543336 0 0.00097751980306836229 0.00066847128911082612 0 0.0010436426334765076 0.00047592749061844004 0 0.0011857495131705018 0.00055127601136458154 0 0.00095269720567619034 0.00069696793927041519 0 0.00084864725897474736 0.00048883849883024101 0 0.00082989679065009964 0.00051063825433758506 0 0.00097751980306836229 0.00066847128911082612 0 0.0010436426334765076 0.00047592749061844004 0 0.00082989679065009964 0.00051063825433758506 0 0.0010436426334765076 0.00047592749061844004 0 0.0010397025433773409 0.00028822672570783767 0 0.0010436426334765076 0.00047592749061844004 0 0.0010397025433773409 0.00028822672570783767 0 0.0011108154705967615 0.00038143660340824955 0 0.0010397025433773409 0.00028822672570783767 0 0.0011108154705967615 0.00038143660340824955 0 0.0011062668047929535 0.0003192858469673754 0 0.00082989679065009964 0.00051063825433758506 0 0.0010397025433773409 0.00028822672570783767 0 0.00063891884322965476 0.00034668805060543336 0 0.00041235123131718262 -3.53616005703328e-05 0 0.0010397025433773409 0.00028822672570783767 0 0.00063891884322965476 0.00034668805060543336 0 0.00084510935382093786 0.00016612670146820666 0 0.0010212799316165267 0.00026750283950281034 0 0.001076428431550014 0.00027629507470477792 0 0.0011354029752343997 0.00030598020236191343 0 0.0010920256936741328 0.00032293099942925444 0 0.0011354029752343997 0.00030598020236191343 0 0.0011108154705967615 0.00038143660340824955 0 0.0011857495131705018 0.00055127601136458154 0 0.001076428431550014 0.00027629507470477792 0 0.0011354029752343997 0.00030598020236191343 0 0.0011545143647183555 0.00020912195858888697 0 0.0012243642181734215 0.00025936695980976863 0 0.00084864725897474736 0.00048883849883024101 0 0.0011354029752343997 0.00030598020236191343 0 0.0011108154705967615 0.00038143660340824955 0 0.0011062668047929535 0.0003192858469673754 0 0.0010436426334765076 0.00047592749061844004 0 0.0011108154705967615 0.00038143660340824955 0 0.0011857495131705018 0.00055127601136458154 0 0.00084864725897474736 0.00048883849883024101 0 0.00052733544481783901 0.00024564893148337714 0 0.001076428431550014 0.00027629507470477792 0 0.0011545143647183555 0.00020912195858888697 0 0.0010540625346886518 0.00022341216622666119 0 6.3349679758090602e-05 0.0002701545105306156 0 9.1916599431119398e-05 0.00030467507396717941 0 1.639011751010168e-05 0.00031180813010683449 0 0.00052733544481783901 0.00024564893148337714 0 0.00027737434424589936 0.00023015362319590225 0 -2.7727041048232397e-05 0.0002479607681197897 0 1.639011751010168e-05 0.00031180813010683449 0 -3.8410197967079151e-05 0.00029278826676633644 0 1.639011751010168e-05 0.00031180813010683449 0 -3.8410197967079151e-05 0.00029278826676633644 0 -5.8649883347128294e-05 0.00031608632543917814 0 -6.5184334371586346e-05 0.00027485409065798665 0 -5.8681992877554671e-05 0.00029372714610689197 0 -7.1914167932133642e-05 0.00029487886657619035 0 -6.5184334371586346e-05 0.00027485409065798665 0 -5.8681992877554671e-05 0.00029372714610689197 0 -3.8410197967079151e-05 0.00029278826676633644 0 -5.8681992877554671e-05 0.00029372714610689197 0 -5.8649883347128294e-05 0.00031608632543917814 0 -7.1914167932133642e-05 0.00029487886657619035 0 -5.8681992877554671e-05 0.00029372714610689197 0 -3.8410197967079151e-05 0.00029278826676633644 0 -5.8649883347128294e-05 0.00031608632543917814 0 0.00027737434424589936 0.00023015362319590225 0 0.00047867663956551766 0.00026992583896795919 0 -2.0696147010427926e-05 0.00029487334655753882 0 -1.5771134959699685e-05 0.00037482053020513868 0 -5.9891986534610473e-05 0.00034055578523754679 0 0.00095963141076400914 0.00023749249329609734 0 0.0010198271248285727 0.00027440681715976953 0 0.00097153974677891225 0.00030556546764472133 0 0.001076428431550014 0.00027629507470477792 0 0.0010198271248285727 0.00027440681715976953 0 0.0010367280907760974 0.00032359044049453463 0 0.001076428431550014 0.00027629507470477792 0 0.0010540625346886518 0.00022341216622666119 0 0.0010198271248285727 0.00027440681715976953 0 0.0010540625346886518 0.00022341216622666119 0 0.00095963141076400914 0.00023749249329609734 0 0.0010198271248285727 0.00027440681715976953 0 0.0010198271248285727 0.00027440681715976953 0 0.0010367280907760974 0.00032359044049453463 0 0.00097153974677891225 0.00030556546764472133 0 0.0010367280907760974 0.00032359044049453463 0 0.00097153974677891225 0.00030556546764472133 0 0.00098537941260985968 0.00036849798121984389 0 0.00047867663956551766 0.00026992583896795919 0 0.00084068194201285598 0.00017356947818230475 0 0.00064204271331514307 -0.00010422385893761714 0 0.00065910213273958121 4.6925397357704097e-06 0 0.00060864331972824276 -4.6837500625947909e-05 0 0.00065910213273958121 4.6925397357704097e-06 0 0.00059487346920733162 8.1370514942305196e-07 0 0.00060864331972824276 -4.6837500625947909e-05 0 0.00065910213273958121 4.6925397357704097e-06 0 0.00061511575185592882 4.142254512275489e-05 0 0.00059487346920733162 8.1370514942305196e-07 0 0.0010367280907760974 0.00032359044049453463 0 0.00098537941260985968 0.00036849798121984389 0 0.0010705429699760373 0.00037950263862456587 0 0.0011332755813250326 0.00035444591393263178 0 0.0011061632283677677 0.00031572667345827038 0 0.0010705429699760373 0.00037950263862456587 0 0.0010920256936741328 0.00032293099942925444 0 0.001120135161309574 0.00031578046490343811 0 0.001076428431550014 0.00027629507470477792 0 0.0010367280907760974 0.00032359044049453463 0 0.0010920256936741328 0.00032293099942925444 0 0.0010367280907760974 0.00032359044049453463 0 0.0010705429699760373 0.00037950263862456587 0 0.0010920256936741328 0.00032293099942925444 0 0.0011354029752343997 0.00030598020236191343 0 0.0010920256936741328 0.00032293099942925444 0 0.001120135161309574 0.00031578046490343811 0 0.0010888087966368016 0.00032091945082203305 0 0.0011062668047929535 0.0003192858469673754 0 0.001120135161309574 0.00031578046490343811 0 0.0011354029752343997 0.00030598020236191343 0 0.0011062668047929535 0.0003192858469673754 0 0.001120135161309574 0.00031578046490343811 0 0.0011254952750162674 0.00029694660568119999 0 0.001120135161309574 0.00031578046490343811 0 0.0011137089107092644 0.00029491730877387296 0 0.0010888087966368016 0.00032091945082203305 0 0.001120135161309574 0.00031578046490343811 0 0.0011137089107092644 0.00029491730877387296 0 0.0011328784284240256 0.0004187713403972872 0 0.001165246702462989 0.00039952987726889682 0 0.0012193834160559819 0.00038178096499981082 0 0.0011137089107092644 0.00029491730877387296 0 0.0011199965379094894 0.00029220927270942013 0 0.0011180217914125753 0.00028875949636790926 0 0.0011206743745673354 0.0003534076956590573 0 0.001188520126902861 0.00032703231126102807 0 0.0011254952750162674 0.00029694660568119999 0 0.0011137089107092644 0.00029491730877387296 0 0.0011199965379094894 0.00029220927270942013 0 0.0011254952750162674 0.00029694660568119999 0 0.0011199965379094894 0.00029220927270942013 0 0.0011231717496906753 0.00029250004393198593 0 0.0011199965379094894 0.00029220927270942013 0 0.0011231717496906753 0.00029250004393198593 0 0.0011211608565317973 0.00028963201304490235 0 0.0011231717496906753 0.00029250004393198593 0 0.0011211608565317973 0.00028963201304490235 0 0.0011228768361642974 0.00029003517389459638 0 0.0011199965379094894 0.00029220927270942013 0 0.0011211608565317973 0.00028963201304490235 0 0.0011180217914125753 0.00028875949636790926 0 0.0011211608565317973 0.00028963201304490235 0 0.0011180217914125753 0.00028875949636790926 0 0.0011202198131184734 0.00028751017126929019 0 0.0011211608565317973 0.00028963201304490235 0 0.0011202198131184734 0.00028751017126929019 0 0.001122353016446413 0.00028759558711359876 0 0.0011211608565317973 0.00028963201304490235 0 0.001122353016446413 0.00028759558711359876 0 0.0011228768361642974 0.00029003517389459638 0 0.001165246702462989 0.00039952987726889682 0 0.0012193834160559819 0.00038178096499981082 0 0.001183287437912397 0.00037181555736302927 0 0.0013430345024261936 0.00031296972219300805 0 0.0013505825854628227 0.00032216804890192429 0 0.0013430790153581755 0.00030867965998054316 0 0.0012193834160559819 0.00038178096499981082 0 0.0013365004229732406 0.00029366533738832168 0 0.0013296128037369786 0.00029504621561795208 0 0.001188520126902861 0.00032703231126102807 0 0.001088873496670767 0.00028644733574186091 0 0.0012669538951099873 0.00034997917452201348 0 0.0013193715524584381 0.00030190434862854566 0 0.0012193834160559819 0.00038178096499981082 0 0.001183287437912397 0.00037181555736302927 0 0.0013296128037369786 0.00029504621561795208 0 0.0013505825854628227 0.00032216804890192429 0 0.0013430790153581755 0.00030867965998054316 0 0.0013296128037369786 0.00029504621561795208 0 0.0013451451848649593 0.00030615484447696573 0 0.0013430345024261936 0.00031296972219300805 0 0.0013430790153581755 0.00030867965998054316 0 0.0013451451848649593 0.00030615484447696573 0 0.0013430790153581755 0.00030867965998054316 0 0.0013434295684776182 0.00030459158264748896 0 0.0013430790153581755 0.00030867965998054316 0 0.0013434295684776182 0.00030459158264748896 0 0.0013386521828458835 0.00030167675506186239 0 0.0013434295684776182 0.00030459158264748896 0 0.0013443760198229423 0.00030233913212099285 0 0.0013386521828458835 0.00030167675506186239 0 0.0013443760198229423 0.00030233913212099285 0 0.0013386521828458835 0.00030167675506186239 0 0.0013405828053679419 0.00029970407283061413 0 0.0013451451848649593 0.00030615484447696573 0 0.0013443760198229423 0.00030233913212099285 0 0.001349392804937769 0.00030224060117916895 0 0.0013451451848649593 0.00030615484447696573 0 0.0013434295684776182 0.00030459158264748896 0 0.0013443760198229423 0.00030233913212099285 0 0.0013430790153581755 0.00030867965998054316 0 0.0013349516019434565 0.00029861169287782874 0 0.0013296128037369786 0.00029504621561795208 0 0.0013430790153581755 0.00030867965998054316 0 0.0013386521828458835 0.00030167675506186239 0 0.0013349516019434565 0.00029861169287782874 0 0.0013386521828458835 0.00030167675506186239 0 0.0013405828053679419 0.00029970407283061413 0 0.0013349516019434565 0.00029861169287782874 0 0.001088873496670767 0.00028644733574186091 0 0.0009863487156378534 0.00025751339030305643 0 0.0011202198131184734 0.00028751017126929019 0 0.0011192982321382861 0.00028421796415252281 0 0.001122353016446413 0.00028759558711359876 0 0.0011180217914125753 0.00028875949636790926 0 0.0011202198131184734 0.00028751017126929019 0 0.0011192982321382861 0.00028421796415252281 0 0.00092040204074714043 0.00031536785544221678 0 0.00085820402589695168 0.00032080189535930737 0 0.00084484287597826719 0.00022373784675842084 0 0.00092040204074714043 0.00031536785544221678 0 0.00091593913358116918 0.00032218433691748793 0 0.00085820402589695168 0.00032080189535930737 0 0.00091593913358116918 0.00032218433691748793 0 0.00089388758639361596 0.00034667902419726563 0 0.00094012265660287238 0.00034257770676496448 0 0.001088873496670767 0.00028644733574186091 0 0.0010784467959908041 0.00029712645592651891 0 0.00091593913358116918 0.00032218433691748793 0 0.00089388758639361596 0.00034667902419726563 0 0.00085820402589695168 0.00032080189535930737 0 0.0013607668046849506 0.00029965410309976289 0 0.0013534161792469756 0.00030042654914622937 0 0.0013526414392079249 0.00030040205870522543 0 0.0013607668046849506 0.00029965410309976289 0 0.0013534161792469756 0.00030042654914622937 0 0.0013491233694279414 0.00030296773876783365 0 0.0013437399312420841 0.00030459682609031418 0 0.0013491233694279414 0.00030296773876783365 0 0.001346929197944985 0.00029961776174600179 0 0.0013486509762215936 0.00030471402499271133 0 0.0013607668046849506 0.00029965410309976289 0 0.0013491233694279414 0.00030296773876783365 0 0.0013534161792469756 0.00030042654914622937 0 0.0013491233694279414 0.00030296773876783365 0 0.001346929197944985 0.00029961776174600179 0 0.0012974767646114407 0.00032619478336768661 0 0.0013047788390032073 0.00032001078310643047 0 0.0013534161792469756 0.00030042654914622937 0 0.001346929197944985 0.00029961776174600179 0 0.0013526414392079249 0.00030040205870522543 0 0.001346929197944985 0.00029961776174600179 0 0.0013526414392079249 0.00030040205870522543 0 0.0013464045429599945 0.00030027870364758422 0 0.001346929197944985 0.00029961776174600179 0 0.001343419865472687 0.0002993338447720012 0 0.0013464045429599945 0.00030027870364758422 0 0.001346929197944985 0.00029961776174600179 0 0.001343419865472687 0.0002993338447720012 0 0.0013396894267224187 0.00029834090314924806 0 0.0013526414392079249 0.00030040205870522543 0 0.001349392804937769 0.00030224060117916895 0 0.0013464045429599945 0.00030027870364758422 0 0.0013443760198229423 0.00030233913212099285 0 0.001349392804937769 0.00030224060117916895 0 0.0013464045429599945 0.00030027870364758422 0 0.0013443760198229423 0.00030233913212099285 0 0.0013464045429599945 0.00030027870364758422 0 0.0013405828053679419 0.00029970407283061413 0 0.001343419865472687 0.0002993338447720012 0 0.0013464045429599945 0.00030027870364758422 0 0.0013405828053679419 0.00029970407283061413 0 0.0013437399312420841 0.00030459682609031418 0 0.0013296128037369786 0.00029504621561795208 0 0.0013396894267224187 0.00029834090314924806 0 0.0013405828053679419 0.00029970407283061413 0 0.0013349516019434565 0.00029861169287782874 0 0.0013396894267224187 0.00029834090314924806 0 0.001088873496670767 0.00028644733574186091 0 0.0012974767646114407 0.00032619478336768661 0 0.00091780977686101574 0.00031704260400153289 0 0.00091593913358116918 0.00032218433691748793 0 0.00094012265660287238 0.00034257770676496448 0 0.0013365004229732406 0.00029366533738832168 0 0.0013437399312420841 0.00030459682609031418 0 0.0013296128037369786 0.00029504621561795208 0 0.001343419865472687 0.0002993338447720012 0 0.0013405828053679419 0.00029970407283061413 0 0.0013396894267224187 0.00029834090314924806 0 0.0013349516019434565 0.00029861169287782874 0 0.0013296128037369786 0.00029504621561795208 0 0.0013396894267224187 0.00029834090314924806 0 0.0013437399312420841 0.00030459682609031418 0 0.001346929197944985 0.00029961776174600179 0 0.0013396894267224187 0.00029834090314924806 0 0.00074506870298762632 0.00031602032186628105 0 0.0006507701475089192 0.00036056666829906186 0 0.00075660164429380069 0.00040698168907560137 0 0.00074506870298762632 0.00031602032186628105 0 0.0006507701475089192 0.00036056666829906186 0 0.00065629344168638697 0.00027161204976927801 0 0.00089388758639361596 0.00034667902419726563 0 0.00085820402589695168 0.00032080189535930737 0 0.00086104080061391326 0.00035956002346396583 0 0.00084382297675144539 0.00034766891976318085 0 0.00085820402589695168 0.00032080189535930737 0 0.00086104080061391326 0.00035956002346396583 0 0.00078415115267222986 0.00038979863206901091 0 0.00085938332311409735 0.00032343869095290611 0 0.00074506870298762632 0.00031602032186628105 0 0.00075660164429380069 0.00040698168907560137 0 0.00085820402589695168 0.00032080189535930737 0 0.00074506870298762632 0.00031602032186628105 0 0.00085820402589695168 0.00032080189535930737 0 0.00079897191599044657 0.00026869242036966828 0 0.00085820402589695168 0.00032080189535930737 0 0.00079897191599044657 0.00026869242036966828 0 0.00084484287597826719 0.00022373784675842084 0 0.00079897191599044657 0.00026869242036966828 0 0.00084484287597826719 0.00022373784675842084 0 0.00074718832240281633 0.00021835335404627094 0 0.00074506870298762632 0.00031602032186628105 0 0.00079897191599044657 0.00026869242036966828 0 0.00074718832240281633 0.00021835335404627094 0 0.00072456202795469617 0.00021000469518403267 0 0.00065629344168638697 0.00027161204976927801 0 0.00060420963866711136 0.00018236655485984844 0 0.00074494483536630986 0.00031104239818274088 0 0.00073632770690496745 0.00019724142708373455 0 0.00074506870298762632 0.00031602032186628105 0 0.00072456202795469617 0.00021000469518403267 0 0.00065629344168638697 0.00027161204976927801 0 0.00062521362468059957 0.00013418247741882588 0 0.00067601380183774805 0.00011790820286202032 0 0.00060420963866711136 0.00018236655485984844 0 0.00072456202795469617 0.00021000469518403267 0 0.00071926634665511421 9.0731993301348165e-05 0 0.00060420963866711136 0.00018236655485984844 0 0.00073632770690496745 0.00019724142708373455 0 0.00084249797151047113 0.00021136809996213682 0 0.00084249797151047113 0.00021136809996213682 0 0.00058725603960171446 0.00017351592166353706 0 0.0009863487156378534 0.00025751339030305643 0 0.00084249797151047113 0.00021136809996213682 0 0.00084484287597826719 0.00022373784675842084 0 0.00074718832240281633 0.00021835335404627094 0 0.00074373855246241975 0.00011812254131871273 0 0.001122353016446413 0.00028759558711359876 0 0.0011228768361642974 0.00029003517389459638 0 0.0011239386412196406 0.00029031868653897483 0 0.0011332755813250326 0.00035444591393263178 0 0.00084249797151047113 0.00021136809996213682 0 0.0011254952750162674 0.00029694660568119999 0 0.0011231717496906753 0.00029250004393198593 0 0.0011239386412196406 0.00029031868653897483 0 0.00098537941260985968 0.00036849798121984389 0 0.0010705429699760373 0.00037950263862456587 0 0.00099496752559903134 0.00043522460751504218 0 0.0011231717496906753 0.00029250004393198593 0 0.0011228768361642974 0.00029003517389459638 0 0.0011239386412196406 0.00029031868653897483 0 0.00065910213273958121 4.6925397357704097e-06 0 0.00064986521163853418 9.0435102051939582e-05 0 0.00067984193114106533 0.00012004419653121828 0 0.00084068194201285598 0.00017356947818230475 0 0.00084249797151047113 0.00021136809996213682 0 0.00065910213273958121 4.6925397357704097e-06 0 0.00064986521163853418 9.0435102051939582e-05 0 0.00061511575185592882 4.142254512275489e-05 0 0.00062521362468059957 0.00013418247741882588 0 0.0006465771862075166 0.0001173813114204682 0 0.00061179057169832049 8.9855299080252195e-05 0 0.00062521362468059957 0.00013418247741882588 0 0.0006465771862075166 0.0001173813114204682 0 0.00067601380183774805 0.00011790820286202032 0 0.00064986521163853418 9.0435102051939582e-05 0 0.0006465771862075166 0.0001173813114204682 0 0.00061179057169832049 8.9855299080252195e-05 0 0.00064986521163853418 9.0435102051939582e-05 0 0.0006465771862075166 0.0001173813114204682 0 0.00067601380183774805 0.00011790820286202032 0 0.00069354261668249078 9.0731139720797739e-05 0 0.00084249797151047113 0.00021136809996213682 0 0.00064986521163853418 9.0435102051939582e-05 0 0.00061179057169832049 8.9855299080252195e-05 0 0.00061511575185592882 4.142254512275489e-05 0 0.00061179057169832049 8.9855299080252195e-05 0 0.00061511575185592882 4.142254512275489e-05 0 0.00056459665693563718 4.0386182246049438e-05 0 0.00056718843218335057 0.00011145951797731312 0 0.00061179057169832049 8.9855299080252195e-05 0 0.00056459665693563718 4.0386182246049438e-05 0 0.00056718843218335057 0.00011145951797731312 0 0.00050716098595025903 6.9028506739761823e-05 0 0.00056459665693563718 4.0386182246049438e-05 0 0.00062521362468059957 0.00013418247741882588 0 0.00056718843218335057 0.00011145951797731312 0 0.00061179057169832049 8.9855299080252195e-05 0 0.00050716098595025903 6.9028506739761823e-05 0 0.00049862213692925168 0.00014473740430677914 0 0.0004129993945422192 7.6643129870102822e-05 0 0.00050716098595025903 6.9028506739761823e-05 0 0.0004129993945422192 7.6643129870102822e-05 0 0.00046726657389108438 1.5854553816037291e-05 0 0.00050716098595025903 6.9028506739761823e-05 0 0.00051772760358899188 1.6108199698648916e-05 0 0.00056459665693563718 4.0386182246049438e-05 0 0.00056718843218335057 0.00011145951797731312 0 0.00050716098595025903 6.9028506739761823e-05 0 0.00049862213692925168 0.00014473740430677914 0 0.00049862213692925168 0.00014473740430677914 0 0.00048419703774694295 0.00024565286770894215 0 0.00041876444239605172 0.00019271729644552605 0 0.00049862213692925168 0.00014473740430677914 0 0.00041876444239605172 0.00019271729644552605 0 0.0004129993945422192 7.6643129870102822e-05 0 0.00049862213692925168 0.00014473740430677914 0 0.00060420963866711136 0.00018236655485984844 0 0.00048419703774694295 0.00024565286770894215 0 0.00056718843218335057 0.00011145951797731312 0 0.00049862213692925168 0.00014473740430677914 0 0.00060420963866711136 0.00018236655485984844 0 0.00062521362468059957 0.00013418247741882588 0 0.00056718843218335057 0.00011145951797731312 0 0.00060420963866711136 0.00018236655485984844 0 0.00065629344168638697 0.00027161204976927801 0 0.00060420963866711136 0.00018236655485984844 0 0.00056083773916763998 0.00029173448862849751 0 0.00060420963866711136 0.00018236655485984844 0 0.00056083773916763998 0.00029173448862849751 0 0.00048419703774694295 0.00024565286770894215 0 0.0006507701475089192 0.00036056666829906186 0 0.00065629344168638697 0.00027161204976927801 0 0.00056083773916763998 0.00029173448862849751 0 0.00048419703774694295 0.00024565286770894215 0 0.00042320678989308581 0.00032252718289615061 0 0.00041876444239605172 0.00019271729644552605 0 0.00056083773916763998 0.00029173448862849751 0 0.00048419703774694295 0.00024565286770894215 0 0.00042320678989308581 0.00032252718289615061 0 0.00059875810376785392 7.4264446019621727e-05 0 0.00052690810314860487 2.8646072096295801e-05 0 0.00053755236285062287 0.00012141384191044092 0 0.0006068179043788453 0.00026335314955602265 0 0.00016020596610020983 8.8430725469822852e-05 0 0.00056083773916763998 0.00029173448862849751 0 0.00053567339071610136 0.00040140160121392593 0 0.00042320678989308581 0.00032252718289615061 0 0.0006507701475089192 0.00036056666829906186 0 0.00053567339071610136 0.00040140160121392593 0 0.00065552021789281191 0.00048255575927048082 0 0.0006507701475089192 0.00036056666829906186 0 0.00056083773916763998 0.00029173448862849751 0 0.00053567339071610136 0.00040140160121392593 0 -5.3019531990402212e-05 8.2180847038083317e-08 0 8.6185828770878723e-05 -3.7586375371397227e-06 0 0.00014882001360577655 1.5216233592161417e-05 0 -5.3019531990402212e-05 8.2180847038083317e-08 0 8.6185828770878723e-05 -3.7586375371397227e-06 0 -3.8926557043723045e-05 -4.4081724647704987e-05 0 0.00016020596610020983 8.8430725469822852e-05 0 0.00038304678064982311 6.8807326680285654e-05 0 8.6185828770878723e-05 -3.7586375371397227e-06 0 0.00011815021443815473 -3.4138726623514353e-05 0 0.00022051854998395799 2.1910243678373881e-05 0 8.6185828770878723e-05 -3.7586375371397227e-06 0 0.00011815021443815473 -3.4138726623514353e-05 0 -3.8926557043723045e-05 -4.4081724647704987e-05 0 -0.0005002903331043654 -9.2270927051179023e-05 0 -0.00044894414366060826 -5.8947008580599545e-05 0 -0.00050019564366153178 -5.6461006278356707e-06 0 0.00016020596610020983 8.8430725469822852e-05 0 -5.2556355103149525e-05 0.0001004101159704035 0 0.00016020596610020983 8.8430725469822852e-05 0 -0.00028929534736855169 -7.1816697308621657e-05 0 -5.3019531990402212e-05 8.2180847038083317e-08 0 -3.8926557043723045e-05 -4.4081724647704987e-05 0 -0.00032492148439032965 -2.6388534765476089e-07 0 -0.00028929534736855169 -7.1816697308621657e-05 0 -0.00032517627319854478 1.7025583534628696e-08 0 -0.00044894414366060826 -5.8947008580599545e-05 0 -0.00047019160144569073 2.4100697065400853e-05 0 -0.00032559624624168768 -1.3743838544569093e-07 0 -0.00047019160144569073 2.4100697065400853e-05 0 -0.00032559624624168768 -1.3743838544569093e-07 0 -0.00050567019171491874 1.6503539121171881e-07 0 -5.2556355103149525e-05 0.0001004101159704035 0 -2.3491833456919223e-05 3.2720697952842302e-05 0 -0.00044894414366060826 -5.8947008580599545e-05 0 -0.00047019160144569073 2.4100697065400853e-05 0 -0.00050019564366153178 -5.6461006278356707e-06 0 -0.00047019160144569073 2.4100697065400853e-05 0 -0.00050019564366153178 -5.6461006278356707e-06 0 -0.00048731947513263213 3.3987468389218516e-05 0 -0.00047019160144569073 2.4100697065400853e-05 0 -0.00048731947513263213 3.3987468389218516e-05 0 -0.00054145430722120661 2.3392175185354269e-05 0 -0.00054145430722120661 2.3392175185354269e-05 0 -0.00050567019171491874 1.6503539121171881e-07 0 -0.00068572858725324867 -1.8481368344367312e-07 0 -0.00047019160144569073 2.4100697065400853e-05 0 -0.00054145430722120661 2.3392175185354269e-05 0 -0.00050567019171491874 1.6503539121171881e-07 0 -0.00068646529635450022 2.8105791451225912e-08 0 -0.00074545028230368925 6.7774065600460123e-06 0 -0.00078026671388537383 -4.0526490291147542e-06 0 -0.00054145430722120661 2.3392175185354269e-05 0 -0.00068572858725324867 -1.8481368344367312e-07 0 -0.00047223259100103251 -8.2178099133043949e-05 0 -0.00068653649926246076 5.434170103436478e-08 0 -0.00025703071875679919 4.1654696227901569e-05 0 -0.00068646529635450022 2.8105791451225912e-08 0 -0.00074545028230368925 6.7774065600460123e-06 0 -0.00083545130287882138 -2.5890900703197314e-08 0 -0.00076076319360650368 4.498997475147946e-06 0 -0.000786761989317109 -1.9817071272859637e-05 0 -0.00075625053895609826 5.3404170947992663e-06 0 -0.00074545028230368925 6.7774065600460123e-06 0 -0.00076076319360650368 4.498997475147946e-06 0 -0.00078026671388537383 -4.0526490291147542e-06 0 -0.00074545028230368925 6.7774065600460123e-06 0 -0.00083545130287882138 -2.5890900703197314e-08 0 -0.000786761989317109 -1.9817071272859637e-05 0 -0.00087759199720992308 3.5148687461768836e-05 0 -0.00041946726604164762 0.00025126663467217727 0 -0.00083592509391979431 3.0801508651658805e-08 0 -0.00087759199720992308 3.5148687461768836e-05 0 -0.00083596272077837176 7.2279859970968977e-11 0 -0.00086691426966557523 5.0683581827734797e-11 0 -0.00086700521846876978 6.8170309754818644e-08 0 -0.00074545028230368925 6.7774065600460123e-06 0 -0.00076076319360650368 4.498997475147946e-06 0 -0.000786761989317109 -1.9817071272859637e-05 0 -0.0008673017892259563 -1.7085170528619344e-07 0 -0.00092244838762841805 -1.5947478622681512e-05 0 -0.0010478988942587467 6.3099167605661307e-06 0 -0.00086702602988649998 1.168065080853428e-07 0 -0.00087759199720992308 3.5148687461768836e-05 0 -0.00076838835442711066 0.00015939242736133597 0 -0.00068968731801192671 0.00016001031069043389 0 -0.00069646357048228438 8.2875258392433937e-05 0 -0.00076076319360650368 4.498997475147946e-06 0 -0.00075625053895609826 5.3404170947992663e-06 0 -0.00078026671388537383 -4.0526490291147542e-06 0 -0.00041946726604164762 0.00025126663467217727 0 -0.00025703071875679919 4.1654696227901569e-05 0 -0.00048731947513263213 3.3987468389218516e-05 0 -0.00054145430722120661 2.3392175185354269e-05 0 -0.00047223259100103251 -8.2178099133043949e-05 0 -2.3491833456919223e-05 3.2720697952842302e-05 0 -0.00025703071875679919 4.1654696227901569e-05 0 0.0004129993945422192 7.6643129870102822e-05 0 0.00040232068085831462 -3.5291614420485191e-05 0 0.00046726657389108438 1.5854553816037291e-05 0 0.00040232068085831462 -3.5291614420485191e-05 0 0.00046726657389108438 1.5854553816037291e-05 0 0.00049439662251327468 -2.1378062617065061e-05 0 0.00040232068085831462 -3.5291614420485191e-05 0 0.00049439662251327468 -2.1378062617065061e-05 0 0.00052483946955068559 -7.1085870139446961e-05 0 0.00050716098595025903 6.9028506739761823e-05 0 0.00046726657389108438 1.5854553816037291e-05 0 0.00051772760358899188 1.6108199698648916e-05 0 0.00046726657389108438 1.5854553816037291e-05 0 0.00051772760358899188 1.6108199698648916e-05 0 0.00049439662251327468 -2.1378062617065061e-05 0 0.00049439662251327468 -2.1378062617065061e-05 0 0.00055496580509485627 -2.321523803304151e-05 0 0.00052483946955068559 -7.1085870139446961e-05 0 0.00051772760358899188 1.6108199698648916e-05 0 0.00049439662251327468 -2.1378062617065061e-05 0 0.00055496580509485627 -2.321523803304151e-05 0 0.00061511575185592882 4.142254512275489e-05 0 0.00059487346920733162 8.1370514942305196e-07 0 0.00056459665693563718 4.0386182246049438e-05 0 0.00051772760358899188 1.6108199698648916e-05 0 0.00056459665693563718 4.0386182246049438e-05 0 0.00055496580509485627 -2.321523803304151e-05 0 0.00059487346920733162 8.1370514942305196e-07 0 0.00056459665693563718 4.0386182246049438e-05 0 0.00055496580509485627 -2.321523803304151e-05 0 0.00059487346920733162 8.1370514942305196e-07 0 0.00055496580509485627 -2.321523803304151e-05 0 0.00060864331972824276 -4.6837500625947909e-05 0 -1.5771134959699685e-05 0.00037482053020513868 0 -7.5523552862958012e-05 0.00038483959765852569 0 -0.000101733767659355 0.00039506961524158685 0 0.00064204271331514307 -0.00010422385893761714 0 0.00058266649310507502 -6.1438769944175125e-05 0 0.00052483946955068559 -7.1085870139446961e-05 0 0.00047867663956551766 0.00026992583896795919 0 0.00024888439411769876 0.00015632021542694662 0 0.00055496580509485627 -2.321523803304151e-05 0 0.00060864331972824276 -4.6837500625947909e-05 0 0.00058266649310507502 -6.1438769944175125e-05 0 0.00064204271331514307 -0.00010422385893761714 0 0.00060864331972824276 -4.6837500625947909e-05 0 0.00058266649310507502 -6.1438769944175125e-05 0 0.00055496580509485627 -2.321523803304151e-05 0 0.00058266649310507502 -6.1438769944175125e-05 0 0.00052483946955068559 -7.1085870139446961e-05 0 -1.5771134959699685e-05 0.00037482053020513868 0 -7.5523552862958012e-05 0.00038483959765852569 0 -5.9891986534610473e-05 0.00034055578523754679 0 -0.00019056256040194885 0.00037498130816821884 0 -0.00018724639277701563 0.00041380112689409077 0 -0.000101733767659355 0.00039506961524158685 0 -0.00019056256040194885 0.00037498130816821884 0 -7.5523552862958012e-05 0.00038483959765852569 0 -0.000101733767659355 0.00039506961524158685 0 -0.00025703071875679919 4.1654696227901569e-05 0 0.00024888439411769876 0.00015632021542694662 0 -0.00041946726604164762 0.00025126663467217727 0 2.0331984342680254e-05 0.00041955348929171405 0 -0.00018471761145436112 0.00038545260769072667 0 -7.5523552862958012e-05 0.00038483959765852569 0 -0.00013269006927460347 0.00035521715262625718 0 -7.5523552862958012e-05 0.00038483959765852569 0 -0.00013269006927460347 0.00035521715262625718 0 -9.7338644479636171e-05 0.00034961550559004797 0 -0.00013269006927460347 0.00035521715262625718 0 -0.00012020577204464937 0.00031800715410592781 0 -0.00018600861018607434 0.00031589991999510957 0 -0.00013269006927460347 0.00035521715262625718 0 -0.00012020577204464937 0.00031800715410592781 0 -9.7338644479636171e-05 0.00034961550559004797 0 0.00027737434424589936 0.00023015362319590225 0 -0.00024572454171407313 0.00034318364357927445 0 -2.0696147010427926e-05 0.00029487334655753882 0 -0.00012020577204464937 0.00031800715410592781 0 -5.9891986534610473e-05 0.00034055578523754679 0 -7.5523552862958012e-05 0.00038483959765852569 0 -5.9891986534610473e-05 0.00034055578523754679 0 -9.7338644479636171e-05 0.00034961550559004797 0 -0.00012020577204464937 0.00031800715410592781 0 -5.9891986534610473e-05 0.00034055578523754679 0 -9.7338644479636171e-05 0.00034961550559004797 0 -5.8649883347128294e-05 0.00031608632543917814 0 -0.00012020577204464937 0.00031800715410592781 0 -9.6457993944011258e-05 0.00029232704951827571 0 -5.8649883347128294e-05 0.00031608632543917814 0 -9.6457993944011258e-05 0.00029232704951827571 0 -7.1914167932133642e-05 0.00029487886657619035 0 -6.5184334371586346e-05 0.00027485409065798665 0 -9.6457993944011258e-05 0.00029232704951827571 0 -7.1914167932133642e-05 0.00029487886657619035 0 -0.00012020577204464937 0.00031800715410592781 0 -0.00013481902864530469 0.00027442314903351278 0 -0.00018600861018607434 0.00031589991999510957 0 -0.00012020577204464937 0.00031800715410592781 0 -9.6457993944011258e-05 0.00029232704951827571 0 -0.00013481902864530469 0.00027442314903351278 0 -0.0011345762492161436 1.2228980770248284e-05 0 -0.0011103603214895033 1.7250976317252124e-05 0 -0.0011482217293735466 5.517623896841024e-05 0 -0.00060970175148516862 0.0001510899561386693 0 -0.0008157528551031685 0.0001242585308462913 0 -0.0011708989607874768 2.0049902272345475e-05 0 -0.0011554688127291589 1.2317412236406172e-05 0 -0.001175756939832348 9.6768293596253929e-06 0 -0.0011345762492161436 1.2228980770248284e-05 0 -0.0011554688127291589 1.2317412236406172e-05 0 -0.0011482217293735466 5.517623896841024e-05 0 -0.0011653034964654971 -8.6380180608810456e-06 0 -0.0011829408104977335 3.2134959153453684e-05 0 -0.0011464590966142466 -2.5110733054373535e-05 0 -0.0008157528551031685 0.0001242585308462913 0 -0.0011434075940332299 1.0517188226187592e-06 0 -0.0011708989607874768 2.0049902272345475e-05 0 -0.0011554688127291589 1.2317412236406172e-05 0 -0.0011708989607874768 2.0049902272345475e-05 0 -0.001127422458552542 1.267938029332776e-05 0 -0.001175756939832348 9.6768293596253929e-06 0 -0.0012417128630582443 1.8690732156118995e-05 0 -0.0011708989607874768 2.0049902272345475e-05 0 -0.0011832299605241327 1.3589515721618668e-05 0 -0.0012417128630582443 1.8690732156118995e-05 0 -0.0011832299605241327 1.3589515721618668e-05 0 -0.0011673244499682538 1.8141485551156829e-07 0 -0.0011673244499682538 1.8141485551156829e-07 0 -0.001127422458552542 1.267938029332776e-05 0 -0.0010478988942587467 6.3099167605661307e-06 0 -0.0011832299605241327 1.3589515721618668e-05 0 -0.0011673244499682538 1.8141485551156829e-07 0 -0.001127422458552542 1.267938029332776e-05 0 -0.0011708989607874768 2.0049902272345475e-05 0 -0.0011832299605241327 1.3589515721618668e-05 0 -0.001127422458552542 1.267938029332776e-05 0 -0.00092244838762841805 -1.5947478622681512e-05 0 -0.0010478988942587467 6.3099167605661307e-06 0 -0.001175756939832348 9.6768293596253929e-06 0 -0.001127422458552542 1.267938029332776e-05 0 -0.0010478988942587467 6.3099167605661307e-06 0 -0.001175756939832348 9.6768293596253929e-06 0 -0.00087759199720992308 3.5148687461768836e-05 0 -0.0008157528551031685 0.0001242585308462913 0 -0.0008673017892259563 -1.7085170528619344e-07 0 -0.0011673244499682538 1.8141485551156829e-07 0 -0.0010478988942587467 6.3099167605661307e-06 0 -0.00018471761145436112 0.00038545260769072667 0 -0.00013269006927460347 0.00035521715262625718 0 -0.00018600861018607434 0.00031589991999510957 0 -0.00041946726604164762 0.00025126663467217727 0 -0.0008157528551031685 0.0001242585308462913 0 -0.00045363936771129141 0.00057155814452694033 0 -0.00059153141991070827 0.00048821076989235786 0 -0.00046855002255018197 0.00044953403197482678 0 -0.00045363936771129141 0.00057155814452694033 0 -0.00037194844727990803 0.00049406988412895785 0 -0.00046855002255018197 0.00044953403197482678 0 -0.00078804081521448657 0.00052081016465694674 0 -0.0013218076785972603 0.00044236029271688278 0 -0.00078804081521448657 0.00052081016465694674 0 -0.00038245383486288352 0.0004934107861625101 0 -0.00078804081521448657 0.00052081016465694674 0 -0.00066273122485576027 0.00044650727256623359 0 -0.00078059483594782302 0.00040414395018435306 0 -0.0008129303814632616 0.00035168149632721507 0 -0.00075933516851856247 0.00036780669961463189 0 -0.00083754078817247879 0.00037755650993080188 0 -0.00078059483594782302 0.00040414395018435306 0 -0.0008129303814632616 0.00035168149632721507 0 -0.0027655220547344282 0.00018029285920489373 0 -0.0028254706322266821 0.00024362292439946342 0 -0.0028951485289287824 0.00025182543359720107 0 -0.0021071484376703952 0.00038449685513814591 0 -0.0022870922884015085 0.00037927804536601063 0 -0.0016651170210590024 0.00040937751490103559 0 -0.0017369107755726327 0.00038878116534178485 0 -0.0017150358809022203 0.00045654717382548891 0 -0.0019295436838072512 0.00028222737154507711 0 -0.0018212502736829569 0.00031416895169068218 0 -0.0021205205389446557 0.00047542250204693704 0 -0.0014153444515463429 0.00041697215511727741 0 -0.0012263617844970236 0.00037922569166085079 0 -0.0014153444515463429 0.00041697215511727741 0 -0.0022870922884015085 0.00037927804536601063 0 -0.0024759580009626179 0.00029818195905634683 0 -0.0028389003460095466 0.00027768070070956067 0 -0.0027475094361061078 0.00018259415534587032 0 -0.0027464203077697744 0.00023178784972980449 0 -0.0028254706322266821 0.00024362292439946342 0 -0.0027655220547344282 0.00018029285920489373 0 -0.0027419714623260708 0.00018727596667770114 0 -0.0028254706322266821 0.00024362292439946342 0 -0.0014153444515463429 0.00041697215511727741 0 -0.0021071484376703952 0.00038449685513814591 0 -0.00078804081521448657 0.00052081016465694674 0 -0.0014153444515463429 0.00041697215511727741 0 -0.0013982043388555132 0.00038737085175907375 0 -0.0014820167180620042 0.00047093231556341841 0 -0.0014189466293744032 0.00048944449356516304 0 -0.0022666577665773043 0.00054474695103417603 0 -0.0020659285834206276 0.000603932953967634 0 -0.0015223695337617971 0.00021710832223900261 0 -0.0027370134285010484 0.00018411395723693944 0 -0.0027011437248265335 0.00019453810652725849 0 -0.0026745238203384619 0.00014126038893646581 0 -0.0021071484376703952 0.00038449685513814591 0 -0.0013218076785972603 0.00044236029271688278 0 -0.0024759580009626179 0.00029818195905634683 0 -0.0013218076785972603 0.00044236029271688278 0 -0.0013982043388555132 0.00038737085175907375 0 -0.0014189466293744032 0.00048944449356516304 0 -0.0013065628103198831 0.000439760079497855 0 -0.0024759580009626179 0.00029818195905634683 0 -0.0026705720801697154 0.00022855359327903291 0 -0.0021071484376703952 0.00038449685513814591 0 -0.0024759580009626179 0.00029818195905634683 0 -0.0027475094361061078 0.00018259415534587032 0 -0.0027011437248265335 0.00019453810652725849 0 -0.0027464203077697744 0.00023178784972980449 0 -0.0027011437248265335 0.00019453810652725849 0 -0.0026070061077777089 0.00017847994335691293 0 -0.002686065137531128 0.0002586124644587337 0 7.4522346902056738e-05 0.00073459137835213796 0 7.5163438679513191e-05 0.00067775249583956569 0 -1.510494897417964e-05 0.00068548693733348071 0 7.5163438679513191e-05 0.00067775249583956569 0 -1.510494897417964e-05 0.00068548693733348071 0 5.1520847080541204e-05 0.00064576383215094878 0 -0.00054830922190796127 0.00044807179337631584 0 -0.0013218076785972603 0.00044236029271688278 0 -0.00054830922190796127 0.00044807179337631584 0 -0.00032203229317982036 0.00066223231073013684 0 -0.0027011437248265335 0.00019453810652725849 0 -0.0026070061077777089 0.00017847994335691293 0 -0.0026745238203384619 0.00014126038893646581 0 -0.00054830922190796127 0.00044807179337631584 0 0.00046187323612261892 0.00090267452757727702 0 8.2071891670133462e-05 0.00072114878657507158 0 0.00014610626134265887 0.00070796755648131588 0 0.00022129768414460061 0.00078744035433285324 0 0.00014610626134265887 0.00070796755648131588 0 0.00022129768414460061 0.00078744035433285324 0 0.00020377384046502001 0.00069244624442109566 0 7.5163438679513191e-05 0.00067775249583956569 0 0.00014610626134265887 0.00070796755648131588 0 0.00013973491310940582 0.0006478717358986189 0 8.2071891670133462e-05 0.00072114878657507158 0 7.5163438679513191e-05 0.00067775249583956569 0 0.00014610626134265887 0.00070796755648131588 0 0.00014610626134265887 0.00070796755648131588 0 0.00013973491310940582 0.0006478717358986189 0 0.00020377384046502001 0.00069244624442109566 0 0.00017781539874088764 0.00059257401655422024 0 0.00013973050228423229 0.00059370750216874502 0 3.5818125689149106e-05 0.00065984771727092091 0 0.00013973491310940582 0.0006478717358986189 0 0.00017781539874088764 0.00059257401655422024 0 5.1520847080541204e-05 0.00064576383215094878 0 0.00020940986623815781 0.00059119923823941175 0 -0.00014418076663512506 0.00054042613006661849 0 0.00013973491310940582 0.0006478717358986189 0 0.0002010044730322526 0.00063894464422734585 0 0.00020377384046502001 0.00069244624442109566 0 0.00013973491310940582 0.0006478717358986189 0 0.00017781539874088764 0.00059257401655422024 0 0.0002010044730322526 0.00063894464422734585 0 -5.1337415675549543e-05 0.00060572412811695344 0 -0.00014418076663512506 0.00054042613006661849 0 7.5163438679513191e-05 0.00067775249583956569 0 0.00013973491310940582 0.0006478717358986189 0 5.1520847080541204e-05 0.00064576383215094878 0 -0.0001840571193864664 0.00057649590184658949 0 -0.00033380728208764988 0.00068272370504102392 0 -0.00029964817147060699 0.00054089033551396983 0 0.00017781539874088764 0.00059257401655422024 0 0.00013973050228423229 0.00059370750216874502 0 0.00023841821472574029 0.00053244107712734133 0 -0.00055205560280272134 0.000668950119342278 0 -0.00042155750194534881 0.00074342809801162873 0 -0.00040647732084985746 0.0006326272859406264 0 -0.00042155750194534881 0.00074342809801162873 0 -0.00040647732084985746 0.0006326272859406264 0 -0.00033380728208764988 0.00068272370504102392 0 -0.0013218076785972603 0.00044236029271688278 0 -0.00014418076663512506 0.00054042613006661849 0 -0.00040647732084985746 0.0006326272859406264 0 -0.00033380728208764988 0.00068272370504102392 0 -0.00029964817147060699 0.00054089033551396983 0 -0.00040647732084985746 0.0006326272859406264 0 -0.00029964817147060699 0.00054089033551396983 0 -0.00041472116721988659 0.00053736366251625422 0 -0.00055205560280272134 0.000668950119342278 0 -0.00040647732084985746 0.0006326272859406264 0 -0.00041472116721988659 0.00053736366251625422 0 -0.00037194844727990803 0.00049406988412895785 0 -0.00028056066972883685 0.00041562829786327216 0 -0.00037202467420775548 0.0004135668182654969 0 -0.00038245383486288352 0.0004934107861625101 0 -0.00030248931576711701 0.00043173629371807883 0 -0.00029964817147060699 0.00054089033551396983 0 -0.00041472116721988659 0.00053736366251625422 0 -0.00028056066972883685 0.00041562829786327216 0 -0.0002970250931218797 0.00037213063116007112 0 -0.00028056066972883685 0.00041562829786327216 0 -0.00037202467420775548 0.0004135668182654969 0 0.00044447718507765332 0.00047777540488291192 0 0.00051510227726544165 0.00044065441025940426 0 0.00053887443012230816 0.00050317629397570937 0 -0.0002970250931218797 0.00037213063116007112 0 -0.00020375886904353457 0.00047716316583813507 0 -4.2435856959471514e-05 0.00047215716510389872 0 7.295915282491092e-05 0.00042471414490363475 0 0.00027961665759336165 0.00050101929513406336 0 -5.1337415675549543e-05 0.00060572412811695344 0 0.00027961665759336165 0.00050101929513406336 0 -0.0001840571193864664 0.00057649590184658949 0 -0.00020375886904353457 0.00047716316583813507 0 -4.2435856959471514e-05 0.00047215716510389872 0 -0.00029964817147060699 0.00054089033551396983 0 -0.00028056066972883685 0.00041562829786327216 0 -0.00020375886904353457 0.00047716316583813507 0 -0.0001840571193864664 0.00057649590184658949 0 -0.00029964817147060699 0.00054089033551396983 0 -0.00020375886904353457 0.00047716316583813507 0 -0.0002970250931218797 0.00037213063116007112 0 -0.00028056066972883685 0.00041562829786327216 0 -0.00020375886904353457 0.00047716316583813507 0 0.00044447718507765332 0.00047777540488291192 0 0.00051510227726544165 0.00044065441025940426 0 0.00047956293613125997 0.00040803519360643569 0 0.00051510227726544165 0.00044065441025940426 0 0.00047956293613125997 0.00040803519360643569 0 0.00053945134542271727 0.00037723341855816652 0 0.00044447718507765332 0.00047777540488291192 0 0.00047956293613125997 0.00040803519360643569 0 0.00042779213578552028 0.00040080275960263488 0 7.295915282491092e-05 0.00042471414490363475 0 -0.00011384668182931513 0.00036672617485708394 0 0.00044447718507765332 0.00047777540488291192 0 0.00042779213578552028 0.00040080275960263488 0 0.00029957610919345622 0.00043524229034496077 0 -0.0002970250931218797 0.00037213063116007112 0 -0.00037202467420775548 0.0004135668182654969 0 -0.00047035898592263703 0.00031368556703459274 0 0.00042779213578552028 0.00040080275960263488 0 0.00029957610919345622 0.00043524229034496077 0 0.00028459736076329043 0.00037571928667646647 0 -0.00037202467420775548 0.0004135668182654969 0 -0.00047035898592263703 0.00031368556703459274 0 -0.00046855002255018197 0.00044953403197482678 0 -0.00047035898592263703 0.00031368556703459274 0 -0.00046855002255018197 0.00044953403197482678 0 -0.00053671014183960346 0.00040473985865754463 0 -0.00037194844727990803 0.00049406988412895785 0 -0.00037202467420775548 0.0004135668182654969 0 -0.00046855002255018197 0.00044953403197482678 0 -0.00059153141991070827 0.00048821076989235786 0 -0.00046855002255018197 0.00044953403197482678 0 -0.00053671014183960346 0.00040473985865754463 0 -0.00059153141991070827 0.00048821076989235786 0 -0.00053671014183960346 0.00040473985865754463 0 -0.00061581792556456743 0.00036732083645378522 0 0.00029957610919345622 0.00043524229034496077 0 0.00028459736076329043 0.00037571928667646647 0 0.00010518433782376953 0.00036223302776146766 0 -0.00047035898592263703 0.00031368556703459274 0 -0.00061581792556456743 0.00036732083645378522 0 -0.00062985365597690213 0.00026141612700326868 0 -0.00047035898592263703 0.00031368556703459274 0 -0.00053671014183960346 0.00040473985865754463 0 -0.00061581792556456743 0.00036732083645378522 0 -0.00011384668182931513 0.00036672617485708394 0 -0.00011765842907165232 0.00032700895150476555 0 -0.00061581792556456743 0.00036732083645378522 0 -0.00067808041042119189 0.00035292661999571822 0 -0.00072249216297733197 0.00040349119141612846 0 -0.00061581792556456743 0.00036732083645378522 0 -0.00067808041042119189 0.00035292661999571822 0 -0.00062985365597690213 0.00026141612700326868 0 -0.00067808041042119189 0.00035292661999571822 0 -0.00070660317337301428 0.00031308714379241193 0 -0.00072249216297733197 0.00040349119141612846 0 -0.00067808041042119189 0.00035292661999571822 0 -0.00070660317337301428 0.00031308714379241193 0 -0.00062985365597690213 0.00026141612700326868 0 -0.00070660317337301428 0.00031308714379241193 0 -0.00074589555139993927 0.00033277282820555536 0 -0.00076318487370711499 0.00030673406140166914 0 -0.00070660317337301428 0.00031308714379241193 0 -0.00074589555139993927 0.00033277282820555536 0 -0.00073173715843409635 0.00035747495028101164 0 -0.00070660317337301428 0.00031308714379241193 0 -0.00076318487370711499 0.00030673406140166914 0 -0.00075030315484840603 0.00027340441170170521 0 -0.00071440462925819446 0.00032980894906424799 0 -0.00071271762914864906 0.00035704870666566967 0 -0.0007384076050855078 0.00041202293090741708 0 -0.00073832874286260987 0.00040137845327296764 0 -0.00072457921846100877 0.00038473065651473056 0 -0.00070660317337301428 0.00031308714379241193 0 -0.0007384076050855078 0.00041202293090741708 0 -0.00072249216297733197 0.00040349119141612846 0 -0.00073173715843409635 0.00035747495028101164 0 -0.00075165574629014562 0.00036898066944794248 0 -0.00075042665720908576 0.00040225454347487399 0 -0.00074589555139993927 0.00033277282820555536 0 -0.00075393029151625296 0.00035070298026845727 0 -0.00077302851347923085 0.00033353659740129743 0 -0.00074589555139993927 0.00033277282820555536 0 -0.00073173715843409635 0.00035747495028101164 0 -0.00075393029151625296 0.00035070298026845727 0 -0.00073173715843409635 0.00035747495028101164 0 -0.00075393029151625296 0.00035070298026845727 0 -0.00075165574629014562 0.00036898066944794248 0 -0.00075393029151625296 0.00035070298026845727 0 -0.00075165574629014562 0.00036898066944794248 0 -0.00077051303250880404 0.00036534629048338714 0 -0.0007384076050855078 0.00041202293090741708 0 -0.00072249216297733197 0.00040349119141612846 0 -0.00073832874286260987 0.00040137845327296764 0 -0.00078059483594782302 0.00040414395018435306 0 -0.00072249216297733197 0.00040349119141612846 0 -0.00073832874286260987 0.00040137845327296764 0 -0.00059153141991070827 0.00048821076989235786 0 -0.00061581792556456743 0.00036732083645378522 0 -0.00072249216297733197 0.00040349119141612846 0 -0.00066273122485576027 0.00044650727256623359 0 -0.00073091160741957546 0.0004057215594852292 0 -0.00084196545999167362 0.00029907960522537253 0 -0.00081566610144364899 0.0003044542376624171 0 -0.00082243283364866443 0.00034159473537119831 0 -0.00066405178329049087 0.00029132107375527975 0 -0.00082453264168446023 0.00029654850146045941 0 -0.00079126158468223993 0.00024463405870722488 0 -0.00079310704946094536 0.00032053305212997386 0 -0.0008360176896086086 0.00024794596359388503 0 -0.00081566610144364899 0.0003044542376624171 0 -0.00079378145091443483 0.00032002647630489321 0 -0.00078781779724107362 0.00029556835273115094 0 -0.00081566610144364899 0.0003044542376624171 0 -0.00079378145091443483 0.00032002647630489321 0 -0.00082243283364866443 0.00034159473537119831 0 -0.00079378145091443483 0.00032002647630489321 0 -0.00077302851347923085 0.00033353659740129743 0 -0.0007928694003354617 0.0003484332931285627 0 -0.00079378145091443483 0.00032002647630489321 0 -0.00078781779724107362 0.00029556835273115094 0 -0.00076318487370711499 0.00030673406140166914 0 -0.00079378145091443483 0.00032002647630489321 0 -0.00076318487370711499 0.00030673406140166914 0 -0.00077302851347923085 0.00033353659740129743 0 -0.00074589555139993927 0.00033277282820555536 0 -0.00076318487370711499 0.00030673406140166914 0 -0.00077302851347923085 0.00033353659740129743 0 -0.00075393029151625296 0.00035070298026845727 0 -0.00077302851347923085 0.00033353659740129743 0 -0.00077051303250880404 0.00036534629048338714 0 -0.00077302851347923085 0.00033353659740129743 0 -0.00077051303250880404 0.00036534629048338714 0 -0.0007928694003354617 0.0003484332931285627 0 -0.00077051303250880404 0.00036534629048338714 0 -0.0007928694003354617 0.0003484332931285627 0 -0.00080157695806700867 0.00038570165721238262 0 -0.0007928694003354617 0.0003484332931285627 0 -0.00082243283364866443 0.00034159473537119831 0 -0.00080157695806700867 0.00038570165721238262 0 -0.0007835059971477243 0.00020266126671468086 0 -0.0008360176896086086 0.00024794596359388503 0 -0.0008803830651129724 0.00017511359316105114 0 -0.00082453264168446023 0.00029654850146045941 0 -0.0010950284163950708 0.00033133754127092193 0 -0.00079378145091443483 0.00032002647630489321 0 -0.0007928694003354617 0.0003484332931285627 0 -0.00082243283364866443 0.00034159473537119831 0 -0.0013829885210185897 0.00042713177981551482 0 -0.001444830606439688 0.0003696405872667564 0 -0.0014790649238554637 0.00039978583973890785 0 -0.0011398791073347547 0.00030706743900308964 0 -0.0010950284163950708 0.00033133754127092193 0 -0.001444830606439688 0.0003696405872667564 0 -0.0014896308236388509 0.0003818228348963834 0 -0.0014790649238554637 0.00039978583973890785 0 -0.001444830606439688 0.0003696405872667564 0 -0.0014896308236388509 0.0003818228348963834 0 -0.0014741119128702756 0.00034105020116164547 0 -0.0014896308236388509 0.0003818228348963834 0 -0.0014818204553912015 0.00039533563311290094 0 -0.0015504886553699602 0.00037055084211329238 0 -0.00077051303250880404 0.00036534629048338714 0 -0.00080157695806700867 0.00038570165721238262 0 -0.00075042665720908576 0.00040225454347487399 0 -0.0010950284163950708 0.00033133754127092193 0 -0.0012230968022293222 0.00039564653201657472 0 -0.0015105797875418984 0.00035676374444576622 0 -0.0014896308236388509 0.0003818228348963834 0 -0.0015504886553699602 0.00037055084211329238 0 -0.0015105797875418984 0.00035676374444576622 0 -0.0014896308236388509 0.0003818228348963834 0 -0.0014741119128702756 0.00034105020116164547 0 -0.0011867344068467048 0.00029850451504618078 0 -0.0010950284163950708 0.00033133754127092193 0 -0.0015105797875418984 0.00035676374444576622 0 -0.0014972743008756673 0.00030098668631523272 0 -0.001529442395260911 0.00028820451116331835 0 -0.0014431985680340362 0.00028875433663889271 0 -0.001890728045316746 0.0003656910460302738 0 -0.0015105797875418984 0.00035676374444576622 0 -0.0015504886553699602 0.00037055084211329238 0 -0.001529442395260911 0.00028820451116331835 0 -0.0015105797875418984 0.00035676374444576622 0 -0.0014741119128702756 0.00034105020116164547 0 -0.0014843162448095082 0.00026752247463385074 0 -0.0016480542300840804 0.00038368164883721532 0 -0.001890728045316746 0.0003656910460302738 0 -0.0013565409413670649 0.00031317522885952346 0 -0.001444830606439688 0.0003696405872667564 0 -0.0014412481812221972 0.0003257638171256997 0 -0.0013565409413670649 0.00031317522885952346 0 -0.0014412481812221972 0.0003257638171256997 0 -0.0014843162448095082 0.00026752247463385074 0 -0.0014741119128702756 0.00034105020116164547 0 -0.0014412481812221972 0.0003257638171256997 0 -0.0014843162448095082 0.00026752247463385074 0 -0.001444830606439688 0.0003696405872667564 0 -0.0014741119128702756 0.00034105020116164547 0 -0.0014412481812221972 0.0003257638171256997 0 -0.00075933516851856247 0.00036780669961463189 0 -0.0007476687596471741 0.00038921678171358358 0 -0.00072457921846100877 0.00038473065651473056 0 -0.00078059483594782302 0.00040414395018435306 0 -0.00073832874286260987 0.00040137845327296764 0 -0.0007476687596471741 0.00038921678171358358 0 -0.00078059483594782302 0.00040414395018435306 0 -0.00075933516851856247 0.00036780669961463189 0 -0.0007476687596471741 0.00038921678171358358 0 -0.00073832874286260987 0.00040137845327296764 0 -0.0007476687596471741 0.00038921678171358358 0 -0.00072457921846100877 0.00038473065651473056 0 -0.00071271762914864906 0.00035704870666566967 0 -0.0012230968022293222 0.00039564653201657472 0 -0.0012263617844970236 0.00037922569166085079 0 -0.0012230968022293222 0.00039564653201657472 0 -0.00075165574629014562 0.00036898066944794248 0 -0.00077051303250880404 0.00036534629048338714 0 -0.00075042665720908576 0.00040225454347487399 0 -0.0018056920299850438 0.00036819891583923147 0 -0.0017770583013938706 0.00043417939631378092 0 -0.0018429432968506837 0.00046698718479553926 0 -0.0012230968022293222 0.00039564653201657472 0 -0.0020571676753170726 0.00035660285937986059 0 -0.0017369107755726327 0.00038878116534178485 0 -0.0018056920299850438 0.00036819891583923147 0 -0.0017770583013938706 0.00043417939631378092 0 -0.0017369107755726327 0.00038878116534178485 0 -0.0017770583013938706 0.00043417939631378092 0 -0.0017150358809022203 0.00045654717382548891 0 -0.0026526566387667866 0.00046942214907431186 0 -0.0025629944277927967 0.00050353102923684329 0 -0.0023889938176934822 0.00032702902428983192 0 -0.0017770583013938706 0.00043417939631378092 0 -0.0017835838392180297 0.00049115374184082621 0 -0.0017150358809022203 0.00045654717382548891 0 -0.0029649907213846792 0.00032435599406706713 0 -0.002857446844522334 0.00036719445662940187 0 -0.0028951485289287824 0.00025182543359720107 0 -0.0024290877921744371 0.00045733813931665853 0 -0.0022870922884015085 0.00037927804536601063 0 -0.0029136404300755272 0.00038223813200868992 0 -0.0022870922884015085 0.00037927804536601063 0 -0.0024290877921744371 0.00045733813931665853 0 -0.0029136404300755272 0.00038223813200868992 0 -0.0024290877921744371 0.00045733813931665853 0 -0.0020571676753170726 0.00035660285937986059 0 -0.0017770583013938706 0.00043417939631378092 0 -0.0017835838392180297 0.00049115374184082621 0 -0.0018429432968506837 0.00046698718479553926 0 -0.0030967428927471119 0.00041986225497362073 0 -0.0031291427539566377 0.00047661899308754053 0 -0.0031721253237503985 0.00046760155060060417 0 -0.0030967428927471119 0.00041986225497362073 0 -0.0031291427539566377 0.00047661899308754053 0 -0.0030739197243817204 0.0004280968323434621 0 -0.0024290877921744371 0.00045733813931665853 0 -0.002825235841682117 0.00047815172228546365 0 -0.0023492070359611575 0.00041525892897662555 0 -0.0024804107559738826 0.0003648138515949853 0 -0.002528194861121635 0.00051082532967592362 0 -0.0031675662605295599 0.00049463278404059412 0 -0.0029136404300755272 0.00038223813200868992 0 -0.0031291427539566377 0.00047661899308754053 0 -0.0030799182866346909 0.00038226945804681377 0 -0.0030644313953462083 0.00049661802941352771 0 -0.0029136404300755272 0.00038223813200868992 0 -0.0029281004007004024 0.00037349235237464282 0 -0.0030799182866346909 0.00038226945804681377 0 -0.0030644313953462083 0.00049661802941352771 0 -0.0029692677469184991 0.00038965546775161336 0 -0.0019329617802996144 0.0003538255705468713 0 -0.0020516601986309731 0.00040371006664904847 0 -0.0020218926000007222 0.00031450548331883035 0 -0.002560524424035347 0.00033607085239459284 0 -0.0025580743123106474 0.00032813190859854922 0 -0.0025696390372634023 0.00034159337979768159 0 -0.001890728045316746 0.0003656910460302738 0 -0.0023407658464569764 0.00034504331998107989 0 -0.002560524424035347 0.00033607085239459284 0 -0.0025580743123106474 0.00032813190859854922 0 -0.0025507929743256949 0.00033102718523713006 0 -0.001890728045316746 0.0003656910460302738 0 -0.0020571676753170726 0.00035660285937986059 0 -0.002560524424035347 0.00033607085239459284 0 -0.0025507929743256949 0.00033102718523713006 0 -0.002562878770133233 0.00034298430077790601 0 -0.0020571676753170726 0.00035660285937986059 0 -0.002825235841682117 0.00047815172228546365 0 -0.002560524424035347 0.00033607085239459284 0 -0.002562878770133233 0.00034298430077790601 0 -0.0025696390372634023 0.00034159337979768159 0 -0.002562878770133233 0.00034298430077790601 0 -0.0025696390372634023 0.00034159337979768159 0 -0.0025722893959192893 0.00034505159762931444 0 -0.0025696390372634023 0.00034159337979768159 0 -0.0025722893959192893 0.00034505159762931444 0 -0.0025776194410760309 0.00034677378864688449 0 -0.002562878770133233 0.00034298430077790601 0 -0.0025722893959192893 0.00034505159762931444 0 -0.0025769699145511268 0.00034754541088563611 0 -0.0023407658464569764 0.00034504331998107989 0 -0.0022682774417256903 0.00027878604420504256 0 -0.0025722893959192893 0.00034505159762931444 0 -0.0025769699145511268 0.00034754541088563611 0 -0.0025776194410760309 0.00034677378864688449 0 -0.002825235841682117 0.00047815172228546365 0 -0.0028771027586886795 0.00043229884944321261 0 -0.0031721253237503985 0.00046760155060060417 0 -0.0031475517074353219 0.00053096887272998045 0 -0.0031738625555217683 0.00055085879392505329 0 -0.0031291427539566377 0.00047661899308754053 0 -0.0031721253237503985 0.00046760155060060417 0 -0.0031475517074353219 0.00053096887272998045 0 -0.0031450041081176479 0.00059137743718857931 0 -0.0031738625555217683 0.00055085879392505329 0 -0.0031264150968575645 0.00057288608406061209 0 -0.0031475517074353219 0.00053096887272998045 0 -0.0031738625555217683 0.00055085879392505329 0 -0.0031264150968575645 0.00057288608406061209 0 -0.0025855259934282272 0.00034451456427784014 0 -0.0025769699145511268 0.00034754541088563611 0 -0.0025814120575877102 0.00034535894531039369 0 -0.002870446406324076 0.00046704741583326556 0 -0.0028771027586886795 0.00043229884944321261 0 -0.0025769699145511268 0.00034754541088563611 0 -0.0025814120575877102 0.00034535894531039369 0 -0.0025776194410760309 0.00034677378864688449 0 -0.0031291427539566377 0.00047661899308754053 0 -0.0031475517074353219 0.00053096887272998045 0 -0.0031264150968575645 0.00057288608406061209 0 -0.0031291427539566377 0.00047661899308754053 0 -0.0030644313953462083 0.00049661802941352771 0 -0.0031264150968575645 0.00057288608406061209 0 -0.0030644313953462083 0.00049661802941352771 0 -0.0031264150968575645 0.00057288608406061209 0 -0.0030543630672127636 0.00061418612801954046 0 -0.0030543630672127636 0.00061418612801954046 0 -0.0027858576457253674 0.0005954454218814613 0 -0.0029409965645603164 0.00050151796753039536 0 -0.0028047821373763807 0.00081769105730843702 0 -0.0030543630672127636 0.00061418612801954046 0 -0.0027858576457253674 0.0005954454218814613 0 -0.0029409965645603164 0.00050151796753039536 0 -0.0029692677469184991 0.00038965546775161336 0 -0.0027695188996067301 0.00041835960928560849 0 -0.0027858576457253674 0.0005954454218814613 0 -0.0029409965645603164 0.00050151796753039536 0 -0.0027695188996067301 0.00041835960928560849 0 -0.0030644313953462083 0.00049661802941352771 0 -0.0030543630672127636 0.00061418612801954046 0 -0.0029409965645603164 0.00050151796753039536 0 -0.0030644313953462083 0.00049661802941352771 0 -0.0029409965645603164 0.00050151796753039536 0 -0.0029692677469184991 0.00038965546775161336 0 -0.002857446844522334 0.00036719445662940187 0 -0.0027695188996067301 0.00041835960928560849 0 -0.0027566212370697604 0.0003308263622754451 0 -0.0029281004007004024 0.00037349235237464282 0 -0.0027717518701270661 0.0004213045669298665 0 -0.002857446844522334 0.00036719445662940187 0 -0.0027566212370697604 0.0003308263622754451 0 -0.0028151349489702404 0.0003051826923241709 0 -0.0027566212370697604 0.0003308263622754451 0 -0.0027613511674745377 0.00027798021418978938 0 -0.0028151349489702404 0.0003051826923241709 0 -0.0027613511674745377 0.00027798021418978938 0 -0.0028254706322266821 0.00024362292439946342 0 -0.0028151349489702404 0.0003051826923241709 0 -0.0027566212370697604 0.0003308263622754451 0 -0.0027613511674745377 0.00027798021418978938 0 -0.002686065137531128 0.0002586124644587337 0 -0.0027011437248265335 0.00019453810652725849 0 -0.0027464203077697744 0.00023178784972980449 0 -0.002686065137531128 0.0002586124644587337 0 -0.0027613511674745377 0.00027798021418978938 0 -0.0027464203077697744 0.00023178784972980449 0 -0.002686065137531128 0.0002586124644587337 0 -0.0027613511674745377 0.00027798021418978938 0 -0.0027464203077697744 0.00023178784972980449 0 -0.0028254706322266821 0.00024362292439946342 0 -0.002857446844522334 0.00036719445662940187 0 -0.0028951485289287824 0.00025182543359720107 0 -0.0028151349489702404 0.0003051826923241709 0 -0.0028254706322266821 0.00024362292439946342 0 -0.0028951485289287824 0.00025182543359720107 0 -0.0028151349489702404 0.0003051826923241709 0 4.361176948692432e-05 0.00067778831553332952 0 5.6461433197284163e-05 0.00085315864774095659 0 0.00022129768414460061 0.00078744035433285324 0 -0.0027566212370697604 0.0003308263622754451 0 -0.002686065137531128 0.0002586124644587337 0 -0.0026115456394724683 0.00032650295429495192 0 -0.0026070061077777089 0.00017847994335691293 0 -0.002686065137531128 0.0002586124644587337 0 -0.0026115456394724683 0.00032650295429495192 0 -0.00054830922190796127 0.00044807179337631584 0 -0.0013480514081045749 0.00058336031380937725 0 -0.0027695188996067301 0.00041835960928560849 0 -0.0026115456394724683 0.00032650295429495192 0 -0.0025997010367872749 0.00050214904004334171 0 -0.0013480514081045749 0.00058336031380937725 0 -0.0012709093392904987 0.00074329430102973188 0 -0.0027695188996067301 0.00041835960928560849 0 -0.0027566212370697604 0.0003308263622754451 0 -0.0026115456394724683 0.00032650295429495192 0 5.6461433197284163e-05 0.00085315864774095659 0 0.00015959818477929917 0.00092476167234757786 0 0.00022129768414460061 0.00078744035433285324 0 5.6461433197284163e-05 0.00085315864774095659 0 0.00015959818477929917 0.00092476167234757786 0 6.0298933139481251e-05 0.00099428956220852537 0 0.00015959818477929917 0.00092476167234757786 0 6.0298933139481251e-05 0.00099428956220852537 0 0.00016911111843142599 0.0010507398970315109 0 -0.0027858576457253674 0.0005954454218814613 0 -0.0027695188996067301 0.00041835960928560849 0 -0.0025997010367872749 0.00050214904004334171 0 -0.0025763485997397527 0.00073190386437040034 0 -0.0027858576457253674 0.0005954454218814613 0 -0.0025997010367872749 0.00050214904004334171 0 -0.0011799110625534469 0.00097178795386099941 0 -0.0012709093392904987 0.00074329430102973188 0 5.3176824731214813e-05 0.0011315534627840832 0 6.0298933139481251e-05 0.00099428956220852537 0 0.00016911111843142599 0.0010507398970315109 0 0.00022086694005413494 0.0011733470601333555 0 0.00016911111843142599 0.0010507398970315109 0 0.00026472142686492474 0.0010795992299651497 0 0.00016911111843142599 0.0010507398970315109 0 0.0002768850618481035 0.00097993658332986991 0 0.00026472142686492474 0.0010795992299651497 0 0.00015959818477929917 0.00092476167234757786 0 0.00016911111843142599 0.0010507398970315109 0 0.0002768850618481035 0.00097993658332986991 0 0.0002768850618481035 0.00097993658332986991 0 0.00033957014082106632 0.0010424546453238731 0 0.00038628851447486883 0.00096316560140680607 0 0.0002768850618481035 0.00097993658332986991 0 0.00038628851447486883 0.00096316560140680607 0 0.0003451780616384094 0.00090792223624575335 0 0.0002768850618481035 0.00097993658332986991 0 0.00033957014082106632 0.0010424546453238731 0 0.00026472142686492474 0.0010795992299651497 0 0.00032764006570809042 0.0011355517481908702 0 0.00033957014082106632 0.0010424546453238731 0 0.00026472142686492474 0.0010795992299651497 0 0.00032764006570809042 0.0011355517481908702 0 0.00033957014082106632 0.0010424546453238731 0 0.00040613908305592468 0.001093485549325197 0 0.00040613908305592468 0.001093485549325197 0 0.00049440703390649912 0.0010542381306273341 0 0.00042829071685101882 0.0010165532547256209 0 0.00033957014082106632 0.0010424546453238731 0 0.00040613908305592468 0.001093485549325197 0 0.00042829071685101882 0.0010165532547256209 0 0.00048692454357630513 0.0011353974074563304 0 0.00049440703390649912 0.0010542381306273341 0 0.00056290316592813409 0.0010917958536269096 0 0.00048692454357630513 0.0011353974074563304 0 0.00040613908305592468 0.001093485549325197 0 0.00049440703390649912 0.0010542381306273341 0 0.00049440703390649912 0.0010542381306273341 0 0.00057239720832952495 0.0010427978597080301 0 0.00055636983238743093 0.0009963578831305186 0 0.00049440703390649912 0.0010542381306273341 0 0.00048998704868020288 0.00095322961428167023 0 0.00055636983238743093 0.0009963578831305186 0 0.00049440703390649912 0.0010542381306273341 0 0.00048998704868020288 0.00095322961428167023 0 0.00042829071685101882 0.0010165532547256209 0 0.00048998704868020288 0.00095322961428167023 0 0.00055636983238743093 0.0009963578831305186 0 0.00060378352716365018 0.00091047038763879501 0 0.00048998704868020288 0.00095322961428167023 0 0.00042829071685101882 0.0010165532547256209 0 0.00038628851447486883 0.00096316560140680607 0 0.00033957014082106632 0.0010424546453238731 0 0.00042829071685101882 0.0010165532547256209 0 0.00038628851447486883 0.00096316560140680607 0 0.00038628851447486883 0.00096316560140680607 0 0.00043308060052707172 0.00087332373457796254 0 0.0003451780616384094 0.00090792223624575335 0 0.00048998704868020288 0.00095322961428167023 0 0.00038628851447486883 0.00096316560140680607 0 0.00043308060052707172 0.00087332373457796254 0 0.00048998704868020288 0.00095322961428167023 0 0.00043308060052707172 0.00087332373457796254 0 0.00054311124957933754 0.00086941389059008007 0 0.00048998704868020288 0.00095322961428167023 0 0.00054311124957933754 0.00086941389059008007 0 0.00060378352716365018 0.00091047038763879501 0 0.00043308060052707172 0.00087332373457796254 0 0.00054311124957933754 0.00086941389059008007 0 0.00052026900899013878 0.00079776584742101821 0 0.00054311124957933754 0.00086941389059008007 0 0.00052026900899013878 0.00079776584742101821 0 0.00058518700695387273 0.00081126598570699306 0 0.00052026900899013878 0.00079776584742101821 0 0.00058518700695387273 0.00081126598570699306 0 0.00059411207917939638 0.00074066266666268741 0 0.00043308060052707172 0.00087332373457796254 0 0.00052026900899013878 0.00079776584742101821 0 0.00042572928173198119 0.00076976453349376656 0 0.00043308060052707172 0.00087332373457796254 0 0.00042572928173198119 0.00076976453349376656 0 0.00034396345519817757 0.00083523431802941782 0 0.00034396345519817757 0.00083523431802941782 0 0.00022129768414460061 0.00078744035433285324 0 0.00032919157234905633 0.00076191226589494691 0 0.00042572928173198119 0.00076976453349376656 0 0.00034396345519817757 0.00083523431802941782 0 0.00032919157234905633 0.00076191226589494691 0 0.00034396345519817757 0.00083523431802941782 0 0.00022129768414460061 0.00078744035433285324 0 0.000269420787563355 0.00088872243318159345 0 0.00015959818477929917 0.00092476167234757786 0 0.00022129768414460061 0.00078744035433285324 0 0.000269420787563355 0.00088872243318159345 0 0.00015959818477929917 0.00092476167234757786 0 0.0002768850618481035 0.00097993658332986991 0 0.000269420787563355 0.00088872243318159345 0 0.0002768850618481035 0.00097993658332986991 0 0.000269420787563355 0.00088872243318159345 0 0.0003451780616384094 0.00090792223624575335 0 0.00043308060052707172 0.00087332373457796254 0 0.00034396345519817757 0.00083523431802941782 0 0.0003451780616384094 0.00090792223624575335 0 0.00034396345519817757 0.00083523431802941782 0 0.000269420787563355 0.00088872243318159345 0 0.0003451780616384094 0.00090792223624575335 0 -0.0012112544214196504 0.0011227313159631244 0 -0.0011993578921401351 0.0009695687068197043 0 -0.00099582442438650681 0.00095945687781796916 0 -0.0013080991637692406 0.00098597698946539694 0 -0.0013783690493981893 0.0010996966738065939 0 -0.0012112544214196504 0.0011227313159631244 0 -0.0013080991637692406 0.00098597698946539694 0 -0.0012112544214196504 0.0011227313159631244 0 -0.0011993578921401351 0.0009695687068197043 0 -0.0013080991637692406 0.00098597698946539694 0 -0.0011993578921401351 0.0009695687068197043 0 -0.001264751708806974 0.00090157094794162491 0 -0.001264751708806974 0.00090157094794162491 0 -0.0012770486463571104 0.0008151501017651479 0 -0.0012093888841507722 0.00083982074586567176 0 -0.0013341292942438381 0.00090626597792833744 0 -0.001264751708806974 0.00090157094794162491 0 -0.0012770486463571104 0.0008151501017651479 0 -0.0011993578921401351 0.0009695687068197043 0 -0.0012093888841507722 0.00083982074586567176 0 -0.0011030722247273028 0.00085158728678665226 0 -0.0011993578921401351 0.0009695687068197043 0 -0.001264751708806974 0.00090157094794162491 0 -0.0012093888841507722 0.00083982074586567176 0 -0.0010231060131524663 0.00079543207874588904 0 -0.00099582442438650681 0.00095945687781796916 0 -0.00076076738063494736 0.0007636313788289674 0 -0.0011993578921401351 0.0009695687068197043 0 -0.0010231060131524663 0.00079543207874588904 0 -0.00099582442438650681 0.00095945687781796916 0 -0.0011919241762026404 0.0009565647004391698 0 -0.0010475731478661653 0.00081711334032238275 0 -0.0011565046662322428 0.00079041276909723359 0 -0.0012093888841507722 0.00083982074586567176 0 -0.0011030722247273028 0.00085158728678665226 0 0.00056538515710410897 0.0008458699685580909 0 0.00061034584378593629 0.00087945854451593555 0 0.00057117125123957719 0.0008836250354963671 0 -0.00029952738261296362 0.00097251649998602945 0 -0.00018980302427668353 0.00089891647097451659 0 0.00048249650975486853 0.00087000169301279236 0 0.00056538515710410897 0.0008458699685580909 0 0.00057117125123957719 0.0008836250354963671 0 0.00061034584378593629 0.00087945854451593555 0 0.00060025766963655908 0.00085617486438431967 0 0.00061631885001930281 0.00086770082787131968 0 0.00056538515710410897 0.0008458699685580909 0 0.00061034584378593629 0.00087945854451593555 0 0.00060025766963655908 0.00085617486438431967 0 0.00056538515710410897 0.0008458699685580909 0 0.00060025766963655908 0.00085617486438431967 0 0.00060176793580369648 0.00083164564219570286 0 -0.00083700814639340443 0.00061756101456206171 0 -0.0010231060131524663 0.00079543207874588904 0 -0.00076076738063494736 0.0007636313788289674 0 -0.00018980302427668353 0.00089891647097451659 0 -0.00039609556464852375 0.00071014376969068141 0 0.00060025766963655908 0.00085617486438431967 0 0.00060176793580369648 0.00083164564219570286 0 0.00061631885001930281 0.00086770082787131968 0 0.00066330539204917567 0.001091123102720341 0 0.00061500651417409032 0.0010653594524220372 0 0.00062974991294893821 0.0010072200638870257 0 -0.00039609556464852375 0.00071014376969068141 0 0.00065710717332997178 0.0010443316655670716 0 0.00061500651417409032 0.0010653594524220372 0 0.00057239720832952495 0.0010427978597080301 0 0.00062974991294893821 0.0010072200638870257 0 0.00055095771728764977 0.0011386369973768967 0 0.00066330539204917567 0.001091123102720341 0 0.00056290316592813409 0.0010917958536269096 0 0.00066330539204917567 0.001091123102720341 0 0.00061500651417409032 0.0010653594524220372 0 0.00056290316592813409 0.0010917958536269096 0 0.00061500651417409032 0.0010653594524220372 0 0.00056290316592813409 0.0010917958536269096 0 0.00057239720832952495 0.0010427978597080301 0 0.00049440703390649912 0.0010542381306273341 0 0.00056290316592813409 0.0010917958536269096 0 0.00057239720832952495 0.0010427978597080301 0 0.00057239720832952495 0.0010427978597080301 0 0.00055636983238743093 0.0009963578831305186 0 0.00062974991294893821 0.0010072200638870257 0 0.00055636983238743093 0.0009963578831305186 0 0.00062974991294893821 0.0010072200638870257 0 0.00060378352716365018 0.00091047038763879501 0 0.00061034584378593629 0.00087945854451593555 0 0.00061631885001930281 0.00086770082787131968 0 0.00060378352716365018 0.00091047038763879501 0 0.00065710717332997178 0.0010443316655670716 0 0.00058827940641927338 0.00087811646190675868 0 0.00060378352716365018 0.00091047038763879501 0 0.00061246171936164373 0.00086552945232458336 0 0.00064786626675466142 0.00089969950198408582 0 0.00054311124957933754 0.00086941389059008007 0 0.00060378352716365018 0.00091047038763879501 0 0.00061246171936164373 0.00086552945232458336 0 0.00054311124957933754 0.00086941389059008007 0 0.00061246171936164373 0.00086552945232458336 0 0.00058518700695387273 0.00081126598570699306 0 0.00058518700695387273 0.00081126598570699306 0 0.00065596465637044843 0.00078985246521129577 0 0.00059411207917939638 0.00074066266666268741 0 0.00061246171936164373 0.00086552945232458336 0 0.00058518700695387273 0.00081126598570699306 0 0.00065596465637044843 0.00078985246521129577 0 0.00064980374607176167 0.0009112628023800305 0 0.000700460133934373 0.00087543901194202386 0 0.00061246171936164373 0.00086552945232458336 0 0.00065596465637044843 0.00078985246521129577 0 0.00064786626675466142 0.00089969950198408582 0 0.00065596465637044843 0.00078985246521129577 0 0.00064786626675466142 0.00089969950198408582 0 0.00076065519421003266 0.00079696900465579042 0 0.00061034584378593629 0.00087945854451593555 0 0.00060378352716365018 0.00091047038763879501 0 0.00064786626675466142 0.00089969950198408582 0 0.00061034584378593629 0.00087945854451593555 0 0.00064786626675466142 0.00089969950198408582 0 0.00057117125123957719 0.0008836250354963671 0 0.00064786626675466142 0.00089969950198408582 0 0.00057117125123957719 0.0008836250354963671 0 0.00053953450199695988 0.00094075266175936876 0 0.00048249650975486853 0.00087000169301279236 0 0.00057117125123957719 0.0008836250354963671 0 0.00053953450199695988 0.00094075266175936876 0 0.00053953450199695988 0.00094075266175936876 0 0.00059036319811571621 0.0010127192821542286 0 0.00045596612364943122 0.0010200037317138688 0 0.00064786626675466142 0.00089969950198408582 0 0.00053953450199695988 0.00094075266175936876 0 0.00059036319811571621 0.0010127192821542286 0 0.00053953450199695988 0.00094075266175936876 0 0.00045596612364943122 0.0010200037317138688 0 0.00046543844877352467 0.00094060894422148052 0 0.00037471825521490781 0.00093615068329369112 0 0.00045596612364943122 0.0010200037317138688 0 0.00046543844877352467 0.00094060894422148052 0 -0.0010164639349087325 0.001059071872985844 0 -0.00029952738261296362 0.00097251649998602945 0 0.00037471825521490781 0.00093615068329369112 0 0.00048249650975486853 0.00087000169301279236 0 0.00046543844877352467 0.00094060894422148052 0 0.00048249650975486853 0.00087000169301279236 0 0.00053953450199695988 0.00094075266175936876 0 0.00046543844877352467 0.00094060894422148052 0 0.00025783949222791446 0.00088291906022444199 0 -0.00035446804188698361 0.00086257734807260026 0 -0.0014461739649022005 0.001137310069838797 0 -0.0014531781276839757 0.0011355598238242737 0 -0.0014811998322231863 0.0010973263509596132 0 -0.0014395540445702154 0.0011382313799263996 0 -0.0014461739649022005 0.001137310069838797 0 -0.0014531781276839757 0.0011355598238242737 0 -0.00050722217764564482 0.0010882058242420224 0 0.00025783949222791446 0.00088291906022444199 0 0.00076065519421003266 0.00079696900465579042 0 0.00082513590641150971 0.00070351991458695012 0 0.00073603858492873647 0.00070381501364634306 0 0.000700460133934373 0.00087543901194202386 0 0.00025783949222791446 0.00088291906022444199 0 0.00059036319811571621 0.0010127192821542286 0 0.00045596612364943122 0.0010200037317138688 0 0.00053298757371529246 0.0011046408360516921 0 0.00086110407993376253 0.00067730479591390227 0 0.00082096844118667112 0.00062521854986330265 0 0.00091537144240058188 0.00057343757266055634 0 0.00025783949222791446 0.00088291906022444199 0 0.00080464225189922863 0.0006753592326213092 0 0.00082513590641150971 0.00070351991458695012 0 0.00078100522111352471 0.00064135727834440672 0 0.00073603858492873647 0.00070381501364634306 0 0.00080464225189922863 0.0006753592326213092 0 0.00075704815928623391 0.00057774804734987359 0 0.00078100522111352471 0.00064135727834440672 0 0.00072767489963528888 0.00064268667773600345 0 0.00076499392692226968 0.00057744274972464538 0 0.00072767489963528888 0.00064268667773600345 0 0.00068173568235523594 0.00060289053470072903 0 0.00076499392692226968 0.00057744274972464538 0 0.00072767489963528888 0.00064268667773600345 0 0.00073603858492873647 0.00070381501364634306 0 0.00066451529185616008 0.00068772636602657303 0 0.00078100522111352471 0.00064135727834440672 0 0.00072767489963528888 0.00064268667773600345 0 0.00073603858492873647 0.00070381501364634306 0 0.00065596465637044843 0.00078985246521129577 0 0.00076065519421003266 0.00079696900465579042 0 0.00073603858492873647 0.00070381501364634306 0 0.00065596465637044843 0.00078985246521129577 0 0.00073603858492873647 0.00070381501364634306 0 0.00066451529185616008 0.00068772636602657303 0 0.00065596465637044843 0.00078985246521129577 0 0.00066451529185616008 0.00068772636602657303 0 0.00059411207917939638 0.00074066266666268741 0 0.00066451529185616008 0.00068772636602657303 0 0.00059411207917939638 0.00074066266666268741 0 0.00060197850884416123 0.00065683575587285371 0 0.00066451529185616008 0.00068772636602657303 0 0.00068173568235523594 0.00060289053470072903 0 0.00060197850884416123 0.00065683575587285371 0 0.00068173568235523594 0.00060289053470072903 0 0.00060197850884416123 0.00065683575587285371 0 0.00061310869831329804 0.00054921317407500647 0 0.00072767489963528888 0.00064268667773600345 0 0.00066451529185616008 0.00068772636602657303 0 0.00068173568235523594 0.00060289053470072903 0 0.00068173568235523594 0.00060289053470072903 0 0.00071537915873676509 0.00050362825102499668 0 0.00061310869831329804 0.00054921317407500647 0 0.00068173568235523594 0.00060289053470072903 0 0.00071537915873676509 0.00050362825102499668 0 0.00076499392692226968 0.00057744274972464538 0 0.00071537915873676509 0.00050362825102499668 0 0.00064708670052563051 0.00038991228239766397 0 0.00074041062911965562 0.00041586481113190784 0 0.00071537915873676509 0.00050362825102499668 0 0.00080974870928876292 0.00045327639255963737 0 0.00074041062911965562 0.00041586481113190784 0 0.00079141689092652914 0.0005126266783631086 0 0.00086643502160028442 0.00050911298787913617 0 0.00080974870928876292 0.00045327639255963737 0 0.00071537915873676509 0.00050362825102499668 0 0.00079141689092652914 0.0005126266783631086 0 0.00080974870928876292 0.00045327639255963737 0 0.00079141689092652914 0.0005126266783631086 0 0.00076499392692226968 0.00057744274972464538 0 0.00083679303384675955 0.00056236585711469476 0 0.00071537915873676509 0.00050362825102499668 0 0.00079141689092652914 0.0005126266783631086 0 0.00076499392692226968 0.00057744274972464538 0 0.00082096844118667112 0.00062521854986330265 0 0.00076499392692226968 0.00057744274972464538 0 0.00083679303384675955 0.00056236585711469476 0 0.00079141689092652914 0.0005126266783631086 0 0.00083679303384675955 0.00056236585711469476 0 0.00086643502160028442 0.00050911298787913617 0 0.00083679303384675955 0.00056236585711469476 0 0.00086643502160028442 0.00050911298787913617 0 0.00091537144240058188 0.00057343757266055634 0 0.00082096844118667112 0.00062521854986330265 0 0.00083679303384675955 0.00056236585711469476 0 0.00091537144240058188 0.00057343757266055634 0 0.00086643502160028442 0.00050911298787913617 0 0.00088090946864149142 0.00042161030006186804 0 0.00080974870928876292 0.00045327639255963737 0 0.00093400011702511696 0.0004842942688994978 0 0.00091132150510399529 0.00048527042355257197 0 0.00091537144240058188 0.00057343757266055634 0 0.00086643502160028442 0.00050911298787913617 0 0.00091132150510399529 0.00048527042355257197 0 0.00092319260119286977 0.00044903403328213536 0 0.00093400011702511696 0.0004842942688994978 0 0.00092175145202282418 0.00045886791070415809 0 0.00091132150510399529 0.00048527042355257197 0 -0.00024842519188223285 0.00068062605407413497 0 -0.00035446804188698361 0.00086257734807260026 0 0.00086643502160028442 0.00050911298787913617 0 0.00091132150510399529 0.00048527042355257197 0 0.00091537144240058188 0.00057343757266055634 0 0.0003520799613269326 0.00064051352473453046 0 0.00036655630509052249 0.00070792396007672564 0 0.00044745338821270834 0.00067992539073891492 0 0.0003520799613269326 0.00064051352473453046 0 0.00045634830722311086 0.0006019523810771786 0 0.00040865359236931894 0.00055874469323227271 0 0.0003520799613269326 0.00064051352473453046 0 0.00040865359236931894 0.00055874469323227271 0 0.00030815995228265466 0.00057046108447042076 0 0.0003520799613269326 0.00064051352473453046 0 0.00026162530384668536 0.00064383185316881086 0 0.00030815995228265466 0.00057046108447042076 0 0.0002391442819464009 0.00059230351289067489 0 0.00026162530384668536 0.00064383185316881086 0 0.00030815995228265466 0.00057046108447042076 0 0.00017781539874088764 0.00059257401655422024 0 0.0002391442819464009 0.00059230351289067489 0 0.00023841821472574029 0.00053244107712734133 0 0.00017781539874088764 0.00059257401655422024 0 0.0002391442819464009 0.00059230351289067489 0 0.0002010044730322526 0.00063894464422734585 0 0.0002010044730322526 0.00063894464422734585 0 0.00026162530384668536 0.00064383185316881086 0 0.00020377384046502001 0.00069244624442109566 0 0.0002391442819464009 0.00059230351289067489 0 0.0002010044730322526 0.00063894464422734585 0 0.00026162530384668536 0.00064383185316881086 0 0.0003520799613269326 0.00064051352473453046 0 0.00026162530384668536 0.00064383185316881086 0 0.00028796608966595512 0.0007083461647441466 0 0.00022129768414460061 0.00078744035433285324 0 0.00028796608966595512 0.0007083461647441466 0 0.00020377384046502001 0.00069244624442109566 0 0.00022129768414460061 0.00078744035433285324 0 0.00028796608966595512 0.0007083461647441466 0 0.00032919157234905633 0.00076191226589494691 0 0.00026162530384668536 0.00064383185316881086 0 0.00028796608966595512 0.0007083461647441466 0 0.00020377384046502001 0.00069244624442109566 0 0.00028796608966595512 0.0007083461647441466 0 0.00032919157234905633 0.00076191226589494691 0 0.00036655630509052249 0.00070792396007672564 0 0.0003520799613269326 0.00064051352473453046 0 0.00028796608966595512 0.0007083461647441466 0 0.00036655630509052249 0.00070792396007672564 0 0.00042572928173198119 0.00076976453349376656 0 0.00032919157234905633 0.00076191226589494691 0 0.00036655630509052249 0.00070792396007672564 0 0.00042572928173198119 0.00076976453349376656 0 0.00036655630509052249 0.00070792396007672564 0 0.00044745338821270834 0.00067992539073891492 0 0.00042572928173198119 0.00076976453349376656 0 0.00052731362197559176 0.00071918118478759381 0 0.00044745338821270834 0.00067992539073891492 0 0.00052026900899013878 0.00079776584742101821 0 0.00042572928173198119 0.00076976453349376656 0 0.00052731362197559176 0.00071918118478759381 0 0.00052026900899013878 0.00079776584742101821 0 0.00059411207917939638 0.00074066266666268741 0 0.00052731362197559176 0.00071918118478759381 0 0.00059411207917939638 0.00074066266666268741 0 0.00052731362197559176 0.00071918118478759381 0 0.00060197850884416123 0.00065683575587285371 0 0.00060197850884416123 0.00065683575587285371 0 0.00052698171541623118 0.00062190648811364844 0 0.00061310869831329804 0.00054921317407500647 0 0.00052731362197559176 0.00071918118478759381 0 0.00060197850884416123 0.00065683575587285371 0 0.00052698171541623118 0.00062190648811364844 0 0.00052731362197559176 0.00071918118478759381 0 0.00044745338821270834 0.00067992539073891492 0 0.00052698171541623118 0.00062190648811364844 0 0.0003520799613269326 0.00064051352473453046 0 0.00044745338821270834 0.00067992539073891492 0 0.00045634830722311086 0.0006019523810771786 0 0.00044745338821270834 0.00067992539073891492 0 0.00052698171541623118 0.00062190648811364844 0 0.00045634830722311086 0.0006019523810771786 0 0.00045634830722311086 0.0006019523810771786 0 0.00051304921905327076 0.00052292307030410272 0 0.00040865359236931894 0.00055874469323227271 0 0.00051304921905327076 0.00052292307030410272 0 0.00041784712995769071 0.00045622846668213975 0 0.00040865359236931894 0.00055874469323227271 0 0.00052698171541623118 0.00062190648811364844 0 0.00045634830722311086 0.0006019523810771786 0 0.00051304921905327076 0.00052292307030410272 0 0.00052698171541623118 0.00062190648811364844 0 0.00051304921905327076 0.00052292307030410272 0 0.00061310869831329804 0.00054921317407500647 0 0.00071537915873676509 0.00050362825102499668 0 0.00061310869831329804 0.00054921317407500647 0 0.00064708670052563051 0.00038991228239766397 0 0.00051304921905327076 0.00052292307030410272 0 0.00061310869831329804 0.00054921317407500647 0 0.00064708670052563051 0.00038991228239766397 0 0.00051304921905327076 0.00052292307030410272 0 0.00041784712995769071 0.00045622846668213975 0 0.00064708670052563051 0.00038991228239766397 0 0.00053839852831494522 0.00044530754563221127 0 0.00062590088310371904 0.00039421427579718245 0 0.00041784712995769071 0.00045622846668213975 0 0.00040865359236931894 0.00055874469323227271 0 0.00030815995228265466 0.00057046108447042076 0 0.00053839852831494522 0.00044530754563221127 0 0.00027961665759336165 0.00050101929513406336 0 0.00041784712995769071 0.00045622846668213975 0 0.00024842064748672083 0.00054421364934962148 0 0.00030815995228265466 0.00057046108447042076 0 0.00027961665759336165 0.00050101929513406336 0 0.00029621739861817958 0.0005408330579643499 0 0.0002391442819464009 0.00059230351289067489 0 0.00023841821472574029 0.00053244107712734133 0 0.00030815995228265466 0.00057046108447042076 0 0.00051510227726544165 0.00044065441025940426 0 0.00053887443012230816 0.00050317629397570937 0 0.00056659860749560815 0.00041923268846133852 0 0.00051510227726544165 0.00044065441025940426 0 0.00056659860749560815 0.00041923268846133852 0 0.00053945134542271727 0.00037723341855816652 0 0.00061544146831714872 0.00043111462017733859 0 0.00053887443012230816 0.00050317629397570937 0 0.00056659860749560815 0.00041923268846133852 0 0.00056659860749560815 0.00041923268846133852 0 0.00053945134542271727 0.00037723341855816652 0 0.00061269559268925067 0.00035017968087569512 0 0.00053945134542271727 0.00037723341855816652 0 0.00055451584632801765 0.0003227384826675679 0 0.00061269559268925067 0.00035017968087569512 0 0.00055451584632801765 0.0003227384826675679 0 0.0006000380302875033 0.00027617923949091732 0 0.00050934757921151507 0.00027881550944225506 0 0.00053945134542271727 0.00037723341855816652 0 0.00055451584632801765 0.0003227384826675679 0 0.000500643621071802 0.00032157721891483957 0 0.00055451584632801765 0.0003227384826675679 0 0.00061269559268925067 0.00035017968087569512 0 0.0006000380302875033 0.00027617923949091732 0 0.00061544146831714872 0.00043111462017733859 0 0.00056659860749560815 0.00041923268846133852 0 0.00061269559268925067 0.00035017968087569512 0 0.00061544146831714872 0.00043111462017733859 0 0.00061269559268925067 0.00035017968087569512 0 0.00064708670052563051 0.00038991228239766397 0 0.00064708670052563051 0.00038991228239766397 0 0.00068793839292307995 0.00028963402392556599 0 0.00075191690198166865 0.00033142478510237686 0 0.00061269559268925067 0.00035017968087569512 0 0.00064708670052563051 0.00038991228239766397 0 0.00068793839292307995 0.00028963402392556599 0 0.00068793839292307995 0.00028963402392556599 0 0.00068892122434259734 0.00023122843873101665 0 0.00065368371271479306 0.00025954206570920509 0 0.00061269559268925067 0.00035017968087569512 0 0.00068793839292307995 0.00028963402392556599 0 0.00065368371271479306 0.00025954206570920509 0 0.00068793839292307995 0.00028963402392556599 0 0.00073795271132881134 0.00023043665786660745 0 0.00075191690198166865 0.00033142478510237686 0 0.00068793839292307995 0.00028963402392556599 0 0.00073795271132881134 0.00023043665786660745 0 0.00068892122434259734 0.00023122843873101665 0 0.00073795271132881134 0.00023043665786660745 0 0.00068892122434259734 0.00023122843873101665 0 0.00072184173670030685 0.00018950476947982809 0 0.00068892122434259734 0.00023122843873101665 0 0.00070106692121490912 0.00019817377274487303 0 0.00072184173670030685 0.00018950476947982809 0 0.00068892122434259734 0.00023122843873101665 0 0.00067918449267206124 0.00021839573287885846 0 0.00065368371271479306 0.00025954206570920509 0 0.00068892122434259734 0.00023122843873101665 0 0.00067918449267206124 0.00021839573287885846 0 0.00070106692121490912 0.00019817377274487303 0 0.00068673783467970218 0.00020370759181888328 0 0.00067918449267206124 0.00021839573287885846 0 0.00066402391308931186 0.0002082056922595452 0 0.00068673783467970218 0.00020370759181888328 0 0.00067918449267206124 0.00021839573287885846 0 0.00070106692121490912 0.00019817377274487303 0 0.00067918449267206124 0.00021839573287885846 0 0.00066402391308931186 0.0002082056922595452 0 0.00065368371271479306 0.00025954206570920509 0 0.00068673783467970218 0.00020370759181888328 0 0.00066402391308931186 0.0002082056922595452 0 0.00068095539256438932 0.00020741681038281755 0 0.00068095539256438932 0.00020741681038281755 0 0.00068582179099224802 0.00019810398971989757 0 0.00068420745674773712 0.00019895076793419538 0 0.00068095539256438932 0.00020741681038281755 0 0.00069642752993157226 0.0001959322425076846 0 0.00070612625207958969 0.0001945115754460066 0 0.00066402391308931186 0.0002082056922595452 0 0.00056120793308640131 0.00022192137375992398 0 0.0006000380302875033 0.00027617923949091732 0 0.00069377635550250916 0.00021432047702854014 0 0.00065931057412247967 0.00016018540849646181 0 0.00066402391308931186 0.0002082056922595452 0 0.00068095539256438932 0.00020741681038281755 0 0.00069642752993157226 0.0001959322425076846 0 0.00065925048998979191 0.00020868506821531584 0 0.00062799215581708532 0.00019156439260699709 0 0.0005805301217010815 0.00027258644814763614 0 0.00058030371006320984 0.00018546512227195179 0 0.0006000380302875033 0.00027617923949091732 0 0.00051025196005083265 0.00021009173315432203 0 0.00050934757921151507 0.00027881550944225506 0 0.00056120793308640131 0.00022192137375992398 0 0.0006000380302875033 0.00027617923949091732 0 0.00053690720624155008 0.00022716438776949143 0 0.00066402391308931186 0.0002082056922595452 0 0.0006000380302875033 0.00027617923949091732 0 0.00065368371271479306 0.00025954206570920509 0 0.00061269559268925067 0.00035017968087569512 0 0.0006000380302875033 0.00027617923949091732 0 0.00065368371271479306 0.00025954206570920509 0 0.00095855441936706887 0.00042757674611716679 0 0.00092972518413847612 0.00044807798038238878 0 0.00099200435520852221 0.00039326294307023005 0 0.00092319260119286977 0.00044903403328213536 0 0.00088090946864149142 0.00042161030006186804 0 0.00092175145202282418 0.00045886791070415809 0 0.00092294609464163937 0.00046663855916920618 0 0.00092319260119286977 0.00044903403328213536 0 0.00092175145202282418 0.00045886791070415809 0 0.00091132150510399529 0.00048527042355257197 0 0.00092319260119286977 0.00044903403328213536 0 0.00086643502160028442 0.00050911298787913617 0 0.00092319260119286977 0.00044903403328213536 0 0.00088090946864149142 0.00042161030006186804 0 0.00099200435520852221 0.00039326294307023005 0 0.00088090946864149142 0.00042161030006186804 0 0.00090420067326395009 0.00036510468185737112 0 0.00090420067326395009 0.00036510468185737112 0 0.000819773744341007 0.000399773973636798 0 0.00075191690198166865 0.00033142478510237686 0 0.00088090946864149142 0.00042161030006186804 0 0.00090420067326395009 0.00036510468185737112 0 0.000819773744341007 0.000399773973636798 0 0.00088090946864149142 0.00042161030006186804 0 0.00080974870928876292 0.00045327639255963737 0 0.000819773744341007 0.000399773973636798 0 0.00080974870928876292 0.00045327639255963737 0 0.000819773744341007 0.000399773973636798 0 0.00074041062911965562 0.00041586481113190784 0 0.00064708670052563051 0.00038991228239766397 0 0.00074041062911965562 0.00041586481113190784 0 0.00075191690198166865 0.00033142478510237686 0 0.000819773744341007 0.000399773973636798 0 0.00074041062911965562 0.00041586481113190784 0 0.00075191690198166865 0.00033142478510237686 0 0.00073795271132881134 0.00023043665786660745 0 0.00075191690198166865 0.00033142478510237686 0 0.00081739301202378184 0.00024281283445122586 0 0.00073795271132881134 0.00023043665786660745 0 0.00081739301202378184 0.00024281283445122586 0 0.00076934590898818621 0.00018554174792193991 0 0.00089895442267301799 0.00031260381452112758 0 0.00088303031169503624 0.0002692129113405594 0 0.00098065366945944074 0.00036968637534975446 0 0.0010013473422583207 0.00036943453975213689 0 0.00099649361681316997 0.00036490969021059339 0 0.00090923947416936182 0.00036247031579099182 0 0.00089895442267301799 0.00031260381452112758 0 0.00090420067326395009 0.00036510468185737112 0 0.00075191690198166865 0.00033142478510237686 0 0.00081739301202378184 0.00024281283445122586 0 0.00090420067326395009 0.00036510468185737112 0 0.00098065366945944074 0.00036968637534975446 0 0.00097594417480709639 0.00036972095449970489 0 0.00099200435520852221 0.00039326294307023005 0 0.00090420067326395009 0.00036510468185737112 0 0.00097594417480709639 0.00036972095449970489 0 0.00098065366945944074 0.00036968637534975446 0 0.00097594417480709639 0.00036972095449970489 0 0.0010013473422583207 0.00036943453975213689 0 0.00097594417480709639 0.00036972095449970489 0 0.0010013473422583207 0.00036943453975213689 0 0.0010227941789609436 0.000370888323696636 0 0.0010406483652749417 0.0003799075885911614 0 0.00097594417480709639 0.00036972095449970489 0 0.0010227941789609436 0.000370888323696636 0 0.0010406483652749417 0.0003799075885911614 0 0.0010601957689634765 0.00037518335252678149 0 0.0010227941789609436 0.000370888323696636 0 0.0010406483652749417 0.0003799075885911614 0 0.00099200435520852221 0.00039326294307023005 0 0.00097594417480709639 0.00036972095449970489 0 0.0011069544228460757 0.00035714603456779353 0 0.0010817669952243785 0.0003463708088668887 0 0.0010580912923438645 0.00036565646050353435 0 0.0010817669952243785 0.0003463708088668887 0 0.0010580912923438645 0.00036565646050353435 0 0.0010340149414135996 0.00036128150648661385 0 0.0010227941789609436 0.000370888323696636 0 0.0010580912923438645 0.00036565646050353435 0 0.0010340149414135996 0.00036128150648661385 0 0.0010601957689634765 0.00037518335252678149 0 0.0010227941789609436 0.000370888323696636 0 0.0010580912923438645 0.00036565646050353435 0 0.0010013473422583207 0.00036943453975213689 0 0.0010227941789609436 0.000370888323696636 0 0.0010340149414135996 0.00036128150648661385 0 0.0010013473422583207 0.00036943453975213689 0 0.0010340149414135996 0.00036128150648661385 0 0.0010148706190496088 0.00035757807145815661 0 0.0010817669952243785 0.0003463708088668887 0 0.0010340149414135996 0.00036128150648661385 0 0.0010462981748675375 0.00034134746711544321 0 0.0010340149414135996 0.00036128150648661385 0 0.0010462981748675375 0.00034134746711544321 0 0.0010148706190496088 0.00035757807145815661 0 0.0010462981748675375 0.00034134746711544321 0 0.0010148706190496088 0.00035757807145815661 0 0.0010148161210519751 0.00033870002345624958 0 0.0010148706190496088 0.00035757807145815661 0 0.0010034122931117644 0.00035246497066357391 0 0.0010148161210519751 0.00033870002345624958 0 0.0010013473422583207 0.00036943453975213689 0 0.0010148706190496088 0.00035757807145815661 0 0.00099649361681316997 0.00036490969021059339 0 0.0010148706190496088 0.00035757807145815661 0 0.00099649361681316997 0.00036490969021059339 0 0.0010034122931117644 0.00035246497066357391 0 0.00099649361681316997 0.00036490969021059339 0 0.0010034122931117644 0.00035246497066357391 0 0.00098603962017138383 0.00034619366120359563 0 0.0010034122931117644 0.00035246497066357391 0 0.0010148161210519751 0.00033870002345624958 0 0.00098603962017138383 0.00034619366120359563 0 0.00088303031169503624 0.0002692129113405594 0 0.00084998261997218925 0.00028092680622025757 0 0.0010148161210519751 0.00033870002345624958 0 0.0010009762070397417 0.00031177754255633667 0 0.00098603962017138383 0.00034619366120359563 0 0.0010009762070397417 0.00031177754255633667 0 0.0010502162505486694 0.00031081425684688352 0 0.0010199390732419625 0.0002677555533109248 0 0.0010462981748675375 0.00034134746711544321 0 0.0010148161210519751 0.00033870002345624958 0 0.0010502162505486694 0.00031081425684688352 0 0.0010148161210519751 0.00033870002345624958 0 0.0010009762070397417 0.00031177754255633667 0 0.0010502162505486694 0.00031081425684688352 0 0.0010462981748675375 0.00034134746711544321 0 0.0010502162505486694 0.00031081425684688352 0 0.0010900970054874735 0.00032299420953827893 0 0.0010502162505486694 0.00031081425684688352 0 0.0011189953719979693 0.00029308725944350822 0 0.0010900970054874735 0.00032299420953827893 0 0.0011487184222276705 0.00032067994104541502 0 0.0011189953719979693 0.00029308725944350822 0 0.0010900970054874735 0.00032299420953827893 0 0.0010817669952243785 0.0003463708088668887 0 0.0010462981748675375 0.00034134746711544321 0 0.0010900970054874735 0.00032299420953827893 0 0.0011487184222276705 0.00032067994104541502 0 0.0010817669952243785 0.0003463708088668887 0 0.0010900970054874735 0.00032299420953827893 0 0.00074705277672664221 0.00016962777572748794 0 0.00070900108226236566 0.00019217604766027336 0 0.00073029503224865454 0.00017869621178829255 0 0.00074705277672664221 0.00016962777572748794 0 0.00081718025945808515 0.00018758699575645538 0 0.00084840178900619288 0.00014085420170349802 0 0.00074705277672664221 0.00016962777572748794 0 0.00070125280461060468 0.00019407675621241612 0 0.00068142998988517003 0.00018174514106958985 0 0.00074946415348852672 0.00016812945998471017 0 0.00076568233251123963 0.00016140005495912082 0 0.00070125280461060468 0.00019407675621241612 0 0.00068142998988517003 0.00018174514106958985 0 0.00068582179099224802 0.00019810398971989757 0 0.00068095539256438932 0.00020741681038281755 0 0.00070125280461060468 0.00019407675621241612 0 0.00068582179099224802 0.00019810398971989757 0 0.00068673783467970218 0.00020370759181888328 0 0.00068095539256438932 0.00020741681038281755 0 0.00070900108226236566 0.00019217604766027336 0 0.00068095539256438932 0.00020741681038281755 0 0.00070125280461060468 0.00019407675621241612 0 0.00070900108226236566 0.00019217604766027336 0 0.00074705277672664221 0.00016962777572748794 0 0.00070125280461060468 0.00019407675621241612 0 0.00070900108226236566 0.00019217604766027336 0 0.00068673783467970218 0.00020370759181888328 0 0.00070900108226236566 0.00019217604766027336 0 0.00070106692121490912 0.00019817377274487303 0 0.00070106692121490912 0.00019817377274487303 0 0.00072184173670030685 0.00018950476947982809 0 0.00073029503224865454 0.00017869621178829255 0 0.00070900108226236566 0.00019217604766027336 0 0.00070106692121490912 0.00019817377274487303 0 0.00073029503224865454 0.00017869621178829255 0 0.00076934590898818621 0.00018554174792193991 0 0.00072184173670030685 0.00018950476947982809 0 0.00074230234000161033 0.00014174937970127917 0 0.00073795271132881134 0.00023043665786660745 0 0.00076934590898818621 0.00018554174792193991 0 0.00072184173670030685 0.00018950476947982809 0 0.00070904112307245369 0.00015291036703300333 0 0.00084998261997218925 0.00028092680622025757 0 0.00072184173670030685 0.00018950476947982809 0 0.00072739413354598874 0.00018497533268307131 0 0.00073029503224865454 0.00017869621178829255 0 0.00072739413354598874 0.00018497533268307131 0 0.00073029503224865454 0.00017869621178829255 0 0.00075441279944405673 0.00020795276833025683 0 0.00074705277672664221 0.00016962777572748794 0 0.00073029503224865454 0.00017869621178829255 0 0.00075441279944405673 0.00020795276833025683 0 0.00098087279950076186 0.00035055506382427812 0 0.00094432449038913974 0.00043747975742117065 0 0.00089804097164656704 0.00035971886435862713 0 0.00084998261997218925 0.00028092680622025757 0 0.00082699826957305042 0.00028705154576642969 0 0.0010040253630678312 0.00035084388356384724 0 0.00084998261997218925 0.00028092680622025757 0 0.00098087279950076186 0.00035055506382427812 0 0.00089804097164656704 0.00035971886435862713 0 0.00093357198573613758 0.00028271994392763773 0 0.00082699826957305042 0.00028705154576642969 0 0.00083562945639623955 0.0002571896112734765 0 0.00075441279944405673 0.00020795276833025683 0 0.00080790244607867334 0.00021305287836983231 0 0.00084129166881798101 0.00025841441486127115 0 0.00074705277672664221 0.00016962777572748794 0 0.00075441279944405673 0.00020795276833025683 0 0.00080790244607867334 0.00021305287836983231 0 0.00074705277672664221 0.00016962777572748794 0 0.00080790244607867334 0.00021305287836983231 0 0.00081718025945808515 0.00018758699575645538 0 0.00080790244607867334 0.00021305287836983231 0 0.00081718025945808515 0.00018758699575645538 0 0.0008571780238649365 0.00022224727153846978 0 0.00080790244607867334 0.00021305287836983231 0 0.0008571780238649365 0.00022224727153846978 0 0.00084239684115756561 0.00023823425543227709 0 0.0008571780238649365 0.00022224727153846978 0 0.00088770125834652187 0.00021196710166913849 0 0.00086416899758522093 0.00018821922152337516 0 0.00088770125834652187 0.00021196710166913849 0 0.00089884078014549555 0.00018930155358541333 0 0.00086416899758522093 0.00018821922152337516 0 0.00088770125834652187 0.00021196710166913849 0 0.00091718475797603559 0.00020116609117782841 0 0.00090823127761548519 0.00023018944457647909 0 0.00088770125834652187 0.00021196710166913849 0 0.00089884078014549555 0.00018930155358541333 0 0.00091718475797603559 0.00020116609117782841 0 0.00088935492304906478 0.00016256071534091003 0 0.00089884078014549555 0.00018930155358541333 0 0.00086416899758522093 0.00018821922152337516 0 0.00088935492304906478 0.00016256071534091003 0 0.00089884078014549555 0.00018930155358541333 0 0.00092937335637319923 0.00016425046046237543 0 0.00088935492304906478 0.00016256071534091003 0 0.00086416899758522093 0.00018821922152337516 0 0.00084840178900619288 0.00014085420170349802 0 0.00081718025945808515 0.00018758699575645538 0 0.00086416899758522093 0.00018821922152337516 0 0.00084840178900619288 0.00014085420170349802 0 0.00081718025945808515 0.00018758699575645538 0 0.0008571780238649365 0.00022224727153846978 0 0.00086416899758522093 0.00018821922152337516 0 0.0015901184038568984 2.6748996586334007e-05 0 0.0017437301217794587 0.00011773499465641223 0 0.0010102415581725406 0.00014147320055766911 0 0.0010187958118259104 0.00013587720040813449 0 0.0010142921902794265 0.00015420036290658771 0 0.0010102415581725406 0.00014147320055766911 0 0.0010082553400079662 0.00013195189230856021 0 0.0010187958118259104 0.00013587720040813449 0 0.0010102415581725406 0.00014147320055766911 0 0.0010082553400079662 0.00013195189230856021 0 0.00098854450684000015 0.00014756843592495528 0 0.0010102415581725406 0.00014147320055766911 0 0.00098854450684000015 0.00014756843592495528 0 0.0010142921902794265 0.00015420036290658771 0 0.0010082553400079662 0.00013195189230856021 0 0.00098854450684000015 0.00014756843592495528 0 0.00095672149145830331 0.00016234058209982233 0 0.0009595739252009519 0.00019596443161242662 0 0.00091718475797603559 0.00020116609117782841 0 0.00090823127761548519 0.00023018944457647909 0 0.0009825054513308445 0.00016263541296091639 0 0.00093285795001276934 0.0001970294472548055 0 0.0009595739252009519 0.00019596443161242662 0 0.00091718475797603559 0.00020116609117782841 0 0.00092937335637319923 0.00016425046046237543 0 0.00089884078014549555 0.00018930155358541333 0 0.00091718475797603559 0.00020116609117782841 0 0.00092937335637319923 0.00016425046046237543 0 0.0009595739252009519 0.00019596443161242662 0 0.00096921996397281336 0.00015157481694698518 0 0.001012091457432717 0.00012816177001430688 0 0.0010082553400079662 0.00013195189230856021 0 0.001012091457432717 0.00012816177001430688 0 0.0010187958118259104 0.00013587720040813449 0 0.0009825054513308445 0.00016263541296091639 0 0.0010109564197125147 0.00013047019762198184 0 0.0009595739252009519 0.00019596443161242662 0 0.00092937335637319923 0.00016425046046237543 0 0.00096921996397281336 0.00015157481694698518 0 0.00092937335637319923 0.00016425046046237543 0 0.00096921996397281336 0.00015157481694698518 0 0.00097541090855683579 0.00011344948721427316 0 0.00081818823583726602 9.2931834432932996e-05 0 0.00087625800554371651 6.487844293774361e-05 0 0.00096921996397281336 0.00015157481694698518 0 0.00097541090855683579 0.00011344948721427316 0 0.001012091457432717 0.00012816177001430688 0 0.00081818823583726602 9.2931834432932996e-05 0 0.00079566865863530648 0.00016576510161060929 0 0.00092937335637319923 0.00016425046046237543 0 0.00097541090855683579 0.00011344948721427316 0 0.00090603632003144452 0.0001283447419528528 0 0.00068350278002511763 0.00019056223164984923 0 0.00067968979544981781 0.00019130858715760016 0 0.00067919907891305568 0.00019254582855217294 0 0.00078784688787345947 0.00012241167541777483 0 0.00077416295275961307 9.965135723196814e-05 0 0.00073385696128862397 8.9699833445347591e-05 0 0.00081818823583726602 9.2931834432932996e-05 0 0.00069702632386103391 0.00014523882422435471 0 0.00077416295275961307 9.965135723196814e-05 0 0.00073385696128862397 8.9699833445347591e-05 0 0.00073346833051041009 8.1224448268981973e-05 0 0.00076214933715599545 9.2396535082267964e-05 0 0.00073346833051041009 8.1224448268981973e-05 0 0.00074973512220671422 7.9542638878930531e-05 0 0.00075735152485082509 9.5612240004548196e-05 0 0.00073993341648097668 8.3142535821979245e-05 0 0.00076214933715599545 9.2396535082267964e-05 0 0.00074973512220671422 7.9542638878930531e-05 0 0.00075847814656390883 7.4712083612163199e-05 0 0.00076214933715599545 9.2396535082267964e-05 0 0.00078379144619496579 8.8718023941583931e-05 0 0.00078886459651890276 0.00010330107850660846 0 0.00078784688787345947 0.00012241167541777483 0 0.00077416295275961307 9.965135723196814e-05 0 0.00081569353565043691 0.00011961277092820858 0 0.00075735152485082509 9.5612240004548196e-05 0 0.00087625800554371651 6.487844293774361e-05 0 0.00076214933715599545 9.2396535082267964e-05 0 0.00075847814656390883 7.4712083612163199e-05 0 0.00077567986442805663 7.729295899420797e-05 0 0.00076214933715599545 9.2396535082267964e-05 0 0.00077567986442805663 7.729295899420797e-05 0 0.00078379144619496579 8.8718023941583931e-05 0 0.00068142998988517003 0.00018174514106958985 0 0.00067968979544981781 0.00019130858715760016 0 0.00068000562811635745 0.00019163501302236485 0 0.00088935492304906478 0.00016256071534091003 0 0.00084840178900619288 0.00014085420170349802 0 0.00090603632003144452 0.0001283447419528528 0 0.00076568233251123963 0.00016140005495912082 0 0.00079566865863530648 0.00016576510161060929 0 0.00088935492304906478 0.00016256071534091003 0 0.00092937335637319923 0.00016425046046237543 0 0.00090603632003144452 0.0001283447419528528 0 0.00067968979544981781 0.00019130858715760016 0 0.00068000562811635745 0.00019163501302236485 0 0.00067919907891305568 0.00019254582855217294 0 0.00068000562811635745 0.00019163501302236485 0 0.00067919907891305568 0.00019254582855217294 0 0.00068192485190596004 0.00019543788270184396 0 0.00068000562811635745 0.00019163501302236485 0 0.00068192485190596004 0.00019543788270184396 0 0.00068582179099224802 0.00019810398971989757 0 0.00068142998988517003 0.00018174514106958985 0 0.00068000562811635745 0.00019163501302236485 0 0.00068582179099224802 0.00019810398971989757 0 0.00068192485190596004 0.00019543788270184396 0 0.00068582179099224802 0.00019810398971989757 0 0.00068420745674773712 0.00019895076793419538 0 0.00058030371006320984 0.00018546512227195179 0 0.00054285197862860286 0.00018882841481168483 0 0.00060724850736154547 0.00017084364033412142 0 0.00062547291185103128 0.00017608284436746043 0 0.00055623228701290979 0.00019323504403307768 0 0.00065931057412247967 0.00016018540849646181 0 0.00054285197862860286 0.00018882841481168483 0 0.00061979824768806685 0.00017759225693464 0 0.00062317614456553687 0.00017768151911287116 0 0.0006221818440156502 0.0001772992630852697 0 0.00062799215581708532 0.00019156439260699709 0 0.00065931057412247967 0.00016018540849646181 0 0.00065931057412247967 0.00016018540849646181 0 0.00058030371006320984 0.00018546512227195179 0 0.00062799215581708532 0.00019156439260699709 0 0.00058030371006320984 0.00018546512227195179 0 0.00051025196005083265 0.00021009173315432203 0 0.00048636265517962675 0.00024404878138534479 0 0.00050934757921151507 0.00027881550944225506 0 0.00051025196005083265 0.00021009173315432203 0 0.00048636265517962675 0.00024404878138534479 0 0.00046253442475330692 0.0002228193835842085 0 0.00048636265517962675 0.00024404878138534479 0 0.00046253442475330692 0.0002228193835842085 0 0.00047034884083479772 0.00026419440107391495 0 0.00047034884083479772 0.00026419440107391495 0 0.00050934757921151507 0.00027881550944225506 0 0.00045460443820804895 0.00030517919746746798 0 0.00048636265517962675 0.00024404878138534479 0 0.00047034884083479772 0.00026419440107391495 0 0.00050934757921151507 0.00027881550944225506 0 0.00054285197862860286 0.00018882841481168483 0 0.00048686990602844516 0.00018406438304651687 0 0.00052366324808672798 0.00018961029894955085 0 0.00038965156049042499 0.0002234952547378819 0 0.00041048893523313538 0.0002395073080122516 0 0.00046253442475330692 0.0002228193835842085 0 0.00041695321116369034 0.00026427964680747051 0 0.00038137566093808734 0.00025708389898959876 0 0.00054285197862860286 0.00018882841481168483 0 0.00038413600973718896 0.00025262209651232101 0 0.00062916390119752131 0.00013677260311489845 0 0.00059033551333343402 0.00013542945313077659 0 0.00056692502320671565 0.00015181766566353945 0 0.00041695321116369034 0.00026427964680747051 0 0.00038137566093808734 0.00025708389898959876 0 0.00038800490967934824 0.00028019754990499062 0 0.00041695321116369034 0.00026427964680747051 0 0.00038800490967934824 0.00028019754990499062 0 0.00041337035130846022 0.00029043056351994517 0 0.00041695321116369034 0.00026427964680747051 0 0.00044010020508956942 0.00026924486584516621 0 0.00041337035130846022 0.00029043056351994517 0 0.00047034884083479772 0.00026419440107391495 0 0.00044010020508956942 0.00026924486584516621 0 0.00045460443820804895 0.00030517919746746798 0 0.00046253442475330692 0.0002228193835842085 0 0.00041695321116369034 0.00026427964680747051 0 0.00044010020508956942 0.00026924486584516621 0 0.00046253442475330692 0.0002228193835842085 0 0.00047034884083479772 0.00026419440107391495 0 0.00044010020508956942 0.00026924486584516621 0 0.00067919907891305568 0.00019254582855217294 0 0.00068192485190596004 0.00019543788270184396 0 0.00068420745674773712 0.00019895076793419538 0 0.00073184766038914331 5.7483758973474697e-05 0 0.00072592541849449599 6.7705851812670234e-05 0 0.00074456909752920514 6.937721978464236e-05 0 0.00065012497990277987 0.00012778239762078239 0 0.00062916390119752131 0.00013677260311489845 0 0.00059033551333343402 0.00013542945313077659 0 0.00065931057412247967 0.00016018540849646181 0 0.00066420193684883755 9.0836340979179146e-05 0 0.00069702632386103391 0.00014523882422435471 0 0.00065931057412247967 0.00016018540849646181 0 0.00073385696128862397 8.9699833445347591e-05 0 0.00069249536385437448 6.2686941615345187e-05 0 0.00073346833051041009 8.1224448268981973e-05 0 0.00069249536385437448 6.2686941615345187e-05 0 0.00072592541849449599 6.7705851812670234e-05 0 0.00073346833051041009 8.1224448268981973e-05 0 0.00069249536385437448 6.2686941615345187e-05 0 0.00073184766038914331 5.7483758973474697e-05 0 0.00072592541849449599 6.7705851812670234e-05 0 0.00073346833051041009 8.1224448268981973e-05 0 0.00074973512220671422 7.9542638878930531e-05 0 0.00074456909752920514 6.937721978464236e-05 0 0.00072592541849449599 6.7705851812670234e-05 0 0.00073346833051041009 8.1224448268981973e-05 0 0.00074456909752920514 6.937721978464236e-05 0 0.00073184766038914331 5.7483758973474697e-05 0 0.00074456909752920514 6.937721978464236e-05 0 0.00076643503933782617 5.4902027898616967e-05 0 0.00074973512220671422 7.9542638878930531e-05 0 0.00075847814656390883 7.4712083612163199e-05 0 0.00074456909752920514 6.937721978464236e-05 0 0.00075847814656390883 7.4712083612163199e-05 0 0.00074456909752920514 6.937721978464236e-05 0 0.00076643503933782617 5.4902027898616967e-05 0 0.00077567986442805663 7.729295899420797e-05 0 0.00076643503933782617 5.4902027898616967e-05 0 0.00078853534362357245 6.7994613035687114e-05 0 0.00075847814656390883 7.4712083612163199e-05 0 0.00077567986442805663 7.729295899420797e-05 0 0.00076643503933782617 5.4902027898616967e-05 0 0.00037802239608192311 0.00021328939666548854 0 0.00048686990602844516 0.00018406438304651687 0 0.00052828400756536615 0.00014295756983143324 0 0.00050045720113960697 0.00016880292246279017 0 0.00056692502320671565 0.00015181766566353945 0 0.00026594195310373022 0.00025623279092848819 0 0.00038965156049042499 0.0002234952547378819 0 0.00030279775511382487 0.00028514061322026403 0 0.00038413600973718896 0.00025262209651232101 0 0.00031415031554262498 0.0002811549930193835 0 0.00059033551333343402 0.00013542945313077659 0 0.00052828400756536615 0.00014295756983143324 0 0.00056692502320671565 0.00015181766566353945 0 0.00066420193684883755 9.0836340979179146e-05 0 0.00064754407077046155 9.9209971008878573e-05 0 0.00038965156049042499 0.0002234952547378819 0 0.00041048893523313538 0.0002395073080122516 0 0.00030279775511382487 0.00028514061322026403 0 0.00038137566093808734 0.00025708389898959876 0 0.00034846664754925491 0.00028732938208429889 0 0.00030279775511382487 0.00028514061322026403 0 0.00037152891824847447 0.00027892599896830658 0 0.00038137566093808734 0.00025708389898959876 0 0.00034846664754925491 0.00028732938208429889 0 0.00037152891824847447 0.00027892599896830658 0 0.00038137566093808734 0.00025708389898959876 0 0.00038800490967934824 0.00028019754990499062 0 0.00038800490967934824 0.00028019754990499062 0 0.00038388890959081779 0.00030938098751724912 0 0.00036959150252754996 0.00029117213959554028 0 0.00038800490967934824 0.00028019754990499062 0 0.00038388890959081779 0.00030938098751724912 0 0.00041337035130846022 0.00029043056351994517 0 0.00038388890959081779 0.00030938098751724912 0 0.00036959150252754996 0.00029117213959554028 0 0.00035630259417600497 0.00030675635007669305 0 0.00037152891824847447 0.00027892599896830658 0 0.00038800490967934824 0.00028019754990499062 0 0.00036959150252754996 0.00029117213959554028 0 0.00037152891824847447 0.00027892599896830658 0 0.00036959150252754996 0.00029117213959554028 0 0.00034846664754925491 0.00028732938208429889 0 0.00034846664754925491 0.00028732938208429889 0 0.00035630259417600497 0.00030675635007669305 0 0.00033099376566160423 0.00030614268207597667 0 0.00036959150252754996 0.00029117213959554028 0 0.00034846664754925491 0.00028732938208429889 0 0.00035630259417600497 0.00030675635007669305 0 0.00035630259417600497 0.00030675635007669305 0 0.00033963172644025464 0.00032717491297452433 0 0.00036525969689844579 0.00032650328727926961 0 0.00035630259417600497 0.00030675635007669305 0 0.00033963172644025464 0.00032717491297452433 0 0.00033099376566160423 0.00030614268207597667 0 0.00033963172644025464 0.00032717491297452433 0 0.00036525969689844579 0.00032650328727926961 0 0.00035667302090177657 0.00035000880997705875 0 0.00036525969689844579 0.00032650328727926961 0 0.00038792870064393345 0.00034010635663816378 0 0.00035667302090177657 0.00035000880997705875 0 0.00038388890959081779 0.00030938098751724912 0 0.00036525969689844579 0.00032650328727926961 0 0.00038792870064393345 0.00034010635663816378 0 0.00038388890959081779 0.00030938098751724912 0 0.00035630259417600497 0.00030675635007669305 0 0.00036525969689844579 0.00032650328727926961 0 0.00026594195310373022 0.00025623279092848819 0 0.000269881671917532 0.00029700576002813513 0 0.00030279775511382487 0.00028514061322026403 0 0.000269881671917532 0.00029700576002813513 0 0.00030279775511382487 0.00028514061322026403 0 0.00028026976141764468 0.00032750020334947457 0 0.00030279775511382487 0.00028514061322026403 0 0.00033099376566160423 0.00030614268207597667 0 0.00031096538576151633 0.0003204691215128068 0 0.00034846664754925491 0.00028732938208429889 0 0.00030279775511382487 0.00028514061322026403 0 0.00033099376566160423 0.00030614268207597667 0 0.00033963172644025464 0.00032717491297452433 0 0.00031096538576151633 0.0003204691215128068 0 0.00031752485230385658 0.00035367328569868833 0 0.00031096538576151633 0.0003204691215128068 0 0.00028026976141764468 0.00032750020334947457 0 0.00031752485230385658 0.00035367328569868833 0 0.00033963172644025464 0.00032717491297452433 0 0.00033099376566160423 0.00030614268207597667 0 0.00031096538576151633 0.0003204691215128068 0 0.00030279775511382487 0.00028514061322026403 0 0.00031096538576151633 0.0003204691215128068 0 0.00028026976141764468 0.00032750020334947457 0 0.00037986497641963102 0.00039497499943083082 0 -0.00011765842907165232 0.00032700895150476555 0 0.00031752485230385658 0.00035367328569868833 0 0.00034995331066709422 0.00039807015220208962 0 0.0002565564517864377 0.00039228322819292489 0 0.00028026976141764468 0.00032750020334947457 0 0.00031752485230385658 0.00035367328569868833 0 0.0002565564517864377 0.00039228322819292489 0 0.00039390510452858702 0.00039645921376315496 0 0.00037986497641963102 0.00039497499943083082 0 0.00042779213578552028 0.00040080275960263488 0 0.00038533387349532134 0.00036890720210676695 0 0.00034995331066709422 0.00039807015220208962 0 0.00038533387349532134 0.00036890720210676695 0 0.00035667302090177657 0.00035000880997705875 0 0.00034995331066709422 0.00039807015220208962 0 0.00038792870064393345 0.00034010635663816378 0 0.00038533387349532134 0.00036890720210676695 0 0.00035667302090177657 0.00035000880997705875 0 0.00033963172644025464 0.00032717491297452433 0 0.00031752485230385658 0.00035367328569868833 0 0.00035667302090177657 0.00035000880997705875 0 0.00031752485230385658 0.00035367328569868833 0 0.00035667302090177657 0.00035000880997705875 0 0.00034995331066709422 0.00039807015220208962 0 0.00042779213578552028 0.00040080275960263488 0 0.00038533387349532134 0.00036890720210676695 0 0.00041685686508779253 0.000359455976551117 0 0.00038792870064393345 0.00034010635663816378 0 0.00038533387349532134 0.00036890720210676695 0 0.00041685686508779253 0.000359455976551117 0 0.00041685686508779253 0.000359455976551117 0 0.00046278983178949792 0.00035698333328356904 0 0.00041879760059413421 0.00032555974465061277 0 0.00042779213578552028 0.00040080275960263488 0 0.00041685686508779253 0.000359455976551117 0 0.00046278983178949792 0.00035698333328356904 0 0.00047956293613125997 0.00040803519360643569 0 0.00053945134542271727 0.00037723341855816652 0 0.00046278983178949792 0.00035698333328356904 0 0.00053945134542271727 0.00037723341855816652 0 0.00046278983178949792 0.00035698333328356904 0 0.000500643621071802 0.00032157721891483957 0 0.00047956293613125997 0.00040803519360643569 0 0.00042779213578552028 0.00040080275960263488 0 0.00046278983178949792 0.00035698333328356904 0 0.00046278983178949792 0.00035698333328356904 0 0.000500643621071802 0.00032157721891483957 0 0.00045460443820804895 0.00030517919746746798 0 0.00055451584632801765 0.0003227384826675679 0 0.00050934757921151507 0.00027881550944225506 0 0.000500643621071802 0.00032157721891483957 0 0.00050934757921151507 0.00027881550944225506 0 0.000500643621071802 0.00032157721891483957 0 0.00045460443820804895 0.00030517919746746798 0 0.00044010020508956942 0.00026924486584516621 0 0.00045460443820804895 0.00030517919746746798 0 0.00041337035130846022 0.00029043056351994517 0 0.00045460443820804895 0.00030517919746746798 0 0.00041337035130846022 0.00029043056351994517 0 0.00041879760059413421 0.00032555974465061277 0 0.00038388890959081779 0.00030938098751724912 0 0.00041337035130846022 0.00029043056351994517 0 0.00041879760059413421 0.00032555974465061277 0 0.00038388890959081779 0.00030938098751724912 0 0.00038792870064393345 0.00034010635663816378 0 0.00041879760059413421 0.00032555974465061277 0 0.00038792870064393345 0.00034010635663816378 0 0.00041685686508779253 0.000359455976551117 0 0.00041879760059413421 0.00032555974465061277 0 0.00046278983178949792 0.00035698333328356904 0 0.00045460443820804895 0.00030517919746746798 0 0.00041879760059413421 0.00032555974465061277 0 0.00010840813741339057 0.0002239409019747791 0 0.00031219197595496676 0.00023667495065058739 0 0.00010840813741339057 0.0002239409019747791 0 -3.3641469582546667e-05 0.00032263074612462678 0 0.00033602075670009616 0.00021123180517390773 0 0.00042440097876648037 0.00018904922408502381 0 0.00038014292135454781 0.00015857041900798434 0 -0.0002461567760744125 0.00026586611840137656 0 -0.00023487109976198494 0.00028164183851782533 0 -0.00021322895259693898 0.00028008266991941044 0 -0.0002461567760744125 0.00026586611840137656 0 -0.0002467896168067929 0.0002787170831556216 0 -0.00023487109976198494 0.00028164183851782533 0 0.00010840813741339057 0.0002239409019747791 0 0.00062923801740196893 8.6461872388692872e-05 0 0.00030680132187443595 0.00024715149885735297 0 0.00038869228354413473 0.00018690804747652942 0 0.00039764160428816666 0.00010542943676444945 0 0.00024695286636512297 0.00020425366990600886 0 0.00077862345503221762 0.00014985304471080117 0 0.00021661717696389078 0.00022898760661787509 0 0.00064155195389109477 0.00011746311983058657 0 0.00034994040543513439 0.00024768614699534922 0 0.00038896894335547214 0.00026444924231319689 0 0.00037849040795535194 7.8433392122571297e-05 0 0.00063795158634911682 0.00020269013451038772 0 0.00063247775435089717 0.00019631340453278134 0 0.0006238173316341593 0.00021162804067858897 0 0.00038869228354413473 0.00018690804747652942 0 0.00042556326322448079 0.00020286323601695168 0 0.00044363858934326868 9.9419913332582082e-05 0 0.00029913584249301883 0.00024363205166108538 0 0.00021661717696389078 0.00022898760661787509 0 0.00038869228354413473 0.00018690804747652942 0 0.00042470531174995777 0.00020272615698668225 0 0.00042213854724147063 0.00021910048266145582 0 0.00021661717696389078 0.00022898760661787509 0 0.00010840813741339057 0.0002239409019747791 0 -8.4001222383278145e-05 0.00021575537821909006 0 -1.2089783727027067e-05 0.00019841915599613821 0 -5.2987618259103662e-05 0.00023645517976718332 0 0.00024695286636512297 0.00020425366990600886 0 0.00013060376123773222 0.00020773873039566055 0 0.00030680132187443595 0.00024715149885735297 0 0.00038869228354413473 0.00018690804747652942 0 0.00042213854724147063 0.00021910048266145582 0 -0.0002461567760744125 0.00026586611840137656 0 -0.00025236251630903953 0.00027396509313366591 0 -0.0002467896168067929 0.0002787170831556216 0 0.00010840813741339057 0.0002239409019747791 0 -9.5786545500553685e-05 0.00024681797404076176 0 0.00013060376123773222 0.00020773873039566055 0 -9.5786545500553685e-05 0.00024681797404076176 0 5.7699202735529073e-05 0.00017573028172400339 0 1.6036082926835104e-05 0.00018573690815932794 0 4.7834745270088427e-06 0.00025367948790439628 0 0.00015114055323861225 0.00017927822789798426 0 0.00017590547379916341 0.00018989766684854168 0 0.00014830816198313802 0.00019658435876210642 0 0.00010840813741339057 0.0002239409019747791 0 0.00013060376123773222 0.00020773873039566055 0 0.00021661717696389078 0.00022898760661787509 0 0.00013060376123773222 0.00020773873039566055 0 -1.2089783727027067e-05 0.00019841915599613821 0 -1.6814621411103396e-05 0.00022539602597250309 0 -5.2987618259103662e-05 0.00023645517976718332 0 -9.5786545500553685e-05 0.00024681797404076176 0 -0.00040134860861158929 0.0002896572614082359 0 -0.00025236251630903953 0.00027396509313366591 0 -0.00025582424383524955 0.00028765833330114752 0 -0.0002467896168067929 0.0002787170831556216 0 -9.5786545500553685e-05 0.00024681797404076176 0 -0.00050242210428353058 0.00029422468348898518 0 -0.00027210156090505023 0.00021539696557343601 0 -0.00029433457566689305 0.00034754197624322437 0 -0.00036935849339853494 0.00034069878585282325 0 -0.0001179849344955771 0.00026843318410772662 0 -5.2987618259103662e-05 0.00023645517976718332 0 -5.5165128171809698e-05 0.00027422847499268337 0 -1.6814621411103396e-05 0.00022539602597250309 0 -5.2987618259103662e-05 0.00023645517976718332 0 -5.5165128171809698e-05 0.00027422847499268337 0 -0.00050242210428353058 0.00029422468348898518 0 -0.00040134860861158929 0.0002896572614082359 0 -0.00066405178329049087 0.00029132107375527975 0 -0.00040134860861158929 0.0002896572614082359 0 -0.00084196545999167362 0.00029907960522537253 0 -0.00081566610144364899 0.0003044542376624171 0 -0.0008213414004136603 0.0002738577557757275 0 -0.00073310015365571596 0.00031703602333925255 0 -0.00050242210428353058 0.00029422468348898518 0 -0.00081566610144364899 0.0003044542376624171 0 -0.00078781779724107362 0.00029556835273115094 0 -0.00081069723694469822 0.00027612662640287994 0 -0.00081566610144364899 0.0003044542376624171 0 -0.00080790300151974712 0.00027498900456809976 0 -0.0008213414004136603 0.0002738577557757275 0 -0.00078781779724107362 0.00029556835273115094 0 -0.00081069723694469822 0.00027612662640287994 0 -0.00075030315484840603 0.00027340441170170521 0 -0.00050242210428353058 0.00029422468348898518 0 -0.00054864387331845013 0.00027240783679557674 0 -0.00025582424383524955 0.00028765833330114752 0 -0.00023487109976198494 0.00028164183851782533 0 -0.00021835530590798877 0.00029161073981002876 0 -0.00025582424383524955 0.00028765833330114752 0 -0.0002467896168067929 0.0002787170831556216 0 -0.00023487109976198494 0.00028164183851782533 0 -0.00078781779724107362 0.00029556835273115094 0 -0.00076318487370711499 0.00030673406140166914 0 -0.00075030315484840603 0.00027340441170170521 0 -0.00021835530590798877 0.00029161073981002876 0 -0.00021322895259693898 0.00028008266991941044 0 -0.00017550416386598558 0.00029554953237469401 0 -0.00023487109976198494 0.00028164183851782533 0 -0.00021835530590798877 0.00029161073981002876 0 -0.00021322895259693898 0.00028008266991941044 0 0.00028026976141764468 0.00032750020334947457 0 0.0002565564517864377 0.00039228322819292489 0 0.00023099186823618648 0.00031779867898083466 0 -0.00054864387331845013 0.00027240783679557674 0 -0.00011765842907165232 0.00032700895150476555 0 0.00015780152014469926 0.00034940359807043207 0 0.0002565564517864377 0.00039228322819292489 0 0.00023099186823618648 0.00031779867898083466 0 -0.00070660317337301428 0.00031308714379241193 0 -0.00075030315484840603 0.00027340441170170521 0 -0.00062985365597690213 0.00026141612700326868 0 -3.3641469582546667e-05 0.00032263074612462678 0 -0.00011765842907165232 0.00032700895150476555 0 0.00026594195310373022 0.00025623279092848819 0 0.00023099186823618648 0.00031779867898083466 0 0.00016361790737459849 0.00028156946113201968 0 0.000269881671917532 0.00029700576002813513 0 0.00028026976141764468 0.00032750020334947457 0 0.00023099186823618648 0.00031779867898083466 0 0.00026594195310373022 0.00025623279092848819 0 0.000269881671917532 0.00029700576002813513 0 0.00023099186823618648 0.00031779867898083466 0 5.9837135553486028e-05 0.00030580791081179302 0 0.00015780152014469926 0.00034940359807043207 0 0.00016361790737459849 0.00028156946113201968 0 0.00015780152014469926 0.00034940359807043207 0 0.00023099186823618648 0.00031779867898083466 0 0.00016361790737459849 0.00028156946113201968 0 0.00062120709000053234 0.00010393293436210454 0 0.00062923801740196893 8.6461872388692872e-05 0 0.00042440097876648037 0.00018904922408502381 0 0.00045916339957390132 0.00015022644673085846 0 0.00038014292135454781 0.00015857041900798434 0 0.00079638854588989305 5.3543272596002912e-05 0 0.00081334249099263337 6.3333678529852298e-05 0 0.00082084814437106209 5.2264500485871394e-05 0 0.00081737811788345192 1.9322787163762289e-05 0 0.00062923801740196893 8.6461872388692872e-05 0 0.00076643503933782617 5.4902027898616967e-05 0 0.00079638854588989305 5.3543272596002912e-05 0 0.00078853534362357245 6.7994613035687114e-05 0 0.00037802239608192311 0.00021328939666548854 0 0.00031219197595496676 0.00023667495065058739 0 0.00052828400756536615 0.00014295756983143324 0 0.00050045720113960697 0.00016880292246279017 0 0.00045916339957390132 0.00015022644673085846 0 0.00064754407077046155 9.9209971008878573e-05 0 0.00062120709000053234 0.00010393293436210454 0 0.00050045720113960697 0.00016880292246279017 0 0.00042440097876648037 0.00018904922408502381 0 0.00045916339957390132 0.00015022644673085846 0 0.00079638854588989305 5.3543272596002912e-05 0 0.00078853534362357245 6.7994613035687114e-05 0 0.00080379243992784503 7.261570291546056e-05 0 0.00078853534362357245 6.7994613035687114e-05 0 0.0007941985925699177 7.9757653775130728e-05 0 0.00080379243992784503 7.261570291546056e-05 0 0.0007941985925699177 7.9757653775130728e-05 0 0.00080379243992784503 7.261570291546056e-05 0 0.00080671703057072464 8.5766137866550294e-05 0 0.00077567986442805663 7.729295899420797e-05 0 0.00078853534362357245 6.7994613035687114e-05 0 0.0007941985925699177 7.9757653775130728e-05 0 0.00081334249099263337 6.3333678529852298e-05 0 0.00080379243992784503 7.261570291546056e-05 0 0.00082190562472067 8.5099009715845444e-05 0 0.00079638854588989305 5.3543272596002912e-05 0 0.00081334249099263337 6.3333678529852298e-05 0 0.00080379243992784503 7.261570291546056e-05 0 0.0010110713475791975 7.9928722440486663e-05 0 0.0010039127441561185 7.7979604910370187e-05 0 0.0011884528411381819 0.00011269905458819639 0 0.0011707569081146822 3.5607734826620342e-05 0 0.0012130775771932861 -1.233907725694979e-05 0 0.00081334249099263337 6.3333678529852298e-05 0 0.00082286891003226735 6.5204528055422693e-05 0 0.00082190562472067 8.5099009715845444e-05 0 0.0010110713475791975 7.9928722440486663e-05 0 0.0012617659087648067 5.6003283971174521e-06 0 0.00082286891003226735 6.5204528055422693e-05 0 0.00083427243879488557 6.1035975429600591e-05 0 0.00082190562472067 8.5099009715845444e-05 0 0.00081334249099263337 6.3333678529852298e-05 0 0.00082286891003226735 6.5204528055422693e-05 0 0.00082208885168329313 5.2244956917621507e-05 0 0.00082286891003226735 6.5204528055422693e-05 0 0.00083427243879488557 6.1035975429600591e-05 0 0.00082208885168329313 5.2244956917621507e-05 0 0.00083427243879488557 6.1035975429600591e-05 0 0.00082208885168329313 5.2244956917621507e-05 0 0.00083484806307090051 5.0984525695500733e-05 0 0.0010110713475791975 7.9928722440486663e-05 0 0.00064155195389109477 0.00011746311983058657 0 0.00062923801740196893 8.6461872388692872e-05 0 0.00064155195389109477 0.00011746311983058657 0 0.00038896894335547214 0.00026444924231319689 0 0.00055927209318281767 5.4903919849222209e-05 0 0.00037849040795535194 7.8433392122571297e-05 0 0.00087545553929792058 5.3015608543252309e-05 0 0.00078691651060291458 0.00019192144319113617 0 0.00085366114772314451 0.00018323201042689762 0 0.00038869228354413473 0.00018690804747652942 0 0.00039764160428816666 0.00010542943676444945 0 0.00044363858934326868 9.9419913332582082e-05 0 0.00077862345503221762 0.00014985304471080117 0 0.00064155195389109477 0.00011746311983058657 0 0.0011884528411381819 0.00011269905458819639 0 0.0011586648736142395 0.00015733634434821609 0 0.001142530185476421 0.00011382512432368015 0 0.0010110713475791975 7.9928722440486663e-05 0 0.00077862345503221762 0.00014985304471080117 0 0.0011041623807911927 0.00013640524631012467 0 0.0011586648736142395 0.00015733634434821609 0 0.001142530185476421 0.00011382512432368015 0 0.0011884528411381819 0.00011269905458819639 0 0.0011473380198430425 7.0863988335325638e-05 0 0.0011707569081146822 3.5607734826620342e-05 0 0.0011013706516288086 9.4229694334079322e-05 0 0.001142530185476421 0.00011382512432368015 0 0.0011473380198430425 7.0863988335325638e-05 0 0.0011884528411381819 0.00011269905458819639 0 0.001142530185476421 0.00011382512432368015 0 0.0011473380198430425 7.0863988335325638e-05 0 0.0011122514120384499 5.1355562255175698e-05 0 0.0011473380198430425 7.0863988335325638e-05 0 0.0011333152437679305 1.5068536895338682e-05 0 0.0011473380198430425 7.0863988335325638e-05 0 0.0011333152437679305 1.5068536895338682e-05 0 0.0011707569081146822 3.5607734826620342e-05 0 0.001111114259075898 -1.7475235127396751e-05 0 0.0011333152437679305 1.5068536895338682e-05 0 0.0011394867934495978 -3.6417093010153277e-05 0 0.0011333152437679305 1.5068536895338682e-05 0 0.001168153512204218 -1.0544945297539889e-05 0 0.0011394867934495978 -3.6417093010153277e-05 0 0.001168153512204218 -1.0544945297539889e-05 0 0.0011707569081146822 3.5607734826620342e-05 0 0.0012130775771932861 -1.233907725694979e-05 0 0.0011333152437679305 1.5068536895338682e-05 0 0.001168153512204218 -1.0544945297539889e-05 0 0.0011707569081146822 3.5607734826620342e-05 0 0.001250276415339026 2.7919358159616963e-05 0 0.0012130775771932861 -1.233907725694979e-05 0 0.0012346954664868464 -4.7919584392061625e-05 0 0.0011848502570344487 0.00012488186047480979 0 0.001250276415339026 2.7919358159616963e-05 0 0.0012130775771932861 -1.233907725694979e-05 0 0.0012130775771932861 -1.233907725694979e-05 0 0.0012346954664868464 -4.7919584392061625e-05 0 0.0011841295027112373 -5.5352444554109461e-05 0 0.0012346954664868464 -4.7919584392061625e-05 0 0.0012139751229717664 -8.4176981450445005e-05 0 0.0012383282300775862 -9.907080678190288e-05 0 0.0012139751229717664 -8.4176981450445005e-05 0 0.0011841295027112373 -5.5352444554109461e-05 0 0.0011852625339763446 -9.550978195449746e-05 0 0.0012346954664868464 -4.7919584392061625e-05 0 0.0012139751229717664 -8.4176981450445005e-05 0 0.0011841295027112373 -5.5352444554109461e-05 0 0.0011498903842916324 -7.8469210710002842e-05 0 0.0011841295027112373 -5.5352444554109461e-05 0 0.0011852625339763446 -9.550978195449746e-05 0 0.0010885514105316806 -5.583182395324669e-05 0 0.0011498903842916324 -7.8469210710002842e-05 0 0.0011394867934495978 -3.6417093010153277e-05 0 0.001168153512204218 -1.0544945297539889e-05 0 0.0012130775771932861 -1.233907725694979e-05 0 0.0011841295027112373 -5.5352444554109461e-05 0 0.001168153512204218 -1.0544945297539889e-05 0 0.0011394867934495978 -3.6417093010153277e-05 0 0.0011841295027112373 -5.5352444554109461e-05 0 0.0011498903842916324 -7.8469210710002842e-05 0 0.0011394867934495978 -3.6417093010153277e-05 0 0.0011841295027112373 -5.5352444554109461e-05 0 0.00078379144619496579 8.8718023941583931e-05 0 0.00079754828676678992 9.1437601718270437e-05 0 0.00078886459651890276 0.00010330107850660846 0 0.00077567986442805663 7.729295899420797e-05 0 0.0007941985925699177 7.9757653775130728e-05 0 0.00078379144619496579 8.8718023941583931e-05 0 0.0007941985925699177 7.9757653775130728e-05 0 0.00078379144619496579 8.8718023941583931e-05 0 0.00079754828676678992 9.1437601718270437e-05 0 0.0007941985925699177 7.9757653775130728e-05 0 0.00079754828676678992 9.1437601718270437e-05 0 0.00080671703057072464 8.5766137866550294e-05 0 0.00079754828676678992 9.1437601718270437e-05 0 0.00081016162556010393 9.826402526279093e-05 0 0.00078886459651890276 0.00010330107850660846 0 0.00082190562472067 8.5099009715845444e-05 0 0.00081137026676037156 0.00010538639717630783 0 0.00081016162556010393 9.826402526279093e-05 0 0.0010039127441561185 7.7979604910370187e-05 0 0.0012778440839044988 -3.0761160020097222e-05 0 0.00079754828676678992 9.1437601718270437e-05 0 0.00080671703057072464 8.5766137866550294e-05 0 0.00081016162556010393 9.826402526279093e-05 0 0.00080379243992784503 7.261570291546056e-05 0 0.00082190562472067 8.5099009715845444e-05 0 0.00080671703057072464 8.5766137866550294e-05 0 0.00082190562472067 8.5099009715845444e-05 0 0.00080671703057072464 8.5766137866550294e-05 0 0.00081016162556010393 9.826402526279093e-05 0 0.0012778440839044988 -3.0761160020097222e-05 0 0.0016630232647286036 -0.00015868170408623352 0 0.0012346954664868464 -4.7919584392061625e-05 0 0.0013104759468234581 -6.5556644019838971e-05 0 0.0012383282300775862 -9.907080678190288e-05 0 0.0013104759468234581 -6.5556644019838971e-05 0 0.0012383282300775862 -9.907080678190288e-05 0 0.0012329460929001647 -0.00010633742786748605 0 0.001250276415339026 2.7919358159616963e-05 0 0.0012346954664868464 -4.7919584392061625e-05 0 0.0013104759468234581 -6.5556644019838971e-05 0 0.0016896448023264576 -0.00043157044695627753 0 0.0015837597874886315 -0.00026322814711502937 0 0.0018329145686240794 -0.00023528700800450384 0 0.0012778440839044988 -3.0761160020097222e-05 0 0.0016115254623518369 -0.0001313985475887819 0 0.00097541090855683579 0.00011344948721427316 0 0.001012091457432717 0.00012816177001430688 0 0.0010335056780142861 0.00013323187271926771 0 0.00081818823583726602 9.2931834432932996e-05 0 0.0016115254623518369 -0.0001313985475887819 0 0.00093112377817120408 -8.9902748231288567e-05 0 0.0011222784181573924 -0.00010648789622646712 0 0.0012707140951742416 0.00012563532535257095 0 0.00078481976654234226 9.734617233829183e-05 0 0.00087625800554371651 6.487844293774361e-05 0 0.0012778440839044988 -3.0761160020097222e-05 0 0.00087625800554371651 6.487844293774361e-05 0 0.00081137026676037156 0.00010538639717630783 0 0.00081016162556010393 9.826402526279093e-05 0 0.00080342207536018373 9.8503432234040228e-05 0 0.0013447423749942337 7.7358414489934935e-06 0 0.0011222784181573924 -0.00010648789622646712 0 0.0012707140951742416 0.00012563532535257095 0 0.0023395783654543778 -0.00035805307247199666 0 0.0023790395794992219 -0.00014521205030038851 0 0.002188372701443602 -0.00011425847825792255 0 0.0016115254623518369 -0.0001313985475887819 0 0.0015901184038568984 2.6748996586334007e-05 0 0.001012091457432717 0.00012816177001430688 0 0.0010335056780142861 0.00013323187271926771 0 0.0010187958118259104 0.00013587720040813449 0 0.0015837597874886315 -0.00026322814711502937 0 0.0018329145686240794 -0.00023528700800450384 0 0.0019727309043751609 -1.6079824291962784e-05 0 0.0023395783654543778 -0.00035805307247199666 0 0.0023790395794992219 -0.00014521205030038851 0 0.0026059093037998303 -0.00019115908627875225 0 0.0016896448023264576 -0.00043157044695627753 0 0.0018329145686240794 -0.00023528700800450384 0 0.0020855901885676047 -0.00022998997783591326 0 0.0016115254623518369 -0.0001313985475887819 0 0.0022945490139775764 -9.9947624442354714e-05 0 0.0026059093037998303 -0.00019115908627875225 0 0.0026468718370067841 0.00016528456399988428 0 0.0023826075212326583 8.2746895029209977e-05 0 0.0023790395794992219 -0.00014521205030038851 0 0.0026059093037998303 -0.00019115908627875225 0 0.0023826075212326583 8.2746895029209977e-05 0 0.002188372701443602 -0.00011425847825792255 0 0.0023826075212326583 8.2746895029209977e-05 0 0.0020349553114915502 0.0001296878499350942 0 0.0023790395794992219 -0.00014521205030038851 0 0.002188372701443602 -0.00011425847825792255 0 0.0023826075212326583 8.2746895029209977e-05 0 0.0019229778079504153 -0.00013196950914364986 0 0.0018003054446277512 -0.00019590805387057186 0 0.0019115556180537691 -0.00011332267519535267 0 0.0010885514105316806 -5.583182395324669e-05 0 0.0011498903842916324 -7.8469210710002842e-05 0 0.0011518810031321196 -0.00014935341975131627 0 0.0011518810031321196 -0.00014935341975131627 0 0.0011852625339763446 -9.550978195449746e-05 0 0.0012330129958299314 -0.00010622386107220882 0 0.0014873786076804942 -0.00017324955556296404 0 0.0016630232647286036 -0.00015868170408623352 0 0.0011498903842916324 -7.8469210710002842e-05 0 0.0011518810031321196 -0.00014935341975131627 0 0.0011852625339763446 -9.550978195449746e-05 0 0.0018003054446277512 -0.00019590805387057186 0 0.0018978901646842655 -7.1683750982915554e-05 0 0.0019115556180537691 -0.00011332267519535267 0 0.0014873786076804942 -0.00017324955556296404 0 0.0015588516946759905 -0.00020624402809972552 0 0.0019225921729106696 -0.0001311967149555808 0 0.0019115556180537691 -0.00011332267519535267 0 0.0019500114332033081 -0.00011719059383229151 0 0.0014873786076804942 -0.00017324955556296404 0 0.0018430844885847016 -0.00014281030463327704 0 0.0016630232647286036 -0.00015868170408623352 0 0.0025290518328563404 -6.7210057593395549e-05 0 0.0020855901885676047 -0.00022998997783591326 0 0.0019727309043751609 -1.6079824291962784e-05 0 0.0024163683366329805 0.00018884500726990163 0 0.0012139751229717664 -8.4176981450445005e-05 0 0.0011852625339763446 -9.550978195449746e-05 0 0.0012330129958299314 -0.00010622386107220882 0 0.0018329145686240794 -0.00023528700800450384 0 0.0020855901885676047 -0.00022998997783591326 0 0.0019727309043751609 -1.6079824291962784e-05 0 0.0012139751229717664 -8.4176981450445005e-05 0 0.0012383282300775862 -9.907080678190288e-05 0 0.0012330129958299314 -0.00010622386107220882 0 0.0016295098822867937 -0.00017589308982292302 0 0.0016630232647286036 -0.00015868170408623352 0 0.0022945490139775764 -9.9947624442354714e-05 0 0.0029422820579409637 -9.6286802418535215e-05 0 0.0026059093037998303 -0.00019115908627875225 0 0.0028707509738345647 -2.3287702585636072e-05 0 0.0026468718370067841 0.00016528456399988428 0 0.0019727309043751609 -1.6079824291962784e-05 0 0.0023654409027323081 0.00023178773432443756 0 0.0024163683366329805 0.00018884500726990163 0 0.0029422820579409637 -9.6286802418535215e-05 0 0.0032510113595723505 9.6690840645589243e-05 0 0.0038654463875044936 2.4463902546979079e-07 0 0.0038893044051132026 1.873528285160616e-05 0 0.0038683539144644488 2.8840322836837109e-05 0 0.0029422820579409637 -9.6286802418535215e-05 0 0.0032203032617304241 -2.4208979715819484e-05 0 0.0027036572646870925 -0.00014029768736974625 0 0.0028109785752838349 -0.00023031652016696538 0 0.0030548324990398662 8.6575835216256403e-05 0 0.0029422820579409637 -9.6286802418535215e-05 0 0.0025290518328563404 -6.7210057593395549e-05 0 0.0025290518328563404 -6.7210057593395549e-05 0 0.0018430844885847016 -0.00014281030463327704 0 0.0025348774752033333 -0.00019085994533143264 0 0.0025418449236840994 -0.00019914569171220048 0 0.0025420038683321038 -0.00018348944697502728 0 0.0018978901646842655 -7.1683750982915554e-05 0 0.0019115556180537691 -0.00011332267519535267 0 0.0019500114332033081 -0.00011719059383229151 0 0.0025290518328563404 -6.7210057593395549e-05 0 0.0032203032617304241 -2.4208979715819484e-05 0 0.0038893044051132026 1.873528285160616e-05 0 0.0038903939010203766 4.3493849827840422e-05 0 0.0038683539144644488 2.8840322836837109e-05 0 0.0038893044051132026 1.873528285160616e-05 0 0.0038903939010203766 4.3493849827840422e-05 0 0.0038805479480645026 6.5051185330216896e-05 0 0.0038903939010203766 4.3493849827840422e-05 0 0.0038710494091191085 5.0249536262713217e-05 0 0.0039131897527530978 5.3024718030114057e-05 0 0.0038903939010203766 4.3493849827840422e-05 0 0.0038710494091191085 5.0249536262713217e-05 0 0.0038683539144644488 2.8840322836837109e-05 0 0.0038654463875044936 2.4463902546979079e-07 0 0.0038683539144644488 2.8840322836837109e-05 0 0.0038203814298574477 2.8621456958468531e-05 0 0.0038710494091191085 5.0249536262713217e-05 0 0.0038203814298574477 2.8621456958468531e-05 0 0.0038367623700341423 6.6559044857576405e-05 0 0.0038710494091191085 5.0249536262713217e-05 0 0.0038683539144644488 2.8840322836837109e-05 0 0.0038203814298574477 2.8621456958468531e-05 0 0.0038367623700341423 6.6559044857576405e-05 0 0.0037655583028766886 6.7461014473686637e-05 0 0.0038482668075778517 0.00011408055154561779 0 0.0038710494091191085 5.0249536262713217e-05 0 0.0038367623700341423 6.6559044857576405e-05 0 0.0038787593378770708 7.6199902296578945e-05 0 0.0033045922789143628 0.00015888216113308114 0 0.0040579709686794597 0.00014804137884931714 0 0.0038367623700341423 6.6559044857576405e-05 0 0.0038787593378770708 7.6199902296578945e-05 0 0.0038482668075778517 0.00011408055154561779 0 0.0038787593378770708 7.6199902296578945e-05 0 0.0039348346855214407 0.00011153538005518354 0 0.0038482668075778517 0.00011408055154561779 0 0.0038787593378770708 7.6199902296578945e-05 0 0.0039131897527530978 5.3024718030114057e-05 0 0.0039348346855214407 0.00011153538005518354 0 0.0038710494091191085 5.0249536262713217e-05 0 0.0038787593378770708 7.6199902296578945e-05 0 0.0039131897527530978 5.3024718030114057e-05 0 0.0023826075212326583 8.2746895029209977e-05 0 0.002424125507644754 0.0003540003830810012 0 0.0020349553114915502 0.0001296878499350942 0 0.0033045922789143628 0.00015888216113308114 0 0.0017437301217794587 0.00011773499465641223 0 0.002857185731921473 0.00012364470753023965 0 0.0027027365310463534 0.00013414920732944505 0 0.0026711275589829009 1.9725034885764099e-05 0 0.0038203814298574477 2.8621456958468531e-05 0 0.0038367623700341423 6.6559044857576405e-05 0 0.0037655583028766886 6.7461014473686637e-05 0 0.0026468718370067841 0.00016528456399988428 0 0.0023826075212326583 8.2746895029209977e-05 0 0.002424125507644754 0.0003540003830810012 0 0.0032510113595723505 9.6690840645589243e-05 0 0.0033045922789143628 0.00015888216113308114 0 0.0040006537157561721 0.00010784234545616896 0 0.0040164089526873743 0.00015285156606160426 0 0.0040349802818728875 0.00015497855388928205 0 0.0040006537157561721 0.00010784234545616896 0 0.0039315293103421474 0.00014405156360938726 0 0.0040164089526873743 0.00015285156606160426 0 0.0033045922789143628 0.00015888216113308114 0 0.0032925968926145288 0.00019789732241397135 0 0.002857185731921473 0.00012364470753023965 0 0.0027335243625383585 0.00022412225713850831 0 0.0027027365310463534 0.00013414920732944505 0 0.0040246085912167568 0.00014158364069718492 0 0.0040164089526873743 0.00015285156606160426 0 0.0040249481530158565 0.00014618784958253764 0 0.003937575160438642 0.00018688386448732427 0 0.0039315293103421474 0.00014405156360938726 0 0.0040164089526873743 0.00015285156606160426 0 0.0040407595943315576 0.00014771728398939109 0 0.0039895442475064652 0.00016073353803949393 0 0.0040164089526873743 0.00015285156606160426 0 0.0040294103046337243 0.00015035069227333148 0 0.0040249481530158565 0.00014618784958253764 0 0.0040294103046337243 0.00015035069227333148 0 0.0040307870579866737 0.00014641477460400492 0 0.0040409309905070703 0.00014527322755079813 0 0.0040294103046337243 0.00015035069227333148 0 0.0040307870579866737 0.00014641477460400492 0 0.0040249481530158565 0.00014618784958253764 0 0.0040246085912167568 0.00014158364069718492 0 0.0040249481530158565 0.00014618784958253764 0 0.0040253537854843327 0.0001447652459066554 0 0.0040307870579866737 0.00014641477460400492 0 0.0040253537854843327 0.0001447652459066554 0 0.0040314212370060843 0.00014847128049642956 0 0.0040307870579866737 0.00014641477460400492 0 0.0040249481530158565 0.00014618784958253764 0 0.0040253537854843327 0.0001447652459066554 0 0.0040253537854843327 0.0001447652459066554 0 0.004020654797469699 0.00014779837910156249 0 0.0040166614350043922 0.0001423549018332071 0 0.0040246085912167568 0.00014158364069718492 0 0.0040253537854843327 0.0001447652459066554 0 0.0040166614350043922 0.0001423549018332071 0 0.0040349802818728875 0.00015497855388928205 0 0.0040170331456762295 0.00015148014368767963 0 0.0039867229332091513 0.00015815038832392645 0 0.0039348346855214407 0.00011153538005518354 0 0.0038482668075778517 0.00011408055154561779 0 0.0039867229332091513 0.00015815038832392645 0 0.0040579709686794597 0.00014804137884931714 0 0.0039354221873768337 0.00014227429499614875 0 0.0040349802818728875 0.00015497855388928205 0 0.0040310575142649841 0.00014803458269949677 0 0.0040170331456762295 0.00015148014368767963 0 0.0040164089526873743 0.00015285156606160426 0 0.0040294103046337243 0.00015035069227333148 0 0.0040349802818728875 0.00015497855388928205 0 0.0040294103046337243 0.00015035069227333148 0 0.0040349802818728875 0.00015497855388928205 0 0.0040310575142649841 0.00014803458269949677 0 0.0040294103046337243 0.00015035069227333148 0 0.0040310575142649841 0.00014803458269949677 0 0.0040409309905070703 0.00014527322755079813 0 0.0040310575142649841 0.00014803458269949677 0 0.0040170331456762295 0.00015148014368767963 0 0.0040148835296481685 0.00014761475028864026 0 0.0040170331456762295 0.00015148014368767963 0 0.0040148835296481685 0.00014761475028864026 0 0.0039867229332091513 0.00015815038832392645 0 0.0040446901575347449 0.00013987681896158579 0 0.0040753105679527269 0.00013520184441389107 0 0.0040310575142649841 0.00014803458269949677 0 0.0040148835296481685 0.00014761475028864026 0 0.0040559107971657286 0.00013904931103611432 0 0.0040148835296481685 0.00014761475028864026 0 0.0040559107971657286 0.00013904931103611432 0 0.0040045110804715137 0.00013654603970406079 0 0.0040559107971657286 0.00013904931103611432 0 0.0040912762516329632 0.0001550875883656107 0 0.0040971504336692827 0.00012827070542750286 0 0.0040559107971657286 0.00013904931103611432 0 0.0040744186951587663 0.0001638735880356555 0 0.0040912762516329632 0.0001550875883656107 0 0.0040559107971657286 0.00013904931103611432 0 0.0040552951599818095 0.0001496681729231723 0 0.0040409309905070703 0.00014527322755079813 0 0.0040559107971657286 0.00013904931103611432 0 0.0040552951599818095 0.0001496681729231723 0 0.0040744186951587663 0.0001638735880356555 0 0.0040310575142649841 0.00014803458269949677 0 0.0040559107971657286 0.00013904931103611432 0 0.0040409309905070703 0.00014527322755079813 0 0.0040307870579866737 0.00014641477460400492 0 0.0040409309905070703 0.00014527322755079813 0 0.0040314212370060843 0.00014847128049642956 0 0.0040409309905070703 0.00014527322755079813 0 0.0040314212370060843 0.00014847128049642956 0 0.0040410016093591601 0.00015102222915040441 0 0.0040253537854843327 0.0001447652459066554 0 0.0040314212370060843 0.00014847128049642956 0 0.004020654797469699 0.00014779837910156249 0 0.0040314212370060843 0.00014847128049642956 0 0.004022934879775928 0.00015273630572097108 0 0.004020654797469699 0.00014779837910156249 0 0.0040314212370060843 0.00014847128049642956 0 0.004022934879775928 0.00015273630572097108 0 0.004030648292786993 0.00015650925388928231 0 0.004030648292786993 0.00015650925388928231 0 0.0040410016093591601 0.00015102222915040441 0 0.0040472562281904231 0.00016676063554914734 0 0.004022934879775928 0.00015273630572097108 0 0.004030648292786993 0.00015650925388928231 0 0.0040185885635977267 0.00015843867048290255 0 0.0040314212370060843 0.00014847128049642956 0 0.004030648292786993 0.00015650925388928231 0 0.0040410016093591601 0.00015102222915040441 0 0.0040552951599818095 0.0001496681729231723 0 0.0040409309905070703 0.00014527322755079813 0 0.0040410016093591601 0.00015102222915040441 0 0.0040552951599818095 0.0001496681729231723 0 0.0040410016093591601 0.00015102222915040441 0 0.0040472562281904231 0.00016676063554914734 0 0.0040552951599818095 0.0001496681729231723 0 0.0040472562281904231 0.00016676063554914734 0 0.0040744186951587663 0.0001638735880356555 0 0.0040472562281904231 0.00016676063554914734 0 0.0040700831909908017 0.00017222238927031 0 0.0040744186951587663 0.0001638735880356555 0 0.0040472562281904231 0.00016676063554914734 0 0.0040277612022465688 0.00017881985895389432 0 0.0040202903555594935 0.00016609599507545501 0 0.004030648292786993 0.00015650925388928231 0 0.0040472562281904231 0.00016676063554914734 0 0.0040202903555594935 0.00016609599507545501 0 0.0040472562281904231 0.00016676063554914734 0 0.0040410750338181912 0.00018836931534020834 0 0.0040277612022465688 0.00017881985895389432 0 0.0040410750338181912 0.00018836931534020834 0 0.0040277612022465688 0.00017881985895389432 0 0.0040182033085167691 0.00019379089469786064 0 0.0040477572274743778 0.00016588597299157747 0 0.0040456724858771676 0.00019006800252890796 0 0.0040523562317219854 0.00018086254772633784 0 0.0040700831909908017 0.00017222238927031 0 0.0040996263531496921 0.00018202315177292646 0 0.0040472562281904231 0.00016676063554914734 0 0.0040523562317219854 0.00018086254772633784 0 0.0040700831909908017 0.00017222238927031 0 0.0040700831909908017 0.00017222238927031 0 0.0040996263531496921 0.00018202315177292646 0 0.0040744186951587663 0.0001638735880356555 0 0.0040996263531496921 0.00018202315177292646 0 0.0041084793286690182 0.00017908110227777727 0 0.0040744186951587663 0.0001638735880356555 0 0.0041084793286690182 0.00017908110227777727 0 0.0040744186951587663 0.0001638735880356555 0 0.004104578666652872 0.00017232003243876695 0 0.0041084793286690182 0.00017908110227777727 0 0.004104578666652872 0.00017232003243876695 0 0.004118938426823494 0.00018151786399245198 0 0.0040744186951587663 0.0001638735880356555 0 0.0040912762516329632 0.0001550875883656107 0 0.004104578666652872 0.00017232003243876695 0 0.0039897344632352488 0.00018154326861754972 0 0.0040012475431882473 0.00017650158153839702 0 0.0039894061235774729 0.00016586339982100644 0 0.0039897344632352488 0.00018154326861754972 0 0.0039796939340541971 0.00018861386181394298 0 0.0039689989790165194 0.00017151287265661146 0 0.0039897344632352488 0.00018154326861754972 0 0.0039894061235774729 0.00016586339982100644 0 0.0039689989790165194 0.00017151287265661146 0 0.0039897344632352488 0.00018154326861754972 0 0.0039796939340541971 0.00018861386181394298 0 0.0039938785895561324 0.00019513773091745824 0 0.0039897344632352488 0.00018154326861754972 0 0.0040036000561974334 0.00018837735399136616 0 0.0040012475431882473 0.00017650158153839702 0 0.0039897344632352488 0.00018154326861754972 0 0.0040036000561974334 0.00018837735399136616 0 0.0039938785895561324 0.00019513773091745824 0 0.0040036000561974334 0.00018837735399136616 0 0.0040134720582115299 0.00017760271574531665 0 0.0040012475431882473 0.00017650158153839702 0 0.0040277612022465688 0.00017881985895389432 0 0.0040134720582115299 0.00017760271574531665 0 0.0040182033085167691 0.00019379089469786064 0 0.0040036000561974334 0.00018837735399136616 0 0.0040134720582115299 0.00017760271574531665 0 0.0040182033085167691 0.00019379089469786064 0 0.0040134720582115299 0.00017760271574531665 0 0.0040202903555594935 0.00016609599507545501 0 0.0040079597663047828 0.00016414950356165932 0 0.0040277612022465688 0.00017881985895389432 0 0.0040134720582115299 0.00017760271574531665 0 0.0040202903555594935 0.00016609599507545501 0 0.0040134720582115299 0.00017760271574531665 0 0.0040012475431882473 0.00017650158153839702 0 0.0040079597663047828 0.00016414950356165932 0 0.0040012475431882473 0.00017650158153839702 0 0.0040079597663047828 0.00016414950356165932 0 0.0039894061235774729 0.00016586339982100644 0 0.0040079597663047828 0.00016414950356165932 0 0.0040113785042562352 0.00015323833436027578 0 0.0039985946013126475 0.00015750651225953621 0 0.0040079597663047828 0.00016414950356165932 0 0.0039985946013126475 0.00015750651225953621 0 0.0039894061235774729 0.00016586339982100644 0 0.0040079597663047828 0.00016414950356165932 0 0.0040185885635977267 0.00015843867048290255 0 0.0040113785042562352 0.00015323833436027578 0 0.004030648292786993 0.00015650925388928231 0 0.0040202903555594935 0.00016609599507545501 0 0.0040185885635977267 0.00015843867048290255 0 0.0040202903555594935 0.00016609599507545501 0 0.0040079597663047828 0.00016414950356165932 0 0.0040185885635977267 0.00015843867048290255 0 0.004022934879775928 0.00015273630572097108 0 0.0040185885635977267 0.00015843867048290255 0 0.0040113785042562352 0.00015323833436027578 0 0.004022934879775928 0.00015273630572097108 0 0.0040113785042562352 0.00015323833436027578 0 0.004020654797469699 0.00014779837910156249 0 0.0040113785042562352 0.00015323833436027578 0 0.0040075506018045883 0.00014922651115383017 0 0.0040132948131354849 0.00014655339145372195 0 0.0040113785042562352 0.00015323833436027578 0 0.0040075506018045883 0.00014922651115383017 0 0.0040008560225075667 0.0001504526851740457 0 0.0040113785042562352 0.00015323833436027578 0 0.004020654797469699 0.00014779837910156249 0 0.0040132948131354849 0.00014655339145372195 0 0.0039985946013126475 0.00015750651225953621 0 0.0040008560225075667 0.0001504526851740457 0 0.0039874335510819712 0.00015277244361645099 0 0.0040113785042562352 0.00015323833436027578 0 0.0039985946013126475 0.00015750651225953621 0 0.0040008560225075667 0.0001504526851740457 0 0.0040075506018045883 0.00014922651115383017 0 0.0040008560225075667 0.0001504526851740457 0 0.0040049614460768634 0.00014564218411093353 0 0.0040008560225075667 0.0001504526851740457 0 0.0039874335510819712 0.00015277244361645099 0 0.0039935375218407218 0.00014610743351703372 0 0.0039985946013126475 0.00015750651225953621 0 0.0039874335510819712 0.00015277244361645099 0 0.0039894061235774729 0.00016586339982100644 0 0.0033890744045045507 0.00013578833789108327 0 0.0025414011557338052 0.00026637647522469708 0 0.0039874335510819712 0.00015277244361645099 0 0.0039894061235774729 0.00016586339982100644 0 0.0039735937660927145 0.0001576486393140567 0 0.0039874335510819712 0.00015277244361645099 0 0.0039735937660927145 0.0001576486393140567 0 0.0039765089492952727 0.00014291833072826727 0 0.0026264801936884841 0.00020100481409265295 0 0.0027422959164015242 0.00017661423724172452 0 0.0027141251366979754 7.4202886117389987e-05 0 0.0039894061235774729 0.00016586339982100644 0 0.0039735937660927145 0.0001576486393140567 0 0.0039689989790165194 0.00017151287265661146 0 0.0033890744045045507 0.00013578833789108327 0 0.0033260358460366246 0.00012847650827836656 0 0.0015076050083327713 0.00020433117143308654 0 0.0023212097779979997 0.00011352394488791588 0 0.0026264801936884841 0.00020100481409265295 0 0.0026450336123789533 0.00030313895250538993 0 0.0025391018735463314 0.00033284830791362652 0 0.0026264801936884841 0.00020100481409265295 0 0.0026450336123789533 0.00030313895250538993 0 0.0027422959164015242 0.00017661423724172452 0 0.0015076050083327713 0.00020433117143308654 0 0.0025414011557338052 0.00026637647522469708 0 0.00089544430190944407 0.00025433570251995346 0 0.00089748396181845802 0.00024516839476804294 0 0.00091388384821224013 0.00025491406525683224 0 0.00088497048849423248 0.00023780319194600718 0 0.00088015714304259546 0.00023520598090328161 0 0.00089748396181845802 0.00024516839476804294 0 0.0015076050083327713 0.00020433117143308654 0 0.00095738711377651726 0.00037876680092956491 0 0.00089748396181845802 0.00024516839476804294 0 0.00091388384821224013 0.00025491406525683224 0 0.00090730499118141358 0.00023994613766877313 0 0.0039874335510819712 0.00015277244361645099 0 0.0039765089492952727 0.00014291833072826727 0 0.0039935375218407218 0.00014610743351703372 0 0.00091388384821224013 0.00025491406525683224 0 0.00090730499118141358 0.00023994613766877313 0 0.00094040166841084392 0.00024129927972069934 0 0.0025414011557338052 0.00026637647522469708 0 0.0016574314556790568 0.00030744969796487985 0 0.00090730499118141358 0.00023994613766877313 0 0.00094040166841084392 0.00024129927972069934 0 0.00093848122892293141 0.00021240307281316181 0 0.00090730499118141358 0.00023994613766877313 0 0.00088331783750218577 0.00023470223735853993 0 0.00089320725486558071 0.00022729314013297567 0 0.00088015714304259546 0.00023520598090328161 0 0.00088331783750218577 0.00023470223735853993 0 0.00087116739007349212 0.0002309991722441777 0 0.00088331783750218577 0.00023470223735853993 0 0.00086720495446178847 0.00023391812980499223 0 0.00087116739007349212 0.0002309991722441777 0 0.00089748396181845802 0.00024516839476804294 0 0.00090730499118141358 0.00023994613766877313 0 0.00088331783750218577 0.00023470223735853993 0 0.00088015714304259546 0.00023520598090328161 0 0.00089748396181845802 0.00024516839476804294 0 0.00088331783750218577 0.00023470223735853993 0 0.0040246085912167568 0.00014158364069718492 0 0.0040166614350043922 0.0001423549018332071 0 0.0040041089453174408 0.00013650685305326932 0 0.004020654797469699 0.00014779837910156249 0 0.0040166614350043922 0.0001423549018332071 0 0.0040132948131354849 0.00014655339145372195 0 0.0040166614350043922 0.0001423549018332071 0 0.0040132948131354849 0.00014655339145372195 0 0.0040081335307116193 0.00014228428702969283 0 0.0040075506018045883 0.00014922651115383017 0 0.0040132948131354849 0.00014655339145372195 0 0.0040049614460768634 0.00014564218411093353 0 0.0040132948131354849 0.00014655339145372195 0 0.0040081335307116193 0.00014228428702969283 0 0.0040049614460768634 0.00014564218411093353 0 0.0040166614350043922 0.0001423549018332071 0 0.0040081335307116193 0.00014228428702969283 0 0.0040041089453174408 0.00013650685305326932 0 0.0024694118973696117 0.00035764575286648874 0 0.0026172462926439275 0.00031879689297985633 0 0.0025363890264787693 0.00024971827613021799 0 0.0039765089492952727 0.00014291833072826727 0 0.0039990145677791886 0.00013906399567119762 0 0.0039935375218407218 0.00014610743351703372 0 0.0025414011557338052 0.00026637647522469708 0 0.0036089303201976143 0.00023762321899963051 0 0.0039765089492952727 0.00014291833072826727 0 0.0040018248926828731 0.00013666514607102575 0 0.0039990145677791886 0.00013906399567119762 0 0.0036089303201976143 0.00023762321899963051 0 0.0037473032769536345 0.0001539021748705672 0 0.0040081335307116193 0.00014228428702969283 0 0.0040041089453174408 0.00013650685305326932 0 0.0039990145677791886 0.00013906399567119762 0 0.0040081335307116193 0.00014228428702969283 0 0.0039990145677791886 0.00013906399567119762 0 0.0040049614460768634 0.00014564218411093353 0 0.0040008560225075667 0.0001504526851740457 0 0.0040049614460768634 0.00014564218411093353 0 0.0039935375218407218 0.00014610743351703372 0 0.0039990145677791886 0.00013906399567119762 0 0.0040049614460768634 0.00014564218411093353 0 0.0039935375218407218 0.00014610743351703372 0 0.0026172462926439275 0.00031879689297985633 0 0.0025363890264787693 0.00024971827613021799 0 0.0026311869798623668 0.00022221646416073764 0 0.0040407595943315576 0.00014771728398939109 0 0.0036089303201976143 0.00023762321899963051 0 0.003937575160438642 0.00018688386448732427 0 0.0039315293103421474 0.00014405156360938726 0 0.0038338633729663174 0.00021381163310619825 0 0.0027335243625383585 0.00022412225713850831 0 0.0026172462926439275 0.00031879689297985633 0 0.0026311869798623668 0.00022221646416073764 0 0.0032925968926145288 0.00019789732241397135 0 0.0036089303201976143 0.00023762321899963051 0 0.0027335243625383585 0.00022412225713850831 0 0.0026311869798623668 0.00022221646416073764 0 0.0027027365310463534 0.00013414920732944505 0 0.0026311869798623668 0.00022221646416073764 0 0.0027027365310463534 0.00013414920732944505 0 0.0026023649149738634 0.0001375197954010292 0 0.00098443075874792788 0.00020199001078430431 0 0.00093848122892293141 0.00021240307281316181 0 0.00095672149145830331 0.00016234058209982233 0 0.0016574314556790568 0.00030744969796487985 0 0.0018152010031607766 0.00014338743620852912 0 0.00094040166841084392 0.00024129927972069934 0 0.00098443075874792788 0.00020199001078430431 0 0.00093848122892293141 0.00021240307281316181 0 0.0025363890264787693 0.00024971827613021799 0 0.0026311869798623668 0.00022221646416073764 0 0.0026023649149738634 0.0001375197954010292 0 0.00098854450684000015 0.00014756843592495528 0 0.00095672149145830331 0.00016234058209982233 0 0.000986439287484153 0.00016599247142279889 0 0.00098443075874792788 0.00020199001078430431 0 0.00095672149145830331 0.00016234058209982233 0 0.000986439287484153 0.00016599247142279889 0 0.0018152010031607766 0.00014338743620852912 0 0.0017437301217794587 0.00011773499465641223 0 0.0027027365310463534 0.00013414920732944505 0 0.0026023649149738634 0.0001375197954010292 0 0.0026711275589829009 1.9725034885764099e-05 0 0.00098443075874792788 0.00020199001078430431 0 0.000986439287484153 0.00016599247142279889 0 0.0010167450675671957 0.00015707654655206321 0 0.00098854450684000015 0.00014756843592495528 0 0.000986439287484153 0.00016599247142279889 0 0.0010167450675671957 0.00015707654655206321 0 0.00094377138473259912 -1.9386977070174425e-06 0 0.0017437301217794587 0.00011773499465641223 0 0.00086720495446178847 0.00023391812980499223 0 0.00089320725486558071 0.00022729314013297567 0 0.00088479324111248646 0.00022740928465065367 0 0.00088331783750218577 0.00023470223735853993 0 0.00086720495446178847 0.00023391812980499223 0 0.00089320725486558071 0.00022729314013297567 0 0.00093285795001276934 0.0001970294472548055 0 0.00089639752418126269 0.0002261013426911453 0 0.00093848122892293141 0.00021240307281316181 0 0.00095672149145830331 0.00016234058209982233 0 0.00089320725486558071 0.00022729314013297567 0 0.00090730499118141358 0.00023994613766877313 0 0.00093848122892293141 0.00021240307281316181 0 0.00089320725486558071 0.00022729314013297567 0 0.00088770125834652187 0.00021196710166913849 0 0.00090823127761548519 0.00023018944457647909 0 0.00088479324111248646 0.00022740928465065367 0 0.00090823127761548519 0.00023018944457647909 0 0.00089320725486558071 0.00022729314013297567 0 0.00088479324111248646 0.00022740928465065367 0 0.0008571780238649365 0.00022224727153846978 0 0.00088770125834652187 0.00021196710166913849 0 0.00088479324111248646 0.00022740928465065367 0 0.0008571780238649365 0.00022224727153846978 0 0.00086720495446178847 0.00023391812980499223 0 0.00088479324111248646 0.00022740928465065367 0 0.0008571780238649365 0.00022224727153846978 0 0.00086720495446178847 0.00023391812980499223 0 0.00084239684115756561 0.00023823425543227709 0 0.00086720495446178847 0.00023391812980499223 0 0.00085855892424862136 0.00023595109432793804 0 0.00087116739007349212 0.0002309991722441777 0 0.00086720495446178847 0.00023391812980499223 0 0.00084239684115756561 0.00023823425543227709 0 0.00085855892424862136 0.00023595109432793804 0 0.00085855892424862136 0.00023595109432793804 0 0.00084129166881798101 0.00025841441486127115 0 0.00089095239387295951 0.00023746542928178893 0 0.00080790244607867334 0.00021305287836983231 0 0.00084239684115756561 0.00023823425543227709 0 0.00084129166881798101 0.00025841441486127115 0 0.00084239684115756561 0.00023823425543227709 0 0.00085855892424862136 0.00023595109432793804 0 0.00084129166881798101 0.00025841441486127115 0 0.00089804097164656704 0.00035971886435862713 0 0.00084129166881798101 0.00025841441486127115 0 0.00093357198573613758 0.00028271994392763773 0 0.00084129166881798101 0.00025841441486127115 0 0.00093357198573613758 0.00028271994392763773 0 0.00089095239387295951 0.00023746542928178893 0 0.00093357198573613758 0.00028271994392763773 0 0.0009535874775790697 0.00023230646431737174 0 0.0010199390732419625 0.0002677555533109248 0 0.0009535874775790697 0.00023230646431737174 0 0.00089095239387295951 0.00023746542928178893 0 0.0009123683015220894 0.00020988431081550395 0 0.00093357198573613758 0.00028271994392763773 0 0.0009535874775790697 0.00023230646431737174 0 0.00089095239387295951 0.00023746542928178893 0 0.00085855892424862136 0.00023595109432793804 0 0.00089095239387295951 0.00023746542928178893 0 0.00088352558523561249 0.00021947059032830445 0 0.00089095239387295951 0.00023746542928178893 0 0.00088352558523561249 0.00021947059032830445 0 0.0009123683015220894 0.00020988431081550395 0 0.00088352558523561249 0.00021947059032830445 0 0.0009123683015220894 0.00020988431081550395 0 0.00089440540052908269 0.00019290896441385779 0 0.0009535874775790697 0.00023230646431737174 0 0.0009123683015220894 0.00020988431081550395 0 0.00095600782509226365 0.00020135110895417666 0 0.0009123683015220894 0.00020988431081550395 0 0.00095600782509226365 0.00020135110895417666 0 0.00092984051544267555 0.0001780426987136093 0 0.00095600782509226365 0.00020135110895417666 0 0.00092984051544267555 0.0001780426987136093 0 0.00098083574250913404 0.00017455195152244965 0 0.00092984051544267555 0.0001780426987136093 0 0.00092946304249493601 0.00014765296836198301 0 0.0009553208415804754 0.00014503941403930999 0 0.00092984051544267555 0.0001780426987136093 0 0.00092946304249493601 0.00014765296836198301 0 0.00091312673636508588 0.00016751858916429102 0 0.0009553208415804754 0.00014503941403930999 0 0.00098083574250913404 0.00017455195152244965 0 0.0009824938766527663 0.00014530798478208092 0 0.00092984051544267555 0.0001780426987136093 0 0.0009553208415804754 0.00014503941403930999 0 0.00098083574250913404 0.00017455195152244965 0 0.00091466597883937874 0.0002080560426977972 0 0.00090520722643742664 0.00020967353290400438 0 0.00087500011289061159 0.0002195134373272841 0 0.00089440540052908269 0.00019290896441385779 0 0.00089887915586564049 0.00014979556447626679 0 0.00087500011289061159 0.0002195134373272841 0 0.00092984051544267555 0.0001780426987136093 0 0.00089440540052908269 0.00019290896441385779 0 0.00091312673636508588 0.00016751858916429102 0 0.0009123683015220894 0.00020988431081550395 0 0.00092984051544267555 0.0001780426987136093 0 0.00089440540052908269 0.00019290896441385779 0 0.00092946304249493601 0.00014765296836198301 0 0.00091312673636508588 0.00016751858916429102 0 0.00089887915586564049 0.00014979556447626679 0 0.00089440540052908269 0.00019290896441385779 0 0.00091312673636508588 0.00016751858916429102 0 0.00089887915586564049 0.00014979556447626679 0 0.00090520722643742664 0.00020967353290400438 0 0.00087500011289061159 0.0002195134373272841 0 0.0008780327862086938 0.00021862444942102752 0 0.0008819452611046716 0.00019098447218747469 0 0.00088794041374702919 0.00020684766692020609 0 0.00087116739007349212 0.0002309991722441777 0 0.00087500011289061159 0.0002195134373272841 0 0.0008780327862086938 0.00021862444942102752 0 0.0015076050083327713 0.00020433117143308654 0 0.0012656721840122731 0.00021126813941900959 0 0.00088015714304259546 0.00023520598090328161 0 0.00087116739007349212 0.0002309991722441777 0 0.0008780327862086938 0.00021862444942102752 0 0.00088497048849423248 0.00023780319194600718 0 0.00088015714304259546 0.00023520598090328161 0 0.0008780327862086938 0.00021862444942102752 0 0.00085855892424862136 0.00023595109432793804 0 0.00088352558523561249 0.00021947059032830445 0 0.00087500011289061159 0.0002195134373272841 0 0.00085855892424862136 0.00023595109432793804 0 0.00087116739007349212 0.0002309991722441777 0 0.00087500011289061159 0.0002195134373272841 0 0.00088352558523561249 0.00021947059032830445 0 0.00089440540052908269 0.00019290896441385779 0 0.00087500011289061159 0.0002195134373272841 0 0.00111847618405859 0.00025958453244691207 0 0.001109067327839998 0.00021953700306649542 0 0.0011699146304038344 0.00022820195537177497 0 0.00111847618405859 0.00025958453244691207 0 0.0011699146304038344 0.00022820195537177497 0 0.0011784028768719078 0.00026105957415049154 0 0.0011189953719979693 0.00029308725944350822 0 0.00111847618405859 0.00025958453244691207 0 0.0011784028768719078 0.00026105957415049154 0 0.0010502162505486694 0.00031081425684688352 0 0.0011189953719979693 0.00029308725944350822 0 0.0010740818158339919 0.0002760591645283741 0 0.0011189953719979693 0.00029308725944350822 0 0.00111847618405859 0.00025958453244691207 0 0.0010740818158339919 0.0002760591645283741 0 0.00111847618405859 0.00025958453244691207 0 0.0010740818158339919 0.0002760591645283741 0 0.001063690574395285 0.00024134550107261224 0 0.00111847618405859 0.00025958453244691207 0 0.001063690574395285 0.00024134550107261224 0 0.001109067327839998 0.00021953700306649542 0 0.0010740818158339919 0.0002760591645283741 0 0.001063690574395285 0.00024134550107261224 0 0.0010199390732419625 0.0002677555533109248 0 0.001063690574395285 0.00024134550107261224 0 0.0010199390732419625 0.0002677555533109248 0 0.0010066116461705692 0.00021139192824006371 0 0.0010502162505486694 0.00031081425684688352 0 0.0010740818158339919 0.0002760591645283741 0 0.0010199390732419625 0.0002677555533109248 0 0.00098087279950076186 0.00035055506382427812 0 0.00093357198573613758 0.00028271994392763773 0 0.0010199390732419625 0.0002677555533109248 0 0.0010040253630678312 0.00035084388356384724 0 0.0010157771876787779 0.00026308355001024839 0 0.0009535874775790697 0.00023230646431737174 0 0.0010199390732419625 0.0002677555533109248 0 0.0010066116461705692 0.00021139192824006371 0 0.0009535874775790697 0.00023230646431737174 0 0.00095600782509226365 0.00020135110895417666 0 0.0010066116461705692 0.00021139192824006371 0 0.00095600782509226365 0.00020135110895417666 0 0.0010066116461705692 0.00021139192824006371 0 0.00098083574250913404 0.00017455195152244965 0 0.0010066116461705692 0.00021139192824006371 0 0.00098083574250913404 0.00017455195152244965 0 0.001025739597473718 0.00016175792252522622 0 0.00098083574250913404 0.00017455195152244965 0 0.0009824938766527663 0.00014530798478208092 0 0.001025739597473718 0.00016175792252522622 0 0.0009824938766527663 0.00014530798478208092 0 0.001025739597473718 0.00016175792252522622 0 0.0010021090002011821 0.00011761758574577402 0 0.001025739597473718 0.00016175792252522622 0 0.0010979325759173124 0.00016309657594576393 0 0.001058602928745592 0.0001204978374132294 0 0.001025739597473718 0.00016175792252522622 0 0.0010601794326197851 0.00020013603760954629 0 0.0010979325759173124 0.00016309657594576393 0 0.0010066116461705692 0.00021139192824006371 0 0.001025739597473718 0.00016175792252522622 0 0.0010601794326197851 0.00020013603760954629 0 0.001063690574395285 0.00024134550107261224 0 0.0010066116461705692 0.00021139192824006371 0 0.0010601794326197851 0.00020013603760954629 0 0.001063690574395285 0.00024134550107261224 0 0.0010601794326197851 0.00020013603760954629 0 0.001109067327839998 0.00021953700306649542 0 0.0010601794326197851 0.00020013603760954629 0 0.001109067327839998 0.00021953700306649542 0 0.0010979325759173124 0.00016309657594576393 0 0.0010979325759173124 0.00016309657594576393 0 0.0011496232872729082 0.00018603813665471597 0 0.0011745189355726396 0.00013940986336751347 0 0.001109067327839998 0.00021953700306649542 0 0.0010979325759173124 0.00016309657594576393 0 0.0011496232872729082 0.00018603813665471597 0 0.0011496232872729082 0.00018603813665471597 0 0.0011745189355726396 0.00013940986336751347 0 0.0012422408845908235 0.00016857747141524614 0 0.0011496232872729082 0.00018603813665471597 0 0.0011699146304038344 0.00022820195537177497 0 0.0012422408845908235 0.00016857747141524614 0 0.001109067327839998 0.00021953700306649542 0 0.0011496232872729082 0.00018603813665471597 0 0.0011699146304038344 0.00022820195537177497 0 0.001170503774064471 4.5455571336817122e-05 0 0.0012110499349897287 9.1179625100182543e-05 0 0.0011243225027453699 0.00010186146857786997 0 0.001170503774064471 4.5455571336817122e-05 0 0.0012110499349897287 9.1179625100182543e-05 0 0.0012387767060400589 2.2027246474677488e-05 0 0.001170503774064471 4.5455571336817122e-05 0 0.0011698556073081138 -1.0358740433252852e-05 0 0.0012387767060400589 2.2027246474677488e-05 0 0.0012110499349897287 9.1179625100182543e-05 0 0.0011745189355726396 0.00013940986336751347 0 0.0012422408845908235 0.00016857747141524614 0 0.0012110499349897287 9.1179625100182543e-05 0 0.0011745189355726396 0.00013940986336751347 0 0.0011243225027453699 0.00010186146857786997 0 0.0010979325759173124 0.00016309657594576393 0 0.0011745189355726396 0.00013940986336751347 0 0.0011243225027453699 0.00010186146857786997 0 0.0010979325759173124 0.00016309657594576393 0 0.0011243225027453699 0.00010186146857786997 0 0.001058602928745592 0.0001204978374132294 0 0.0011243225027453699 0.00010186146857786997 0 0.0011074241154914622 4.0296777808528531e-05 0 0.0010715998390486208 7.4237437744397494e-05 0 0.001170503774064471 4.5455571336817122e-05 0 0.0011243225027453699 0.00010186146857786997 0 0.0011074241154914622 4.0296777808528531e-05 0 0.001170503774064471 4.5455571336817122e-05 0 0.0011074241154914622 4.0296777808528531e-05 0 0.0011698556073081138 -1.0358740433252852e-05 0 0.0010527705962299566 4.6783391311318068e-05 0 0.0010001479416512494 2.4877406242145577e-05 0 0.001068476738817231 1.1585074770305217e-05 0 0.0011074241154914622 4.0296777808528531e-05 0 0.0010527705962299566 4.6783391311318068e-05 0 0.001068476738817231 1.1585074770305217e-05 0 0.0010527705962299566 4.6783391311318068e-05 0 0.0010715998390486208 7.4237437744397494e-05 0 0.00102159870315123 5.9719085077167562e-05 0 0.0011074241154914622 4.0296777808528531e-05 0 0.0010527705962299566 4.6783391311318068e-05 0 0.0010715998390486208 7.4237437744397494e-05 0 0.0011243225027453699 0.00010186146857786997 0 0.0010715998390486208 7.4237437744397494e-05 0 0.001058602928745592 0.0001204978374132294 0 0.0010715998390486208 7.4237437744397494e-05 0 0.001058602928745592 0.0001204978374132294 0 0.00102159870315123 5.9719085077167562e-05 0 0.0010509089144752554 0.0001115943577176918 0 0.0010992550226523441 3.3648746848473426e-05 0 0.001058602928745592 0.0001204978374132294 0 0.0010021090002011821 0.00011761758574577402 0 0.0010254017740894958 6.9271032845258897e-05 0 0.001025739597473718 0.00016175792252522622 0 0.001058602928745592 0.0001204978374132294 0 0.0010021090002011821 0.00011761758574577402 0 0.0010021090002011821 0.00011761758574577402 0 0.0010254017740894958 6.9271032845258897e-05 0 0.00095488639481784102 9.0697155902403498e-05 0 0.0009824938766527663 0.00014530798478208092 0 0.0010021090002011821 0.00011761758574577402 0 0.00096965943543523701 0.00011818360671344518 0 0.0014065627713494993 2.5721420901002606e-05 0 0.0011362012717835595 0.00011459975028684697 0 0.0010992550226523441 3.3648746848473426e-05 0 0.0011362012717835595 0.00011459975028684697 0 0.0012592733544018189 6.9983360955609935e-05 0 0.001235238769579327 3.1085154891045829e-05 0 0.0011626903795619883 9.7378698269806182e-05 0 0.0010527705962299566 4.6783391311318068e-05 0 0.00102159870315123 5.9719085077167562e-05 0 0.0010001479416512494 2.4877406242145577e-05 0 0.0010992550226523441 3.3648746848473426e-05 0 0.0014065627713494993 2.5721420901002606e-05 0 0.001593362880395994 3.4155427276096951e-05 0 0.0015024875682576445 6.5623144631449454e-05 0 0.0014994172941865127 1.1715080777585178e-05 0 0.0016806921223484197 -1.6793666512480807e-05 0 0.001643625581372704 -8.9381533506917403e-06 0 0.0016828122022688188 -6.4185350882151523e-05 0 0.001593362880395994 3.4155427276096951e-05 0 0.0015418318730475488 -4.9357732599960488e-05 0 0.0014994172941865127 1.1715080777585178e-05 0 0.0014065627713494993 2.5721420901002606e-05 0 0.0017965356554804032 -1.016377733162442e-05 0 0.0016672473127037372 3.0846688684471202e-05 0 0.0016806921223484197 -1.6793666512480807e-05 0 0.001643625581372704 -8.9381533506917403e-06 0 0.002054530909907253 -1.9609212977835236e-05 0 0.0020577503690359369 -6.6313664493374903e-05 0 0.0020903713651508056 -7.0179994437902596e-05 0 0.0017965356554804032 -1.016377733162442e-05 0 0.001871932242518376 -5.5388794203697029e-05 0 0.0020577503690359369 -6.6313664493374903e-05 0 0.0020320886303474574 -8.3480492748042652e-05 0 0.0020785855511487083 -0.00010255336519683186 0 0.0020577503690359369 -6.6313664493374903e-05 0 0.0020903713651508056 -7.0179994437902596e-05 0 0.0020785855511487083 -0.00010255336519683186 0 0.0016806921223484197 -1.6793666512480807e-05 0 0.0016828122022688188 -6.4185350882151523e-05 0 0.0017290185135977498 -2.483732065302731e-05 0 0.0016828122022688188 -6.4185350882151523e-05 0 0.0017412557196834087 -7.3791392931979528e-05 0 0.0017290185135977498 -2.483732065302731e-05 0 0.0014065627713494993 2.5721420901002606e-05 0 0.0013896887904642926 -3.2250090264565839e-05 0 0.0010001479416512494 2.4877406242145577e-05 0 0.0010721644383347734 -4.6872175134759926e-05 0 0.001068476738817231 1.1585074770305217e-05 0 0.0016672473127037372 3.0846688684471202e-05 0 0.0016806921223484197 -1.6793666512480807e-05 0 0.0017290185135977498 -2.483732065302731e-05 0 0.0010721644383347734 -4.6872175134759926e-05 0 0.001068476738817231 1.1585074770305217e-05 0 0.0011113708365578438 -1.1923814297792135e-05 0 0.0011074241154914622 4.0296777808528531e-05 0 0.001068476738817231 1.1585074770305217e-05 0 0.0011113708365578438 -1.1923814297792135e-05 0 0.0011074241154914622 4.0296777808528531e-05 0 0.0011113708365578438 -1.1923814297792135e-05 0 0.0011698556073081138 -1.0358740433252852e-05 0 0.0011113708365578438 -1.1923814297792135e-05 0 0.0011412826417980704 -5.6197226003321896e-05 0 0.0011698556073081138 -1.0358740433252852e-05 0 0.0010721644383347734 -4.6872175134759926e-05 0 0.0011113708365578438 -1.1923814297792135e-05 0 0.0011412826417980704 -5.6197226003321896e-05 0 0.0010721644383347734 -4.6872175134759926e-05 0 0.0011412826417980704 -5.6197226003321896e-05 0 0.0011535147177233565 -0.00012907203230424434 0 0.0017412557196834087 -7.3791392931979528e-05 0 0.0017290185135977498 -2.483732065302731e-05 0 0.0017893942179196016 -8.0401393479446621e-05 0 0.0013896887904642926 -3.2250090264565839e-05 0 0.0014714505439506476 -0.00010331567041889016 0 0.0011412826417980704 -5.6197226003321896e-05 0 0.0011535147177233565 -0.00012907203230424434 0 0.0012020169227836323 -9.0253846304325669e-05 0 0.0012020169227836323 -9.0253846304325669e-05 0 0.0012546149622187199 -0.00011131151436295206 0 0.0012636219158552817 -0.0001856427021929845 0 0.0011535147177233565 -0.00012907203230424434 0 0.0012020169227836323 -9.0253846304325669e-05 0 0.0012264319925002136 -0.00016986542569385454 0 0.0012020169227836323 -9.0253846304325669e-05 0 0.0012546149622187199 -0.00011131151436295206 0 0.0012443142942659689 -4.9725178997479181e-05 0 0.0011412826417980704 -5.6197226003321896e-05 0 0.0012020169227836323 -9.0253846304325669e-05 0 0.0011698556073081138 -1.0358740433252852e-05 0 0.0012020169227836323 -9.0253846304325669e-05 0 0.0011698556073081138 -1.0358740433252852e-05 0 0.0012443142942659689 -4.9725178997479181e-05 0 0.0011698556073081138 -1.0358740433252852e-05 0 0.0012387767060400589 2.2027246474677488e-05 0 0.0012443142942659689 -4.9725178997479181e-05 0 0.0014932313003982499 0.00013715945834529656 0 0.0023564730879164857 2.7007090867628957e-05 0 0.0019438881476668193 6.8859831817200812e-05 0 0.0019498562316632648 5.2285512912881206e-05 0 0.0019378468300166837 3.5543998117127653e-05 0 0.001806390857064409 0.00010761139107215092 0 0.0018738734078628369 0.00014415316193417641 0 0.0018236310013916939 2.9299252773474336e-07 0 0.001957801308105835 4.0386833219739294e-05 0 0.0019498562316632648 5.2285512912881206e-05 0 0.0019378468300166837 3.5543998117127653e-05 0 0.0017453410876975461 0.0001002668623660367 0 0.001806390857064409 0.00010761139107215092 0 0.0018236310013916939 2.9299252773474336e-07 0 0.0027422959164015242 0.00017661423724172452 0 0.0028340238474697842 5.5659612645149066e-05 0 0.0027141251366979754 7.4202886117389987e-05 0 0.0023212097779979997 0.00011352394488791588 0 0.0023564730879164857 2.7007090867628957e-05 0 0.0017453410876975461 0.0001002668623660367 0 0.0017719458890311937 0.00017395502760522675 0 0.001806390857064409 0.00010761139107215092 0 0.0016653643289443317 0.00020433456213011193 0 0.0017453410876975461 0.0001002668623660367 0 0.0017719458890311937 0.00017395502760522675 0 0.0017719458890311937 0.00017395502760522675 0 0.001806390857064409 0.00010761139107215092 0 0.0018738734078628369 0.00014415316193417641 0 0.0012656721840122731 0.00021126813941900959 0 0.0014932313003982499 0.00013715945834529656 0 0.00090520722643742664 0.00020967353290400438 0 0.0008780327862086938 0.00021862444942102752 0 0.00090323175613772741 0.00020109995468737112 0 0.0008780327862086938 0.00021862444942102752 0 0.00090262058995166426 0.00019847294830597714 0 0.00090323175613772741 0.00020109995468737112 0 0.00091466597883937874 0.0002080560426977972 0 0.00093583213625830124 0.00016828101210051075 0 0.00097758341606687255 0.00015790619399593087 0 0.00090520722643742664 0.00020967353290400438 0 0.00090323175613772741 0.00020109995468737112 0 0.00092751876821879956 0.00018994404602238954 0 0.0014932313003982499 0.00013715945834529656 0 0.0014540606556211961 0.00012000971172222996 0 0.00091466597883937874 0.0002080560426977972 0 0.00090520722643742664 0.00020967353290400438 0 0.00093583213625830124 0.00016828101210051075 0 0.00086684684318484942 0.00028769145434877786 0 0.0013408602568177755 0.00010886094070154907 0 0.00090217222645573743 0.00019698571751253823 0 0.00090323175613772741 0.00020109995468737112 0 0.00092751876821879956 0.00018994404602238954 0 0.0014932313003982499 0.00013715945834529656 0 0.0013408602568177755 0.00010886094070154907 0 0.0019438881476668193 6.8859831817200812e-05 0 0.0019603676613435678 6.4599809063171543e-05 0 0.0019498562316632648 5.2285512912881206e-05 0 0.0008819452611046716 0.00019098447218747469 0 0.0011362012717835595 0.00011459975028684697 0 0.00092946304249493601 0.00014765296836198301 0 0.00089887915586564049 0.00014979556447626679 0 0.00095488639481784102 9.0697155902403498e-05 0 0.00092946304249493601 0.00014765296836198301 0 0.0009553208415804754 0.00014503941403930999 0 0.00095488639481784102 9.0697155902403498e-05 0 0.0009553208415804754 0.00014503941403930999 0 0.00096965943543523701 0.00011818360671344518 0 0.00095488639481784102 9.0697155902403498e-05 0 0.0009553208415804754 0.00014503941403930999 0 0.0009824938766527663 0.00014530798478208092 0 0.00096965943543523701 0.00011818360671344518 0 0.0013408602568177755 0.00010886094070154907 0 0.0011362012717835595 0.00011459975028684697 0 0.0010021090002011821 0.00011761758574577402 0 0.00096965943543523701 0.00011818360671344518 0 0.00095488639481784102 9.0697155902403498e-05 0 0.0013939321242591573 0.00016208409534145048 0 0.0015024875682576445 6.5623144631449454e-05 0 0.0014991607665501563 1.0976712442401872e-05 0 0.0019603676613435678 6.4599809063171543e-05 0 0.001957801308105835 4.0386833219739294e-05 0 0.0019806399209503535 3.9098543572563748e-05 0 0.0013408602568177755 0.00010886094070154907 0 0.0017715289783990066 1.1977825735368313e-05 0 0.001593362880395994 3.4155427276096951e-05 0 0.0014788008975598942 0.00013863768581658003 0 0.0015024875682576445 6.5623144631449454e-05 0 0.0013939321242591573 0.00016208409534145048 0 0.0014788008975598942 0.00013863768581658003 0 0.0015024875682576445 6.5623144631449454e-05 0 0.0016639178558490947 3.3526957738435248e-05 0 0.0017715289783990066 1.1977825735368313e-05 0 0.0019603676613435678 6.4599809063171543e-05 0 0.001957801308105835 4.0386833219739294e-05 0 0.0019498562316632648 5.2285512912881206e-05 0 0.001957801308105835 4.0386833219739294e-05 0 0.0019693213037628205 2.177010155322624e-05 0 0.0019535362998747085 1.6013417908735796e-05 0 0.0017715289783990066 1.1977825735368313e-05 0 0.0020630913503713847 -2.2458361723961925e-05 0 0.0018923564927091252 -3.4919062665649808e-06 0 0.001893206637784384 -5.5132958771352419e-06 0 0.0018953946092120455 -7.1177018756862631e-07 0 0.001957801308105835 4.0386833219739294e-05 0 0.0019806399209503535 3.9098543572563748e-05 0 0.0019693213037628205 2.177010155322624e-05 0 0.0019806399209503535 3.9098543572563748e-05 0 0.0019693213037628205 2.177010155322624e-05 0 0.0019817786720338752 1.4821216900008512e-05 0 0.0017965356554804032 -1.016377733162442e-05 0 0.0017715289783990066 1.1977825735368313e-05 0 0.0017965356554804032 -1.016377733162442e-05 0 0.0020630913503713847 -2.2458361723961925e-05 0 0.002054530909907253 -1.9609212977835236e-05 0 0.0020577503690359369 -6.6313664493374903e-05 0 0.0020333357379218337 -5.595062913374192e-05 0 0.0019693213037628205 2.177010155322624e-05 0 0.0019817786720338752 1.4821216900008512e-05 0 0.0019774221491342002 6.1977985807557996e-06 0 0.0022412843869005872 -3.6964986932012345e-05 0 0.002293394900405523 -8.7286240384794553e-05 0 0.0020577503690359369 -6.6313664493374903e-05 0 0.0020333357379218337 -5.595062913374192e-05 0 0.0020320886303474574 -8.3480492748042652e-05 0 0.0020630913503713847 -2.2458361723961925e-05 0 0.002293394900405523 -8.7286240384794553e-05 0 0.0021730820908858026 -5.2049987285148305e-05 0 0.002188640158024579 -2.8306166235056007e-05 0 0.0021758911031378222 -2.326771315395579e-05 0 0.0020630913503713847 -2.2458361723961925e-05 0 0.0022412843869005872 -3.6964986932012345e-05 0 0.0025402826933332784 5.9536571696750389e-06 0 0.0025234948032440423 1.3604147021553742e-05 0 0.0025357439263858539 -3.0528937213734035e-06 0 0.0025226556905167466 6.2436133286198061e-05 0 0.0027976654471052937 -4.0653210329876629e-05 0 0.0029647279867166922 7.9067866817118714e-05 0 0.002960837247241656 6.9116309719139435e-05 0 0.0029855994759907826 5.5209033155222497e-05 0 0.0022412843869005872 -3.6964986932012345e-05 0 0.0025226556905167466 6.2436133286198061e-05 0 0.0019693213037628205 2.177010155322624e-05 0 0.0019774221491342002 6.1977985807557996e-06 0 0.0019535362998747085 1.6013417908735796e-05 0 0.002960837247241656 6.9116309719139435e-05 0 0.0029434654328092261 7.8442010278229445e-05 0 0.002959194100440658 5.6643248934276377e-05 0 0.0034228748653949317 0.00012131093979222668 0 0.0034695877174586226 0.0001328317591985934 0 0.002960837247241656 6.9116309719139435e-05 0 0.0029596749842465274 8.062989779786073e-05 0 0.0029434654328092261 7.8442010278229445e-05 0 0.0029647279867166922 7.9067866817118714e-05 0 0.002960837247241656 6.9116309719139435e-05 0 0.0029596749842465274 8.062989779786073e-05 0 0.0025226556905167466 6.2436133286198061e-05 0 0.0026691803626007035 2.6197403820537346e-05 0 0.0029632910375889236 7.9218247593205079e-05 0 0.0029596749842465274 8.062989779786073e-05 0 0.0029469910294765292 9.6975026781977934e-05 0 0.0023564730879164857 2.7007090867628957e-05 0 0.0034228748653949317 0.00012131093979222668 0 0.0025226556905167466 6.2436133286198061e-05 0 0.0023564730879164857 2.7007090867628957e-05 0 0.001957801308105835 4.0386833219739294e-05 0 0.0019535362998747085 1.6013417908735796e-05 0 0.0019378468300166837 3.5543998117127653e-05 0 0.0029596749842465274 8.062989779786073e-05 0 0.0029469910294765292 9.6975026781977934e-05 0 0.0029434654328092261 7.8442010278229445e-05 0 0.0028340238474697842 5.5659612645149066e-05 0 0.0027141251366979754 7.4202886117389987e-05 0 0.0027972543931842229 -4.7100864896154993e-05 0 0.0033260358460366246 0.00012847650827836656 0 0.0034228748653949317 0.00012131093979222668 0 0.0039796939340541971 0.00018861386181394298 0 0.0039689989790165194 0.00017151287265661146 0 0.0039631776176589813 0.00018558230703279646 0 0.0039796939340541971 0.00018861386181394298 0 0.0039631776176589813 0.00018558230703279646 0 0.0039732070900918614 0.00019722327911719415 0 0.0034228748653949317 0.00012131093979222668 0 0.0039914065789434074 0.00024492770081165538 0 0.0039809558946099898 0.00020006018269868594 0 0.0039863831856960406 0.00020385414399203995 0 0.0039830800449078205 0.00020292582294576051 0 0.0039863831856960406 0.00020385414399203995 0 0.003986985284130746 0.00020650115411767304 0 0.0039888331654278943 0.00020613007268100735 0 0.0039914065789434074 0.00024492770081165538 0 0.0039792599768703743 0.00019167135761944038 0 0.0039732070900918614 0.00019722327911719415 0 0.003986985284130746 0.00020650115411767304 0 0.0039857154704153628 0.00019940036245241533 0 0.003986985284130746 0.00020650115411767304 0 0.0039881517915653988 0.00020945246438917411 0 0.0039888331654278943 0.00020613007268100735 0 0.003986985284130746 0.00020650115411767304 0 0.0039881517915653988 0.00020945246438917411 0 0.0039943048699870171 0.00021136677008671702 0 0.0039881517915653988 0.00020945246438917411 0 0.0039888331654278943 0.00020613007268100735 0 0.0039945579970065148 0.00020935868588389895 0 0.0039888331654278943 0.00020613007268100735 0 0.0039945579970065148 0.00020935868588389895 0 0.003979234326481707 0.00020010245296544701 0 0.0039888331654278943 0.00020613007268100735 0 0.0039830800449078205 0.00020292582294576051 0 0.003979234326481707 0.00020010245296544701 0 0.0039945579970065148 0.00020935868588389895 0 0.003979234326481707 0.00020010245296544701 0 0.0039950354421425466 0.00024251929416525841 0 0.0035140056102742436 0.00011349976234618602 0 0.0040315196162548769 0.00029557919732714792 0 0.0039863831856960406 0.00020385414399203995 0 0.0039888331654278943 0.00020613007268100735 0 0.0039830800449078205 0.00020292582294576051 0 0.0034695877174586226 0.0001328317591985934 0 0.0035140056102742436 0.00011349976234618602 0 0.0027976654471052937 -4.0653210329876629e-05 0 0.0035140056102742436 0.00011349976234618602 0 0.002960837247241656 6.9116309719139435e-05 0 0.002959194100440658 5.6643248934276377e-05 0 0.0029855994759907826 5.5209033155222497e-05 0 0.002959194100440658 5.6643248934276377e-05 0 0.0029855994759907826 5.5209033155222497e-05 0 0.0029764377817847565 3.5094542914805879e-05 0 0.002293394900405523 -8.7286240384794553e-05 0 0.0026511280405336446 -0.00011235583752340338 0 0.0025153729521699051 -8.8875864932116887e-05 0 0.0025197912926568176 -8.6334070424592404e-05 0 0.0025180561012698274 -8.3204562614378559e-05 0 0.0025189187827495659 -0.00019399162199185575 0 0.0025265433610600543 -0.00012722025475444041 0 0.0024977025751483791 -0.00015728755935752502 0 0.0022412843869005872 -3.6964986932012345e-05 0 0.0027976654471052937 -4.0653210329876629e-05 0 0.0025164714520692646 -8.9280842990581717e-05 0 0.0025153729521699051 -8.8875864932116887e-05 0 0.0025197912926568176 -8.6334070424592404e-05 0 0.0027976654471052937 -4.0653210329876629e-05 0 0.0026511280405336446 -0.00011235583752340338 0 0.0031336710955879926 -8.3887001481563073e-05 0 0.0030837912565917186 -1.5368586641029922e-05 0 0.0031314570142093393 2.5530333665342309e-05 0 0.0026511280405336446 -0.00011235583752340338 0 0.0028526781997013583 -2.7996556309224656e-05 0 0.0030837912565917186 -1.5368586641029922e-05 0 0.0031314570142093393 2.5530333665342309e-05 0 0.0030931291772529541 7.2299371288322604e-05 0 0.0025781838689471499 -0.00017729401187387381 0 0.0025519699222555921 -0.00010191079599306475 0 0.0025883297211094143 -8.8917768717776733e-05 0 0.0031336710955879926 -8.3887001481563073e-05 0 0.0031314570142093393 2.5530333665342309e-05 0 0.0031955351271119796 9.5127499248070689e-06 0 0.0031314570142093393 2.5530333665342309e-05 0 0.0031955351271119796 9.5127499248070689e-06 0 0.0031482615002536019 8.4601934438512311e-05 0 0.0035140056102742436 0.00011349976234618602 0 0.0035435874191316139 0.00015199309449939445 0 0.0039725301613699592 0.00018072733236293274 0 0.0039758852632311506 0.00023871815428447128 0 0.0040187007108266155 0.00024989160177297983 0 0.0039331012392563192 0.00024776023561779998 0 0.0039766582947441675 0.00028466619508682884 0 0.0038937267954860773 0.00031339996346898397 0 0.0039758852632311506 0.00023871815428447128 0 0.0039331012392563192 0.00024776023561779998 0 0.0039766582947441675 0.00028466619508682884 0 0.0039725301613699592 0.00018072733236293274 0 0.0039758852632311506 0.00023871815428447128 0 0.0039331012392563192 0.00024776023561779998 0 0.0039758852632311506 0.00023871815428447128 0 0.0039766582947441675 0.00028466619508682884 0 0.0040187007108266155 0.00024989160177297983 0 0.0025781838689471499 -0.00017729401187387381 0 0.0025519699222555921 -0.00010191079599306475 0 0.0024762372814043044 -4.7245395810641952e-05 0 0.0025519699222555921 -0.00010191079599306475 0 0.0025883297211094143 -8.8917768717776733e-05 0 0.00255543877763156 -3.1509363593723451e-06 0 0.0031314570142093393 2.5530333665342309e-05 0 0.0031482615002536019 8.4601934438512311e-05 0 0.0030931291772529541 7.2299371288322604e-05 0 0.0031482615002536019 8.4601934438512311e-05 0 0.0030931291772529541 7.2299371288322604e-05 0 0.0031026803029725251 0.00015978970932085503 0 0.0028526781997013583 -2.7996556309224656e-05 0 0.0033837062539911929 0.00020555797928075253 0 0.0035435874191316139 0.00015199309449939445 0 0.0033837062539911929 0.00020555797928075253 0 0.0025883297211094143 -8.8917768717776733e-05 0 0.00255543877763156 -3.1509363593723451e-06 0 0.0026047134657469699 1.0703361793089915e-05 0 0.0025521545494945831 -8.8710804203998218e-05 0 0.0025651282364882321 -2.3345320802663982e-05 0 0.0038065781652358651 0.00031174777030716942 0 0.0038088725394284919 0.00032607857401908226 0 0.0038028994374937493 0.00032215076832595163 0 0.0033837062539911929 0.00020555797928075253 0 0.0038942247109124716 0.00039685094835302743 0 0.00255543877763156 -3.1509363593723451e-06 0 0.0026047134657469699 1.0703361793089915e-05 0 0.0025562842750691821 9.4542685533360415e-05 0 0.0025651282364882321 -2.3345320802663982e-05 0 0.0029809980528045076 0.00013143444609207649 0 0.0025356185032979202 -2.3611833784971785e-05 0 0.0025297065435864212 -7.2593828900679775e-07 0 0.0025356017211293786 2.8861726811898982e-05 0 0.0033837062539911929 0.00020555797928075253 0 0.0029809980528045076 0.00013143444609207649 0 0.0039766582947441675 0.00028466619508682884 0 0.0038937267954860773 0.00031339996346898397 0 0.003975402286368444 0.00033920106737523231 0 0.0038937267954860773 0.00031339996346898397 0 0.003975402286368444 0.00033920106737523231 0 0.0039072492169487253 0.00041827471429257962 0 0.0040623131998276394 0.00031798705555209357 0 0.0041074959916356738 0.00036702066519371832 0 0.0040283459957111967 0.00039975942393010989 0 0.0039766582947441675 0.00028466619508682884 0 0.003975402286368444 0.00033920106737523231 0 0.0040623131998276394 0.00031798705555209357 0 0.003975402286368444 0.00033920106737523231 0 0.0040623131998276394 0.00031798705555209357 0 0.0040283459957111967 0.00039975942393010989 0 0.0041074959916356738 0.00036702066519371832 0 0.0041489753974396507 0.00028825141249821571 0 0.0042046016270756012 0.00036636089203974788 0 0.0040623131998276394 0.00031798705555209357 0 0.0041074959916356738 0.00036702066519371832 0 0.0041489753974396507 0.00028825141249821571 0 0.0040011732078671005 0.00021153814382530666 0 0.0040660705678845785 0.00025268176319365681 0 0.0039881517915653988 0.00020945246438917411 0 0.0039857633679837943 0.0002139989882753426 0 0.0039943048699870171 0.00021136677008671702 0 0.0039881517915653988 0.00020945246438917411 0 0.0039945579970065148 0.00020935868588389895 0 0.0039857633679837943 0.0002139989882753426 0 0.0039766582947441675 0.00028466619508682884 0 0.0040623131998276394 0.00031798705555209357 0 0.0040187007108266155 0.00024989160177297983 0 0.0040623131998276394 0.00031798705555209357 0 0.0041489753974396507 0.00028825141249821571 0 0.0039950354421425466 0.00024251929416525841 0 0.0039945579970065148 0.00020935868588389895 0 0.0041489753974396507 0.00028825141249821571 0 0.0039950354421425466 0.00024251929416525841 0 0.004043434200887556 0.0002943432466015015 0 0.0040315196162548769 0.00029557919732714792 0 0.0022542374314553559 -0.0001446740465075117 0 0.0023057856106056054 -0.00016508726215804054 0 0.0022963969333517444 -0.00010520779617789893 0 0.0018434253094493879 -0.00016532991305572828 0 0.001805748624222267 -0.00015007702020314467 0 0.0018093853666814512 -0.00013493929658351132 0 0.002088653291376748 -0.00013719927104928587 0 0.0020219296526505213 -0.00016574802355217428 0 0.0018640791064185125 -0.00013273672630364567 0 0.002088653291376748 -0.00013719927104928587 0 0.0018434253094493879 -0.00016532991305572828 0 0.0018468720121873462 -0.00013378371568356057 0 0.0018093853666814512 -0.00013493929658351132 0 0.0018640791064185125 -0.00013273672630364567 0 0.0015594600351442139 -0.00019133424336691316 0 0.0012020169227836323 -9.0253846304325669e-05 0 0.0012264319925002136 -0.00016986542569385454 0 0.0012724537623316182 -0.00019844252983174459 0 0.0017893942179196016 -8.0401393479446621e-05 0 0.0018468720121873462 -0.00013378371568356057 0 0.0018093853666814512 -0.00013493929658351132 0 0.0011535147177233565 -0.00012907203230424434 0 0.0012516638148931853 -0.00021982819857280106 0 0.0012264319925002136 -0.00016986542569385454 0 0.0012072088803705046 -9.8139379628843582e-05 0 0.0012706897379511117 -0.00018646299724486571 0 0.0012516638148931853 -0.00021982819857280106 0 0.0012264319925002136 -0.00016986542569385454 0 0.0012724537623316182 -0.00019844252983174459 0 0.0014714505439506476 -0.00010331567041889016 0 0.0015594600351442139 -0.00019133424336691316 0 0.002088653291376748 -0.00013719927104928587 0 0.0021569234252680862 -0.00012063899841020939 0 0.0018058386142469748 -0.00015075179195888781 0 0.0018093853666814512 -0.00013493929658351132 0 0.0017225840032965075 -0.00011849211735680548 0 0.0017893942179196016 -8.0401393479446621e-05 0 0.0018093853666814512 -0.00013493929658351132 0 0.0017225840032965075 -0.00011849211735680548 0 0.0017412557196834087 -7.3791392931979528e-05 0 0.0017893942179196016 -8.0401393479446621e-05 0 0.0017225840032965075 -0.00011849211735680548 0 0.0023335676508988352 -0.00011855084678132976 0 0.0024020852197917538 -0.00014480255052830044 0 0.0023650821879644172 -8.1071327111924391e-05 0 0.0021569234252680862 -0.00012063899841020939 0 0.0024468369733139125 -0.00011724929435585039 0 0.0024306390228126477 -9.7574194124155794e-05 0 0.0024216659696633669 -0.00015901444682131209 0 0.0024728783116736664 -0.00013120132121828237 0 0.0024306390228126477 -9.7574194124155794e-05 0 0.0024216659696633669 -0.00015901444682131209 0 0.0023650821879644172 -8.1071327111924391e-05 0 0.001871932242518376 -5.5388794203697029e-05 0 0.0021569234252680862 -0.00012063899841020939 0 0.0016828122022688188 -6.4185350882151523e-05 0 0.0017412557196834087 -7.3791392931979528e-05 0 0.0017225840032965075 -0.00011849211735680548 0 0.0021569234252680862 -0.00012063899841020939 0 0.0022923175348476166 -0.00014552173394103787 0 0.0020903713651508056 -7.0179994437902596e-05 0 0.0021260397608033189 -0.00012176785479633394 0 0.0020785855511487083 -0.00010255336519683186 0 0.0024216659696633669 -0.00015901444682131209 0 0.002471962404376461 -0.00017640711483270043 0 0.0024728783116736664 -0.00013120132121828237 0 0.0025189187827495659 -0.00019399162199185575 0 0.002471962404376461 -0.00017640711483270043 0 0.0024977025751483791 -0.00015728755935752502 0 0.002293394900405523 -8.7286240384794553e-05 0 0.0022923175348476166 -0.00014552173394103787 0 0.002471962404376461 -0.00017640711483270043 0 0.0024977025751483791 -0.00015728755935752502 0 0.0024728783116736664 -0.00013120132121828237 0 0.0026511280405336446 -0.00011235583752340338 0 0.0024490230312355444 -5.8757245685648739e-05 0 0.0025265433610600543 -0.00012722025475444041 0 0.0024702998663516098 -9.3094914604942766e-05 0 0.0024762372814043044 -4.7245395810641952e-05 0 0.0025265433610600543 -0.00012722025475444041 0 0.0024977025751483791 -0.00015728755935752502 0 0.0024728783116736664 -0.00013120132121828237 0 0.0025265433610600543 -0.00012722025475444041 0 0.0024728783116736664 -0.00013120132121828237 0 0.0024702998663516098 -9.3094914604942766e-05 0 0.0024306390228126477 -9.7574194124155794e-05 0 0.0024728783116736664 -0.00013120132121828237 0 0.0024702998663516098 -9.3094914604942766e-05 0 0.0024702998663516098 -9.3094914604942766e-05 0 0.0024762372814043044 -4.7245395810641952e-05 0 0.0024411136624198559 -6.7950227687796146e-05 0 0.0025519699222555921 -0.00010191079599306475 0 0.0025356185032979202 -2.3611833784971785e-05 0 0.0024762372814043044 -4.7245395810641952e-05 0 0.0025356185032979202 -2.3611833784971785e-05 0 0.0025297065435864212 -7.2593828900679775e-07 0 0.0024988139150503028 -1.4685133074191592e-05 0 0.0025297065435864212 -7.2593828900679775e-07 0 0.0024946869286907687 9.9599055494079766e-06 0 0.0024921801771688847 6.0577768193827058e-05 0 0.0025356185032979202 -2.3611833784971785e-05 0 0.0024762372814043044 -4.7245395810641952e-05 0 0.0024988139150503028 -1.4685133074191592e-05 0 0.0025297065435864212 -7.2593828900679775e-07 0 0.0024988139150503028 -1.4685133074191592e-05 0 0.0024946869286907687 9.9599055494079766e-06 0 0.0024988139150503028 -1.4685133074191592e-05 0 0.0024946869286907687 9.9599055494079766e-06 0 0.0024616151275185551 1.0550612887713107e-05 0 0.0024946869286907687 9.9599055494079766e-06 0 0.0024616151275185551 1.0550612887713107e-05 0 0.0024921801771688847 6.0577768193827058e-05 0 0.0024762372814043044 -4.7245395810641952e-05 0 0.0024988139150503028 -1.4685133074191592e-05 0 0.0024616151275185551 1.0550612887713107e-05 0 0.0024101037115429433 9.1851287628724104e-06 0 0.0024240577897509143 -3.3035306920083218e-05 0 0.0023534273562426876 -4.3088550124642758e-05 0 0.0024762372814043044 -4.7245395810641952e-05 0 0.0024616151275185551 1.0550612887713107e-05 0 0.0024240577897509143 -3.3035306920083218e-05 0 0.0024616151275185551 1.0550612887713107e-05 0 0.0024101037115429433 9.1851287628724104e-06 0 0.0024240577897509143 -3.3035306920083218e-05 0 0.0024616151275185551 1.0550612887713107e-05 0 0.0024101037115429433 9.1851287628724104e-06 0 0.0024344319896364829 6.3849526398612326e-05 0 0.0024240577897509143 -3.3035306920083218e-05 0 0.0024411136624198559 -6.7950227687796146e-05 0 0.0024029250392231171 -6.6684851701802333e-05 0 0.0024306390228126477 -9.7574194124155794e-05 0 0.0024029250392231171 -6.6684851701802333e-05 0 0.0023650821879644172 -8.1071327111924391e-05 0 0.0024762372814043044 -4.7245395810641952e-05 0 0.0024240577897509143 -3.3035306920083218e-05 0 0.0024411136624198559 -6.7950227687796146e-05 0 0.0024306390228126477 -9.7574194124155794e-05 0 0.0024702998663516098 -9.3094914604942766e-05 0 0.0024411136624198559 -6.7950227687796146e-05 0 0.0024306390228126477 -9.7574194124155794e-05 0 0.0024411136624198559 -6.7950227687796146e-05 0 0.0024029250392231171 -6.6684851701802333e-05 0 0.002088653291376748 -0.00013719927104928587 0 0.0023705258805256858 -4.7956196053823518e-05 0 0.0023335676508988352 -0.00011855084678132976 0 0.0023650821879644172 -8.1071327111924391e-05 0 0.0023534273562426876 -4.3088550124642758e-05 0 0.0024240577897509143 -3.3035306920083218e-05 0 0.0024029250392231171 -6.6684851701802333e-05 0 0.0023534273562426876 -4.3088550124642758e-05 0 0.0024029250392231171 -6.6684851701802333e-05 0 0.0023650821879644172 -8.1071327111924391e-05 0 0.0023534273562426876 -4.3088550124642758e-05 0 0.0023369750281733363 -6.4515129475328098e-05 0 0.0022733579541355416 -3.1730848485742762e-05 0 0.0023684145912941678 3.4389068298033379e-05 0 0.0024101037115429433 9.1851287628724104e-06 0 0.0023534273562426876 -4.3088550124642758e-05 0 0.0023780319769704048 4.6884028343554643e-05 0 0.0023705258805256858 -4.7956196053823518e-05 0 0.0023705085334968156 3.9997889557423074e-05 0 0.0023369750281733363 -6.4515129475328098e-05 0 0.0022733579541355416 -3.1730848485742762e-05 0 0.0022963969333517444 -0.00010520779617789893 0 0.0018640791064185125 -0.00013273672630364567 0 0.0020451312122269872 1.3825817740688619e-05 0 0.0023057856106056054 -0.00016508726215804054 0 0.0023369750281733363 -6.4515129475328098e-05 0 0.0022963969333517444 -0.00010520779617789893 0 0.0022542374314553559 -0.0001446740465075117 0 0.0022733579541355416 -3.1730848485742762e-05 0 0.0022963969333517444 -0.00010520779617789893 0 0.0017723972925040008 -4.1600821060566604e-05 0 0.0017792663050438047 3.6799362008527163e-05 0 0.0017517800299811188 -1.0451851866153412e-05 0 0.0020365529018183046 8.3211534486291204e-05 0 0.0020296946982156878 0.00019828214569210406 0 0.0022733579541355416 -3.1730848485742762e-05 0 0.0022936990133823284 7.8621346303264973e-05 0 0.0023684145912941678 3.4389068298033379e-05 0 0.0020451312122269872 1.3825817740688619e-05 0 0.0020365529018183046 8.3211534486291204e-05 0 0.0022936990133823284 7.8621346303264973e-05 0 0.0023684145912941678 3.4389068298033379e-05 0 0.0023990775466073404 0.00013166683813781673 0 0.0023705085334968156 3.9997889557423074e-05 0 0.00239811154240359 0.00012721509661354995 0 0.0022936990133823284 7.8621346303264973e-05 0 0.0023990775466073404 0.00013166683813781673 0 0.0023142597677557903 0.00018320592227903101 0 0.0023990775466073404 0.00013166683813781673 0 0.0024344319896364829 6.3849526398612326e-05 0 0.0024640682954155438 0.00011615868869256739 0 0.0023780319769704048 4.6884028343554643e-05 0 0.0023990775466073404 0.00013166683813781673 0 0.0024344319896364829 6.3849526398612326e-05 0 0.0024101037115429433 9.1851287628724104e-06 0 0.0023780319769704048 4.6884028343554643e-05 0 0.0024344319896364829 6.3849526398612326e-05 0 0.0027762855566979706 0.00013906559820741569 0 0.0029809980528045076 0.00013143444609207649 0 0.0025297065435864212 -7.2593828900679775e-07 0 0.002519745151525836 5.0235735819382471e-05 0 0.0025356017211293786 2.8861726811898982e-05 0 0.0024344319896364829 6.3849526398612326e-05 0 0.0024921801771688847 6.0577768193827058e-05 0 0.0024640682954155438 0.00011615868869256739 0 0.0031418003005167024 0.00011458779604409023 0 0.003122549686433575 0.00014855806493343471 0 0.0031243612635133322 0.00012477105457977402 0 0.0025296639444120973 -1.3242852899323537e-07 0 0.0025007755850336112 6.6446281486559139e-05 0 0.002519745151525836 5.0235735819382471e-05 0 0.0025099269719682767 9.625579122141081e-05 0 0.0025356017211293786 2.8861726811898982e-05 0 0.0024616151275185551 1.0550612887713107e-05 0 0.0024344319896364829 6.3849526398612326e-05 0 0.0024921801771688847 6.0577768193827058e-05 0 0.0025007755850336112 6.6446281486559139e-05 0 0.0027762855566979706 0.00013906559820741569 0 0.0031418003005167024 0.00011458779604409023 0 0.003138331211849353 8.599991798970533e-05 0 0.0031243612635133322 0.00012477105457977402 0 0.0036421363663919565 0.00019651356632355491 0 0.0037480195103597055 0.00030242846084049916 0 0.0041779516122092278 0.00032109679299136804 0 0.0041534428633237235 0.0003219768189408108 0 0.0041386084278328501 0.00038280866575794627 0 0.0031418003005167024 0.00011458779604409023 0 0.003138331211849353 8.599991798970533e-05 0 0.0031496498896083766 8.5840379677328211e-05 0 0.0041779516122092278 0.00032109679299136804 0 0.0042156191630390479 0.00025868447008836279 0 0.0041680501187604958 0.00026144941676798424 0 0.0040014448401973412 0.00033596170596074621 0 0.0041527413137591972 0.00023248567841681968 0 0.0041779516122092278 0.00032109679299136804 0 0.0041534428633237235 0.0003219768189408108 0 0.0041680501187604958 0.00026144941676798424 0 0.0031205572585614855 8.6803401464631235e-05 0 0.0031209155604676828 0.0001268642122226698 0 0.0036421363663919565 0.00019651356632355491 0 0.0036847116120491642 0.00015570042884967359 0 0.0030935812261058408 0.00010503593645992339 0 0.0030770158882282832 0.00016827834211932021 0 0.0030509645105824242 0.00018021402644940459 0 0.003151916345485116 6.0936279028319629e-05 0 0.0031496498896083766 8.5840379677328211e-05 0 0.0031448705372660959 5.3447540644999091e-05 0 0.003138331211849353 8.599991798970533e-05 0 0.0031496498896083766 8.5840379677328211e-05 0 0.0031448705372660959 5.3447540644999091e-05 0 0.0023990775466073404 0.00013166683813781673 0 0.0024640682954155438 0.00011615868869256739 0 0.0024092204764781639 0.00019695857465899704 0 0.0027762855566979706 0.00013906559820741569 0 0.0031209155604676828 0.0001268642122226698 0 0.0027762855566979706 0.00013906559820741569 0 0.0027310200248261002 0.00020313576555739188 0 0.0030072879451039621 0.00025700624164919637 0 0.0030770158882282832 0.00016827834211932021 0 0.0030509645105824242 0.00018021402644940459 0 0.0023990775466073404 0.00013166683813781673 0 0.0024092204764781639 0.00019695857465899704 0 0.0023142597677557903 0.00018320592227903101 0 0.0027310200248261002 0.00020313576555739188 0 0.0027640801035722414 0.00012401900189348559 0 0.0030935812261058408 0.00010503593645992339 0 0.0030770158882282832 0.00016827834211932021 0 0.0031413374325919355 8.2882352974436189e-05 0 0.0024092204764781639 0.00019695857465899704 0 0.0023546164191732902 0.00022777990429090046 0 0.0023558394667726624 0.00027549390725483189 0 0.0023546164191732902 0.00022777990429090046 0 0.0023142597677557903 0.00018320592227903101 0 0.0023307177735439155 0.00027782878910214922 0 0.0024092204764781639 0.00019695857465899704 0 0.0023546164191732902 0.00022777990429090046 0 0.0023142597677557903 0.00018320592227903101 0 0.0020296946982156878 0.00019828214569210406 0 0.0021918182062491301 8.1338466290796163e-05 0 0.0017696505355430587 0.00016010341405399054 0 0.0017678083481046118 0.00015995968624043347 0 0.0017715611084761203 0.00016181962338160795 0 0.0017696505355430587 0.00016010341405399054 0 0.0017762164599341153 0.00015692623827379237 0 0.0017715611084761203 0.00016181962338160795 0 0.0017696505355430587 0.00016010341405399054 0 0.0017585361949390586 0.00015877446026689099 0 0.0017678083481046118 0.00015995968624043347 0 0.0017696505355430587 0.00016010341405399054 0 0.0017762164599341153 0.00015692623827379237 0 0.0017585361949390586 0.00015877446026689099 0 0.0017818075052148698 0.00010735095095166991 0 0.0017762164599341153 0.00015692623827379237 0 0.0017585361949390586 0.00015877446026689099 0 0.0040998607563918158 0.0004572499823941219 0 0.0039760301106660468 0.00046417358064960426 0 0.0040103009818643325 0.00053362406987034065 0 0.0041887654066452016 0.0004056193345976286 0 0.0041755260140993239 0.00044121805775104516 0 0.0041074959916356738 0.00036702066519371832 0 0.0040998607563918158 0.0004572499823941219 0 0.0042046016270756012 0.00036636089203974788 0 0.0041887654066452016 0.0004056193345976286 0 0.0042075742110248881 0.00036952553730256837 0 0.0041074959916356738 0.00036702066519371832 0 0.0040998607563918158 0.0004572499823941219 0 0.0040283459957111967 0.00039975942393010989 0 0.0040998607563918158 0.0004572499823941219 0 0.0040283459957111967 0.00039975942393010989 0 0.0039760301106660468 0.00046417358064960426 0 0.003975402286368444 0.00033920106737523231 0 0.0040283459957111967 0.00039975942393010989 0 0.0039072492169487253 0.00041827471429257962 0 0.0040283459957111967 0.00039975942393010989 0 0.0039072492169487253 0.00041827471429257962 0 0.0039760301106660468 0.00046417358064960426 0 0.0038065781652358651 0.00031174777030716942 0 0.0038088725394284919 0.00032607857401908226 0 0.003813345663313292 0.00032891624283416831 0 0.0038088725394284919 0.00032607857401908226 0 0.0038028994374937493 0.00032215076832595163 0 0.0038003782694512262 0.00033960453643534002 0 0.0029809980528045076 0.00013143444609207649 0 0.0037480195103597055 0.00030242846084049916 0 0.0038088725394284919 0.00032607857401908226 0 0.003813345663313292 0.00032891624283416831 0 0.0038199189686768074 0.00032730373339534042 0 0.00380021338438591 0.00032296593907293365 0 0.0037480195103597055 0.00030242846084049916 0 0.0040014448401973412 0.00033596170596074621 0 0.0037480195103597055 0.00030242846084049916 0 0.003813345663313292 0.00032891624283416831 0 0.0038183227229066424 0.00032110362871036474 0 0.0038199189686768074 0.00032730373339534042 0 0.0038942247109124716 0.00039685094835302743 0 0.0038520571149402404 0.00042598616363369513 0 0.0038324384210860251 0.00031169934467225555 0 0.0038183227229066424 0.00032110362871036474 0 0.0038199189686768074 0.00032730373339534042 0 0.0039220179827751103 0.00051620319996345835 0 0.0039760301106660468 0.00046417358064960426 0 0.0040103009818643325 0.00053362406987034065 0 0.0039072492169487253 0.00041827471429257962 0 0.0039220179827751103 0.00051620319996345835 0 0.0039760301106660468 0.00046417358064960426 0 0.004110080194859078 0.00037774314729773135 0 0.0041755260140993239 0.00044121805775104516 0 0.0043761182067878455 0.00029357793143168097 0 0.0043553629255398711 0.00029364064364946859 0 0.0043336932373778921 0.00033118892672284652 0 0.0039220179827751103 0.00051620319996345835 0 0.0039322501470347186 0.00060581456477915821 0 0.0040103009818643325 0.00053362406987034065 0 0.0038520571149402404 0.00042598616363369513 0 0.004110080194859078 0.00037774314729773135 0 0.0038324384210860251 0.00031169934467225555 0 0.0038183227229066424 0.00032110362871036474 0 0.0038198701982519209 0.00030296937841336742 0 0.0043740918572545877 0.00028224604311095566 0 0.0043737812573868716 0.00027736170920047813 0 0.004376722264686563 0.00026305786546669622 0 0.004110080194859078 0.00037774314729773135 0 0.0041527413137591972 0.00023248567841681968 0 0.0038324384210860251 0.00031169934467225555 0 0.0038198701982519209 0.00030296937841336742 0 0.0038402970755258797 0.0002848336907600741 0 0.004110080194859078 0.00037774314729773135 0 0.0042001273967790216 0.0003077242878583931 0 0.0043737812573868716 0.00027736170920047813 0 0.0043553629255398711 0.00029364064364946859 0 0.0043582129054164451 0.00027662818441591202 0 0.0043761182067878455 0.00029357793143168097 0 0.0043737812573868716 0.00027736170920047813 0 0.0043553629255398711 0.00029364064364946859 0 0.0043553629255398711 0.00029364064364946859 0 0.0043582129054164451 0.00027662818441591202 0 0.0043334874297399463 0.000291342638835487 0 0.0043553629255398711 0.00029364064364946859 0 0.0043334874297399463 0.000291342638835487 0 0.0043336932373778921 0.00033118892672284652 0 0.0043334874297399463 0.000291342638835487 0 0.0043019976154824568 0.00031102383553132388 0 0.0043022507541288823 0.00027579687853577747 0 0.0043582129054164451 0.00027662818441591202 0 0.0043334874297399463 0.000291342638835487 0 0.0043376947361671849 0.00027295439414197438 0 0.0043334874297399463 0.000291342638835487 0 0.0043022507541288823 0.00027579687853577747 0 0.0043376947361671849 0.00027295439414197438 0 0.0042757817025207605 0.00036388194912728472 0 0.0043336932373778921 0.00033118892672284652 0 0.0043019976154824568 0.00031102383553132388 0 0.0043334874297399463 0.000291342638835487 0 0.0043336932373778921 0.00033118892672284652 0 0.0043019976154824568 0.00031102383553132388 0 0.0042757817025207605 0.00036388194912728472 0 0.0042615591411012945 0.00032230127210650957 0 0.0043019976154824568 0.00031102383553132388 0 0.0042615591411012945 0.00032230127210650957 0 0.0043019976154824568 0.00031102383553132388 0 0.0042687485399357039 0.00029292491330665347 0 0.0043019976154824568 0.00031102383553132388 0 0.0042687485399357039 0.00029292491330665347 0 0.0043022507541288823 0.00027579687853577747 0 0.0042687485399357039 0.00029292491330665347 0 0.0043022507541288823 0.00027579687853577747 0 0.0042752145294803201 0.00026582121237758797 0 0.0042687485399357039 0.00029292491330665347 0 0.0042389386453686537 0.00027393326584828888 0 0.0042388442217790772 0.00030807552581170857 0 0.0042687485399357039 0.00029292491330665347 0 0.0042389386453686537 0.00027393326584828888 0 0.0042752145294803201 0.00026582121237758797 0 0.0042276422047028911 0.00027501268701466086 0 0.0041993280890661334 0.00031244741631755073 0 0.0042389386453686537 0.00027393326584828888 0 0.0041973471784052382 0.00031200784628360412 0 0.0042388442217790772 0.00030807552581170857 0 0.0042216289893689772 0.00028496349845070297 0 0.0041973471784052382 0.00031200784628360412 0 0.004186048223666348 0.00028519718580535054 0 0.0041973471784052382 0.00031200784628360412 0 0.0042388442217790772 0.00030807552581170857 0 0.0042324942539363059 0.00034129020246266806 0 0.0042615591411012945 0.00032230127210650957 0 0.0042388442217790772 0.00030807552581170857 0 0.0042324942539363059 0.00034129020246266806 0 0.0042615591411012945 0.00032230127210650957 0 0.0042687485399357039 0.00029292491330665347 0 0.0042388442217790772 0.00030807552581170857 0 0.0042757817025207605 0.00036388194912728472 0 0.0042615591411012945 0.00032230127210650957 0 0.0042324942539363059 0.00034129020246266806 0 0.0042757817025207605 0.00036388194912728472 0 0.0042324942539363059 0.00034129020246266806 0 0.0042264474529946239 0.00036481624559410718 0 0.0042324942539363059 0.00034129020246266806 0 0.0042145813201621384 0.00035330658477863194 0 0.0042264474529946239 0.00036481624559410718 0 0.0041973471784052382 0.00031200784628360412 0 0.0042324942539363059 0.00034129020246266806 0 0.0042145813201621384 0.00035330658477863194 0 0.0041973471784052382 0.00031200784628360412 0 0.0042145813201621384 0.00035330658477863194 0 0.0041851759993456602 0.00035414219424061627 0 0.0042145813201621384 0.00035330658477863194 0 0.0041851759993456602 0.00035414219424061627 0 0.0042333383387463987 0.00037287325142233962 0 0.0042145813201621384 0.00035330658477863194 0 0.0042264474529946239 0.00036481624559410718 0 0.0042333383387463987 0.00037287325142233962 0 0.0041338816580309612 0.00031645373762146994 0 0.0041250581273466307 0.00030584339386114127 0 0.0042757817025207605 0.00036388194912728472 0 0.0042264474529946239 0.00036481624559410718 0 0.0042046016270756012 0.00036636089203974788 0 0.0042264474529946239 0.00036481624559410718 0 0.0042046016270756012 0.00036636089203974788 0 0.0042333383387463987 0.00037287325142233962 0 0.004123800921204384 0.00027831543468106372 0 0.0040750455291505222 0.00023599916061297119 0 0.0041125732679267585 0.00021987998327610781 0 0.004123800921204384 0.00027831543468106372 0 0.0041497724920461004 0.00025797896487044251 0 0.0041125732679267585 0.00021987998327610781 0 0.004123800921204384 0.00027831543468106372 0 0.0040814277182198988 0.00028194986463998887 0 0.0040750455291505222 0.00023599916061297119 0 0.0040814277182198988 0.00028194986463998887 0 0.0040204848896261101 0.00024286655671857819 0 0.0040750455291505222 0.00023599916061297119 0 0.0041973471784052382 0.00031200784628360412 0 0.0041851759993456602 0.00035414219424061627 0 0.0041698355357796084 0.00030849611394142152 0 0.004123800921204384 0.00027831543468106372 0 0.0040814277182198988 0.00028194986463998887 0 0.0041395210035624613 0.00030766530485121647 0 0.0041851759993456602 0.00035414219424061627 0 0.0041395210035624613 0.00030766530485121647 0 0.0041698355357796084 0.00030849611394142152 0 0.004123800921204384 0.00027831543468106372 0 0.0041395210035624613 0.00030766530485121647 0 0.0041428037891515831 0.00030443757114469579 0 0.0041338816580309612 0.00031645373762146994 0 0.0041380507975390529 0.00030961032535235263 0 0.0041395210035624613 0.00030766530485121647 0 0.0041698355357796084 0.00030849611394142152 0 0.0041556899140925974 0.00030121585911701952 0 0.0041395210035624613 0.00030766530485121647 0 0.0041556899140925974 0.00030121585911701952 0 0.0041476664291177894 0.00030206093860284691 0 0.0041698355357796084 0.00030849611394142152 0 0.0041556899140925974 0.00030121585911701952 0 0.0041684077522294279 0.00029422495623456548 0 0.0041556899140925974 0.00030121585911701952 0 0.0041548860518511475 0.00029552150921296333 0 0.0041476664291177894 0.00030206093860284691 0 0.0041556899140925974 0.00030121585911701952 0 0.0041548860518511475 0.00029552150921296333 0 0.0041684077522294279 0.00029422495623456548 0 0.0041973471784052382 0.00031200784628360412 0 0.0041698355357796084 0.00030849611394142152 0 0.0041684077522294279 0.00029422495623456548 0 0.0041973471784052382 0.00031200784628360412 0 0.004186048223666348 0.00028519718580535054 0 0.0041684077522294279 0.00029422495623456548 0 0.004186048223666348 0.00028519718580535054 0 0.0041684077522294279 0.00029422495623456548 0 0.0041654071899513059 0.0002868896224121828 0 0.0041548860518511475 0.00029552150921296333 0 0.0041684077522294279 0.00029422495623456548 0 0.0041654071899513059 0.0002868896224121828 0 0.0041654071899513059 0.0002868896224121828 0 0.0041569582692756214 0.00028889455791662435 0 0.0041614697610147027 0.00028299032748331038 0 0.0041548860518511475 0.00029552150921296333 0 0.0041654071899513059 0.0002868896224121828 0 0.0041569582692756214 0.00028889455791662435 0 0.0041569582692756214 0.00028889455791662435 0 0.0041533555304722955 0.00028988870397068543 0 0.0041569296347828662 0.0002847608805126424 0 0.0041569582692756214 0.00028889455791662435 0 0.0041569296347828662 0.0002847608805126424 0 0.0041614697610147027 0.00028299032748331038 0 0.0041569582692756214 0.00028889455791662435 0 0.0041524297932235719 0.00029352823146787551 0 0.0041533555304722955 0.00028988870397068543 0 0.0041548860518511475 0.00029552150921296333 0 0.0041569582692756214 0.00028889455791662435 0 0.0041524297932235719 0.00029352823146787551 0 0.0041548860518511475 0.00029552150921296333 0 0.0041524297932235719 0.00029352823146787551 0 0.0041474138726122515 0.00029834177487472068 0 0.0041524297932235719 0.00029352823146787551 0 0.0041500803393875515 0.00029415499659338608 0 0.0041474138726122515 0.00029834177487472068 0 0.0041524297932235719 0.00029352823146787551 0 0.0041500803393875515 0.00029415499659338608 0 0.0041533555304722955 0.00028988870397068543 0 0.0041500803393875515 0.00029415499659338608 0 0.0041533555304722955 0.00028988870397068543 0 0.0041503425266567013 0.00029284867021279923 0 0.0041533555304722955 0.00028988870397068543 0 0.0041551668682055067 0.00028556011967703133 0 0.0041569296347828662 0.0002847608805126424 0 0.0041533555304722955 0.00028988870397068543 0 0.0041551668682055067 0.00028556011967703133 0 0.0041528273276617931 0.00028911081676755818 0 0.0041551668682055067 0.00028556011967703133 0 0.0041536815519717957 0.00028732600419521429 0 0.0041528273276617931 0.00028911081676755818 0 0.0041536815519717957 0.00028732600419521429 0 0.0041528273276617931 0.00028911081676755818 0 0.0041504641093372957 0.00029200784489065462 0 0.0041536815519717957 0.00028732600419521429 0 0.0041504641093372957 0.00029200784489065462 0 0.0041458169749872048 0.00029451769066481142 0 0.0041536815519717957 0.00028732600419521429 0 0.0041458169749872048 0.00029451769066481142 0 0.0041575052454849793 0.0002822848721161833 0 0.0041504641093372957 0.00029200784489065462 0 0.0041481859972440083 0.00029479029683708916 0 0.0041458169749872048 0.00029451769066481142 0 0.0041500803393875515 0.00029415499659338608 0 0.0041503425266567013 0.00029284867021279923 0 0.0041473174247935989 0.00029594417638757677 0 0.0041533555304722955 0.00028988870397068543 0 0.0041528273276617931 0.00028911081676755818 0 0.0041503425266567013 0.00029284867021279923 0 0.0041528273276617931 0.00028911081676755818 0 0.0041503425266567013 0.00029284867021279923 0 0.0041504641093372957 0.00029200784489065462 0 0.0041503425266567013 0.00029284867021279923 0 0.0041504641093372957 0.00029200784489065462 0 0.0041481859972440083 0.00029479029683708916 0 0.0041473174247935989 0.00029594417638757677 0 0.0041478612748064927 0.00029449071882461746 0 0.0041466047958476117 0.00029342576238365045 0 0.0041503425266567013 0.00029284867021279923 0 0.0041473174247935989 0.00029594417638757677 0 0.0041481859972440083 0.00029479029683708916 0 0.0041473174247935989 0.00029594417638757677 0 0.0041481859972440083 0.00029479029683708916 0 0.0041478612748064927 0.00029449071882461746 0 0.0041481859972440083 0.00029479029683708916 0 0.0041478612748064927 0.00029449071882461746 0 0.0041499948321098946 0.00029328298932212852 0 0.0041481859972440083 0.00029479029683708916 0 0.0041499948321098946 0.00029328298932212852 0 0.0041458169749872048 0.00029451769066481142 0 0.0041499948321098946 0.00029328298932212852 0 0.0041466047958476117 0.00029342576238365045 0 0.004151529474240025 0.0002880641302723452 0 0.0041478612748064927 0.00029449071882461746 0 0.0041499948321098946 0.00029328298932212852 0 0.0041466047958476117 0.00029342576238365045 0 0.0041473174247935989 0.00029594417638757677 0 0.0041466047958476117 0.00029342576238365045 0 0.0041442639229428337 0.0002971799115412424 0 0.0041442639229428337 0.0002971799115412424 0 0.0041428037891515831 0.00030443757114469579 0 0.0041474138726122515 0.00029834177487472068 0 0.0041428037891515831 0.00030443757114469579 0 0.0041474138726122515 0.00029834177487472068 0 0.0041476664291177894 0.00030206093860284691 0 0.0041395210035624613 0.00030766530485121647 0 0.0041428037891515831 0.00030443757114469579 0 0.0041476664291177894 0.00030206093860284691 0 0.0041548860518511475 0.00029552150921296333 0 0.0041474138726122515 0.00029834177487472068 0 0.0041476664291177894 0.00030206093860284691 0 0.0041500803393875515 0.00029415499659338608 0 0.0041473174247935989 0.00029594417638757677 0 0.0041474138726122515 0.00029834177487472068 0 0.0041473174247935989 0.00029594417638757677 0 0.0041442639229428337 0.0002971799115412424 0 0.0041474138726122515 0.00029834177487472068 0 0.0043312107950875403 0.00018717611034109837 0 0.0043210121561622766 0.00018855356105542022 0 0.0043183070514753079 0.00019337466141247184 0 0.0043312107950875403 0.00018717611034109837 0 0.0043267310490490568 0.0001868230017680191 0 0.0043210121561622766 0.00018855356105542022 0 0.0043312107950875403 0.00018717611034109837 0 0.0043267310490490568 0.0001868230017680191 0 0.0043371880310006548 0.00019138567529600724 0 0.004281600452712411 0.00021503767360877838 0 0.0042313147677546592 0.00023769343256084161 0 0.0043270760878249591 0.00018558198742459455 0 0.0043212447065364857 0.00019109747469382027 0 0.0042983729798872277 0.00019561322358374884 0 0.0043267310490490568 0.0001868230017680191 0 0.0043270760878249591 0.00018558198742459455 0 0.0043212447065364857 0.00019109747469382027 0 0.0042386103405292882 0.00025087908284461389 0 0.0042119848434814065 0.00025480350744883572 0 0.0041708754800329588 0.00027522330760710949 0 0.0043267310490490568 0.0001868230017680191 0 0.0043210121561622766 0.00018855356105542022 0 0.0043270760878249591 0.00018558198742459455 0 0.0042386103405292882 0.00025087908284461389 0 0.0042881296016976768 0.00020577998850648661 0 0.0042594393828522632 0.00021077165468636852 0 0.0041789460991515145 0.00027530273800165447 0 0.0042088914739863243 0.00025091935135521413 0 0.0042386103405292882 0.00025087908284461389 0 0.0042119848434814065 0.00025480350744883572 0 0.0042594393828522632 0.00021077165468636852 0 0.0041499948321098946 0.00029328298932212852 0 0.0041458169749872048 0.00029451769066481142 0 0.0041607177732233755 0.00029002855828752326 0 0.0041499948321098946 0.00029328298932212852 0 0.0041607177732233755 0.00029002855828752326 0 0.004151529474240025 0.0002880641302723452 0 0.004281600452712411 0.00021503767360877838 0 0.0042896040319567444 0.00020547380186883421 0 0.0043270760878249591 0.00018558198742459455 0 0.0043091655296572384 0.00019447708370764122 0 0.0042881296016976768 0.00020577998850648661 0 0.0043210121561622766 0.00018855356105542022 0 0.0043270760878249591 0.00018558198742459455 0 0.0043091655296572384 0.00019447708370764122 0 0.0043091655296572384 0.00019447708370764122 0 0.0042881296016976768 0.00020577998850648661 0 0.0043002892689783852 0.00019957657472169043 0 0.0043210121561622766 0.00018855356105542022 0 0.0043091655296572384 0.00019447708370764122 0 0.0043183070514753079 0.00019337466141247184 0 0.0043091655296572384 0.00019447708370764122 0 0.0043183070514753079 0.00019337466141247184 0 0.0043002892689783852 0.00019957657472169043 0 0.0042881296016976768 0.00020577998850648661 0 0.0042594393828522632 0.00021077165468636852 0 0.0042722107192139664 0.00019952834936136997 0 0.0042088914739863243 0.00025091935135521413 0 0.0042236761314983981 0.00022583287440711773 0 0.0041607177732233755 0.00029002855828752326 0 0.0041547194532373551 0.00027551849391760439 0 0.0041806503046355453 0.00025756938569845118 0 0.0041607177732233755 0.00029002855828752326 0 0.004151529474240025 0.0002880641302723452 0 0.0041547194532373551 0.00027551849391760439 0 0.0041547194532373551 0.00027551849391760439 0 0.0041462481031716483 0.0002533038875516611 0 0.0041806503046355453 0.00025756938569845118 0 0.0041462481031716483 0.0002533038875516611 0 0.0041806503046355453 0.00025756938569845118 0 0.0041521064922729976 0.00022116172769439912 0 0.0042881296016976768 0.00020577998850648661 0 0.0042722107192139664 0.00019952834936136997 0 0.0042722129867225666 0.00020200392473657968 0 0.0042722107192139664 0.00019952834936136997 0 0.0042499235072198252 0.00020482214075154766 0 0.0042722129867225666 0.00020200392473657968 0 0.0041406849113121529 0.00029951189951719502 0 0.0041320720889022897 0.00025753490731610464 0 0.0041442639229428337 0.0002971799115412424 0 0.0041428037891515831 0.00030443757114469579 0 0.0041417915986877952 0.00028351834636813829 0 0.0041428037891515831 0.00030443757114469579 0 0.0041417915986877952 0.00028351834636813829 0 0.0041138218687695651 0.0002556722736941146 0 0.004123800921204384 0.00027831543468106372 0 0.0041428037891515831 0.00030443757114469579 0 0.0041497724920461004 0.00025797896487044251 0 0.0041466047958476117 0.00029342576238365045 0 0.0041442639229428337 0.0002971799115412424 0 0.0041417915986877952 0.00028351834636813829 0 0.0041466047958476117 0.00029342576238365045 0 0.004151529474240025 0.0002880641302723452 0 0.0041417915986877952 0.00028351834636813829 0 0.004151529474240025 0.0002880641302723452 0 0.0041547194532373551 0.00027551849391760439 0 0.0041417915986877952 0.00028351834636813829 0 0.0041462481031716483 0.0002533038875516611 0 0.0041417915986877952 0.00028351834636813829 0 0.0041138218687695651 0.0002556722736941146 0 0.0041547194532373551 0.00027551849391760439 0 0.0041462481031716483 0.0002533038875516611 0 0.0041417915986877952 0.00028351834636813829 0 0.0041462481031716483 0.0002533038875516611 0 0.0041138218687695651 0.0002556722736941146 0 0.0041294146146199093 0.00022510469704812092 0 0.0041320720889022897 0.00025753490731610464 0 0.0041385957880069237 0.00019176639187352959 0 0.0041497724920461004 0.00025797896487044251 0 0.0041550475976570482 0.00019362082529467698 0 0.0041125732679267585 0.00021987998327610781 0 0.0041138218687695651 0.0002556722736941146 0 0.0041294146146199093 0.00022510469704812092 0 0.004108811928885573 0.0002015593329092957 0 0.0041294146146199093 0.00022510469704812092 0 0.0041308443859970293 0.00019677623521553565 0 0.0041521064922729976 0.00022116172769439912 0 0.0041308443859970293 0.00019677623521553565 0 0.004108811928885573 0.0002015593329092957 0 0.0041200072923686737 0.00018413805299890139 0 0.0041294146146199093 0.00022510469704812092 0 0.0041308443859970293 0.00019677623521553565 0 0.004108811928885573 0.0002015593329092957 0 0.0041806503046355453 0.00025756938569845118 0 0.0041521064922729976 0.00022116172769439912 0 0.0042091014296054465 0.00020367608223375639 0 0.0042236761314983981 0.00022583287440711773 0 0.0042155324338128113 0.00020346897867500632 0 0.0042722107192139664 0.00019952834936136997 0 0.0042091014296054465 0.00020367608223375639 0 0.0042499235072198252 0.00020482214075154766 0 0.0041462481031716483 0.0002533038875516611 0 0.0041294146146199093 0.00022510469704812092 0 0.0041521064922729976 0.00022116172769439912 0 0.0041308443859970293 0.00019677623521553565 0 0.0041521064922729976 0.00022116172769439912 0 0.0041512684334936226 0.00018496052687962534 0 0.0041512684334936226 0.00018496052687962534 0 0.0042091014296054465 0.00020367608223375639 0 0.0041664082673121931 0.0001681143251945559 0 0.0041521064922729976 0.00022116172769439912 0 0.0041512684334936226 0.00018496052687962534 0 0.0042091014296054465 0.00020367608223375639 0 0.0041512684334936226 0.00018496052687962534 0 0.0041664082673121931 0.0001681143251945559 0 0.0041349609904399237 0.00017730549952488033 0 0.0041664082673121931 0.0001681143251945559 0 0.0041349609904399237 0.00017730549952488033 0 0.0041345233735207189 0.00017770156510482895 0 0.0041308443859970293 0.00019677623521553565 0 0.0041512684334936226 0.00018496052687962534 0 0.0041266694964738311 0.00018227937134370078 0 0.0041512684334936226 0.00018496052687962534 0 0.0041266694964738311 0.00018227937134370078 0 0.0041349609904399237 0.00017730549952488033 0 0.0040996263531496921 0.00018202315177292646 0 0.0041266694964738311 0.00018227937134370078 0 0.0041200072923686737 0.00018413805299890139 0 0.0040996263531496921 0.00018202315177292646 0 0.0041266694964738311 0.00018227937134370078 0 0.0041349609904399237 0.00017730549952488033 0 0.0040996263531496921 0.00018202315177292646 0 0.0041084793286690182 0.00017908110227777727 0 0.0041349609904399237 0.00017730549952488033 0 0.0041084793286690182 0.00017908110227777727 0 0.0041349609904399237 0.00017730549952488033 0 0.004118938426823494 0.00018151786399245198 0 0.0040925837951155302 0.00018264216638961308 0 0.0040669486994601937 0.00018325257126296848 0 0.0041385957880069237 0.00019176639187352959 0 0.0040925837951155302 0.00018264216638961308 0 0.0041550475976570482 0.00019362082529467698 0 0.0041597498578872299 0.00013222758937569775 0 0.0041115347883246599 0.00016095438204148733 0 0.004108811928885573 0.0002015593329092957 0 0.0041200072923686737 0.00018413805299890139 0 0.0041157033010673343 0.00018055878057278709 0 0.0041308443859970293 0.00019677623521553565 0 0.0041266694964738311 0.00018227937134370078 0 0.0041200072923686737 0.00018413805299890139 0 0.0040996263531496921 0.00018202315177292646 0 0.0041200072923686737 0.00018413805299890139 0 0.0041157033010673343 0.00018055878057278709 0 0.0040523562317219854 0.00018086254772633784 0 0.0040996263531496921 0.00018202315177292646 0 0.0040489326712471229 0.00021873493413859704 0 0.0040940094605637608 0.00018918448947166259 0 0.0040925837951155302 0.00018264216638961308 0 0.0040410750338181912 0.00018836931534020834 0 0.0040378710309325033 0.00020257648021531255 0 0.0040182033085167691 0.00019379089469786064 0 0.0040456724858771676 0.00019006800252890796 0 0.0040925837951155302 0.00018264216638961308 0 0.0040182033085167691 0.00019379089469786064 0 0.0040182349390588705 0.00021097901983809021 0 0.0040054706747410535 0.00020377181375625528 0 0.0040378710309325033 0.00020257648021531255 0 0.0040182033085167691 0.00019379089469786064 0 0.0040182349390588705 0.00021097901983809021 0 0.0040182349390588705 0.00021097901983809021 0 0.0040054706747410535 0.00020377181375625528 0 0.0040057115793581547 0.00021607035932551046 0 0.0040036000561974334 0.00018837735399136616 0 0.0040182033085167691 0.00019379089469786064 0 0.0040054706747410535 0.00020377181375625528 0 0.0040036000561974334 0.00018837735399136616 0 0.0040054706747410535 0.00020377181375625528 0 0.0039938785895561324 0.00019513773091745824 0 0.0040054706747410535 0.00020377181375625528 0 0.0039938785895561324 0.00019513773091745824 0 0.0039939624863446826 0.00020524385486597578 0 0.003986985284130746 0.00020650115411767304 0 0.0039857154704153628 0.00019940036245241533 0 0.0039939624863446826 0.00020524385486597578 0 0.0039796939340541971 0.00018861386181394298 0 0.0039938785895561324 0.00019513773091745824 0 0.0039857154704153628 0.00019940036245241533 0 0.0039938785895561324 0.00019513773091745824 0 0.0039857154704153628 0.00019940036245241533 0 0.0039939624863446826 0.00020524385486597578 0 0.0039796939340541971 0.00018861386181394298 0 0.0039732070900918614 0.00019722327911719415 0 0.0039857154704153628 0.00019940036245241533 0 0.003986985284130746 0.00020650115411767304 0 0.0039939624863446826 0.00020524385486597578 0 0.0039943048699870171 0.00021136677008671702 0 0.0040054706747410535 0.00020377181375625528 0 0.0039939624863446826 0.00020524385486597578 0 0.0040057115793581547 0.00021607035932551046 0 0.0039939624863446826 0.00020524385486597578 0 0.0039943048699870171 0.00021136677008671702 0 0.0040057115793581547 0.00021607035932551046 0 0.0039943048699870171 0.00021136677008671702 0 0.0040053639663737073 0.00022509653023407015 0 0.0040057115793581547 0.00021607035932551046 0 0.0040064851839091758 0.00022318899880397952 0 0.0040318772293367706 0.00020451692848729588 0 0.0039857633679837943 0.0002139989882753426 0 0.0039943048699870171 0.00021136677008671702 0 0.0040053639663737073 0.00022509653023407015 0 0.0040660705678845785 0.00025268176319365681 0 0.0041250581273466307 0.00030584339386114127 0 0.0039857633679837943 0.0002139989882753426 0 0.0040053639663737073 0.00022509653023407015 0 0.0040204848896261101 0.00024286655671857819 0 0.0041489753974396507 0.00028825141249821571 0 0.0042046016270756012 0.00036636089203974788 0 0.0042333383387463987 0.00037287325142233962 0 0.0040053639663737073 0.00022509653023407015 0 0.0040204848896261101 0.00024286655671857819 0 0.0040592178746009467 0.00019016116198846311 0 0.0040204848896261101 0.00024286655671857819 0 0.0040750455291505222 0.00023599916061297119 0 0.0040592178746009467 0.00019016116198846311 0 0.0040750455291505222 0.00023599916061297119 0 0.0041125732679267585 0.00021987998327610781 0 0.0040592178746009467 0.00019016116198846311 0 0.0041550475976570482 0.00019362082529467698 0 0.0041115347883246599 0.00016095438204148733 0 0.0041125732679267585 0.00021987998327610781 0 0.0040669486994601937 0.00018325257126296848 0 0.0040318772293367706 0.00020451692848729588 0 0.0041115347883246599 0.00016095438204148733 0 0.0041125732679267585 0.00021987998327610781 0 0.0040592178746009467 0.00019016116198846311 0 0.0010149715384276958 -8.2004730850767285e-05 0 0.0011130388998742912 6.3474363615798166e-05 0 0.00074156305644165321 -0.00011594286519496942 0 0.00061814531179738279 -0.00013742161140357532 0 0.00061112515388927124 1.273709083720922e-05 0 0.0010149715384276958 -8.2004730850767285e-05 0 0.001035930327732804 -4.0354589608954913e-08 0 0.00074156305644165321 -0.00011594286519496942 0 0.0010354341761145333 -3.4639685432784326e-07 0 0.00074621162316387151 3.6715049354526757e-06 0 0.0013189814386868712 -5.3112003578468314e-05 0 0.0013845927029980045 -1.2837228997694729e-06 0 0.0012745031785073833 1.7248380434830381e-07 0 0.0013189814386868712 -5.3112003578468314e-05 0 0.0010364331545183981 -3.6119895848772486e-07 0 0.0012745031785073833 1.7248380434830381e-07 0 0.0013189814386868712 -5.3112003578468314e-05 0 0.0013845927029980045 -1.2837228997694729e-06 0 0.0014403819317668118 -6.1800035862384247e-06 0 0.0013189814386868712 -5.3112003578468314e-05 0 0.0014564174709252857 -5.6066935503586477e-05 0 0.0014403819317668118 -6.1800035862384247e-06 0 0.0014564174709252857 -5.6066935503586477e-05 0 0.0014403819317668118 -6.1800035862384247e-06 0 0.0014899764363718127 4.2313684409832423e-05 0 0.0011130388998742912 6.3474363615798166e-05 0 0.001462814210933517 9.771261916028404e-05 0 0.001283829341427781 7.2757072760816206e-05 0 0.0013197983814750361 0.0001155283458220701 0 0.0012926843644936875 0.00016428986401645498 0 0.001283829341427781 7.2757072760816206e-05 0 0.0013552634961470293 8.4692529570079108e-05 0 0.0013197983814750361 0.0001155283458220701 0 0.0013552634961470293 8.4692529570079108e-05 0 0.0013197983814750361 0.0001155283458220701 0 0.0013474370921924446 0.00014022257211696712 0 0.0011130388998742912 6.3474363615798166e-05 0 0.0012412621605511658 0.00018073515091122114 0 0.0010403797296692149 0.0002474475104002103 0 0.0010986995008102362 0.00025935393442592556 0 0.0010743571889094278 0.00020780188986516034 0 0.0010986995008102362 0.00025935393442592556 0 0.0010743571889094278 0.00020780188986516034 0 0.0011211514703884811 0.00020718744326881142 0 0.0010403797296692149 0.0002474475104002103 0 0.0010743571889094278 0.00020780188986516034 0 0.0010353514372083883 0.00018110493843876145 0 0.0011130388998742912 6.3474363615798166e-05 0 0.00078822584254092487 9.411986275619633e-05 0 0.0010353514372083883 0.00018110493843876145 0 0.0010698761915809967 0.00017481654788568588 0 0.0010613860391798435 0.00014192506660325426 0 0.0010743571889094278 0.00020780188986516034 0 0.0010353514372083883 0.00018110493843876145 0 0.0010698761915809967 0.00017481654788568588 0 0.0010743571889094278 0.00020780188986516034 0 0.0010994674449413765 0.00017862646795250656 0 0.0011211514703884811 0.00020718744326881142 0 0.0010743571889094278 0.00020780188986516034 0 0.0010698761915809967 0.00017481654788568588 0 0.0010994674449413765 0.00017862646795250656 0 0.0010698761915809967 0.00017481654788568588 0 0.0010994674449413765 0.00017862646795250656 0 0.0010843871947259825 0.0001539313035957404 0 0.0010994674449413765 0.00017862646795250656 0 0.0010843871947259825 0.0001539313035957404 0 0.0011055580714512691 0.00014599929395786972 0 0.0010698761915809967 0.00017481654788568588 0 0.0010843871947259825 0.0001539313035957404 0 0.0010613860391798435 0.00014192506660325426 0 0.0010843871947259825 0.0001539313035957404 0 0.0010613860391798435 0.00014192506660325426 0 0.0010805402149926717 0.00012718606479217997 0 0.0010843871947259825 0.0001539313035957404 0 0.0010805402149926717 0.00012718606479217997 0 0.0011055580714512691 0.00014599929395786972 0 0.00078822584254092487 9.411986275619633e-05 0 0.00079474415653869271 8.1850589260871405e-05 0 0.0010353514372083883 0.00018110493843876145 0 0.0010613860391798435 0.00014192506660325426 0 0.0010324007302029141 0.00011826735578439943 0 0.00061112515388927124 1.273709083720922e-05 0 0.00061037817199810528 2.9880726723144592e-05 0 0.00053242318459117998 3.7596893915080328e-05 0 0.00074156305644165321 -0.00011594286519496942 0 0.00061112515388927124 1.273709083720922e-05 0 0.00074621162316387151 3.6715049354526757e-06 0 0.00061112515388927124 1.273709083720922e-05 0 0.00061037817199810528 2.9880726723144592e-05 0 0.00074621162316387151 3.6715049354526757e-06 0 0.0010354341761145333 -3.4639685432784326e-07 0 0.00074621162316387151 3.6715049354526757e-06 0 0.00076366681818174152 1.5363090320276868e-07 0 0.00061037817199810528 2.9880726723144592e-05 0 0.00074621162316387151 3.6715049354526757e-06 0 0.00076366681818174152 1.5363090320276868e-07 0 0.00061037817199810528 2.9880726723144592e-05 0 0.00076366681818174152 1.5363090320276868e-07 0 0.00049139232374920355 3.5167630429985108e-08 0 0.00061037817199810528 2.9880726723144592e-05 0 0.00049139232374920355 3.5167630429985108e-08 0 0.00047712085524032294 2.5825342443617649e-05 0 0.00047712085524032294 2.5825342443617649e-05 0 0.00038785093273167648 2.1979123317285221e-05 0 0.00053242318459117998 3.7596893915080328e-05 0 0.00061037817199810528 2.9880726723144592e-05 0 0.00047712085524032294 2.5825342443617649e-05 0 0.00053242318459117998 3.7596893915080328e-05 0 0.00047712085524032294 2.5825342443617649e-05 0 0.00038785093273167648 2.1979123317285221e-05 0 0.00037591737104934205 1.9227782723181324e-05 0 0.00038785093273167648 2.1979123317285221e-05 0 0.00037591737104934205 1.9227782723181324e-05 0 0.00028408629697970511 2.1330839072280787e-05 0 0.00055280880460701308 9.564970664123605e-05 0 0.00060705727716521833 7.9604951705143748e-05 0 0.00049139232374920355 3.5167630429985108e-08 0 0.00047712085524032294 2.5825342443617649e-05 0 0.00037591737104934205 1.9227782723181324e-05 0 0.00049139232374920355 3.5167630429985108e-08 0 0.00037591737104934205 1.9227782723181324e-05 0 0.00021924235349731673 3.9364125200137591e-08 0 0.00037591737104934205 1.9227782723181324e-05 0 0.00021924235349731673 3.9364125200137591e-08 0 0.00028408629697970511 2.1330839072280787e-05 0 0.00021924235349731673 3.9364125200137591e-08 0 0.00028408629697970511 2.1330839072280787e-05 0 0.00014882001360577655 1.5216233592161417e-05 0 0.00028408629697970511 2.1330839072280787e-05 0 0.00022051854998395799 2.1910243678373881e-05 0 0.00036990549422912341 2.381984244911015e-05 0 0.00038785093273167648 2.1979123317285221e-05 0 0.00028408629697970511 2.1330839072280787e-05 0 0.00036990549422912341 2.381984244911015e-05 0 8.6185828770878723e-05 -3.7586375371397227e-06 0 0.00022051854998395799 2.1910243678373881e-05 0 0.00014882001360577655 1.5216233592161417e-05 0 0.00028408629697970511 2.1330839072280787e-05 0 0.00022051854998395799 2.1910243678373881e-05 0 0.00014882001360577655 1.5216233592161417e-05 0 -5.3019531990402212e-05 8.2180847038083317e-08 0 0.00021924235349731673 3.9364125200137591e-08 0 0.00014882001360577655 1.5216233592161417e-05 0 0.00059875810376785392 7.4264446019621727e-05 0 0.0006065321435916954 0.00016576508228367346 0 0.00066848296170564153 0.00011956687542049507 0 0.0006068179043788453 0.00026335314955602265 0 0.00076659552613743604 0.00026047008514327855 0 0.00059875810376785392 7.4264446019621727e-05 0 0.00053755236285062287 0.00012141384191044092 0 0.0006065321435916954 0.00016576508228367346 0 0.00053755236285062287 0.00012141384191044092 0 0.0006065321435916954 0.00016576508228367346 0 0.00054661641493285867 0.00021077174424925782 0 0.0010178950961903716 0.00010820990506664235 0 0.0010130592435820759 8.8714106539823098e-05 0 0.0010343743356875411 8.4120746933060014e-05 0 0.00038304678064982311 6.8807326680285654e-05 0 0.00060705727716521833 7.9604951705143748e-05 0 0.00084849410713085278 0.00011342549436974556 0 0.00060705727716521833 7.9604951705143748e-05 0 0.0010178950961903716 0.00010820990506664235 0 0.00099885542237453085 0.00010953833311105313 0 0.0010130592435820759 8.8714106539823098e-05 0 0.00099885542237453085 0.00010953833311105313 0 0.0010130592435820759 8.8714106539823098e-05 0 0.00098273256214533684 9.4306659309055011e-05 0 0.0010178950961903716 0.00010820990506664235 0 0.00099885542237453085 0.00010953833311105313 0 0.00099316986672970398 0.00013144083444991311 0 0.00084849410713085278 0.00011342549436974556 0 0.00076659552613743604 0.00026047008514327855 0 0.0010529529545321651 7.8625302608703151e-05 0 0.0010194243984902982 0.00017820088796881997 0 0.0010760785884127389 7.2689873905038024e-05 0 0.0010955325656521605 8.7101880395658711e-05 0 0.0011150864706386838 6.4178124212575455e-05 0 0.0010760785884127389 7.2689873905038024e-05 0 0.0010955325656521605 8.7101880395658711e-05 0 0.0010631460111265169 0.00010406036949120753 0 0.00060705727716521833 7.9604951705143748e-05 0 0.00079474415653869271 8.1850589260871405e-05 0 0.0010760785884127389 7.2689873905038024e-05 0 0.0010353136112597888 8.8584339966302699e-05 0 0.0010631460111265169 0.00010406036949120753 0 0.0010353136112597888 8.8584339966302699e-05 0 0.0010343743356875411 8.4120746933060014e-05 0 0.0010324007302029141 0.00011826735578439943 0 0.00038785093273167648 2.1979123317285221e-05 0 0.00038423921508474508 1.9859326965456138e-05 0 0.00053242318459117998 3.7596893915080328e-05 0 0.0010130592435820759 8.8714106539823098e-05 0 0.0010353136112597888 8.8584339966302699e-05 0 0.0010343743356875411 8.4120746933060014e-05 0 0.0010529529545321651 7.8625302608703151e-05 0 0.0010332955589212067 8.7191047714458943e-05 0 0.0010353136112597888 8.8584339966302699e-05 0 0.0010324007302029141 0.00011826735578439943 0 0.0010631460111265169 0.00010406036949120753 0 0.0010613860391798435 0.00014192506660325426 0 0.0010324007302029141 0.00011826735578439943 0 0.0010631460111265169 0.00010406036949120753 0 0.0010805402149926717 0.00012718606479217997 0 0.0011013614767239434 0.00010730733168383047 0 0.0011055580714512691 0.00014599929395786972 0 0.0010613860391798435 0.00014192506660325426 0 0.0010631460111265169 0.00010406036949120753 0 0.0010805402149926717 0.00012718606479217997 0 0.0010955325656521605 8.7101880395658711e-05 0 0.0010631460111265169 0.00010406036949120753 0 0.0011013614767239434 0.00010730733168383047 0 0.0010631460111265169 0.00010406036949120753 0 0.0010805402149926717 0.00012718606479217997 0 0.0011013614767239434 0.00010730733168383047 0 0.0012432814871914822 0.00013124019171116395 0 0.0013570572073964406 0.00015457784803580462 0 0.0011013614767239434 0.00010730733168383047 0 0.0011249344357567798 8.3697547494990745e-05 0 0.0011352219946687712 0.00013872172736714396 0 0.0011136079333405986 0.00012825828331805087 0 0.0012432814871914822 0.00013124019171116395 0 0.0015275381013675907 0.00019168261186693831 0 0.0015558105972563485 0.0002035690140556986 0 0.0015467688798857556 0.00016519826014385901 0 0.0015275381013675907 0.00019168261186693831 0 0.0015189853583471868 0.00016409098493411071 0 0.0015467688798857556 0.00016519826014385901 0 0.0015275381013675907 0.00019168261186693831 0 0.0015558105972563485 0.0002035690140556986 0 0.0015347072809886993 0.00023343273178117312 0 0.0015275381013675907 0.00019168261186693831 0 0.0015347072809886993 0.00023343273178117312 0 0.001499940704010039 0.00021257398898061257 0 0.0012432814871914822 0.00013124019171116395 0 0.0012974234664396836 0.0002703494681570913 0 0.0010955325656521605 8.7101880395658711e-05 0 0.0011187951270813581 8.792827441256208e-05 0 0.0011150864706386838 6.4178124212575455e-05 0 0.0010955325656521605 8.7101880395658711e-05 0 0.0011013614767239434 0.00010730733168383047 0 0.0011187951270813581 8.792827441256208e-05 0 0.0012432814871914822 0.00013124019171116395 0 0.0010194243984902982 0.00017820088796881997 0 0.0011993443661691761 0.00021075589667966525 0 0.0011976414591215905 0.00020093455379862067 0 0.0012124679569277101 0.0001983837609375474 0 0.0010194243984902982 0.00017820088796881997 0 0.00084170067140096208 0.00030292016471989807 0 0.00083764575486754101 0.00040365721690014539 0 0.00084846552660977203 0.00038681747947187829 0 0.00083606163239498569 0.00037590451765555805 0 0.00083764575486754101 0.00040365721690014539 0 0.00083038201293756503 0.00037211750034108517 0 0.00083606163239498569 0.00037590451765555805 0 0.00099885542237453085 0.00010953833311105313 0 0.00098273256214533684 9.4306659309055011e-05 0 0.00098600576871128655 0.0001266518445957432 0 0.00084846552660977203 0.00038681747947187829 0 0.00083606163239498569 0.00037590451765555805 0 0.00084657877895421283 0.00037400139655416591 0 0.0010194243984902982 0.00017820088796881997 0 0.0012974234664396836 0.0002703494681570913 0 0.000863986409768429 0.00039973970657572195 0 0.00085816481928471084 0.0003804718372231084 0 0.00089427494668213364 0.00037712457528380725 0 0.00083764575486754101 0.00040365721690014539 0 0.00084846552660977203 0.00038681747947187829 0 0.000863986409768429 0.00039973970657572195 0 0.00084846552660977203 0.00038681747947187829 0 0.000863986409768429 0.00039973970657572195 0 0.00085816481928471084 0.0003804718372231084 0 0.00084846552660977203 0.00038681747947187829 0 0.00085816481928471084 0.0003804718372231084 0 0.00084657877895421283 0.00037400139655416591 0 0.00086104080061391326 0.00035956002346396583 0 0.00084221015785734506 0.00036284617671761672 0 0.00084657877895421283 0.00037400139655416591 0 0.00085816481928471084 0.0003804718372231084 0 0.00086104080061391326 0.00035956002346396583 0 0.00089427494668213364 0.00037712457528380725 0 0.00085816481928471084 0.0003804718372231084 0 0.00086104080061391326 0.00035956002346396583 0 0.00084657877895421283 0.00037400139655416591 0 0.00084382297675144539 0.00034766891976318085 0 0.00086104080061391326 0.00035956002346396583 0 0.00084221015785734506 0.00036284617671761672 0 0.0006507701475089192 0.00036056666829906186 0 0.00075660164429380069 0.00040698168907560137 0 0.00065552021789281191 0.00048255575927048082 0 0.00078415115267222986 0.00038979863206901091 0 0.00076659552613743604 0.00026047008514327855 0 0.00084382297675144539 0.00034766891976318085 0 0.00084221015785734506 0.00036284617671761672 0 0.00082899520702604107 0.00036825587002470479 0 0.00084382297675144539 0.00034766891976318085 0 0.00082899520702604107 0.00036825587002470479 0 0.00082249155965952213 0.00036685786586049349 0 0.00082899520702604107 0.00036825587002470479 0 0.00082958979793869595 0.00037183727826384445 0 0.00083673512228943446 0.00037054557574385755 0 0.00099885542237453085 0.00010953833311105313 0 0.00099316986672970398 0.00013144083444991311 0 0.00098600576871128655 0.0001266518445957432 0 0.00084220254220753377 0.00031256918691048753 0 0.00084170067140096208 0.00030292016471989807 0 0.00082899520702604107 0.00036825587002470479 0 0.00082249155965952213 0.00036685786586049349 0 0.00082948943195552711 0.00037127703369334308 0 0.00076659552613743604 0.00026047008514327855 0 0.00084170067140096208 0.00030292016471989807 0 0.00084170067140096208 0.00030292016471989807 0 0.00084908291217872841 0.00031914603230632962 0 0.00082958979793869595 0.00037183727826384445 0 0.00083606163239498569 0.00037590451765555805 0 0.00083673512228943446 0.00037054557574385755 0 0.00083606163239498569 0.00037590451765555805 0 0.00084657877895421283 0.00037400139655416591 0 0.00083673512228943446 0.00037054557574385755 0 0.00084221015785734506 0.00036284617671761672 0 0.00082899520702604107 0.00036825587002470479 0 0.00083673512228943446 0.00037054557574385755 0 0.00084221015785734506 0.00036284617671761672 0 0.00084657877895421283 0.00037400139655416591 0 0.00083673512228943446 0.00037054557574385755 0 0.0013486509762215936 0.00030471402499271133 0 0.0013607668046849506 0.00029965410309976289 0 0.0014015104460317594 0.00028439098971071533 0 0.0014559380453840131 0.00033366508636534453 0 0.0014585466690406025 0.00028732837722674891 0 0.0014970220807697366 0.00027887055235346583 0 0.0014585466690406025 0.00028732837722674891 0 0.0014682072007825026 0.00025354262310744823 0 0.0014015104460317594 0.00028439098971071533 0 0.0014585466690406025 0.00028732837722674891 0 0.0014970220807697366 0.00027887055235346583 0 0.0014682072007825026 0.00025354262310744823 0 0.0014559380453840131 0.00033366508636534453 0 0.0014585466690406025 0.00028732837722674891 0 0.0014015104460317594 0.00028439098971071533 0 0.0012974767646114407 0.00032619478336768661 0 0.0014188505309536764 0.00029948180575325794 0 0.0012974767646114407 0.00032619478336768661 0 0.001165481594403178 0.00034963297779797562 0 0.00089388758639361596 0.00034667902419726563 0 0.00094012265660287238 0.00034257770676496448 0 0.00089427494668213364 0.00037712457528380725 0 0.00089388758639361596 0.00034667902419726563 0 0.00086104080061391326 0.00035956002346396583 0 0.00089427494668213364 0.00037712457528380725 0 0.0015347072809886993 0.00023343273178117312 0 0.0014682072007825026 0.00025354262310744823 0 0.001499940704010039 0.00021257398898061257 0 0.0012974234664396836 0.0002703494681570913 0 0.001165481594403178 0.00034963297779797562 0 0.0015250600391520904 0.00024656683668879608 0 0.0014970220807697366 0.00027887055235346583 0 0.0014682072007825026 0.00025354262310744823 0 0.0012974234664396836 0.0002703494681570913 0 0.0015713111436541055 0.00023660861605721069 0 0.0014682072007825026 0.00025354262310744823 0 0.0014658007099775845 0.00020985122497666495 0 0.001426386986766638 0.00023970748785079546 0 0.0014682072007825026 0.00025354262310744823 0 0.0014658007099775845 0.00020985122497666495 0 0.001499940704010039 0.00021257398898061257 0 0.0014658007099775845 0.00020985122497666495 0 0.001499940704010039 0.00021257398898061257 0 0.0015011196911570021 0.00018243655212191542 0 0.0015275381013675907 0.00019168261186693831 0 0.0015011196911570021 0.00018243655212191542 0 0.0015189853583471868 0.00016409098493411071 0 0.0015275381013675907 0.00019168261186693831 0 0.001499940704010039 0.00021257398898061257 0 0.0015011196911570021 0.00018243655212191542 0 0.0014658007099775845 0.00020985122497666495 0 0.0015011196911570021 0.00018243655212191542 0 0.0014732716538592031 0.00017625082107837895 0 0.0015011196911570021 0.00018243655212191542 0 0.0015000177379115088 0.00015842800117784264 0 0.0014732716538592031 0.00017625082107837895 0 0.0015000177379115088 0.00015842800117784264 0 0.0015124793378153212 0.00013786155374948485 0 0.0014909246674845087 0.00014697562162957527 0 0.0015000177379115088 0.00015842800117784264 0 0.0015124793378153212 0.00013786155374948485 0 0.0015157545455703545 0.00014688935745889959 0 0.0015124793378153212 0.00013786155374948485 0 0.0015211596824650003 0.00013743120923234231 0 0.0015157545455703545 0.00014688935745889959 0 0.0015211596824650003 0.00013743120923234231 0 0.0015157545455703545 0.00014688935745889959 0 0.0015272733332970829 0.00014838756990675941 0 0.0015157545455703545 0.00014688935745889959 0 0.0015189853583471868 0.00016409098493411071 0 0.0015272733332970829 0.00014838756990675941 0 0.0015011196911570021 0.00018243655212191542 0 0.0015000177379115088 0.00015842800117784264 0 0.0015189853583471868 0.00016409098493411071 0 0.0015000177379115088 0.00015842800117784264 0 0.0015157545455703545 0.00014688935745889959 0 0.0015189853583471868 0.00016409098493411071 0 0.0015189853583471868 0.00016409098493411071 0 0.0015467688798857556 0.00016519826014385901 0 0.0015272733332970829 0.00014838756990675941 0 0.0011013614767239434 0.00010730733168383047 0 0.0011352219946687712 0.00013872172736714396 0 0.0011055580714512691 0.00014599929395786972 0 0.0011352219946687712 0.00013872172736714396 0 0.0011055580714512691 0.00014599929395786972 0 0.001133669024555079 0.00017552695823659019 0 0.0013570572073964406 0.00015457784803580462 0 0.0012619320358272753 0.00018373704251747433 0 0.0011352219946687712 0.00013872172736714396 0 0.001133669024555079 0.00017552695823659019 0 0.0011482857676083692 0.00019212941441181723 0 0.0010994674449413765 0.00017862646795250656 0 0.0011055580714512691 0.00014599929395786972 0 0.001133669024555079 0.00017552695823659019 0 0.0011740659478603717 0.00015230630105103333 0 0.0012619320358272753 0.00018373704251747433 0 0.001133669024555079 0.00017552695823659019 0 0.0011520398746603521 0.00019333846553580143 0 0.0011211514703884811 0.00020718744326881142 0 0.0011520398746603521 0.00019333846553580143 0 0.0011548961462678575 0.00020321222198590571 0 0.0011211514703884811 0.00020718744326881142 0 0.0010994674449413765 0.00017862646795250656 0 0.001133669024555079 0.00017552695823659019 0 0.0011211514703884811 0.00020718744326881142 0 0.0015467688798857556 0.00016519826014385901 0 0.0015272733332970829 0.00014838756990675941 0 0.0015365942821274812 0.00013965481625097235 0 0.0015211596824650003 0.00013743120923234231 0 0.0015272733332970829 0.00014838756990675941 0 0.0015365942821274812 0.00013965481625097235 0 0.0012619320358272753 0.00018373704251747433 0 0.0012470866350591436 0.0001861125216979033 0 0.0015211596824650003 0.00013743120923234231 0 0.0015365942821274812 0.00013965481625097235 0 0.0015241773431630239 0.00013122158951304528 0 0.0012619320358272753 0.00018373704251747433 0 0.0013631859687404033 0.00018796077001107965 0 0.0011526235489856004 0.00019195017251595861 0 0.0011548961462678575 0.00020321222198590571 0 0.0011934751795427451 0.00023591362677659639 0 0.0011548961462678575 0.00020321222198590571 0 0.0011619183825397907 0.00023738313588678522 0 0.0011934751795427451 0.00023591362677659639 0 0.0011619183825397907 0.00023738313588678522 0 0.0011934751795427451 0.00023591362677659639 0 0.0011624457791191136 0.00027338108590529514 0 0.0011619183825397907 0.00023738313588678522 0 0.0011371136417659235 0.00023859959733754516 0 0.0011624457791191136 0.00027338108590529514 0 0.0010986995008102362 0.00025935393442592556 0 0.0011211514703884811 0.00020718744326881142 0 0.0011371136417659235 0.00023859959733754516 0 0.0011548961462678575 0.00020321222198590571 0 0.0011619183825397907 0.00023738313588678522 0 0.0011371136417659235 0.00023859959733754516 0 0.0011548961462678575 0.00020321222198590571 0 0.0011211514703884811 0.00020718744326881142 0 0.0011371136417659235 0.00023859959733754516 0 0.0012412621605511658 0.00018073515091122114 0 0.0012810052435829437 0.00018344775305127238 0 0.0013552634961470293 8.4692529570079108e-05 0 0.0014263772117333253 9.6313939510775287e-05 0 0.0014068256435239312 0.00014324198911430251 0 0.0010986995008102362 0.00025935393442592556 0 0.0011371136417659235 0.00023859959733754516 0 0.0011624457791191136 0.00027338108590529514 0 0.0014263772117333253 9.6313939510775287e-05 0 0.0014978184751392482 0.00010831810490997365 0 0.0014593979446438582 0.00013011457346063821 0 0.0012810052435829437 0.00018344775305127238 0 0.0014235254201838785 0.00018570979841939046 0 0.0011934751795427451 0.00023591362677659639 0 0.0011624457791191136 0.00027338108590529514 0 0.0012348974850401339 0.00028506919640595806 0 0.0015241773431630239 0.00013122158951304528 0 0.0015207701648917939 0.00013229294216266199 0 0.0015198839594551935 0.00013396962861184664 0 0.0013631859687404033 0.00018796077001107965 0 0.0014235254201838785 0.00018570979841939046 0 0.0015207701648917939 0.00013229294216266199 0 0.0015198839594551935 0.00013396962861184664 0 0.0015210474429629833 0.00013631071429437148 0 0.0014235254201838785 0.00018570979841939046 0 0.0014890021661192248 0.00017761096183524755 0 0.0015210474429629833 0.00013631071429437148 0 0.0015271456358222223 0.00013161405190327823 0 0.0015336925144051653 0.00014179151211789179 0 0.0015271456358222223 0.00013161405190327823 0 0.0015478102517470819 0.00013762475029229748 0 0.0015336925144051653 0.00014179151211789179 0 0.0015207701648917939 0.00013229294216266199 0 0.0015210474429629833 0.00013631071429437148 0 0.0015271456358222223 0.00013161405190327823 0 0.0015207701648917939 0.00013229294216266199 0 0.0015271456358222223 0.00013161405190327823 0 0.0015198238151630614 0.00013179290342630242 0 0.0015271456358222223 0.00013161405190327823 0 0.0015198238151630614 0.00013179290342630242 0 0.0015208072140587977 0.00013058217320172384 0 0.0015271456358222223 0.00013161405190327823 0 0.0015208072140587977 0.00013058217320172384 0 0.0015332529814581217 0.00012939040524623452 0 0.0015124793378153212 0.00013786155374948485 0 0.0015208072140587977 0.00013058217320172384 0 0.0015141380148086959 0.00013180309447305649 0 0.0015124793378153212 0.00013786155374948485 0 0.0015198238151630614 0.00013179290342630242 0 0.0015208072140587977 0.00013058217320172384 0 0.0015211596824650003 0.00013743120923234231 0 0.0015241773431630239 0.00013122158951304528 0 0.0015198238151630614 0.00013179290342630242 0 0.0015124793378153212 0.00013786155374948485 0 0.0015211596824650003 0.00013743120923234231 0 0.0015198238151630614 0.00013179290342630242 0 0.0015241773431630239 0.00013122158951304528 0 0.0015207701648917939 0.00013229294216266199 0 0.0015198238151630614 0.00013179290342630242 0 0.0015144167553068327 0.0001276608384930138 0 0.0015577272883530917 0.00013161333253041828 0 0.0015453163235904079 0.00012204009664970413 0 0.0015144167553068327 0.0001276608384930138 0 0.0015453163235904079 0.00012204009664970413 0 0.001500130655980994 0.0001256971697996139 0 0.0015144167553068327 0.0001276608384930138 0 0.0015332529814581217 0.00012939040524623452 0 0.0015577272883530917 0.00013161333253041828 0 0.0015144167553068327 0.0001276608384930138 0 0.0015141380148086959 0.00013180309447305649 0 0.0015332529814581217 0.00012939040524623452 0 0.0015208072140587977 0.00013058217320172384 0 0.0015141380148086959 0.00013180309447305649 0 0.0015332529814581217 0.00012939040524623452 0 0.0015271456358222223 0.00013161405190327823 0 0.0015332529814581217 0.00012939040524623452 0 0.0015478102517470819 0.00013762475029229748 0 0.0015332529814581217 0.00012939040524623452 0 0.0015478102517470819 0.00013762475029229748 0 0.0015577272883530917 0.00013161333253041828 0 0.0015577272883530917 0.00013161333253041828 0 0.0015453163235904079 0.00012204009664970413 0 0.0015985094913718808 0.00014491142982728551 0 0.0015453163235904079 0.00012204009664970413 0 0.0015764824169651219 0.00012089617811737721 0 0.0015985094913718808 0.00014491142982728551 0 0.0015453163235904079 0.00012204009664970413 0 0.0015764824169651219 0.00012089617811737721 0 0.0015191177222861193 0.00011186619205101172 0 0.0015764824169651219 0.00012089617811737721 0 0.0015322235910645201 0.00010888753825833665 0 0.0015994972732189122 0.00011555759820411419 0 0.0015764824169651219 0.00012089617811737721 0 0.0015191177222861193 0.00011186619205101172 0 0.0015322235910645201 0.00010888753825833665 0 0.0015060604649979202 0.00011031236822764896 0 0.0014529255973795483 0.00011877582654620756 0 0.0015191177222861193 0.00011186619205101172 0 0.0015123666898820499 0.00010595266744190778 0 0.0015322235910645201 0.00010888753825833665 0 0.0015453163235904079 0.00012204009664970413 0 0.0015191177222861193 0.00011186619205101172 0 0.001500130655980994 0.0001256971697996139 0 0.0015191177222861193 0.00011186619205101172 0 0.001500130655980994 0.0001256971697996139 0 0.0014363115223165451 0.00014424007881840394 0 0.001500130655980994 0.0001256971697996139 0 0.0014363115223165451 0.00014424007881840394 0 0.0014708020173673092 0.00014647465085383549 0 0.0015191177222861193 0.00011186619205101172 0 0.0014363115223165451 0.00014424007881840394 0 0.0013925653356973882 0.00012318085096893144 0 0.0014363115223165451 0.00014424007881840394 0 0.0013646118982667207 0.00017708294918523902 0 0.0013925653356973882 0.00012318085096893144 0 0.0014363115223165451 0.00014424007881840394 0 0.0014079588985154662 0.00018126881615872039 0 0.0013646118982667207 0.00017708294918523902 0 0.0014363115223165451 0.00014424007881840394 0 0.0014708020173673092 0.00014647465085383549 0 0.0014079588985154662 0.00018126881615872039 0 0.0014708020173673092 0.00014647465085383549 0 0.0014493779688336029 0.00017434275505541318 0 0.0014079588985154662 0.00018126881615872039 0 0.0014708020173673092 0.00014647465085383549 0 0.0014909246674845087 0.00014697562162957527 0 0.0014493779688336029 0.00017434275505541318 0 0.0015144167553068327 0.0001276608384930138 0 0.0014708020173673092 0.00014647465085383549 0 0.0014909246674845087 0.00014697562162957527 0 0.0015144167553068327 0.0001276608384930138 0 0.001500130655980994 0.0001256971697996139 0 0.0014708020173673092 0.00014647465085383549 0 0.0015144167553068327 0.0001276608384930138 0 0.0015141380148086959 0.00013180309447305649 0 0.0014909246674845087 0.00014697562162957527 0 0.0015124793378153212 0.00013786155374948485 0 0.0015141380148086959 0.00013180309447305649 0 0.0014909246674845087 0.00014697562162957527 0 0.0014909246674845087 0.00014697562162957527 0 0.0014732716538592031 0.00017625082107837895 0 0.0014493779688336029 0.00017434275505541318 0 0.0015000177379115088 0.00015842800117784264 0 0.0014909246674845087 0.00014697562162957527 0 0.0014732716538592031 0.00017625082107837895 0 0.0014732716538592031 0.00017625082107837895 0 0.0014493779688336029 0.00017434275505541318 0 0.0014316575882142143 0.00020768650611889555 0 0.0014658007099775845 0.00020985122497666495 0 0.0014732716538592031 0.00017625082107837895 0 0.0014316575882142143 0.00020768650611889555 0 0.0014493779688336029 0.00017434275505541318 0 0.0014316575882142143 0.00020768650611889555 0 0.001387892474663291 0.00022141469756871215 0 0.0014316575882142143 0.00020768650611889555 0 0.001426386986766638 0.00023970748785079546 0 0.0013866458261565056 0.00025147407377320365 0 0.0014316575882142143 0.00020768650611889555 0 0.0013866458261565056 0.00025147407377320365 0 0.001387892474663291 0.00022141469756871215 0 0.0014658007099775845 0.00020985122497666495 0 0.0014316575882142143 0.00020768650611889555 0 0.001426386986766638 0.00023970748785079546 0 0.0014682072007825026 0.00025354262310744823 0 0.001426386986766638 0.00023970748785079546 0 0.0014015104460317594 0.00028439098971071533 0 0.001426386986766638 0.00023970748785079546 0 0.0013866458261565056 0.00025147407377320365 0 0.0014015104460317594 0.00028439098971071533 0 0.0013866458261565056 0.00025147407377320365 0 0.001366621070473731 0.00028444092605052371 0 0.0013527362413869608 0.00026363778266880493 0 0.0013866458261565056 0.00025147407377320365 0 0.001366621070473731 0.00028444092605052371 0 0.0014015104460317594 0.00028439098971071533 0 0.0013618154613386784 0.00029947592790500826 0 0.001366621070473731 0.00028444092605052371 0 0.0014015104460317594 0.00028439098971071533 0 0.0013618154613386784 0.00029947592790500826 0 0.0013607668046849506 0.00029965410309976289 0 0.0014015104460317594 0.00028439098971071533 0 0.0012883533737549702 0.00030043091454967923 0 0.0013182005444258257 0.00028027139636514114 0 0.0012871885590036594 0.00027380445397063994 0 0.0013182005444258257 0.00028027139636514114 0 0.0013326918470275358 0.00025095269122130657 0 0.0012871885590036594 0.00027380445397063994 0 0.001366621070473731 0.00028444092605052371 0 0.0013375272900014578 0.0002881485954303777 0 0.0013527362413869608 0.00026363778266880493 0 0.0013182005444258257 0.00028027139636514114 0 0.0013375272900014578 0.0002881485954303777 0 0.0013527362413869608 0.00026363778266880493 0 0.0013866458261565056 0.00025147407377320365 0 0.0013527362413869608 0.00026363778266880493 0 0.001387892474663291 0.00022141469756871215 0 0.0013527362413869608 0.00026363778266880493 0 0.0013326918470275358 0.00025095269122130657 0 0.001387892474663291 0.00022141469756871215 0 0.0013182005444258257 0.00028027139636514114 0 0.0013527362413869608 0.00026363778266880493 0 0.0013326918470275358 0.00025095269122130657 0 0.0013326918470275358 0.00025095269122130657 0 0.0013537930315317553 0.00021906534538902858 0 0.001387892474663291 0.00022141469756871215 0 0.0013326918470275358 0.00025095269122130657 0 0.0013537930315317553 0.00021906534538902858 0 0.0013026508330088627 0.00024174064950807712 0 0.0013537930315317553 0.00021906534538902858 0 0.001387892474663291 0.00022141469756871215 0 0.0014079588985154662 0.00018126881615872039 0 0.0014493779688336029 0.00017434275505541318 0 0.001387892474663291 0.00022141469756871215 0 0.0014079588985154662 0.00018126881615872039 0 0.0013537930315317553 0.00021906534538902858 0 0.0014079588985154662 0.00018126881615872039 0 0.0013646118982667207 0.00017708294918523902 0 0.0013537930315317553 0.00021906534538902858 0 0.0013646118982667207 0.00017708294918523902 0 0.0013099636068802179 0.00020802341039209189 0 0.0013646118982667207 0.00017708294918523902 0 0.0013099636068802179 0.00020802341039209189 0 0.0013113901436856963 0.00015826812706138061 0 0.0013099636068802179 0.00020802341039209189 0 0.0012547302476316729 0.00020026210202116101 0 0.0013113901436856963 0.00015826812706138061 0 0.0013029490829139501 0.00019914170444398341 0 0.0013835774286430577 0.00015037596883368267 0 0.0013099636068802179 0.00020802341039209189 0 0.0012645860294787027 0.00023213605169758786 0 0.0012547302476316729 0.00020026210202116101 0 0.0013099636068802179 0.00020802341039209189 0 0.0012645860294787027 0.00023213605169758786 0 0.0013026508330088627 0.00024174064950807712 0 0.0013537930315317553 0.00021906534538902858 0 0.0013099636068802179 0.00020802341039209189 0 0.0013026508330088627 0.00024174064950807712 0 0.0013026508330088627 0.00024174064950807712 0 0.0012648778734059153 0.00025318434531925788 0 0.0012871885590036594 0.00027380445397063994 0 0.0013326918470275358 0.00025095269122130657 0 0.0013026508330088627 0.00024174064950807712 0 0.0012871885590036594 0.00027380445397063994 0 0.0012648778734059153 0.00025318434531925788 0 0.0012339301069052573 0.00027767534962874828 0 0.0012280631772557094 0.00025566352993832629 0 0.0012645860294787027 0.00023213605169758786 0 0.0013026508330088627 0.00024174064950807712 0 0.0012648778734059153 0.00025318434531925788 0 0.0012645860294787027 0.00023213605169758786 0 0.0012648778734059153 0.00025318434531925788 0 0.0012280631772557094 0.00025566352993832629 0 0.0012648778734059153 0.00025318434531925788 0 0.0012339301069052573 0.00027767534962874828 0 0.0012871885590036594 0.00027380445397063994 0 0.0012522867811472513 0.00029803193923499022 0 0.0012339301069052573 0.00027767534962874828 0 0.0012871885590036594 0.00027380445397063994 0 0.0011189953719979693 0.00029308725944350822 0 0.00118365036666451 0.0002861218491319462 0 0.0011784028768719078 0.00026105957415049154 0 0.00118365036666451 0.0002861218491319462 0 0.0012280631772557094 0.00025566352993832629 0 0.0011784028768719078 0.00026105957415049154 0 0.0012339301069052573 0.00027767534962874828 0 0.00118365036666451 0.0002861218491319462 0 0.0012280631772557094 0.00025566352993832629 0 0.0012645860294787027 0.00023213605169758786 0 0.0012280631772557094 0.00025566352993832629 0 0.0012255370412460583 0.00023858406393438864 0 0.0012280631772557094 0.00025566352993832629 0 0.0011784028768719078 0.00026105957415049154 0 0.0012255370412460583 0.00023858406393438864 0 0.0011699146304038344 0.00022820195537177497 0 0.0011784028768719078 0.00026105957415049154 0 0.0012255370412460583 0.00023858406393438864 0 0.0011699146304038344 0.00022820195537177497 0 0.0012255370412460583 0.00023858406393438864 0 0.0012422408845908235 0.00016857747141524614 0 0.0012645860294787027 0.00023213605169758786 0 0.0012255370412460583 0.00023858406393438864 0 0.0012547302476316729 0.00020026210202116101 0 0.0012372423925311651 0.00023627372688026275 0 0.0013029490829139501 0.00019914170444398341 0 0.001350225266685372 0.0002030414636278255 0 0.0012422408845908235 0.00016857747141524614 0 0.0013573865506586672 0.00013725170997905617 0 0.0012255370412460583 0.00023858406393438864 0 0.001350225266685372 0.0002030414636278255 0 0.0012422408845908235 0.00016857747141524614 0 0.0012110499349897287 9.1179625100182543e-05 0 0.0012422408845908235 0.00016857747141524614 0 0.0013065599529865619 7.3167704477332683e-05 0 0.0013065599529865619 7.3167704477332683e-05 0 0.0012387767060400589 2.2027246474677488e-05 0 0.001314160634674423 -1.35694555949519e-05 0 0.0012110499349897287 9.1179625100182543e-05 0 0.0013065599529865619 7.3167704477332683e-05 0 0.0012387767060400589 2.2027246474677488e-05 0 0.0013065599529865619 7.3167704477332683e-05 0 0.0013573865506586672 0.00013725170997905617 0 0.0014328085229886398 8.2964710909554275e-05 0 0.0013065599529865619 7.3167704477332683e-05 0 0.0014328085229886398 8.2964710909554275e-05 0 0.001314160634674423 -1.35694555949519e-05 0 0.0012422408845908235 0.00016857747141524614 0 0.0013065599529865619 7.3167704477332683e-05 0 0.0013573865506586672 0.00013725170997905617 0 0.001350225266685372 0.0002030414636278255 0 0.0013573865506586672 0.00013725170997905617 0 0.0014562746282878393 0.00014201762764905239 0 0.0013573865506586672 0.00013725170997905617 0 0.0014562746282878393 0.00014201762764905239 0 0.0014328085229886398 8.2964710909554275e-05 0 0.0013646118982667207 0.00017708294918523902 0 0.0013113901436856963 0.00015826812706138061 0 0.0013925653356973882 0.00012318085096893144 0 0.0013835774286430577 0.00015037596883368267 0 0.0014529255973795483 0.00011877582654620756 0 0.0014562746282878393 0.00014201762764905239 0 0.0015123666898820499 0.00010595266744190778 0 0.0014328085229886398 8.2964710909554275e-05 0 0.0014328085229886398 8.2964710909554275e-05 0 0.0015322235910645201 0.00010888753825833665 0 0.001495405333215262 0.00010250552864660115 0 0.0015123666898820499 0.00010595266744190778 0 0.0014328085229886398 8.2964710909554275e-05 0 0.0015322235910645201 0.00010888753825833665 0 0.0015322235910645201 0.00010888753825833665 0 0.001495405333215262 0.00010250552864660115 0 0.0015319510307513244 9.1494846707619655e-05 0 0.0013891329259813614 -7.9301242136634357e-05 0 0.001301579830484995 -9.6313118982347261e-05 0 0.0013170855416272747 -0.00015505896270760617 0 0.0013891329259813614 -7.9301242136634357e-05 0 0.001301579830484995 -9.6313118982347261e-05 0 0.001314160634674423 -1.35694555949519e-05 0 0.001301579830484995 -9.6313118982347261e-05 0 0.0012817433987669504 -0.00013670908397928996 0 0.0013170855416272747 -0.00015505896270760617 0 0.0012546149622187199 -0.00011131151436295206 0 0.001301579830484995 -9.6313118982347261e-05 0 0.0012817433987669504 -0.00013670908397928996 0 0.0012546149622187199 -0.00011131151436295206 0 0.001301579830484995 -9.6313118982347261e-05 0 0.0012443142942659689 -4.9725178997479181e-05 0 0.001301579830484995 -9.6313118982347261e-05 0 0.0012443142942659689 -4.9725178997479181e-05 0 0.001314160634674423 -1.35694555949519e-05 0 0.0012387767060400589 2.2027246474677488e-05 0 0.0012443142942659689 -4.9725178997479181e-05 0 0.001314160634674423 -1.35694555949519e-05 0 0.0014328085229886398 8.2964710909554275e-05 0 0.0013891329259813614 -7.9301242136634357e-05 0 0.001314160634674423 -1.35694555949519e-05 0 0.0014361673634044403 8.0380039849228544e-05 0 0.0014430233231789416 2.0181420843910886e-05 0 0.0015003621955758713 7.7321521867744725e-05 0 0.0015227845542767169 4.5111448307470189e-05 0 0.0014948772320297636 2.5419026662109581e-05 0 0.001359081468359674 -0.00019841625071216601 0 0.0013410958910687462 -0.00030078900101453062 0 0.0013275791341259989 -0.00026810144206266634 0 0.0013181919779458695 -0.0002183718246699081 0 0.001359081468359674 -0.00019841625071216601 0 0.0013275791341259989 -0.00026810144206266634 0 0.0014119378072212823 -8.1878455623802051e-05 0 0.0015532255741129194 -5.1141026355672511e-05 0 0.0016293364434191583 -0.00017143009390130137 0 0.0015564363499900693 -0.00017734174216773257 0 0.001530765618560875 -0.00013297201621051744 0 0.0017723972925040008 -4.1600821060566604e-05 0 0.0017517800299811188 -1.0451851866153412e-05 0 0.0017236300708546289 -2.2412597316656208e-05 0 0.0013181919779458695 -0.0002183718246699081 0 0.0013275791341259989 -0.00026810144206266634 0 0.0013196958632261185 -0.00026539393764108646 0 0.0018640791064185125 -0.00013273672630364567 0 0.0014957661034978641 -0.00015847633363192681 0 0.0013960150902988812 -0.00021682327869548471 0 0.0014957661034978641 -0.00015847633363192681 0 0.001300921851754574 -0.00023748670610051578 0 0.0013181919779458695 -0.0002183718246699081 0 0.0013196958632261185 -0.00026539393764108646 0 0.0013960150902988812 -0.00021682327869548471 0 0.0012706897379511117 -0.00018646299724486571 0 0.0015594600351442139 -0.00019133424336691316 0 0.0013960150902988812 -0.00021682327869548471 0 0.0012516638148931853 -0.00021982819857280106 0 0.0013175840012252778 -0.00027353226883825124 0 0.0012724537623316182 -0.00019844252983174459 0 0.0016293364434191583 -0.00017143009390130137 0 0.0016216821710547168 -0.00023117289255344825 0 0.0015564363499900693 -0.00017734174216773257 0 0.001300921851754574 -0.00023748670610051578 0 0.0013181919779458695 -0.0002183718246699081 0 0.0012636219158552817 -0.0001856427021929845 0 0.0012546149622187199 -0.00011131151436295206 0 0.0012636219158552817 -0.0001856427021929845 0 0.0012817433987669504 -0.00013670908397928996 0 0.0013181919779458695 -0.0002183718246699081 0 0.0012636219158552817 -0.0001856427021929845 0 0.0013170855416272747 -0.00015505896270760617 0 0.0012636219158552817 -0.0001856427021929845 0 0.0012817433987669504 -0.00013670908397928996 0 0.0013170855416272747 -0.00015505896270760617 0 0.0014430233231789416 2.0181420843910886e-05 0 0.0014119378072212823 -8.1878455623802051e-05 0 0.0013891329259813614 -7.9301242136634357e-05 0 0.0013170855416272747 -0.00015505896270760617 0 0.001359081468359674 -0.00019841625071216601 0 0.0013181919779458695 -0.0002183718246699081 0 0.0013170855416272747 -0.00015505896270760617 0 0.001359081468359674 -0.00019841625071216601 0 0.001495405333215262 0.00010250552864660115 0 0.0015003621955758713 7.7321521867744725e-05 0 0.0015319510307513244 9.1494846707619655e-05 0 0.0015322235910645201 0.00010888753825833665 0 0.0015319510307513244 9.1494846707619655e-05 0 0.0015994972732189122 0.00011555759820411419 0 0.0015319510307513244 9.1494846707619655e-05 0 0.0015616557702675263 5.0657709755621869e-05 0 0.0015994972732189122 0.00011555759820411419 0 0.0016373253709625806 0.0001212967262385278 0 0.0016100628090057606 0.00011751613484154061 0 0.0015319510307513244 9.1494846707619655e-05 0 0.0015616557702675263 5.0657709755621869e-05 0 0.0015227845542767169 4.5111448307470189e-05 0 0.0015003621955758713 7.7321521867744725e-05 0 0.0015319510307513244 9.1494846707619655e-05 0 0.0015227845542767169 4.5111448307470189e-05 0 0.0015227845542767169 4.5111448307470189e-05 0 0.0015405408207442343 1.4830819118939391e-05 0 0.0015178804837118528 2.2839602369004983e-05 0 0.0015616557702675263 5.0657709755621869e-05 0 0.0015227845542767169 4.5111448307470189e-05 0 0.0015405408207442343 1.4830819118939391e-05 0 0.0016373253709625806 0.0001212967262385278 0 0.0016442414610339062 0.00011300866340376275 0 0.0017161619709254216 0.00018086728780200066 0 0.0017580693042533999 0.00022407076536766295 0 0.001729863427272677 0.00022678079418200623 0 0.0017580693042533999 0.00022407076536766295 0 0.0017593823577588933 0.00023619654113392642 0 0.001729863427272677 0.00022678079418200623 0 0.0017593823577588933 0.00023619654113392642 0 0.0017625564846342934 0.00023908576230009392 0 0.001729863427272677 0.00022678079418200623 0 0.0016442414610339062 0.00011300866340376275 0 0.0016712913613349352 0.00013821682460172355 0 0.0015405408207442343 1.4830819118939391e-05 0 0.0015178804837118528 2.2839602369004983e-05 0 0.0015106424320810677 2.9147009821497306e-06 0 0.0017580693042533999 0.00022407076536766295 0 0.0017593823577588933 0.00023619654113392642 0 0.0017614985506522129 0.00023895817278863436 0 0.0015405408207442343 1.4830819118939391e-05 0 0.0015106424320810677 2.9147009821497306e-06 0 0.0015246744759602401 -1.8147781847466368e-05 0 0.0016080436387665928 2.4549230864587913e-05 0 0.0016712913613349352 0.00013821682460172355 0 0.0015532255741129194 -5.1141026355672511e-05 0 0.001749015985921883 9.9374934719807171e-05 0 0.0017003541096399263 5.0286246817120303e-05 0 0.0017169360438682956 1.8851624506831186e-05 0 0.0017288275864959703 8.2676645401048651e-05 0 0.0016080436387665928 2.4549230864587913e-05 0 0.0015532255741129194 -5.1141026355672511e-05 0 0.0015178804837118528 2.2839602369004983e-05 0 0.0015106424320810677 2.9147009821497306e-06 0 0.0014948772320297636 2.5419026662109581e-05 0 0.0015532255741129194 -5.1141026355672511e-05 0 0.0014957661034978641 -0.00015847633363192681 0 0.0013410958910687462 -0.00030078900101453062 0 0.0013275791341259989 -0.00026810144206266634 0 0.0013203130217746013 -0.0002650989682946134 0 0.0015227845542767169 4.5111448307470189e-05 0 0.0015178804837118528 2.2839602369004983e-05 0 0.0014948772320297636 2.5419026662109581e-05 0 0.0017792663050438047 3.6799362008527163e-05 0 0.0017517800299811188 -1.0451851866153412e-05 0 0.0017454792768517044 1.4365736104046956e-05 0 0.0017517800299811188 -1.0451851866153412e-05 0 0.0017324218233749824 -3.3020766787940921e-06 0 0.0017236300708546289 -2.2412597316656208e-05 0 0.0017090453220847074 5.0033895268233403e-06 0 0.0017324218233749824 -3.3020766787940921e-06 0 0.0017236300708546289 -2.2412597316656208e-05 0 0.0014762450423224847 -0.00015807737577827179 0 0.0014957661034978641 -0.00015847633363192681 0 0.0017517800299811188 -1.0451851866153412e-05 0 0.0017324218233749824 -3.3020766787940921e-06 0 0.0017454792768517044 1.4365736104046956e-05 0 0.0017090453220847074 5.0033895268233403e-06 0 0.0017324218233749824 -3.3020766787940921e-06 0 0.0017454792768517044 1.4365736104046956e-05 0 0.0017090453220847074 5.0033895268233403e-06 0 0.0017454792768517044 1.4365736104046956e-05 0 0.0017246360452880462 8.0719068642692981e-05 0 0.0017792663050438047 3.6799362008527163e-05 0 0.0017454792768517044 1.4365736104046956e-05 0 0.0017246360452880462 8.0719068642692981e-05 0 0.0017792663050438047 3.6799362008527163e-05 0 0.0017818075052148698 0.00010735095095166991 0 0.0017246360452880462 8.0719068642692981e-05 0 0.0017003541096399263 5.0286246817120303e-05 0 0.0017288275864959703 8.2676645401048651e-05 0 0.0016840527519960023 8.1385179810198965e-05 0 0.0017248758366429733 0.00016573618940328867 0 0.0016712913613349352 0.00013821682460172355 0 0.0017288275864959703 8.2676645401048651e-05 0 0.0017037719206358457 0.00012064019175333027 0 0.0016840527519960023 8.1385179810198965e-05 0 0.0017288275864959703 8.2676645401048651e-05 0 0.0017037719206358457 0.00012064019175333027 0 0.0017394311858214806 0.00014221574193849332 0 0.0017248758366429733 0.00016573618940328867 0 0.0017238996645055479 0.0001600135047177073 0 0.001749015985921883 9.9374934719807171e-05 0 0.0017322690983068926 0.00013102750408316508 0 0.0017818075052148698 0.00010735095095166991 0 0.0017246360452880462 8.0719068642692981e-05 0 0.0017394311858214806 0.00014221574193849332 0 0.0017818075052148698 0.00010735095095166991 0 0.0017585361949390586 0.00015877446026689099 0 0.0017394311858214806 0.00014221574193849332 0 0.0017371360983932157 0.00015567248795526705 0 0.0017262350950359442 0.00016156231987366547 0 0.0017295683229453808 0.0001562027550771058 0 0.0017585361949390586 0.00015877446026689099 0 0.0017371360983932157 0.00015567248795526705 0 0.0017295683229453808 0.0001562027550771058 0 0.0017371360983932157 0.00015567248795526705 0 0.0017394311858214806 0.00014221574193849332 0 0.0017262350950359442 0.00016156231987366547 0 0.0017585361949390586 0.00015877446026689099 0 0.0017371360983932157 0.00015567248795526705 0 0.0017394311858214806 0.00014221574193849332 0 0.0017262350950359442 0.00016156231987366547 0 0.0017333682766953889 0.00015361310936676386 0 0.0017502665917770485 0.00017702646951723295 0 0.0017037719206358457 0.00012064019175333027 0 0.0017394311858214806 0.00014221574193849332 0 0.0017262350950359442 0.00016156231987366547 0 0.0017374845831446639 0.0002006878534013956 0 0.0017262350950359442 0.00016156231987366547 0 0.0017502665917770485 0.00017702646951723295 0 0.0017262350950359442 0.00016156231987366547 0 0.0017295683229453808 0.0001562027550771058 0 0.0017333682766953889 0.00015361310936676386 0 0.0017295683229453808 0.0001562027550771058 0 0.0017333682766953889 0.00015361310936676386 0 0.0017224389468560464 0.00014940708593913122 0 0.0017333682766953889 0.00015361310936676386 0 0.0017224389468560464 0.00014940708593913122 0 0.0017326931606693452 0.0001040420794267874 0 0.0017585361949390586 0.00015877446026689099 0 0.0017720719811364829 0.00016020632665752742 0 0.0017678083481046118 0.00015995968624043347 0 0.0017585361949390586 0.00015877446026689099 0 0.0017295683229453808 0.0001562027550771058 0 0.0017224389468560464 0.00014940708593913122 0 0.0017665991887680554 0.00014612418772706669 0 0.0017277412837762534 0.00017753803664221886 0 0.0017864696758242979 0.00013315631781724057 0 0.0017880395282814387 0.00018650637907618255 0 0.0018370782922062672 0.00016705524253550055 0 0.0017864696758242979 0.00013315631781724057 0 0.0017545828724503413 0.00015224036756640249 0 0.0017880395282814387 0.00018650637907618255 0 0.0017864696758242979 0.00013315631781724057 0 0.0017545828724503413 0.00015224036756640249 0 0.0017326931606693452 0.0001040420794267874 0 0.0017333682766953889 0.00015361310936676386 0 0.0017545828724503413 0.00015224036756640249 0 0.0017326931606693452 0.0001040420794267874 0 0.0017333682766953889 0.00015361310936676386 0 0.0017545828724503413 0.00015224036756640249 0 0.0017502665917770485 0.00017702646951723295 0 0.0017502665917770485 0.00017702646951723295 0 0.0017880395282814387 0.00018650637907618255 0 0.0017669677959278888 0.00020115244852313214 0 0.0017545828724503413 0.00015224036756640249 0 0.0017502665917770485 0.00017702646951723295 0 0.0017880395282814387 0.00018650637907618255 0 0.0017857176879279293 0.00018477633992406524 0 0.0017681067142573102 0.00022446920444819476 0 0.0017880395282814387 0.00018650637907618255 0 0.0017606295302115063 0.0002276583364976297 0 0.001789376475543296 0.00023472458873864896 0 0.0017606295302115063 0.0002276583364976297 0 0.0017644470221934417 0.0002383336320725583 0 0.001789376475543296 0.00023472458873864896 0 0.0017374845831446639 0.0002006878534013956 0 0.0017502665917770485 0.00017702646951723295 0 0.0017669677959278888 0.00020115244852313214 0 0.0017374845831446639 0.0002006878534013956 0 0.0017669677959278888 0.00020115244852313214 0 0.0017496220657966903 0.00022760228992218262 0 0.0017593823577588933 0.00023619654113392642 0 0.0017614985506522129 0.00023895817278863436 0 0.0017644470221934417 0.0002383336320725583 0 0.0017606295302115063 0.0002276583364976297 0 0.0017614985506522129 0.00023895817278863436 0 0.0017644470221934417 0.0002383336320725583 0 0.0017681067142573102 0.00022446920444819476 0 0.0016712913613349352 0.00013821682460172355 0 0.0017644470221934417 0.0002383336320725583 0 0.0017625564846342934 0.00023908576230009392 0 0.001789376475543296 0.00023472458873864896 0 0.0017593823577588933 0.00023619654113392642 0 0.0017644470221934417 0.0002383336320725583 0 0.0017625564846342934 0.00023908576230009392 0 0.0017625564846342934 0.00023908576230009392 0 0.0017785625022102545 0.00024286104105130402 0 0.001789376475543296 0.00023472458873864896 0 0.0018373454962922733 0.00022975141225357881 0 0.001917349952707982 0.00021523767649503738 0 0.0018619189893623982 0.00025208703675518029 0 0.0017785625022102545 0.00024286104105130402 0 0.0018373454962922733 0.00022975141225357881 0 0.0018619189893623982 0.00025208703675518029 0 0.0017880395282814387 0.00018650637907618255 0 0.0018373454962922733 0.00022975141225357881 0 0.001789376475543296 0.00023472458873864896 0 0.0017785625022102545 0.00024286104105130402 0 0.0018373454962922733 0.00022975141225357881 0 0.001789376475543296 0.00023472458873864896 0 0.0017880395282814387 0.00018650637907618255 0 0.0018373454962922733 0.00022975141225357881 0 0.0018370782922062672 0.00016705524253550055 0 0.0018373454962922733 0.00022975141225357881 0 0.0018370782922062672 0.00016705524253550055 0 0.001917349952707982 0.00021523767649503738 0 0.0019044021800141895 0.000143212426420972 0 0.001917349952707982 0.00021523767649503738 0 0.0020003769717760254 8.8308651291133853e-05 0 0.0019044021800141895 0.000143212426420972 0 0.0018370782922062672 0.00016705524253550055 0 0.001917349952707982 0.00021523767649503738 0 0.0019044021800141895 0.000143212426420972 0 0.0018370782922062672 0.00016705524253550055 0 0.0018800387627958596 8.1184970830743542e-05 0 0.0017864696758242979 0.00013315631781724057 0 0.0018370782922062672 0.00016705524253550055 0 0.0018800387627958596 8.1184970830743542e-05 0 0.0021490164498865123 0.00020402564468552698 0 0.0022873191574560529 0.00013142521490890936 0 0.0021193981210724591 0.00011242388738677324 0 0.0021490164498865123 0.00020402564468552698 0 0.0019575415656549423 0.00027290083703962107 0 0.0021193981210724591 0.00011242388738677324 0 0.001917349952707982 0.00021523767649503738 0 0.0020003769717760254 8.8308651291133853e-05 0 0.0021193981210724591 0.00011242388738677324 0 0.001917349952707982 0.00021523767649503738 0 0.0019575415656549423 0.00027290083703962107 0 0.0021193981210724591 0.00011242388738677324 0 0.001917349952707982 0.00021523767649503738 0 0.0019575415656549423 0.00027290083703962107 0 0.0018619189893623982 0.00025208703675518029 0 0.0021490164498865123 0.00020402564468552698 0 0.0019575415656549423 0.00027290083703962107 0 0.002218415711433862 0.00046430428158053674 0 0.0019575415656549423 0.00027290083703962107 0 0.0018619189893623982 0.00025208703675518029 0 0.0018087803012945399 0.00024824086666291124 0 0.0019478962633092116 0.0002741423478819104 0 0.0020286525158934587 0.00035769351346383234 0 0.0018619189893623982 0.00025208703675518029 0 0.0017951323286705511 0.00022710741222239727 0 0.0017548394324524122 0.00022555401909215065 0 0.0017785625022102545 0.00024286104105130402 0 0.0018619189893623982 0.00025208703675518029 0 0.0017548394324524122 0.00022555401909215065 0 0.0018619189893623982 0.00025208703675518029 0 0.0017951323286705511 0.00022710741222239727 0 0.0018087803012945399 0.00024824086666291124 0 0.0017951323286705511 0.00022710741222239727 0 0.0017632826953495992 0.00022298813864707684 0 0.0017548394324524122 0.00022555401909215065 0 0.0017951323286705511 0.00022710741222239727 0 0.00178349813321291 0.00022508586501369352 0 0.0017632826953495992 0.00022298813864707684 0 0.00178349813321291 0.00022508586501369352 0 0.0017632826953495992 0.00022298813864707684 0 0.0017835228998297496 0.00023067998745653995 0 0.0016504536143700827 0.00020728612306500469 0 0.0015660905900088521 0.00022718820629873696 0 0.0015530588489117015 0.00026452652936439879 0 0.0016821770743254577 0.00020857174452501711 0 0.0016047063668081269 0.0002306712446799732 0 0.0017632826953495992 0.00022298813864707684 0 0.0016504536143700827 0.00020728612306500469 0 0.0017835228998297496 0.00023067998745653995 0 0.0016963640462176759 0.0002139368058002103 0 0.0017548394324524122 0.00022555401909215065 0 0.0016504536143700827 0.00020728612306500469 0 0.0017632826953495992 0.00022298813864707684 0 0.0017548394324524122 0.00022555401909215065 0 0.0016504536143700827 0.00020728612306500469 0 0.0016963640462176759 0.0002139368058002103 0 0.0017548394324524122 0.00022555401909215065 0 0.001731035709333123 0.00022534648750859571 0 0.0017785625022102545 0.00024286104105130402 0 0.001731035709333123 0.00022534648750859571 0 0.001729863427272677 0.00022678079418200623 0 0.0017785625022102545 0.00024286104105130402 0 0.0017548394324524122 0.00022555401909215065 0 0.001731035709333123 0.00022534648750859571 0 0.0017625564846342934 0.00023908576230009392 0 0.0017785625022102545 0.00024286104105130402 0 0.001729863427272677 0.00022678079418200623 0 0.0017161619709254216 0.00018086728780200066 0 0.001729863427272677 0.00022678079418200623 0 0.0016484326011293958 0.00016649005483713531 0 0.001729863427272677 0.00022678079418200623 0 0.0016921401079814751 0.00020599653004814384 0 0.0016484326011293958 0.00016649005483713531 0 0.001731035709333123 0.00022534648750859571 0 0.001729863427272677 0.00022678079418200623 0 0.0016921401079814751 0.00020599653004814384 0 0.0016963640462176759 0.0002139368058002103 0 0.001731035709333123 0.00022534648750859571 0 0.0016921401079814751 0.00020599653004814384 0 0.0016963640462176759 0.0002139368058002103 0 0.0016921401079814751 0.00020599653004814384 0 0.0016533611935027758 0.00018550838791712515 0 0.0016921401079814751 0.00020599653004814384 0 0.0016533611935027758 0.00018550838791712515 0 0.0016484326011293958 0.00016649005483713531 0 0.0016533611935027758 0.00018550838791712515 0 0.0016484326011293958 0.00016649005483713531 0 0.0015985094913718808 0.00014491142982728551 0 0.0017161619709254216 0.00018086728780200066 0 0.0016484326011293958 0.00016649005483713531 0 0.0015994972732189122 0.00011555759820411419 0 0.0015764824169651219 0.00012089617811737721 0 0.0016484326011293958 0.00016649005483713531 0 0.0015994972732189122 0.00011555759820411419 0 0.0015764824169651219 0.00012089617811737721 0 0.0016484326011293958 0.00016649005483713531 0 0.0015985094913718808 0.00014491142982728551 0 0.0015577272883530917 0.00013161333253041828 0 0.0015985094913718808 0.00014491142982728551 0 0.0015960013868995596 0.0001597635947823581 0 0.0016533611935027758 0.00018550838791712515 0 0.0015985094913718808 0.00014491142982728551 0 0.0015960013868995596 0.0001597635947823581 0 0.001552906421708164 0.00015746237230829918 0 0.0015960013868995596 0.0001597635947823581 0 0.0015583892081939791 0.00018954348685177317 0 0.0015478102517470819 0.00013762475029229748 0 0.0015577272883530917 0.00013161333253041828 0 0.0015960013868995596 0.0001597635947823581 0 0.0015478102517470819 0.00013762475029229748 0 0.001552906421708164 0.00015746237230829918 0 0.0015960013868995596 0.0001597635947823581 0 0.0016504536143700827 0.00020728612306500469 0 0.0015583892081939791 0.00018954348685177317 0 0.0015660905900088521 0.00022718820629873696 0 0.0015960013868995596 0.0001597635947823581 0 0.0016504536143700827 0.00020728612306500469 0 0.0015583892081939791 0.00018954348685177317 0 0.0016963640462176759 0.0002139368058002103 0 0.0016533611935027758 0.00018550838791712515 0 0.0016504536143700827 0.00020728612306500469 0 0.0016533611935027758 0.00018550838791712515 0 0.0015960013868995596 0.0001597635947823581 0 0.0016504536143700827 0.00020728612306500469 0 0.0015142643160585723 0.00020306130297319358 0 0.001467601759525575 0.00016851279224868094 0 0.0014549302157963325 0.00022355633851814074 0 0.0015142643160585723 0.00020306130297319358 0 0.0015089716706367987 0.00017176858760648502 0 0.001467601759525575 0.00016851279224868094 0 0.0015142643160585723 0.00020306130297319358 0 0.0015449265942186373 0.00021797957198884887 0 0.0015583892081939791 0.00018954348685177317 0 0.0015142643160585723 0.00020306130297319358 0 0.0015583892081939791 0.00018954348685177317 0 0.0015089716706367987 0.00017176858760648502 0 0.0015449265942186373 0.00021797957198884887 0 0.0015583892081939791 0.00018954348685177317 0 0.0015660905900088521 0.00022718820629873696 0 0.0015583892081939791 0.00018954348685177317 0 0.0015301099209094346 0.00015144843111662397 0 0.0015089716706367987 0.00017176858760648502 0 0.001552906421708164 0.00015746237230829918 0 0.0015583892081939791 0.00018954348685177317 0 0.001525686367029393 0.00015637092469102386 0 0.0015536919458287537 0.0001848932676829118 0 0.0015279634995013817 0.00015513444319228709 0 0.0015478102517470819 0.00013762475029229748 0 0.001552906421708164 0.00015746237230829918 0 0.0015336925144051653 0.00014179151211789179 0 0.001552906421708164 0.00015746237230829918 0 0.001525686367029393 0.00015637092469102386 0 0.0015336925144051653 0.00014179151211789179 0 0.0015210474429629833 0.00013631071429437148 0 0.001525686367029393 0.00015637092469102386 0 0.0015336925144051653 0.00014179151211789179 0 0.0014235254201838785 0.00018570979841939046 0 0.0015279634995013817 0.00015513444319228709 0 0.0015119491700737134 0.00013474812435679916 0 0.0015210474429629833 0.00013631071429437148 0 0.001525686367029393 0.00015637092469102386 0 0.0014978184751392482 0.00010831810490997365 0 0.0015301099209094346 0.00015144843111662397 0 0.0014935323676071586 0.00014496074816383698 0 0.0015301099209094346 0.00015144843111662397 0 0.0015089716706367987 0.00017176858760648502 0 0.0014935323676071586 0.00014496074816383698 0 0.0015089716706367987 0.00017176858760648502 0 0.0014935323676071586 0.00014496074816383698 0 0.001467601759525575 0.00016851279224868094 0 0.0014935323676071586 0.00014496074816383698 0 0.0014593979446438582 0.00013011457346063821 0 0.001467601759525575 0.00016851279224868094 0 0.0014978184751392482 0.00010831810490997365 0 0.0014935323676071586 0.00014496074816383698 0 0.0014593979446438582 0.00013011457346063821 0 0.0014593979446438582 0.00013011457346063821 0 0.001467601759525575 0.00016851279224868094 0 0.0014068256435239312 0.00014324198911430251 0 0.0014263772117333253 9.6313939510775287e-05 0 0.0014593979446438582 0.00013011457346063821 0 0.0014068256435239312 0.00014324198911430251 0 0.001467601759525575 0.00016851279224868094 0 0.0014068256435239312 0.00014324198911430251 0 0.0014257482877797409 0.00018244649793638096 0 0.0013552634961470293 8.4692529570079108e-05 0 0.0014068256435239312 0.00014324198911430251 0 0.0013474370921924446 0.00014022257211696712 0 0.0014068256435239312 0.00014324198911430251 0 0.001373975685006801 0.0001942388137194921 0 0.0013474370921924446 0.00014022257211696712 0 0.0015421621140588892 0.00024291074801757891 0 0.0015529971524998445 0.00025622277954076279 0 0.001546063810252369 0.00025507719914428503 0 0.0014476737671902558 0.00022937318240015 0 0.0015059403021937378 0.00023834095064887388 0 0.0014068256435239312 0.00014324198911430251 0 0.001373975685006801 0.0001942388137194921 0 0.0014257482877797409 0.00018244649793638096 0 0.0015421621140588892 0.00024291074801757891 0 0.001546063810252369 0.00025507719914428503 0 0.0015293055982928735 0.00024903823812489153 0 0.001373975685006801 0.0001942388137194921 0 0.0014257482877797409 0.00018244649793638096 0 0.0014549302157963325 0.00022355633851814074 0 0.001467601759525575 0.00016851279224868094 0 0.0014257482877797409 0.00018244649793638096 0 0.0014549302157963325 0.00022355633851814074 0 0.0015529971524998445 0.00025622277954076279 0 0.0015505102778330879 0.0002573843599810081 0 0.001546063810252369 0.00025507719914428503 0 0.0015529971524998445 0.00025622277954076279 0 0.0015505102778330879 0.0002573843599810081 0 0.0015519553581701657 0.00025787391971681463 0 0.0015505102778330879 0.0002573843599810081 0 0.0015519553581701657 0.00025787391971681463 0 0.0015530240580509927 0.00025997848760962483 0 0.0015529971524998445 0.00025622277954076279 0 0.0015519553581701657 0.00025787391971681463 0 0.0015489445006666022 0.00025674431517903114 0 0.001546063810252369 0.00025507719914428503 0 0.0015446422693382788 0.00025716225252134673 0 0.0015293055982928735 0.00024903823812489153 0 0.0015446422693382788 0.00025716225252134673 0 0.0015456748270396645 0.00025907890783795058 0 0.0015293055982928735 0.00024903823812489153 0 0.001546063810252369 0.00025507719914428503 0 0.0015446422693382788 0.00025716225252134673 0 0.0015458035261109509 0.00025924305687443066 0 0.0017480400100775724 0.00025197025355978299 0 0.0017961894119003059 0.00021512810020584314 0 0.0015505102778330879 0.0002573843599810081 0 0.0015466967257812276 0.00025702705774667615 0 0.0015530240580509927 0.00025997848760962483 0 0.0015505102778330879 0.0002573843599810081 0 0.001546063810252369 0.00025507719914428503 0 0.0015466967257812276 0.00025702705774667615 0 0.0017961894119003059 0.00021512810020584314 0 0.002068117757400408 0.00042857626049808427 0 0.0017821103213991399 0.00021202890821152881 0 0.0017961894119003059 0.00021512810020584314 0 0.0017961894119003059 0.00021512810020584314 0 0.0023839091208911894 0.00030214039687776048 0 0.0024746397402509949 0.00050289161866532252 0 0.0025131614658573482 0.00053705319360748227 0 0.0024703937219835719 0.00055382466041700956 0 0.0025131614658573482 0.00053705319360748227 0 0.0025130820061093863 0.0005416008713170008 0 0.0024703937219835719 0.00055382466041700956 0 0.0015519553581701657 0.00025787391971681463 0 0.0015530240580509927 0.00025997848760962483 0 0.0015518796351136096 0.00025915096857533326 0 0.002068117757400408 0.00042857626049808427 0 0.0020159581645061582 0.00039630757706240918 0 0.0015530240580509927 0.00025997848760962483 0 0.0015518796351136096 0.00025915096857533326 0 0.0015528981942831794 0.00025906139019630538 0 0.0025131614658573482 0.00053705319360748227 0 0.0025130820061093863 0.0005416008713170008 0 0.0024754972161143292 0.00053237884065821461 0 0.0015512954319169207 0.00025986562815896291 0 0.0015518796351136096 0.00025915096857533326 0 0.0015528981942831794 0.00025906139019630538 0 0.0015512954319169207 0.00025986562815896291 0 0.0015489445006666022 0.00025674431517903114 0 0.0015530588489117015 0.00026452652936439879 0 0.0015512954319169207 0.00025986562815896291 0 0.0015530588489117015 0.00026452652936439879 0 0.0015528981942831794 0.00025906139019630538 0 0.0015519553581701657 0.00025787391971681463 0 0.0015518796351136096 0.00025915096857533326 0 0.0015489445006666022 0.00025674431517903114 0 0.0015512954319169207 0.00025986562815896291 0 0.0015518796351136096 0.00025915096857533326 0 0.0015489445006666022 0.00025674431517903114 0 0.0015142643160585723 0.00020306130297319358 0 0.0014549302157963325 0.00022355633851814074 0 0.0015450558094273132 0.00025409947764851946 0 0.0015529971524998445 0.00025622277954076279 0 0.0015489445006666022 0.00025674431517903114 0 0.0015450558094273132 0.00025409947764851946 0 0.0015059403021937378 0.00023834095064887388 0 0.0015420380869784164 0.00025368156598900671 0 0.0015489445006666022 0.00025674431517903114 0 0.0015450558094273132 0.00025409947764851946 0 0.0015530588489117015 0.00026452652936439879 0 0.0015449265942186373 0.00021797957198884887 0 0.0015660905900088521 0.00022718820629873696 0 0.0015450558094273132 0.00025409947764851946 0 0.0015142643160585723 0.00020306130297319358 0 0.0015449265942186373 0.00021797957198884887 0 0.0015450558094273132 0.00025409947764851946 0 0.0015660905900088521 0.00022718820629873696 0 0.0015450558094273132 0.00025409947764851946 0 0.0015530588489117015 0.00026452652936439879 0 0.0017835228998297496 0.00023067998745653995 0 0.0017901091427021416 0.0002290848449697266 0 0.00178711144970888 0.00023082411490682269 0 0.0016047063668081269 0.0002306712446799732 0 0.0020159581645061582 0.00039630757706240918 0 0.00178349813321291 0.00022508586501369352 0 0.0017835228998297496 0.00023067998745653995 0 0.0017901091427021416 0.0002290848449697266 0 0.0017951323286705511 0.00022710741222239727 0 0.00178349813321291 0.00022508586501369352 0 0.0017901091427021416 0.0002290848449697266 0 0.0017951323286705511 0.00022710741222239727 0 0.0017901091427021416 0.0002290848449697266 0 0.0018087803012945399 0.00024824086666291124 0 0.0017901091427021416 0.0002290848449697266 0 0.00178711144970888 0.00023082411490682269 0 0.0018087803012945399 0.00024824086666291124 0 0.0020159581645061582 0.00039630757706240918 0 0.0020286525158934587 0.00035769351346383234 0 0.0023992814791395064 0.00059248503533139755 0 0.0024017378255280614 0.00045369149640772834 0 0.002218415711433862 0.00046430428158053674 0 0.0024017378255280614 0.00045369149640772834 0 0.002218415711433862 0.00046430428158053674 0 0.0023696027743556128 0.0003528745549856387 0 0.0024017378255280614 0.00045369149640772834 0 0.0023696027743556128 0.0003528745549856387 0 0.0024742128095065147 0.0003574153120198952 0 0.002218415711433862 0.00046430428158053674 0 0.0023026705401523709 0.00026314268367265734 0 0.0023696027743556128 0.0003528745549856387 0 0.0021490164498865123 0.00020402564468552698 0 0.002218415711433862 0.00046430428158053674 0 0.0023026705401523709 0.00026314268367265734 0 0.0023696027743556128 0.0003528745549856387 0 0.0024387372197965788 0.00023588997154657461 0 0.0024742128095065147 0.0003574153120198952 0 0.0023026705401523709 0.00026314268367265734 0 0.0023696027743556128 0.0003528745549856387 0 0.0024387372197965788 0.00023588997154657461 0 0.0023026705401523709 0.00026314268367265734 0 0.0024387372197965788 0.00023588997154657461 0 0.0022873191574560529 0.00013142521490890936 0 0.0024387372197965788 0.00023588997154657461 0 0.0022873191574560529 0.00013142521490890936 0 0.0024400554340626682 8.044688020279575e-05 0 0.0021490164498865123 0.00020402564468552698 0 0.0023026705401523709 0.00026314268367265734 0 0.0022873191574560529 0.00013142521490890936 0 0.0026152837878938985 0.00022140018272016657 0 0.0026609234139860095 0.00023109558354012668 0 0.0026697566104297234 0.00019203339545591637 0 0.0026609234139860095 0.00023109558354012668 0 0.0026697566104297234 0.00019203339545591637 0 0.0026858095052899773 0.00022032170632226965 0 0.0026152837878938985 0.00022140018272016657 0 0.0026697566104297234 0.00019203339545591637 0 0.0026346674090560853 0.00013973150126535161 0 0.0026697566104297234 0.00019203339545591637 0 0.0026346674090560853 0.00013973150126535161 0 0.0026969578884153719 0.00013088771749387288 0 0.0026152837878938985 0.00022140018272016657 0 0.0026346674090560853 0.00013973150126535161 0 0.0025458561329313764 0.00016189457707312262 0 0.0024387372197965788 0.00023588997154657461 0 0.0025458561329313764 0.00016189457707312262 0 0.0024400554340626682 8.044688020279575e-05 0 0.0024387372197965788 0.00023588997154657461 0 0.0025458561329313764 0.00016189457707312262 0 0.0025500424807078791 0.00024433843136993042 0 0.0026152837878938985 0.00022140018272016657 0 0.0025458561329313764 0.00016189457707312262 0 0.0025500424807078791 0.00024433843136993042 0 0.0025500424807078791 0.00024433843136993042 0 0.0025331828031832557 0.00030888695294425874 0 0.0026057531745815299 0.00030542500295526733 0 0.0024387372197965788 0.00023588997154657461 0 0.0024742128095065147 0.0003574153120198952 0 0.0025331828031832557 0.00030888695294425874 0 0.0024387372197965788 0.00023588997154657461 0 0.0025500424807078791 0.00024433843136993042 0 0.0025331828031832557 0.00030888695294425874 0 0.0024742128095065147 0.0003574153120198952 0 0.0025331828031832557 0.00030888695294425874 0 0.0025790245778630891 0.00037469196330059171 0 0.0026057531745815299 0.00030542500295526733 0 0.0026438520516800703 0.00034576917786454157 0 0.0025790245778630891 0.00037469196330059171 0 0.0025331828031832557 0.00030888695294425874 0 0.0026057531745815299 0.00030542500295526733 0 0.0025790245778630891 0.00037469196330059171 0 0.0026152837878938985 0.00022140018272016657 0 0.0025500424807078791 0.00024433843136993042 0 0.0026057531745815299 0.00030542500295526733 0 0.0026152837878938985 0.00022140018272016657 0 0.0026057531745815299 0.00030542500295526733 0 0.0026474236496005846 0.00026703273348337663 0 0.0026609234139860095 0.00023109558354012668 0 0.0026474236496005846 0.00026703273348337663 0 0.0026821672647636408 0.0002518856493874437 0 0.0026152837878938985 0.00022140018272016657 0 0.0026609234139860095 0.00023109558354012668 0 0.0026474236496005846 0.00026703273348337663 0 0.0026057531745815299 0.00030542500295526733 0 0.0026474236496005846 0.00026703273348337663 0 0.0026442539404587838 0.00030518798277106803 0 0.0026474236496005846 0.00026703273348337663 0 0.0026771933873267892 0.00028698131469876201 0 0.0026821672647636408 0.0002518856493874437 0 0.0026474236496005846 0.00026703273348337663 0 0.0026442539404587838 0.00030518798277106803 0 0.0026771933873267892 0.00028698131469876201 0 0.0026706204979758822 0.00031820229061400222 0 0.0026442539404587838 0.00030518798277106803 0 0.0026771933873267892 0.00028698131469876201 0 0.0026706204979758822 0.00031820229061400222 0 0.0026442539404587838 0.00030518798277106803 0 0.0026438520516800703 0.00034576917786454157 0 0.0026057531745815299 0.00030542500295526733 0 0.0026442539404587838 0.00030518798277106803 0 0.0026438520516800703 0.00034576917786454157 0 0.0026706204979758822 0.00031820229061400222 0 0.0026438520516800703 0.00034576917786454157 0 0.0026772680018471665 0.00034634001646436898 0 0.0026438520516800703 0.00034576917786454157 0 0.002644946451169292 0.00040153649279646664 0 0.0025790245778630891 0.00037469196330059171 0 0.0026438520516800703 0.00034576917786454157 0 0.0026676903747864995 0.000370222505853753 0 0.0026772680018471665 0.00034634001646436898 0 0.0026438520516800703 0.00034576917786454157 0 0.0026676903747864995 0.000370222505853753 0 0.002644946451169292 0.00040153649279646664 0 0.002644946451169292 0.00040153649279646664 0 0.0025790245778630891 0.00037469196330059171 0 0.0025937947792891124 0.00043776081537237274 0 0.0025790245778630891 0.00037469196330059171 0 0.0025937947792891124 0.00043776081537237274 0 0.0025325503993320875 0.00046816514777684771 0 0.002644946451169292 0.00040153649279646664 0 0.0025937947792891124 0.00043776081537237274 0 0.0026318365821619682 0.00045588321384763049 0 0.002644946451169292 0.00040153649279646664 0 0.0026318365821619682 0.00045588321384763049 0 0.0027045921918547049 0.00038232579362589155 0 0.0024017378255280614 0.00045369149640772834 0 0.0024742128095065147 0.0003574153120198952 0 0.0025325503993320875 0.00046816514777684771 0 0.0024742128095065147 0.0003574153120198952 0 0.0025790245778630891 0.00037469196330059171 0 0.0025325503993320875 0.00046816514777684771 0 0.0025130820061093863 0.0005416008713170008 0 0.0025325503993320875 0.00046816514777684771 0 0.0025787549330990567 0.0004976492936257876 0 0.0023992814791395064 0.00059248503533139755 0 0.0024017378255280614 0.00045369149640772834 0 0.0025325503993320875 0.00046816514777684771 0 0.0025130820061093863 0.0005416008713170008 0 0.0024754972161143292 0.00053237884065821461 0 0.0025325503993320875 0.00046816514777684771 0 0.0020159581645061582 0.00039630757706240918 0 0.0026224803773178332 0.00046130335165092191 0 0.0025130820061093863 0.0005416008713170008 0 0.0025787549330990567 0.0004976492936257876 0 0.0026470730273776481 0.00054619078806625125 0 0.0026318365821619682 0.00045588321384763049 0 0.0026470730273776481 0.00054619078806625125 0 0.0027045921918547049 0.00038232579362589155 0 0.0025767230462382671 0.00057555736149578034 0 0.0023839091208911894 0.00030214039687776048 0 0.0026318365821619682 0.00045588321384763049 0 0.0025787549330990567 0.0004976492936257876 0 0.0026470730273776481 0.00054619078806625125 0 0.0025937947792891124 0.00043776081537237274 0 0.0026318365821619682 0.00045588321384763049 0 0.0025787549330990567 0.0004976492936257876 0 0.0025937947792891124 0.00043776081537237274 0 0.0025325503993320875 0.00046816514777684771 0 0.0025787549330990567 0.0004976492936257876 0 0.0026983144182381054 -0.00020239690662858759 0 0.0026388590589515124 -0.00013759669976000531 0 0.002658283747239058 -5.4422616473942134e-05 0 0.0023839091208911894 0.00030214039687776048 0 0.0020053110269747745 -0.00015142638894458007 0 0.0023839091208911894 0.00030214039687776048 0 0.0027380910299814 0.00038178596121792702 0 0.0023839091208911894 0.00030214039687776048 0 0.002724768247677257 8.5614449331740554e-05 0 0.0026983144182381054 -0.00020239690662858759 0 0.0026388590589515124 -0.00013759669976000531 0 0.0025585100862785979 -0.00019429499830023511 0 0.001553303116244331 -5.3608208749341237e-05 0 0.0016746031355303669 -8.1064325019814104e-05 0 0.0015760438781890788 1.1627892545747942e-05 0 0.0026388590589515124 -0.00013759669976000531 0 0.0025585100862785979 -0.00019429499830023511 0 0.0025810719278861155 -9.7513666422288189e-05 0 0.0025585100862785979 -0.00019429499830023511 0 0.0024830946167469269 -8.4662766788979571e-05 0 0.0025810719278861155 -9.7513666422288189e-05 0 0.0024830946167469269 -8.4662766788979571e-05 0 0.0025810719278861155 -9.7513666422288189e-05 0 0.00256661415211617 -3.6950831570139513e-05 0 0.0025810719278861155 -9.7513666422288189e-05 0 0.00256661415211617 -3.6950831570139513e-05 0 0.0026125040178427783 -5.8902150278853773e-05 0 0.00256661415211617 -3.6950831570139513e-05 0 0.0026125040178427783 -5.8902150278853773e-05 0 0.0026159583898722914 -2.9447716609029211e-05 0 0.0024830946167469269 -8.4662766788979571e-05 0 0.00256661415211617 -3.6950831570139513e-05 0 0.0024929585486534313 -8.0927269421819894e-07 0 0.0026648661579421816 0.00042587323508540173 0 0.0027193458547116068 0.00031671249778812981 0 0.002720755478845492 0.00032560541661905688 0 0.0026388590589515124 -0.00013759669976000531 0 0.0026286824630715371 -8.9954611376133408e-05 0 0.002658283747239058 -5.4422616473942134e-05 0 0.0026388590589515124 -0.00013759669976000531 0 0.0025810719278861155 -9.7513666422288189e-05 0 0.0026286824630715371 -8.9954611376133408e-05 0 0.0025810719278861155 -9.7513666422288189e-05 0 0.0026286824630715371 -8.9954611376133408e-05 0 0.0026125040178427783 -5.8902150278853773e-05 0 0.0026286824630715371 -8.9954611376133408e-05 0 0.0026336430186341174 -6.1871692534147153e-05 0 0.0026125040178427783 -5.8902150278853773e-05 0 0.0026286824630715371 -8.9954611376133408e-05 0 0.0026336430186341174 -6.1871692534147153e-05 0 0.002658283747239058 -5.4422616473942134e-05 0 0.0026340367347595151 -4.5388721227532422e-05 0 0.002658283747239058 -5.4422616473942134e-05 0 0.0026439895376097556 -2.218000946407057e-05 0 0.0026336430186341174 -6.1871692534147153e-05 0 0.0026340367347595151 -4.5388721227532422e-05 0 0.002658283747239058 -5.4422616473942134e-05 0 0.0026336430186341174 -6.1871692534147153e-05 0 0.0026125040178427783 -5.8902150278853773e-05 0 0.0026340367347595151 -4.5388721227532422e-05 0 0.0026125040178427783 -5.8902150278853773e-05 0 0.0026340367347595151 -4.5388721227532422e-05 0 0.0026159583898722914 -2.9447716609029211e-05 0 0.0026340367347595151 -4.5388721227532422e-05 0 0.0026439895376097556 -2.218000946407057e-05 0 0.0026159583898722914 -2.9447716609029211e-05 0 0.0026676903747864995 0.000370222505853753 0 0.002644946451169292 0.00040153649279646664 0 0.0027045921918547049 0.00038232579362589155 0 0.0026676903747864995 0.000370222505853753 0 0.0027045921918547049 0.00038232579362589155 0 0.0026772680018471665 0.00034634001646436898 0 0.002724768247677257 8.5614449331740554e-05 0 0.0026903925696938969 0.00013371470052561733 0 0.0027380910299814 0.00038178596121792702 0 0.0027335088574046186 0.00018036946005756785 0 0.0027193458547116068 0.00031671249778812981 0 0.0027415626790151656 0.00020609447881346409 0 0.0027387802658753188 0.00018381648206919148 0 0.0027045921918547049 0.00038232579362589155 0 0.0027074767146313974 0.00027327892668006369 0 0.0027387802658753188 0.00018381648206919148 0 0.0027193458547116068 0.00031671249778812981 0 0.002720755478845492 0.00032560541661905688 0 0.0027415626790151656 0.00020609447881346409 0 0.0027045921918547049 0.00038232579362589155 0 0.0026772680018471665 0.00034634001646436898 0 0.002695671610711482 0.00031539367698821307 0 0.0027045921918547049 0.00038232579362589155 0 0.002695671610711482 0.00031539367698821307 0 0.0027074767146313974 0.00027327892668006369 0 0.002658283747239058 -5.4422616473942134e-05 0 0.0026439895376097556 -2.218000946407057e-05 0 0.0026409936185134578 3.4410879677271826e-05 0 0.0026706204979758822 0.00031820229061400222 0 0.0026772680018471665 0.00034634001646436898 0 0.002695671610711482 0.00031539367698821307 0 0.0026706204979758822 0.00031820229061400222 0 0.002695671610711482 0.00031539367698821307 0 0.0026771933873267892 0.00028698131469876201 0 0.002695671610711482 0.00031539367698821307 0 0.0026771933873267892 0.00028698131469876201 0 0.0027074767146313974 0.00027327892668006369 0 0.0026771933873267892 0.00028698131469876201 0 0.0027074767146313974 0.00027327892668006369 0 0.0026821672647636408 0.0002518856493874437 0 0.0027074767146313974 0.00027327892668006369 0 0.0026821672647636408 0.0002518856493874437 0 0.0027056634738524422 0.00022678931134403354 0 0.002633251097603817 6.0966548194184979e-06 0 0.0026439895376097556 -2.218000946407057e-05 0 0.0026409936185134578 3.4410879677271826e-05 0 0.002626734839413948 1.9213252619697859e-05 0 0.002618472350279997 2.6134334148633013e-05 0 0.0026409936185134578 3.4410879677271826e-05 0 0.002626734839413948 1.9213252619697859e-05 0 0.002633251097603817 6.0966548194184979e-06 0 0.0026409936185134578 3.4410879677271826e-05 0 0.002626734839413948 1.9213252619697859e-05 0 0.002633251097603817 6.0966548194184979e-06 0 0.0026151402085674434 8.2373603285453717e-06 0 0.002633251097603817 6.0966548194184979e-06 0 0.002624435298287224 -9.7059331789130231e-06 0 0.0026151402085674434 8.2373603285453717e-06 0 0.002624435298287224 -9.7059331789130231e-06 0 0.0026023067595210853 -1.1518056124789837e-05 0 0.0026151402085674434 8.2373603285453717e-06 0 0.002633251097603817 6.0966548194184979e-06 0 0.002624435298287224 -9.7059331789130231e-06 0 0.0026439895376097556 -2.218000946407057e-05 0 0.002624435298287224 -9.7059331789130231e-06 0 0.0026439895376097556 -2.218000946407057e-05 0 0.0026159583898722914 -2.9447716609029211e-05 0 0.002624435298287224 -9.7059331789130231e-06 0 0.0026159583898722914 -2.9447716609029211e-05 0 0.0026023067595210853 -1.1518056124789837e-05 0 0.00256661415211617 -3.6950831570139513e-05 0 0.0026023067595210853 -1.1518056124789837e-05 0 0.0025796476491517311 6.623855302442452e-06 0 0.00256661415211617 -3.6950831570139513e-05 0 0.0026159583898722914 -2.9447716609029211e-05 0 0.0026023067595210853 -1.1518056124789837e-05 0 0.0026023067595210853 -1.1518056124789837e-05 0 0.0025796476491517311 6.623855302442452e-06 0 0.0026151402085674434 8.2373603285453717e-06 0 0.00256661415211617 -3.6950831570139513e-05 0 0.0025796476491517311 6.623855302442452e-06 0 0.0024929585486534313 -8.0927269421819894e-07 0 0.0025796476491517311 6.623855302442452e-06 0 0.0025734219329717209 3.011114837156909e-05 0 0.0024929585486534313 -8.0927269421819894e-07 0 0.0025796476491517311 6.623855302442452e-06 0 0.002618472350279997 2.6134334148633013e-05 0 0.0025734219329717209 3.011114837156909e-05 0 0.0025796476491517311 6.623855302442452e-06 0 0.0026151402085674434 8.2373603285453717e-06 0 0.002618472350279997 2.6134334148633013e-05 0 0.002626734839413948 1.9213252619697859e-05 0 0.0026151402085674434 8.2373603285453717e-06 0 0.002618472350279997 2.6134334148633013e-05 0 0.0025734219329717209 3.011114837156909e-05 0 0.0026462790876350673 4.1762847319061022e-05 0 0.0026508658417229536 4.1174333151654405e-05 0 0.002618472350279997 2.6134334148633013e-05 0 0.0026462790876350673 4.1762847319061022e-05 0 0.0026409936185134578 3.4410879677271826e-05 0 0.002618472350279997 2.6134334148633013e-05 0 0.0025734219329717209 3.011114837156909e-05 0 0.0026462790876350673 4.1762847319061022e-05 0 0.0027415626790151656 0.00020609447881346409 0 0.0027387802658753188 0.00018381648206919148 0 0.0027354656227232292 6.5094752475381874e-05 0 0.0026969578884153719 0.00013088771749387288 0 0.0027387802658753188 0.00018381648206919148 0 0.0027354656227232292 6.5094752475381874e-05 0 0.0026903925696938969 0.00013371470052561733 0 0.002726903618527158 7.1758349572486748e-05 0 0.0026462790876350673 4.1762847319061022e-05 0 0.0026409936185134578 3.4410879677271826e-05 0 0.0027354656227232292 6.5094752475381874e-05 0 0.0026697566104297234 0.00019203339545591637 0 0.0026969578884153719 0.00013088771749387288 0 0.002702208111670221 0.00019356545332597328 0 0.0026969578884153719 0.00013088771749387288 0 0.002702208111670221 0.00019356545332597328 0 0.0027387802658753188 0.00018381648206919148 0 0.0027074767146313974 0.00027327892668006369 0 0.0027056634738524422 0.00022678931134403354 0 0.0027387802658753188 0.00018381648206919148 0 0.002702208111670221 0.00019356545332597328 0 0.0027056634738524422 0.00022678931134403354 0 0.0027387802658753188 0.00018381648206919148 0 0.0026697566104297234 0.00019203339545591637 0 0.002702208111670221 0.00019356545332597328 0 0.0026858095052899773 0.00022032170632226965 0 0.0026609234139860095 0.00023109558354012668 0 0.0026821672647636408 0.0002518856493874437 0 0.0026858095052899773 0.00022032170632226965 0 0.002702208111670221 0.00019356545332597328 0 0.0026858095052899773 0.00022032170632226965 0 0.0027056634738524422 0.00022678931134403354 0 0.0026821672647636408 0.0002518856493874437 0 0.0026858095052899773 0.00022032170632226965 0 0.0027056634738524422 0.00022678931134403354 0 0.0024653355658746539 2.3989414967988926e-05 0 0.0026508658417229536 4.1174333151654405e-05 0 0.0025405356762487094 4.6394450196230286e-08 0 0.0024653355658746539 2.3989414967988926e-05 0 0.0022655439324742303 1.5900782854618868e-07 0 0.0025405356762487094 4.6394450196230286e-08 0 0.0025734219329717209 3.011114837156909e-05 0 0.0024653355658746539 2.3989414967988926e-05 0 0.0026508658417229536 4.1174333151654405e-05 0 0.0025734219329717209 3.011114837156909e-05 0 0.0024653355658746539 2.3989414967988926e-05 0 0.0024929585486534313 -8.0927269421819894e-07 0 0.0024653355658746539 2.3989414967988926e-05 0 0.0024929585486534313 -8.0927269421819894e-07 0 0.0023309961711336842 -1.0406685084807682e-05 0 0.0024653355658746539 2.3989414967988926e-05 0 0.0022655439324742303 1.5900782854618868e-07 0 0.0023309961711336842 -1.0406685084807682e-05 0 0.0022655439324742303 1.5900782854618868e-07 0 0.0023309961711336842 -1.0406685084807682e-05 0 0.0019911190568721007 -4.7566437091034584e-07 0 0.0024830946167469269 -8.4662766788979571e-05 0 0.0023309961711336842 -1.0406685084807682e-05 0 0.0023662957764287911 -0.00017695120456969726 0 0.0024830946167469269 -8.4662766788979571e-05 0 0.0024929585486534313 -8.0927269421819894e-07 0 0.0023309961711336842 -1.0406685084807682e-05 0 0.0025585100862785979 -0.00019429499830023511 0 0.0024830946167469269 -8.4662766788979571e-05 0 0.0023662957764287911 -0.00017695120456969726 0 0.0020053110269747745 -0.00015142638894458007 0 0.0020309088310725663 -0.00011142404987162149 0 0.0023309961711336842 -1.0406685084807682e-05 0 0.0023662957764287911 -0.00017695120456969726 0 0.0019911190568721007 -4.7566437091034584e-07 0 0.0016746031355303669 -8.1064325019814104e-05 0 0.0019902168537890355 -2.9353229748116662e-07 0 0.0017172290725298938 3.0508259309955152e-06 0 0.0020309088310725663 -0.00011142404987162149 0 0.0019905982243805516 -6.2664042801904082e-08 0 0.0019902168537890355 -2.9353229748116662e-07 0 0.0017519109349260773 1.3859994257994094e-07 0 0.0017172290725298938 3.0508259309955152e-06 0 0.0017519109349260773 1.3859994257994094e-07 0 0.0017172290725298938 3.0508259309955152e-06 0 0.0016105482385181163 2.638558839755173e-05 0 0.0017519109349260773 1.3859994257994094e-07 0 0.0015132958025257002 1.9943353897366138e-08 0 0.0015419656171620417 3.67647184511326e-05 0 0.0017519109349260773 1.3859994257994094e-07 0 0.0016105482385181163 2.638558839755173e-05 0 0.0015419656171620417 3.67647184511326e-05 0 0.0015577592652762328 4.0007885402683725e-05 0 0.0015419656171620417 3.67647184511326e-05 0 0.001523582990238268 4.3098469132806929e-05 0 0.0015577592652762328 4.0007885402683725e-05 0 0.0016105482385181163 2.638558839755173e-05 0 0.0015419656171620417 3.67647184511326e-05 0 0.0015577592652762328 4.0007885402683725e-05 0 0.0016105482385181163 2.638558839755173e-05 0 0.0015760438781890788 1.1627892545747942e-05 0 0.0016746031355303669 -8.1064325019814104e-05 0 0.0017172290725298938 3.0508259309955152e-06 0 0.0015760438781890788 1.1627892545747942e-05 0 0.0017172290725298938 3.0508259309955152e-06 0 0.0016105482385181163 2.638558839755173e-05 0 0.0015760438781890788 1.1627892545747942e-05 0 0.001553303116244331 -5.3608208749341237e-05 0 0.0015760438781890788 1.1627892545747942e-05 0 0.0015186539095003158 1.1316493945777851e-05 0 0.0014813527838276788 3.5676812114382628e-05 0 0.0014936214580811313 -3.137579507284082e-05 0 0.0015186539095003158 1.1316493945777851e-05 0 0.0014936214580811313 -3.137579507284082e-05 0 0.001553303116244331 -5.3608208749341237e-05 0 0.0015186539095003158 1.1316493945777851e-05 0 0.0014813527838276788 3.5676812114382628e-05 0 0.0015186539095003158 1.1316493945777851e-05 0 0.0015105533294272819 3.7393920188944376e-05 0 0.0015186539095003158 1.1316493945777851e-05 0 0.0015105533294272819 3.7393920188944376e-05 0 0.0015400637085657488 4.5262790321074001e-05 0 0.0015105533294272819 3.7393920188944376e-05 0 0.0015400637085657488 4.5262790321074001e-05 0 0.0015143039938575525 6.0834079766543279e-05 0 0.0017961894119003059 0.00021512810020584314 0 0.0014867914584481771 0.00012971641345324613 0 0.0014813527838276788 3.5676812114382628e-05 0 0.0015105533294272819 3.7393920188944376e-05 0 0.0015143039938575525 6.0834079766543279e-05 0 0.0015577592652762328 4.0007885402683725e-05 0 0.0015760438781890788 1.1627892545747942e-05 0 0.0015400637085657488 4.5262790321074001e-05 0 0.0015760438781890788 1.1627892545747942e-05 0 0.0015186539095003158 1.1316493945777851e-05 0 0.0015400637085657488 4.5262790321074001e-05 0 0.0015577592652762328 4.0007885402683725e-05 0 0.0015400637085657488 4.5262790321074001e-05 0 0.001523582990238268 4.3098469132806929e-05 0 0.0015400637085657488 4.5262790321074001e-05 0 0.0015106576967779286 3.9185060617196699e-05 0 0.0015063639499697501 4.2078148946842123e-05 0 0.0015400637085657488 4.5262790321074001e-05 0 0.0015429469163584801 8.4176657384167422e-05 0 0.0015143039938575525 6.0834079766543279e-05 0 0.0015400637085657488 4.5262790321074001e-05 0 0.0015063639499697501 4.2078148946842123e-05 0 0.001523582990238268 4.3098469132806929e-05 0 0.0015345780207422254 3.0429776902053238e-05 0 0.0015236193624160854 0.00011869646352217232 0 0.0015106576967779286 3.9185060617196699e-05 0 0.0015063639499697501 4.2078148946842123e-05 0 0.0015048411364902362 3.2173368242299289e-05 0 0.0015421621140588892 0.00024291074801757891 0 0.0015111255344754963 0.00023353665993060887 0 0.0015293055982928735 0.00024903823812489153 0 0.0014476737671902558 0.00022937318240015 0 0.001462814210933517 9.771261916028404e-05 0 0.0015421621140588892 0.00024291074801757891 0 0.0015111255344754963 0.00023353665993060887 0 0.0015105517448418633 0.00022660142359091532 0 0.0015236193624160854 0.00011869646352217232 0 0.0014867914584481771 0.00012971641345324613 0 0.0013197983814750361 0.0001155283458220701 0 0.0013474370921924446 0.00014022257211696712 0 0.0012926843644936875 0.00016428986401645498 0 0.001373975685006801 0.0001942388137194921 0 0.0013474370921924446 0.00014022257211696712 0 0.0012926843644936875 0.00016428986401645498 0 0.0015063639499697501 4.2078148946842123e-05 0 0.0014733752158456518 2.8101900060683147e-05 0 0.0015048411364902362 3.2173368242299289e-05 0 0.0014701916057033694 6.9301440030341502e-05 0 0.001462814210933517 9.771261916028404e-05 0 0.0015236193624160854 0.00011869646352217232 0 0.001462814210933517 9.771261916028404e-05 0 0.0014403819317668118 -6.1800035862384247e-06 0 0.0014733752158456518 2.8101900060683147e-05 0 0.0014899764363718127 4.2313684409832423e-05 0 0.0014403819317668118 -6.1800035862384247e-06 0 0.0014733752158456518 2.8101900060683147e-05 0 0.0014392899800357807 1.9516986313199334e-05 0 0.0013845927029980045 -1.2837228997694729e-06 0 0.0014403819317668118 -6.1800035862384247e-06 0 0.0014392899800357807 1.9516986313199334e-05 0 0.0014733752158456518 2.8101900060683147e-05 0 0.0014392899800357807 1.9516986313199334e-05 0 0.0014841573608740633 3.848197621316382e-05 0 0.0014392899800357807 1.9516986313199334e-05 0 0.0014329722223317715 2.8051090590034805e-05 0 0.0014841573608740633 3.848197621316382e-05 0 0.0013845927029980045 -1.2837228997694729e-06 0 0.0014392899800357807 1.9516986313199334e-05 0 0.0014329722223317715 2.8051090590034805e-05 0 0.0013845927029980045 -1.2837228997694729e-06 0 0.0012745031785073833 1.7248380434830381e-07 0 0.0014329722223317715 2.8051090590034805e-05 0 0.0012745031785073833 1.7248380434830381e-07 0 0.0014329722223317715 2.8051090590034805e-05 0 0.0015132958025257002 1.9943353897366138e-08 0 0.0014329722223317715 2.8051090590034805e-05 0 0.0015132958025257002 1.9943353897366138e-08 0 0.0015419656171620417 3.67647184511326e-05 0 0.0014329722223317715 2.8051090590034805e-05 0 0.0015419656171620417 3.67647184511326e-05 0 0.0014841573608740633 3.848197621316382e-05 0 0.0015419656171620417 3.67647184511326e-05 0 0.001523582990238268 4.3098469132806929e-05 0 0.0014841573608740633 3.848197621316382e-05 0 0.0015063639499697501 4.2078148946842123e-05 0 0.0014733752158456518 2.8101900060683147e-05 0 0.0014841573608740633 3.848197621316382e-05 0 0.0015063639499697501 4.2078148946842123e-05 0 0.001523582990238268 4.3098469132806929e-05 0 0.0014841573608740633 3.848197621316382e-05 0 0.0035811159855035305 1.0430452833691313e-05 0 0.0035261525864968566 7.8205969246902797e-08 0 0.0033655499241600361 -7.1917516276003503e-08 0 0.0033158673796311257 -9.2512092068729469e-05 0 0.0033651872406352192 -1.9404085165557318e-08 0 0.0035811159855035305 1.0430452833691313e-05 0 0.0035261525864968566 7.8205969246902797e-08 0 0.0035983801344468573 9.0717644962533104e-06 0 0.0036872788882560004 7.2857271498077423e-09 0 0.0037311163878983814 2.6293072296577874e-05 0 0.0035261525864968566 7.8205969246902797e-08 0 0.003686993811494955 -8.6083708681189486e-08 0 0.0035983801344468573 9.0717644962533104e-06 0 0.003686993811494955 -8.6083708681189486e-08 0 0.0035983801344468573 9.0717644962533104e-06 0 0.0035671731043387883 -2.9491940779383466e-05 0 0.0035811159855035305 1.0430452833691313e-05 0 0.0035983801344468573 9.0717644962533104e-06 0 0.0035671731043387883 -2.9491940779383466e-05 0 0.0035811159855035305 1.0430452833691313e-05 0 0.0035211817477290644 -2.1052775255930423e-05 0 0.0035671731043387883 -2.9491940779383466e-05 0 0.003047477597246506 -0.0002198169069557521 0 0.0030648943026120473 -9.1247786883182693e-05 0 0.0030652322345092044 -0.00018050129859356162 0 0.0033158673796311257 -9.2512092068729469e-05 0 0.0032991124984880259 -6.0483909891680464e-05 0 0.0030648943026120473 -9.1247786883182693e-05 0 0.0031676184214681322 -0.00012492610600749055 0 0.0030652322345092044 -0.00018050129859356162 0 0.0031676184214681322 -0.00012492610600749055 0 0.0032880887329891717 -0.00010826757984938069 0 0.0032616787548815185 -3.8336448344560479e-05 0 0.0030648943026120473 -9.1247786883182693e-05 0 0.0031676184214681322 -0.00012492610600749055 0 0.0032616787548815185 -3.8336448344560479e-05 0 0.0030652322345092044 -0.00018050129859356162 0 0.003045143411903573 -0.00022832379552961238 0 0.00317828482408872 -0.00017677431544877402 0 0.0031676184214681322 -0.00012492610600749055 0 0.0030652322345092044 -0.00018050129859356162 0 0.00317828482408872 -0.00017677431544877402 0 0.003047477597246506 -0.0002198169069557521 0 0.0030652322345092044 -0.00018050129859356162 0 0.0030226986260974468 -0.00017458720544682023 0 0.0030652322345092044 -0.00018050129859356162 0 0.0030226986260974468 -0.00017458720544682023 0 0.003045143411903573 -0.00022832379552961238 0 0.0030226986260974468 -0.00017458720544682023 0 0.003045143411903573 -0.00022832379552961238 0 0.0029669541005183111 -0.00018233783152558092 0 0.003045143411903573 -0.00022832379552961238 0 0.0029669541005183111 -0.00018233783152558092 0 0.0029260012705618768 -0.00028546798577092243 0 0.0029669541005183111 -0.00018233783152558092 0 0.0028397287238022574 -0.00011441128938834682 0 0.0029260012705618768 -0.00028546798577092243 0 0.0029669541005183111 -0.00018233783152558092 0 0.0030218737726013375 -9.7198264999607991e-05 0 0.002908541743205558 -5.1338785755141002e-05 0 0.0030226986260974468 -0.00017458720544682023 0 0.0029669541005183111 -0.00018233783152558092 0 0.0030218737726013375 -9.7198264999607991e-05 0 0.0030218737726013375 -9.7198264999607991e-05 0 0.0031103507698457041 -3.014572344075944e-05 0 0.0029945670451926236 -2.9333374744464201e-05 0 0.0030218737726013375 -9.7198264999607991e-05 0 0.0030978550023794205 -9.0798092173514447e-05 0 0.0031103507698457041 -3.014572344075944e-05 0 0.0030226986260974468 -0.00017458720544682023 0 0.0030218737726013375 -9.7198264999607991e-05 0 0.0030978550023794205 -9.0798092173514447e-05 0 0.003047477597246506 -0.0002198169069557521 0 0.0030226986260974468 -0.00017458720544682023 0 0.0030978550023794205 -9.0798092173514447e-05 0 0.003047477597246506 -0.0002198169069557521 0 0.0030978550023794205 -9.0798092173514447e-05 0 0.003364607488000887 -4.7866109520460269e-07 0 0.0030978550023794205 -9.0798092173514447e-05 0 0.003364607488000887 -4.7866109520460269e-07 0 0.0031103507698457041 -3.014572344075944e-05 0 0.0031103507698457041 -3.014572344075944e-05 0 0.0030903082501011095 9.8142854306904158e-08 0 0.0029945670451926236 -2.9333374744464201e-05 0 0.003364607488000887 -4.7866109520460269e-07 0 0.0031103507698457041 -3.014572344075944e-05 0 0.0030903082501011095 9.8142854306904158e-08 0 0.0030903082501011095 9.8142854306904158e-08 0 0.0029945670451926236 -2.9333374744464201e-05 0 0.0028741062042507569 4.3003232452264141e-06 0 0.0029945670451926236 -2.9333374744464201e-05 0 0.0028741062042507569 4.3003232452264141e-06 0 0.002908541743205558 -5.1338785755141002e-05 0 0.0030218737726013375 -9.7198264999607991e-05 0 0.0029945670451926236 -2.9333374744464201e-05 0 0.002908541743205558 -5.1338785755141002e-05 0 0.0028741062042507569 4.3003232452264141e-06 0 0.0027963314891582321 2.4493049531780818e-05 0 0.002908541743205558 -5.1338785755141002e-05 0 0.0030903082501011095 9.8142854306904158e-08 0 0.0028741062042507569 4.3003232452264141e-06 0 0.0028153183959115603 1.8121061943799189e-08 0 0.0028741062042507569 4.3003232452264141e-06 0 0.0028153183959115603 1.8121061943799189e-08 0 0.0026508658417229536 4.1174333151654405e-05 0 0.0028741062042507569 4.3003232452264141e-06 0 0.0026508658417229536 4.1174333151654405e-05 0 0.0027963314891582321 2.4493049531780818e-05 0 0.0028153183959115603 1.8121061943799189e-08 0 0.0026508658417229536 4.1174333151654405e-05 0 0.0025405356762487094 4.6394450196230286e-08 0 0.0026969578884153719 0.00013088771749387288 0 0.0027354656227232292 6.5094752475381874e-05 0 0.0026939708544077273 6.1861441693454404e-05 0 0.0026508658417229536 4.1174333151654405e-05 0 0.0027354656227232292 6.5094752475381874e-05 0 0.0027963314891582321 2.4493049531780818e-05 0 0.0026462790876350673 4.1762847319061022e-05 0 0.0026508658417229536 4.1174333151654405e-05 0 0.0027354656227232292 6.5094752475381874e-05 0 0.0027354656227232292 6.5094752475381874e-05 0 0.0027963314891582321 2.4493049531780818e-05 0 0.0027869591140282511 1.2259906452307428e-06 0 0.0027354656227232292 6.5094752475381874e-05 0 0.0027869591140282511 1.2259906452307428e-06 0 0.0026939708544077273 6.1861441693454404e-05 0 0.0027869591140282511 1.2259906452307428e-06 0 0.002908541743205558 -5.1338785755141002e-05 0 0.0028397287238022574 -0.00011441128938834682 0 0.0027963314891582321 2.4493049531780818e-05 0 0.0027869591140282511 1.2259906452307428e-06 0 0.002908541743205558 -5.1338785755141002e-05 0 0.0029669541005183111 -0.00018233783152558092 0 0.002908541743205558 -5.1338785755141002e-05 0 0.0028397287238022574 -0.00011441128938834682 0 0.0028397287238022574 -0.00011441128938834682 0 0.0026363023036366411 -0.00016295346831241123 0 0.0029260012705618768 -0.00028546798577092243 0 0.0026363023036366411 -0.00016295346831241123 0 0.0026714129028750202 -2.4757787413850997e-05 0 0.0024923021265533152 -3.0104091694739497e-05 0 0.0028397287238022574 -0.00011441128938834682 0 0.0026363023036366411 -0.00016295346831241123 0 0.0026714129028750202 -2.4757787413850997e-05 0 0.0027869591140282511 1.2259906452307428e-06 0 0.0028397287238022574 -0.00011441128938834682 0 0.0026714129028750202 -2.4757787413850997e-05 0 0.0027869591140282511 1.2259906452307428e-06 0 0.0026714129028750202 -2.4757787413850997e-05 0 0.0026939708544077273 6.1861441693454404e-05 0 0.0026714129028750202 -2.4757787413850997e-05 0 0.0025844896007775884 6.4562267584056485e-05 0 0.0026939708544077273 6.1861441693454404e-05 0 0.0025844896007775884 6.4562267584056485e-05 0 0.0024400554340626682 8.044688020279575e-05 0 0.0024923021265533152 -3.0104091694739497e-05 0 0.0026714129028750202 -2.4757787413850997e-05 0 0.0025844896007775884 6.4562267584056485e-05 0 0.0024923021265533152 -3.0104091694739497e-05 0 0.0026346674090560853 0.00013973150126535161 0 0.0025458561329313764 0.00016189457707312262 0 0.0025844896007775884 6.4562267584056485e-05 0 0.0025458561329313764 0.00016189457707312262 0 0.0025844896007775884 6.4562267584056485e-05 0 0.0024400554340626682 8.044688020279575e-05 0 0.0026346674090560853 0.00013973150126535161 0 0.0025844896007775884 6.4562267584056485e-05 0 0.0026939708544077273 6.1861441693454404e-05 0 0.0026346674090560853 0.00013973150126535161 0 0.0026969578884153719 0.00013088771749387288 0 0.0026939708544077273 6.1861441693454404e-05 0 0.0022873191574560529 0.00013142521490890936 0 0.0024400554340626682 8.044688020279575e-05 0 0.0023070527664520381 -4.9316145402258295e-05 0 0.0022873191574560529 0.00013142521490890936 0 0.0023070527664520381 -4.9316145402258295e-05 0 0.0021193981210724591 0.00011242388738677324 0 0.0024400554340626682 8.044688020279575e-05 0 0.0024923021265533152 -3.0104091694739497e-05 0 0.0023070527664520381 -4.9316145402258295e-05 0 0.0023070527664520381 -4.9316145402258295e-05 0 0.0024006885408773939 -0.00021027043917311604 0 0.0022701591613692967 -0.00016262581213624444 0 0.0024923021265533152 -3.0104091694739497e-05 0 0.0023070527664520381 -4.9316145402258295e-05 0 0.0024006885408773939 -0.00021027043917311604 0 0.0026363023036366411 -0.00016295346831241123 0 0.0024923021265533152 -3.0104091694739497e-05 0 0.0024006885408773939 -0.00021027043917311604 0 0.0024006885408773939 -0.00021027043917311604 0 0.0022359441882552171 -0.00029823011453918534 0 0.0022701591613692967 -0.00016262581213624444 0 0.0024006885408773939 -0.00021027043917311604 0 0.0023541332123361109 -0.00037774194788637216 0 0.0022359441882552171 -0.00029823011453918534 0 0.0023541332123361109 -0.00037774194788637216 0 0.0023509600592746312 -0.00048620065013068274 0 0.0022544099626747196 -0.0004092327366236664 0 0.0023541332123361109 -0.00037774194788637216 0 0.0025709387167629967 -0.00044259401495285101 0 0.0023509600592746312 -0.00048620065013068274 0 0.002998103162394984 -0.0003873479749059997 0 0.0030623846583494041 -0.0003917571314201596 0 0.0024006885408773939 -0.00021027043917311604 0 0.0023541332123361109 -0.00037774194788637216 0 0.0025709387167629967 -0.00044259401495285101 0 0.0026363023036366411 -0.00016295346831241123 0 0.0024006885408773939 -0.00021027043917311604 0 0.0025709387167629967 -0.00044259401495285101 0 0.0026363023036366411 -0.00016295346831241123 0 0.0029260012705618768 -0.00028546798577092243 0 0.0025709387167629967 -0.00044259401495285101 0 0.0029540801776143013 -0.00029727512317279727 0 0.002998103162394984 -0.0003873479749059997 0 0.003045143411903573 -0.00022832379552961238 0 0.0029260012705618768 -0.00028546798577092243 0 0.0032148688032447659 -0.00024718778795398668 0 0.0029260012705618768 -0.00028546798577092243 0 0.0034086567644059495 -0.00036937774252464284 0 0.0032148688032447659 -0.00024718778795398668 0 0.0034086567644059495 -0.00036937774252464284 0 0.0035178031113848635 -0.000198825218961783 0 0.0032148688032447659 -0.00024718778795398668 0 0.0035178031113848635 -0.000198825218961783 0 0.0032148688032447659 -0.00024718778795398668 0 0.0033581960272118191 -0.00015024969680150043 0 0.0032148688032447659 -0.00024718778795398668 0 0.00317828482408872 -0.00017677431544877402 0 0.0033581960272118191 -0.00015024969680150043 0 0.003045143411903573 -0.00022832379552961238 0 0.0032148688032447659 -0.00024718778795398668 0 0.00317828482408872 -0.00017677431544877402 0 0.00317828482408872 -0.00017677431544877402 0 0.0032880887329891717 -0.00010826757984938069 0 0.0033581960272118191 -0.00015024969680150043 0 0.0031676184214681322 -0.00012492610600749055 0 0.00317828482408872 -0.00017677431544877402 0 0.0032880887329891717 -0.00010826757984938069 0 0.0032880887329891717 -0.00010826757984938069 0 0.0033403189300389999 -4.7368676286266291e-05 0 0.0034087711313867015 -4.8004595854286291e-05 0 0.0032880887329891717 -0.00010826757984938069 0 0.0033581960272118191 -0.00015024969680150043 0 0.0034087711313867015 -4.8004595854286291e-05 0 0.0032880887329891717 -0.00010826757984938069 0 0.0033403189300389999 -4.7368676286266291e-05 0 0.0032616787548815185 -3.8336448344560479e-05 0 0.0035178031113848635 -0.000198825218961783 0 0.0035066300388606111 -7.2928423082414497e-05 0 0.0036396038361914823 -0.0001064284549922743 0 0.0035178031113848635 -0.000198825218961783 0 0.0033581960272118191 -0.00015024969680150043 0 0.0035066300388606111 -7.2928423082414497e-05 0 0.0033581960272118191 -0.00015024969680150043 0 0.0035066300388606111 -7.2928423082414497e-05 0 0.0034087711313867015 -4.8004595854286291e-05 0 0.0035178031113848635 -0.000198825218961783 0 0.0036396038361914823 -0.0001064284549922743 0 0.0037431195358171286 -0.00016414128312280149 0 0.0035066300388606111 -7.2928423082414497e-05 0 0.0036396038361914823 -0.0001064284549922743 0 0.0036385374737812858 -1.502714232795658e-05 0 0.0036396038361914823 -0.0001064284549922743 0 0.0037431195358171286 -0.00016414128312280149 0 0.0038012228157001211 -5.3209156747890402e-05 0 0.0038998510562346183 -0.00013482750310831306 0 0.0037431195358171286 -0.00016414128312280149 0 0.0037713859335331609 -0.00030861655037321158 0 0.0038998510562346183 -0.00013482750310831306 0 0.0037713859335331609 -0.00030861655037321158 0 0.0040717050091358875 -0.00019183018136752013 0 0.0038998510562346183 -0.00013482750310831306 0 0.0037431195358171286 -0.00016414128312280149 0 0.0038012228157001211 -5.3209156747890402e-05 0 0.0034086567644059495 -0.00036937774252464284 0 0.0035178031113848635 -0.000198825218961783 0 0.0037713859335331609 -0.00030861655037321158 0 0.0035178031113848635 -0.000198825218961783 0 0.0037431195358171286 -0.00016414128312280149 0 0.0037713859335331609 -0.00030861655037321158 0 0.002242765764864223 -0.00045474595020213458 0 0.0022564564691762304 -0.00044474072947249651 0 0.0022544099626747196 -0.0004092327366236664 0 0.0023509600592746312 -0.00048620065013068274 0 0.0022564564691762304 -0.00044474072947249651 0 0.0022231290435482023 -0.00041720752228652447 0 0.0023509600592746312 -0.00048620065013068274 0 0.0022564564691762304 -0.00044474072947249651 0 0.0022544099626747196 -0.0004092327366236664 0 0.0030623846583494041 -0.0003917571314201596 0 0.0031766924229417359 -0.00028940945985958896 0 0.002242765764864223 -0.00045474595020213458 0 0.0022564564691762304 -0.00044474072947249651 0 0.0022231290435482023 -0.00041720752228652447 0 0.0040717050091358875 -0.00019183018136752013 0 0.0041409433948953285 -4.0593535402855361e-05 0 0.0040403231195223644 -8.9560851890597347e-05 0 0.0038998510562346183 -0.00013482750310831306 0 0.0040717050091358875 -0.00019183018136752013 0 0.0040403231195223644 -8.9560851890597347e-05 0 0.002242765764864223 -0.00045474595020213458 0 0.0022231290435482023 -0.00041720752228652447 0 0.0023950180636842771 -0.00023498166247753696 0 0.0031766924229417359 -0.00028940945985958896 0 0.0032411738523009316 -0.00018057218562809608 0 0.0040717050091358875 -0.00019183018136752013 0 0.0042878404199942722 -4.7064239208056793e-05 0 0.0041409433948953285 -4.0593535402855361e-05 0 0.002242765764864223 -0.00045474595020213458 0 0.0025240272763976937 -0.00039651318171584699 0 0.0023950180636842771 -0.00023498166247753696 0 0.0025240272763976937 -0.00039651318171584699 0 0.0026070361125671757 -0.00023194117433270067 0 0.0023950180636842771 -0.00023498166247753696 0 0.0021870580239205652 -0.00041122908632558079 0 0.0022018796594906551 -0.00040714809997331454 0 0.0022226054900269633 -0.00037954961492276833 0 0.0025240272763976937 -0.00039651318171584699 0 0.0028494616859153976 -0.00028747380737129282 0 0.0026070361125671757 -0.00023194117433270067 0 0.0021811963090801992 -0.00047033137962930926 0 0.0033068411091215361 -6.0634543587471099e-05 0 0.0021870580239205652 -0.00041122908632558079 0 0.0022018796594906551 -0.00040714809997331454 0 0.0021850085147245711 -0.00041299021156159866 0 0.002242765764864223 -0.00045474595020213458 0 0.0021870580239205652 -0.00041122908632558079 0 0.0021850085147245711 -0.00041299021156159866 0 0.0023289678986928857 -0.00041996226913208442 0 0.0021811963090801992 -0.00047033137962930926 0 0.0021850085147245711 -0.00041299021156159866 0 0.002185417703440759 -0.00040974669351333048 0 0.0021581584676492534 -0.00039117568332301889 0 0.0022018796594906551 -0.00040714809997331454 0 0.0021850085147245711 -0.00041299021156159866 0 0.002185417703440759 -0.00040974669351333048 0 0.002185417703440759 -0.00040974669351333048 0 0.0021838075023952004 -0.00040042799704952331 0 0.0021760323268943706 -0.00039459390467310086 0 0.002185417703440759 -0.00040974669351333048 0 0.0021838075023952004 -0.00040042799704952331 0 0.0021581584676492534 -0.00039117568332301889 0 0.0020748275021925744 -0.00033487689707288062 0 0.002145811779688608 -0.00038683794575914121 0 0.0019612370383102944 -0.00027449634107900298 0 0.0021581584676492534 -0.00039117568332301889 0 0.0021098585279319395 -0.00026922499074828244 0 0.0021581584676492534 -0.00039117568332301889 0 0.0022359441882552171 -0.00029823011453918534 0 0.0021098585279319395 -0.00026922499074828244 0 0.002242765764864223 -0.00045474595020213458 0 0.0021850085147245711 -0.00041299021156159866 0 0.0021581584676492534 -0.00039117568332301889 0 0.002242765764864223 -0.00045474595020213458 0 0.0021581584676492534 -0.00039117568332301889 0 0.0022544099626747196 -0.0004092327366236664 0 0.0023541332123361109 -0.00037774194788637216 0 0.0022544099626747196 -0.0004092327366236664 0 0.0022359441882552171 -0.00029823011453918534 0 0.0021581584676492534 -0.00039117568332301889 0 0.0022544099626747196 -0.0004092327366236664 0 0.0022359441882552171 -0.00029823011453918534 0 0.0022359441882552171 -0.00029823011453918534 0 0.0022701591613692967 -0.00016262581213624444 0 0.0021589931799152868 -0.00019626696877199782 0 0.0021589931799152868 -0.00019626696877199782 0 0.0021098585279319395 -0.00026922499074828244 0 0.0020127722884492856 -0.00013850690249795033 0 0.0022359441882552171 -0.00029823011453918534 0 0.0021589931799152868 -0.00019626696877199782 0 0.0021098585279319395 -0.00026922499074828244 0 0.0021589931799152868 -0.00019626696877199782 0 0.0021243342116434995 -4.6979970975924106e-05 0 0.0020127722884492856 -0.00013850690249795033 0 0.0021243342116434995 -4.6979970975924106e-05 0 0.0019890502108949378 -1.0622900036446392e-05 0 0.0020127722884492856 -0.00013850690249795033 0 0.0022701591613692967 -0.00016262581213624444 0 0.0021589931799152868 -0.00019626696877199782 0 0.0021243342116434995 -4.6979970975924106e-05 0 0.0023070527664520381 -4.9316145402258295e-05 0 0.0022701591613692967 -0.00016262581213624444 0 0.0021243342116434995 -4.6979970975924106e-05 0 0.0023070527664520381 -4.9316145402258295e-05 0 0.0021243342116434995 -4.6979970975924106e-05 0 0.0021193981210724591 0.00011242388738677324 0 0.0021243342116434995 -4.6979970975924106e-05 0 0.0020003769717760254 8.8308651291133853e-05 0 0.0019890502108949378 -1.0622900036446392e-05 0 0.0021243342116434995 -4.6979970975924106e-05 0 0.0020003769717760254 8.8308651291133853e-05 0 0.0021193981210724591 0.00011242388738677324 0 0.0019044021800141895 0.000143212426420972 0 0.0020003769717760254 8.8308651291133853e-05 0 0.0018800387627958596 8.1184970830743542e-05 0 0.0020003769717760254 8.8308651291133853e-05 0 0.0018800387627958596 8.1184970830743542e-05 0 0.0019890502108949378 -1.0622900036446392e-05 0 0.0018800387627958596 8.1184970830743542e-05 0 0.0019890502108949378 -1.0622900036446392e-05 0 0.0018777778854497135 -2.5781112017159575e-05 0 0.0018800387627958596 8.1184970830743542e-05 0 0.0018777778854497135 -2.5781112017159575e-05 0 0.0018021854276004355 6.3655241601563083e-05 0 0.0018777778854497135 -2.5781112017159575e-05 0 0.0018291883385613949 -0.00014655951007492416 0 0.0020127722884492856 -0.00013850690249795033 0 0.0019890502108949378 -1.0622900036446392e-05 0 0.0018777778854497135 -2.5781112017159575e-05 0 0.0020127722884492856 -0.00013850690249795033 0 0.0019612370383102944 -0.00027449634107900298 0 0.0021098585279319395 -0.00026922499074828244 0 0.0020127722884492856 -0.00013850690249795033 0 0.0020748275021925744 -0.00033487689707288062 0 0.0020002042449879542 -0.00025634672854029419 0 0.0021838075023952004 -0.00040042799704952331 0 0.0021776358592243898 -0.00037473289312385934 0 0.0021760323268943706 -0.00039459390467310086 0 0.0019612370383102944 -0.00027449634107900298 0 0.0018291883385613949 -0.00014655951007492416 0 0.0020127722884492856 -0.00013850690249795033 0 0.0021776358592243898 -0.00037473289312385934 0 0.0021676336343498569 -0.00038390046505906749 0 0.0021636399797770678 -0.00037028721767240876 0 0.0021776358592243898 -0.00037473289312385934 0 0.0021676336343498569 -0.00038390046505906749 0 0.0021760323268943706 -0.00039459390467310086 0 0.0021676336343498569 -0.00038390046505906749 0 0.0021564424763723489 -0.00037932798582397909 0 0.0021637035453838283 -0.00039885741265251358 0 0.0021676336343498569 -0.00038390046505906749 0 0.0021564424763723489 -0.00037932798582397909 0 0.0021636399797770678 -0.00037028721767240876 0 0.0021564424763723489 -0.00037932798582397909 0 0.0021636399797770678 -0.00037028721767240876 0 0.0021528415112814941 -0.00035947317720177833 0 0.0021636399797770678 -0.00037028721767240876 0 0.0021528415112814941 -0.00035947317720177833 0 0.0021644412300039491 -0.00035303565033578872 0 0.0021776358592243898 -0.00037473289312385934 0 0.0021636399797770678 -0.00037028721767240876 0 0.0021644412300039491 -0.00035303565033578872 0 0.0018777778854497135 -2.5781112017159575e-05 0 0.0018291883385613949 -0.00014655951007492416 0 0.0017288601346951214 -2.9034265999335219e-05 0 0.0020002042449879542 -0.00025634672854029419 0 0.0019599714765251796 -0.00021350531631913498 0 0.0018777778854497135 -2.5781112017159575e-05 0 0.0017288601346951214 -2.9034265999335219e-05 0 0.0018021854276004355 6.3655241601563083e-05 0 0.0019599714765251796 -0.00021350531631913498 0 0.0018512047554649644 -3.2790595856844703e-06 0 0.0017288601346951214 -2.9034265999335219e-05 0 0.0018021854276004355 6.3655241601563083e-05 0 0.0016318759773669906 7.6384890484762689e-05 0 0.0021528415112814941 -0.00035947317720177833 0 0.0021644412300039491 -0.00035303565033578872 0 0.0021497258841802441 -0.00033537008342099156 0 0.0017250316084216977 9.3650900099877268e-05 0 0.0018512047554649644 -3.2790595856844703e-06 0 0.0017864696758242979 0.00013315631781724057 0 0.0018021854276004355 6.3655241601563083e-05 0 0.0017326931606693452 0.0001040420794267874 0 0.0017864696758242979 0.00013315631781724057 0 0.0018800387627958596 8.1184970830743542e-05 0 0.0018021854276004355 6.3655241601563083e-05 0 0.0017720719811364829 0.00016020632665752742 0 0.0017678083481046118 0.00015995968624043347 0 0.0017700587166304832 0.00015570507686081387 0 0.0019294375151072481 -0.00010742987619643636 0 0.0018512047554649644 -3.2790595856844703e-06 0 0.0017720719811364829 0.00016020632665752742 0 0.0017700587166304832 0.00015570507686081387 0 0.0017809846703644432 0.00015126097540939587 0 0.0017277412837762534 0.00017753803664221886 0 0.0018512047554649644 -3.2790595856844703e-06 0 0.0021528415112814941 -0.00035947317720177833 0 0.0021497258841802441 -0.00033537008342099156 0 0.0021385042291836172 -0.00035159174403660213 0 0.0021336778676650163 -0.00033316949132316392 0 0.0021497258841802441 -0.00033537008342099156 0 0.0021385042291836172 -0.00035159174403660213 0 0.0021336778676650163 -0.00033316949132316392 0 0.0021385042291836172 -0.00035159174403660213 0 0.002127441549351441 -0.00034046060205483535 0 0.0021385042291836172 -0.00035159174403660213 0 0.002127441549351441 -0.00034046060205483535 0 0.0021265405447749757 -0.00035316456592356918 0 0.0021385042291836172 -0.00035159174403660213 0 0.0021457619563521675 -0.00036931592547059073 0 0.0021352039251052979 -0.00037134536946387267 0 0.0021385042291836172 -0.00035159174403660213 0 0.0021352039251052979 -0.00037134536946387267 0 0.0021265405447749757 -0.00035316456592356918 0 0.00261175752572523 -0.00014795961686159875 0 0.0026250980041311236 -0.00017441766835871823 0 0.0021528415112814941 -0.00035947317720177833 0 0.0021385042291836172 -0.00035159174403660213 0 0.0021457619563521675 -0.00036931592547059073 0 0.0021564424763723489 -0.00037932798582397909 0 0.0021528415112814941 -0.00035947317720177833 0 0.0021457619563521675 -0.00036931592547059073 0 0.0021564424763723489 -0.00037932798582397909 0 0.0021457619563521675 -0.00036931592547059073 0 0.0021453903904181349 -0.00038874443086633106 0 0.00261175752572523 -0.00014795961686159875 0 0.0027550795404054874 -0.00021096153252555169 0 0.0031196769148170312 4.1766431400630685e-05 0 0.0031045380519452185 5.7474908812727133e-05 0 0.003128240335599546 5.4916997515585385e-05 0 0.0021457619563521675 -0.00036931592547059073 0 0.0021352039251052979 -0.00037134536946387267 0 0.0021453903904181349 -0.00038874443086633106 0 0.0036753823911995637 8.2528419022385359e-05 0 0.0036527512803558142 3.9324624118868733e-05 0 0.003698637647112916 3.0892894984156489e-05 0 0.0027550795404054874 -0.00021096153252555169 0 0.0034584122480085158 3.600588391115341e-05 0 0.0036753823911995637 8.2528419022385359e-05 0 0.0037210745398627604 7.5086729163525775e-05 0 0.003698637647112916 3.0892894984156489e-05 0 0.0036753823911995637 8.2528419022385359e-05 0 0.0037012164175236231 0.00012995410442887329 0 0.0037210745398627604 7.5086729163525775e-05 0 0.0036753823911995637 8.2528419022385359e-05 0 0.0036279676138051896 8.1224753680575408e-05 0 0.0036527512803558142 3.9324624118868733e-05 0 0.0036753823911995637 8.2528419022385359e-05 0 0.0036279676138051896 8.1224753680575408e-05 0 0.0036594687731186927 0.00011444789683772065 0 0.0022625442585689709 -0.00041649019745149514 0 0.0022938229272687939 -0.000453852836912744 0 0.0022291653859013555 -0.00043993872939233685 0 0.0029755461801512272 -0.00018758642060103417 0 0.0027550795404054874 -0.00021096153252555169 0 0.0021564424763723489 -0.00037932798582397909 0 0.0021453903904181349 -0.00038874443086633106 0 0.0021637035453838283 -0.00039885741265251358 0 0.0027550795404054874 -0.00021096153252555169 0 0.0020773799343857869 -0.00043598359786543818 0 0.0022370985417031414 -0.00041131284610015819 0 0.0020773799343857869 -0.00043598359786543818 0 0.0021676336343498569 -0.00038390046505906749 0 0.0021637035453838283 -0.00039885741265251358 0 0.0021760323268943706 -0.00039459390467310086 0 0.002185417703440759 -0.00040974669351333048 0 0.0021637035453838283 -0.00039885741265251358 0 0.0021760323268943706 -0.00039459390467310086 0 0.002185417703440759 -0.00040974669351333048 0 0.0022291653859013555 -0.00043993872939233685 0 0.0022196811751953372 -0.00041406322279813925 0 0.0022018796594906551 -0.00040714809997331454 0 0.002185417703440759 -0.00040974669351333048 0 0.0022196811751953372 -0.00041406322279813925 0 0.0022625442585689709 -0.00041649019745149514 0 0.0022291653859013555 -0.00043993872939233685 0 0.0022196811751953372 -0.00041406322279813925 0 0.0036279676138051896 8.1224753680575408e-05 0 0.0035866773627317382 0.00012926728565331979 0 0.0036264546778208705 0.00013637715603687786 0 0.0022625442585689709 -0.00041649019745149514 0 0.0022196811751953372 -0.00041406322279813925 0 0.002236134685657875 -0.00039570306490298442 0 0.0029755461801512272 -0.00018758642060103417 0 0.0028592773682448078 -0.00010408361529275385 0 0.0022018796594906551 -0.00040714809997331454 0 0.0022196811751953372 -0.00041406322279813925 0 0.002236134685657875 -0.00039570306490298442 0 0.0022018796594906551 -0.00040714809997331454 0 0.002236134685657875 -0.00039570306490298442 0 0.0022226054900269633 -0.00037954961492276833 0 0.0028592773682448078 -0.00010408361529275385 0 0.0033068411091215361 -6.0634543587471099e-05 0 0.0035074982531388809 0.00023842559933118549 0 0.003594468298651711 0.00020756458317616129 0 0.0036266487657508613 0.000292067207637204 0 0.0036264546778208705 0.00013637715603687786 0 0.003594468298651711 0.00020756458317616129 0 0.003671234559345002 0.00023720807344635028 0 0.0035866773627317382 0.00012926728565331979 0 0.0035074982531388809 0.00023842559933118549 0 0.003594468298651711 0.00020756458317616129 0 0.0035866773627317382 0.00012926728565331979 0 0.0036264546778208705 0.00013637715603687786 0 0.003594468298651711 0.00020756458317616129 0 0.003594468298651711 0.00020756458317616129 0 0.003671234559345002 0.00023720807344635028 0 0.0036266487657508613 0.000292067207637204 0 0.003519319917860031 0.00011397877422709654 0 0.0040461691427122358 0.00022918437812769312 0 0.0036264546778208705 0.00013637715603687786 0 0.003671234559345002 0.00023720807344635028 0 0.0037944699872435746 0.00026370016033231119 0 0.0036264546778208705 0.00013637715603687786 0 0.003664855110980564 0.00014118745129555301 0 0.0036806268821854755 0.00018449145207218053 0 0.004234934805911997 0.00032233070578290224 0 0.0042402165907896921 0.00031054380728270502 0 0.0042411411354843333 0.00031159694650515597 0 0.0037012164175236231 0.00012995410442887329 0 0.003664855110980564 0.00014118745129555301 0 0.0036806268821854755 0.00018449145207218053 0 0.0039534204682903865 0.00023675841609465144 0 0.0040461691427122358 0.00022918437812769312 0 0.0037012164175236231 0.00012995410442887329 0 0.0036594687731186927 0.00011444789683772065 0 0.003664855110980564 0.00014118745129555301 0 0.0036753823911995637 8.2528419022385359e-05 0 0.0037012164175236231 0.00012995410442887329 0 0.0036594687731186927 0.00011444789683772065 0 0.0036264546778208705 0.00013637715603687786 0 0.0036594687731186927 0.00011444789683772065 0 0.003664855110980564 0.00014118745129555301 0 0.0036279676138051896 8.1224753680575408e-05 0 0.0036264546778208705 0.00013637715603687786 0 0.0036594687731186927 0.00011444789683772065 0 0.0049624198838983851 0.00022060928869873292 0 0.0049972010879255676 0.00015233832288398628 0 0.0049563543986236563 0.00017239376839406294 0 0.0048114310779185879 0.0001454996947840615 0 0.0044994717599233028 0.00026073459346291573 0 0.0044994717599233028 0.00026073459346291573 0 0.0049424700379408198 5.6548478222770203e-05 0 0.0048003575763825041 0.00014101495165202497 0 0.0046458344461986082 0.00031139124611207928 0 0.0047754935237483021 1.826349590040624e-05 0 0.0046967187091432319 0.0002394934442023417 0 0.0046905053115401264 0.00020852787594088183 0 0.0046298207040805783 0.00027474509050639325 0 0.0047694957295727671 0.00020725382533728359 0 0.0048114310779185879 0.0001454996947840615 0 0.0049389133716124783 0.00020694710445891783 0 0.0049624198838983851 0.00022060928869873292 0 0.0049563543986236563 0.00017239376839406294 0 0.0049306758310075473 0.00017739463408907751 0 0.0049389133716124783 0.00020694710445891783 0 0.0049563543986236563 0.00017239376839406294 0 0.0049389133716124783 0.00020694710445891783 0 0.0049413042265939794 0.00021628032029344198 0 0.0049126532587153854 0.0002047659804195207 0 0.0049522026655946412 0.00021725224803168222 0 0.0049413042265939794 0.00021628032029344198 0 0.0049406349725991021 0.00023194029818717822 0 0.004948390944820945 0.00031165463609211672 0 0.0044994717599233028 0.00026073459346291573 0 0.0044994717599233028 0.00026073459346291573 0 0.0045024879726980891 0.00028150774741838078 0 0.0049389133716124783 0.00020694710445891783 0 0.0049522026655946412 0.00021725224803168222 0 0.0049413042265939794 0.00021628032029344198 0 0.0049413042265939794 0.00021628032029344198 0 0.0049406349725991021 0.00023194029818717822 0 0.0049126532587153854 0.0002047659804195207 0 0.0045024879726980891 0.00028150774741838078 0 0.0048423726670431197 0.00021654098725048352 0 0.0043762185747193245 0.00017101471896997824 0 0.0042481220397466287 0.00031371237060399422 0 0.0042947918734591861 0.00035761718119154377 0 0.0044994717599233028 0.00026073459346291573 0 0.0040461691427122358 0.00022918437812769312 0 0.0037638315932108455 0.00033970593916305656 0 0.0037944699872435746 0.00026370016033231119 0 0.0037218383686632691 0.00028853903894532183 0 0.0045024879726980891 0.00028150774741838078 0 0.0040461691427122358 0.00022918437812769312 0 0.0044994717599233028 0.00026073459346291573 0 0.0042652092409477494 0.00034710878114960669 0 0.0037638315932108455 0.00033970593916305656 0 0.0037218383686632691 0.00028853903894532183 0 0.0036266487657508613 0.000292067207637204 0 0.0046967187091432319 0.0002394934442023417 0 0.0046298207040805783 0.00027474509050639325 0 0.0047105579279495676 0.00029963143322644237 0 0.003671234559345002 0.00023720807344635028 0 0.0037944699872435746 0.00026370016033231119 0 0.0037218383686632691 0.00028853903894532183 0 0.003671234559345002 0.00023720807344635028 0 0.0037218383686632691 0.00028853903894532183 0 0.0036266487657508613 0.000292067207637204 0 0.0047763031157814434 0.00032302955805672557 0 0.0047105579279495676 0.00029963143322644237 0 0.0047643764326986094 0.0002674130174751417 0 0.0033068411091215361 -6.0634543587471099e-05 0 0.0042652092409477494 0.00034710878114960669 0 0.0047105579279495676 0.00029963143322644237 0 0.0047643764326986094 0.0002674130174751417 0 0.0047321568601030985 0.0002526929477042618 0 0.0046967187091432319 0.0002394934442023417 0 0.0047105579279495676 0.00029963143322644237 0 0.0047321568601030985 0.0002526929477042618 0 0.0047763031157814434 0.00032302955805672557 0 0.0047643764326986094 0.0002674130174751417 0 0.0048304043980593432 0.00024846814920137392 0 0.0033068411091215361 -6.0634543587471099e-05 0 0.0040535961414375505 0.00012962555103818914 0 0.0047643764326986094 0.0002674130174751417 0 0.0047981288110435019 0.00021948706940173174 0 0.0048304043980593432 0.00024846814920137392 0 0.0049598616048918392 0.00036561992368302847 0 0.0040535961414375505 0.00012962555103818914 0 0.0047643764326986094 0.0002674130174751417 0 0.0047981288110435019 0.00021948706940173174 0 0.004743670313281375 0.00022029407179115701 0 0.0047981288110435019 0.00021948706940173174 0 0.0048750835940323195 0.00019080778039768926 0 0.0048677238310732606 0.00025946940392457501 0 0.0046895084206595907 0.00020873511892919656 0 0.004743670313281375 0.00022029407179115701 0 0.0047651160300467704 0.00018617198442605527 0 0.0046967187091432319 0.0002394934442023417 0 0.0047321568601030985 0.0002526929477042618 0 0.004743670313281375 0.00022029407179115701 0 0.0047643764326986094 0.0002674130174751417 0 0.0047321568601030985 0.0002526929477042618 0 0.004743670313281375 0.00022029407179115701 0 0.0047981288110435019 0.00021948706940173174 0 0.004743670313281375 0.00022029407179115701 0 0.0047651160300467704 0.00018617198442605527 0 0.0046967187091432319 0.0002394934442023417 0 0.0046895084206595907 0.00020873511892919656 0 0.004743670313281375 0.00022029407179115701 0 0.0049848588183687304 5.6122573831000487e-06 0 0.0049828033417062684 6.359944870459757e-06 0 0.0049816121166609698 8.0802458030033216e-06 0 0.0046895084206595907 0.00020873511892919656 0 0.0047651160300467704 0.00018617198442605527 0 0.0047636340807114532 0.00012843851883079371 0 0.0049813701742549097 1.2009878254712282e-05 0 0.0049848588183687304 5.6122573831000487e-06 0 0.0049816121166609698 8.0802458030033216e-06 0 0.0048114310779185879 0.0001454996947840615 0 0.0048800119513650719 6.0950207444624376e-05 0 0.0047981288110435019 0.00021948706940173174 0 0.0048214067557194266 0.00017008512604808559 0 0.0048750835940323195 0.00019080778039768926 0 0.0047981288110435019 0.00021948706940173174 0 0.0047651160300467704 0.00018617198442605527 0 0.0048214067557194266 0.00017008512604808559 0 0.0047651160300467704 0.00018617198442605527 0 0.0047636340807114532 0.00012843851883079371 0 0.0048214067557194266 0.00017008512604808559 0 0.0047636340807114532 0.00012843851883079371 0 0.0048214067557194266 0.00017008512604808559 0 0.0048495105215520832 0.00012126664862751849 0 0.0048214067557194266 0.00017008512604808559 0 0.0048495105215520832 0.00012126664862751849 0 0.0048750835940323195 0.00019080778039768926 0 0.0048800119513650719 6.0950207444624376e-05 0 0.0049206703852978442 2.9423824359176712e-05 0 0.0047636340807114532 0.00012843851883079371 0 0.0048495105215520832 0.00012126664862751849 0 0.0048625249893013761 4.8248523276890212e-05 0 0.0049848588183687304 5.6122573831000487e-06 0 0.0049849031749344824 4.2005826809356605e-06 0 0.0049820325453451206 1.3402680110929598e-06 0 0.0049848588183687304 5.6122573831000487e-06 0 0.0049849031749344824 4.2005826809356605e-06 0 0.0049828033417062684 6.359944870459757e-06 0 0.0049905706493643121 0.00010221344108255433 0 0.0049972010879255676 0.00015233832288398628 0 0.0049660280224248154 0.00013603677926758554 0 0.0049849031749344824 4.2005826809356605e-06 0 0.004985369989900441 5.1376704375557055e-06 0 0.0049828033417062684 6.359944870459757e-06 0 0.004985369989900441 5.1376704375557055e-06 0 0.0049828033417062684 6.359944870459757e-06 0 0.0049820313456612362 6.8259732900411656e-06 0 0.0049916451024087675 5.9498580945174547e-05 0 0.0049424700379408198 5.6548478222770203e-05 0 0.0049972010879255676 0.00015233832288398628 0 0.0049563543986236563 0.00017239376839406294 0 0.0049660280224248154 0.00013603677926758554 0 0.0049641745539074624 1.8033556752231003e-05 0 0.0049424700379408198 5.6548478222770203e-05 0 0.0048114310779185879 0.0001454996947840615 0 0.0049424700379408198 5.6548478222770203e-05 0 0.0049306758310075473 0.00017739463408907751 0 0.0049563543986236563 0.00017239376839406294 0 0.0049381224862326267 0.0001451922322344355 0 0.0049563543986236563 0.00017239376839406294 0 0.0049381224862326267 0.0001451922322344355 0 0.0049660280224248154 0.00013603677926758554 0 0.0049381224862326267 0.0001451922322344355 0 0.0049660280224248154 0.00013603677926758554 0 0.004947875880722148 0.00010814832181712107 0 0.0049905706493643121 0.00010221344108255433 0 0.0049660280224248154 0.00013603677926758554 0 0.004947875880722148 0.00010814832181712107 0 0.004947875880722148 0.00010814832181712107 0 0.0049857593182082533 5.2178707155421637e-05 0 0.0049347620310604186 5.6861744214540881e-05 0 0.0049905706493643121 0.00010221344108255433 0 0.004947875880722148 0.00010814832181712107 0 0.0049857593182082533 5.2178707155421637e-05 0 0.0049916451024087675 5.9498580945174547e-05 0 0.0049860700353555479 2.7445355178536466e-05 0 0.004985369989900441 5.1376704375557055e-06 0 0.0049877168160245731 6.7839856569845507e-06 0 0.0049869628816113249 5.6521632587435969e-06 0 0.0049877168160245731 6.7839856569845507e-06 0 0.0049892908220122842 6.3972461732597596e-06 0 0.0049869628816113249 5.6521632587435969e-06 0 0.0049860700353555479 2.7445355178536466e-05 0 0.0049843833658348886 8.3286967239032434e-06 0 0.0049877168160245731 6.7839856569845507e-06 0 0.0049892908220122842 6.3972461732597596e-06 0 0.0049846972024895934 6.5302735731593834e-06 0 0.0049857593182082533 5.2178707155421637e-05 0 0.0049733511230556863 4.9118983919741761e-06 0 0.0049347620310604186 5.6861744214540881e-05 0 0.0049807958853299019 1.0022786993775349e-05 0 0.0049405228524675099 6.1591748373459706e-05 0 0.0049857593182082533 5.2178707155421637e-05 0 0.0049846972024895934 6.5302735731593834e-06 0 0.0049733511230556863 4.9118983919741761e-06 0 0.0049892908220122842 6.3972461732597596e-06 0 0.0049846972024895934 6.5302735731593834e-06 0 0.0049943483295409588 2.9311460484282496e-06 0 0.0049846972024895934 6.5302735731593834e-06 0 0.0049999729151250054 -1.0192204738483642e-08 0 0.0049943483295409588 2.9311460484282496e-06 0 0.0049999729151250054 -1.0192204738483642e-08 0 0.0049943483295409588 2.9311460484282496e-06 0 0.0049999931017082966 8.2587270470113728e-09 0 0.0049846972024895934 6.5302735731593834e-06 0 0.0049733511230556863 4.9118983919741761e-06 0 0.0049999729151250054 -1.0192204738483642e-08 0 0.0049807958853299019 1.0022786993775349e-05 0 0.004999993307128703 2.1882970316712442e-09 0 0.0049900451240454235 1.1702361368637724e-05 0 0.0050000749066121206 3.7766400510332425e-08 0 0.0049998458857756882 -6.3403374655762143e-08 0 0.0049999931017082966 8.2587270470113728e-09 0 0.0049879548879175634 4.6713769694309861e-06 0 0.0049999848054323162 -2.5268374024147373e-10 0 0.0049943483295409588 2.9311460484282496e-06 0 0.0049999931017082966 8.2587270470113728e-09 0 0.0049906114070238008 5.2226671292023135e-06 0 0.0049892908220122842 6.3972461732597596e-06 0 0.0049943483295409588 2.9311460484282496e-06 0 0.0049906114070238008 5.2226671292023135e-06 0 0.0049999931017082966 8.2587270470113728e-09 0 0.0049906114070238008 5.2226671292023135e-06 0 0.0049879548879175634 4.6713769694309861e-06 0 0.0049906114070238008 5.2226671292023135e-06 0 0.0049839031356929218 6.405953660949453e-06 0 0.0049879548879175634 4.6713769694309861e-06 0 0.0049892908220122842 6.3972461732597596e-06 0 0.0049906114070238008 5.2226671292023135e-06 0 0.0049869628816113249 5.6521632587435969e-06 0 0.0049906114070238008 5.2226671292023135e-06 0 0.0049839031356929218 6.405953660949453e-06 0 0.0049869628816113249 5.6521632587435969e-06 0 0.0049849031749344824 4.2005826809356605e-06 0 0.004985369989900441 5.1376704375557055e-06 0 0.0049869628816113249 5.6521632587435969e-06 0 0.0049849031749344824 4.2005826809356605e-06 0 0.0049869628816113249 5.6521632587435969e-06 0 0.0049820325453451206 1.3402680110929598e-06 0 0.0049839031356929218 6.405953660949453e-06 0 0.0049869628816113249 5.6521632587435969e-06 0 0.0049820325453451206 1.3402680110929598e-06 0 0.0049839031356929218 6.405953660949453e-06 0 0.0049820325453451206 1.3402680110929598e-06 0 0.0049656770950224022 7.6813549625092266e-06 0 0.0049206703852978442 2.9423824359176712e-05 0 0.0049582715610371995 8.4230345995680011e-06 0 0.0048625249893013761 4.8248523276890212e-05 0 0.0049463260705893911 5.1920486618652258e-05 0 0.0049656770950224022 7.6813549625092266e-06 0 0.0049463260705893911 5.1920486618652258e-05 0 0.0049656770950224022 7.6813549625092266e-06 0 0.0050033273603340561 1.8711562002329471e-05 0 0.0049463260705893911 5.1920486618652258e-05 0 0.0050033273603340561 1.8711562002329471e-05 0 0.0049744046110337956 0.00010187459801142149 0 0.0049656770950224022 7.6813549625092266e-06 0 0.0049927349482291935 8.806860115944137e-07 0 0.0050033273603340561 1.8711562002329471e-05 0 0.0049839031356929218 6.405953660949453e-06 0 0.0049656770950224022 7.6813549625092266e-06 0 0.0049879548879175634 4.6713769694309861e-06 0 0.0049656770950224022 7.6813549625092266e-06 0 0.0049879548879175634 4.6713769694309861e-06 0 0.0049927349482291935 8.806860115944137e-07 0 0.0049927349482291935 8.806860115944137e-07 0 0.0049999848054323162 -2.5268374024147373e-10 0 0.0049999972775441508 -2.6037327396014944e-09 0 0.0049879548879175634 4.6713769694309861e-06 0 0.0049927349482291935 8.806860115944137e-07 0 0.0049999848054323162 -2.5268374024147373e-10 0 0.0049999972775441508 -2.6037327396014944e-09 0 0.0050023698510803126 3.1543026162795003e-06 0 0.005000004762823234 2.758948599600527e-09 0 0.0048389759529022273 2.5414018328686755e-05 0 0.004999927162115763 2.3818770794362985e-08 0 0.0049927349482291935 8.806860115944137e-07 0 0.0049999972775441508 -2.6037327396014944e-09 0 0.0050023698510803126 3.1543026162795003e-06 0 0.0046771787167358692 1.7635798588061412e-05 0 0.0046143642423780214 3.7224373981251723e-05 0 0.0046210533657039315 3.7223770227204864e-05 0 0.0048389759529022273 2.5414018328686755e-05 0 0.0048303997012472148 1.2681673307881654e-05 0 0.0049927349482291935 8.806860115944137e-07 0 0.0050023698510803126 3.1543026162795003e-06 0 0.0050033273603340561 1.8711562002329471e-05 0 0.0046205649177455919 3.7488766877880084e-05 0 0.0046210533657039315 3.7223770227204864e-05 0 0.004622376618342766 4.1029338841343333e-05 0 0.0046077526819328241 3.524660051490078e-05 0 0.0043948209885920388 0.00015913716949659149 0 0.0046143642423780214 3.7224373981251723e-05 0 0.0042335618934036855 0.00025054665937915315 0 0.0043373723465177155 0.00030530239459827465 0 0.0046143642423780214 3.7224373981251723e-05 0 0.0046205649177455919 3.7488766877880084e-05 0 0.0046210533657039315 3.7223770227204864e-05 0 0.0042335618934036855 0.00025054665937915315 0 0.0043373723465177155 0.00030530239459827465 0 0.0042630947155061919 0.00027570328643508867 0 0.0042630947155061919 0.00027570328643508867 0 0.0041801819884417345 0.00022530361137032768 0 0.0042436113760554953 0.00024131243138048679 0 0.0043373723465177155 0.00030530239459827465 0 0.0042630947155061919 0.00027570328643508867 0 0.0041801819884417345 0.00022530361137032768 0 0.0041801819884417345 0.00022530361137032768 0 0.0041467956229642184 0.00014196453321308988 0 0.0039641848820093171 0.00016517584092649344 0 0.0041801819884417345 0.00022530361137032768 0 0.0042436113760554953 0.00024131243138048679 0 0.0041467956229642184 0.00014196453321308988 0 0.0042436113760554953 0.00024131243138048679 0 0.0042700755471588364 0.00016280079110355238 0 0.0041467956229642184 0.00014196453321308988 0 0.0042436113760554953 0.00024131243138048679 0 0.0042700755471588364 0.00016280079110355238 0 0.0043065903307417629 0.00024365750910077132 0 0.0042335618934036855 0.00025054665937915315 0 0.0042436113760554953 0.00024131243138048679 0 0.0043065903307417629 0.00024365750910077132 0 0.0043948209885920388 0.00015913716949659149 0 0.0047065143329043085 0.00013180938727077517 0 0.0042335618934036855 0.00025054665937915315 0 0.0042630947155061919 0.00027570328643508867 0 0.0042436113760554953 0.00024131243138048679 0 0.0048303997012472148 1.2681673307881654e-05 0 0.0047065143329043085 0.00013180938727077517 0 0.0048625249893013761 4.8248523276890212e-05 0 0.0049463260705893911 5.1920486618652258e-05 0 0.0049069250565751208 0.00010175231433726402 0 0.0049463260705893911 5.1920486618652258e-05 0 0.0049744046110337956 0.00010187459801142149 0 0.0049069250565751208 0.00010175231433726402 0 0.0048495105215520832 0.00012126664862751849 0 0.0048625249893013761 4.8248523276890212e-05 0 0.0049069250565751208 0.00010175231433726402 0 0.0049429296048349742 0.00012852697959272194 0 0.0049097417720637918 0.00018589530449052299 0 0.0048750835940323195 0.00019080778039768926 0 0.0047065143329043085 0.00013180938727077517 0 0.0049631962377178979 0.00015542377364949147 0 0.0048495105215520832 0.00012126664862751849 0 0.0049069250565751208 0.00010175231433726402 0 0.0048750835940323195 0.00019080778039768926 0 0.0049744046110337956 0.00010187459801142149 0 0.0049069250565751208 0.00010175231433726402 0 0.0048750835940323195 0.00019080778039768926 0 0.0042700755471588364 0.00016280079110355238 0 0.0043065903307417629 0.00024365750910077132 0 0.0043741005634175198 0.00016465413141650506 0 0.0047065143329043085 0.00013180938727077517 0 0.0046649113089748586 0.00014806128256183933 0 0.0042700755471588364 0.00016280079110355238 0 0.0043166430722681864 8.5864425791378694e-05 0 0.0042090740818869982 6.2379226025623978e-05 0 0.0042700755471588364 0.00016280079110355238 0 0.0043741005634175198 0.00016465413141650506 0 0.0043166430722681864 8.5864425791378694e-05 0 0.0043741005634175198 0.00016465413141650506 0 0.0043166430722681864 8.5864425791378694e-05 0 0.0044403585911024016 6.77756556733661e-05 0 0.0049097417720637918 0.00018589530449052299 0 0.0048750835940323195 0.00019080778039768926 0 0.0048677238310732606 0.00025946940392457501 0 0.0046649113089748586 0.00014806128256183933 0 0.0040535961414375505 0.00012962555103818914 0 0.0028494616859153976 -0.00028747380737129282 0 0.002690541939594936 -2.7079712822341273e-05 0 0.0026070361125671757 -0.00023194117433270067 0 0.0040535961414375505 0.00012962555103818914 0 0.0032411738523009316 -0.00018057218562809608 0 0.002690541939594936 -2.7079712822341273e-05 0 0.0026070361125671757 -0.00023194117433270067 0 0.0023950180636842771 -0.00023498166247753696 0 0.0043166430722681864 8.5864425791378694e-05 0 0.0042878404199942722 -4.7064239208056793e-05 0 0.0042090740818869982 6.2379226025623978e-05 0 0.0043166430722681864 8.5864425791378694e-05 0 0.0044403585911024016 6.77756556733661e-05 0 0.0042878404199942722 -4.7064239208056793e-05 0 0.0042878404199942722 -4.7064239208056793e-05 0 0.0041409433948953285 -4.0593535402855361e-05 0 0.0042090740818869982 6.2379226025623978e-05 0 0.0041409433948953285 -4.0593535402855361e-05 0 0.004096107591306096 3.3851261702014536e-05 0 0.0042090740818869982 6.2379226025623978e-05 0 0.0041409433948953285 -4.0593535402855361e-05 0 0.0040403231195223644 -8.9560851890597347e-05 0 0.004096107591306096 3.3851261702014536e-05 0 0.0039713411687052197 -2.4254911019919864e-05 0 0.004096107591306096 3.3851261702014536e-05 0 0.0039402828251467112 6.6228588091185372e-05 0 0.0038998510562346183 -0.00013482750310831306 0 0.0040403231195223644 -8.9560851890597347e-05 0 0.0039713411687052197 -2.4254911019919864e-05 0 0.0040403231195223644 -8.9560851890597347e-05 0 0.0039713411687052197 -2.4254911019919864e-05 0 0.004096107591306096 3.3851261702014536e-05 0 0.004096107591306096 3.3851261702014536e-05 0 0.0041467956229642184 0.00014196453321308988 0 0.0042090740818869982 6.2379226025623978e-05 0 0.004096107591306096 3.3851261702014536e-05 0 0.0041467956229642184 0.00014196453321308988 0 0.0039402828251467112 6.6228588091185372e-05 0 0.0042700755471588364 0.00016280079110355238 0 0.0041467956229642184 0.00014196453321308988 0 0.0042090740818869982 6.2379226025623978e-05 0 0.0037715238595001995 3.9788906787709183e-05 0 0.0036683454165193827 8.4882984775444978e-05 0 0.0038220540654167121 0.00010558834982435121 0 0.0037715238595001995 3.9788906787709183e-05 0 0.0036621410259778018 3.8327127540681149e-05 0 0.0036683454165193827 8.4882984775444978e-05 0 0.0036683454165193827 8.4882984775444978e-05 0 0.0038220540654167121 0.00010558834982435121 0 0.0037404194091125243 0.00016636168411486194 0 0.0041467956229642184 0.00014196453321308988 0 0.0039402828251467112 6.6228588091185372e-05 0 0.0039641848820093171 0.00016517584092649344 0 0.0038220540654167121 0.00010558834982435121 0 0.0039402828251467112 6.6228588091185372e-05 0 0.0039641848820093171 0.00016517584092649344 0 0.0037715238595001995 3.9788906787709183e-05 0 0.0038220540654167121 0.00010558834982435121 0 0.0039402828251467112 6.6228588091185372e-05 0 0.0039713411687052197 -2.4254911019919864e-05 0 0.0039402828251467112 6.6228588091185372e-05 0 0.0038012228157001211 -5.3209156747890402e-05 0 0.0037715238595001995 3.9788906787709183e-05 0 0.0039402828251467112 6.6228588091185372e-05 0 0.0038012228157001211 -5.3209156747890402e-05 0 0.0038998510562346183 -0.00013482750310831306 0 0.0039713411687052197 -2.4254911019919864e-05 0 0.0038012228157001211 -5.3209156747890402e-05 0 0.0036396038361914823 -0.0001064284549922743 0 0.0038012228157001211 -5.3209156747890402e-05 0 0.0036385374737812858 -1.502714232795658e-05 0 0.0037715238595001995 3.9788906787709183e-05 0 0.0038012228157001211 -5.3209156747890402e-05 0 0.0036385374737812858 -1.502714232795658e-05 0 0.0037715238595001995 3.9788906787709183e-05 0 0.0036621410259778018 3.8327127540681149e-05 0 0.0036385374737812858 -1.502714232795658e-05 0 0.0035066300388606111 -7.2928423082414497e-05 0 0.0036385374737812858 -1.502714232795658e-05 0 0.0035288563441544778 2.1061767156213581e-06 0 0.0035066300388606111 -7.2928423082414497e-05 0 0.0034698734180308834 -1.3729667930497171e-05 0 0.0034087711313867015 -4.8004595854286291e-05 0 0.0035066300388606111 -7.2928423082414497e-05 0 0.0034698734180308834 -1.3729667930497171e-05 0 0.0035288563441544778 2.1061767156213581e-06 0 0.0035288563441544778 2.1061767156213581e-06 0 0.0034868002233551841 2.5003125433716793e-05 0 0.0035289630891970698 3.3298403403978366e-05 0 0.0034698734180308834 -1.3729667930497171e-05 0 0.0034868002233551841 2.5003125433716793e-05 0 0.0034430532908467397 1.783764589533847e-05 0 0.0034698734180308834 -1.3729667930497171e-05 0 0.0035288563441544778 2.1061767156213581e-06 0 0.0034868002233551841 2.5003125433716793e-05 0 0.0034868002233551841 2.5003125433716793e-05 0 0.0034974855418959147 4.9960025651571066e-05 0 0.0035289630891970698 3.3298403403978366e-05 0 0.0035288563441544778 2.1061767156213581e-06 0 0.0035289630891970698 3.3298403403978366e-05 0 0.0035757453091561412 4.1244132194159468e-05 0 0.0036621410259778018 3.8327127540681149e-05 0 0.0036385374737812858 -1.502714232795658e-05 0 0.0035757453091561412 4.1244132194159468e-05 0 0.0036385374737812858 -1.502714232795658e-05 0 0.0035288563441544778 2.1061767156213581e-06 0 0.0035757453091561412 4.1244132194159468e-05 0 0.0033403189300389999 -4.7368676286266291e-05 0 0.0033672028718155071 1.8835232252312029e-06 0 0.0032616787548815185 -3.8336448344560479e-05 0 0.0033672028718155071 1.8835232252312029e-06 0 0.0033848515213188118 2.9703574629027653e-05 0 0.0032616787548815185 -3.8336448344560479e-05 0 0.0033403189300389999 -4.7368676286266291e-05 0 0.0033672028718155071 1.8835232252312029e-06 0 0.0033957804765376845 -9.6763104524668806e-06 0 0.0034698734180308834 -1.3729667930497171e-05 0 0.0034087711313867015 -4.8004595854286291e-05 0 0.0034430532908467397 1.783764589533847e-05 0 0.0033957804765376845 -9.6763104524668806e-06 0 0.0034087711313867015 -4.8004595854286291e-05 0 0.0034430532908467397 1.783764589533847e-05 0 0.0033957804765376845 -9.6763104524668806e-06 0 0.0034430532908467397 1.783764589533847e-05 0 0.0034215215507716751 3.2954493512051527e-05 0 0.0033672028718155071 1.8835232252312029e-06 0 0.0033957804765376845 -9.6763104524668806e-06 0 0.0034215215507716751 3.2954493512051527e-05 0 0.0033403189300389999 -4.7368676286266291e-05 0 0.0033957804765376845 -9.6763104524668806e-06 0 0.0034087711313867015 -4.8004595854286291e-05 0 0.0034868002233551841 2.5003125433716793e-05 0 0.0034430532908467397 1.783764589533847e-05 0 0.003460389105004423 5.1256159447989756e-05 0 0.0034974855418959147 4.9960025651571066e-05 0 0.003460389105004423 5.1256159447989756e-05 0 0.0034805902841842039 6.4438008137733741e-05 0 0.0034868002233551841 2.5003125433716793e-05 0 0.0034974855418959147 4.9960025651571066e-05 0 0.003460389105004423 5.1256159447989756e-05 0 0.003460389105004423 5.1256159447989756e-05 0 0.0034515704076587992 6.8851578852340106e-05 0 0.0034805902841842039 6.4438008137733741e-05 0 0.003460389105004423 5.1256159447989756e-05 0 0.0034515704076587992 6.8851578852340106e-05 0 0.0034367703336703969 6.1005795019704925e-05 0 0.0034515704076587992 6.8851578852340106e-05 0 0.0034298140165338782 8.4194074836552171e-05 0 0.0034616498565326857 6.9427982789364712e-05 0 0.0034515704076587992 6.8851578852340106e-05 0 0.0034367703336703969 6.1005795019704925e-05 0 0.0034298140165338782 8.4194074836552171e-05 0 0.0034367703336703969 6.1005795019704925e-05 0 0.0034215215507716751 3.2954493512051527e-05 0 0.0033848515213188118 2.9703574629027653e-05 0 0.0034430532908467397 1.783764589533847e-05 0 0.003460389105004423 5.1256159447989756e-05 0 0.0034215215507716751 3.2954493512051527e-05 0 0.003460389105004423 5.1256159447989756e-05 0 0.0034367703336703969 6.1005795019704925e-05 0 0.0034215215507716751 3.2954493512051527e-05 0 0.0033848515213188118 2.9703574629027653e-05 0 0.0034298140165338782 8.4194074836552171e-05 0 0.0032616787548815185 -3.8336448344560479e-05 0 0.0034367703336703969 6.1005795019704925e-05 0 0.0033848515213188118 2.9703574629027653e-05 0 0.0034298140165338782 8.4194074836552171e-05 0 0.0033672028718155071 1.8835232252312029e-06 0 0.0034215215507716751 3.2954493512051527e-05 0 0.0033848515213188118 2.9703574629027653e-05 0 0.0034298140165338782 8.4194074836552171e-05 0 0.0034793507712795146 6.3853110257771039e-05 0 0.0035330126218878492 6.4133971133907195e-05 0 0.0034793507712795146 6.3853110257771039e-05 0 0.003507973488963952 5.027778376367395e-05 0 0.0035330126218878492 6.4133971133907195e-05 0 0.0034298140165338782 8.4194074836552171e-05 0 0.0034793507712795146 6.3853110257771039e-05 0 0.0034616498565326857 6.9427982789364712e-05 0 0.0034793507712795146 6.3853110257771039e-05 0 0.0034808088240499717 6.4728197457842104e-05 0 0.0034616498565326857 6.9427982789364712e-05 0 0.0034793507712795146 6.3853110257771039e-05 0 0.0034808088240499717 6.4728197457842104e-05 0 0.003507973488963952 5.027778376367395e-05 0 0.0034972305998237749 6.6758364023098598e-05 0 0.0034808088240499717 6.4728197457842104e-05 0 0.003507973488963952 5.027778376367395e-05 0 0.0034972305998237749 6.6758364023098598e-05 0 0.0034805902841842039 6.4438008137733741e-05 0 0.0035393580615158595 7.0758283569530896e-05 0 0.0034972305998237749 6.6758364023098598e-05 0 0.0034808088240499717 6.4728197457842104e-05 0 0.0034805902841842039 6.4438008137733741e-05 0 0.0034808088240499717 6.4728197457842104e-05 0 0.0034616498565326857 6.9427982789364712e-05 0 0.0034805902841842039 6.4438008137733741e-05 0 0.0034515704076587992 6.8851578852340106e-05 0 0.0034616498565326857 6.9427982789364712e-05 0 0.0034805902841842039 6.4438008137733741e-05 0 0.0034972305998237749 6.6758364023098598e-05 0 0.003507973488963952 5.027778376367395e-05 0 0.0035222847854847117 8.0372821190544637e-05 0 0.0034972305998237749 6.6758364023098598e-05 0 0.0035393580615158595 7.0758283569530896e-05 0 0.0035222847854847117 8.0372821190544637e-05 0 0.0036683454165193827 8.4882984775444978e-05 0 0.0035757453091561412 4.1244132194159468e-05 0 0.0035393580615158595 7.0758283569530896e-05 0 0.0036621410259778018 3.8327127540681149e-05 0 0.0036683454165193827 8.4882984775444978e-05 0 0.0035757453091561412 4.1244132194159468e-05 0 0.0035289630891970698 3.3298403403978366e-05 0 0.0035757453091561412 4.1244132194159468e-05 0 0.0035393580615158595 7.0758283569530896e-05 0 0.0034974855418959147 4.9960025651571066e-05 0 0.0035289630891970698 3.3298403403978366e-05 0 0.0035393580615158595 7.0758283569530896e-05 0 0.0034974855418959147 4.9960025651571066e-05 0 0.0034805902841842039 6.4438008137733741e-05 0 0.0035393580615158595 7.0758283569530896e-05 0 0.0035393580615158595 7.0758283569530896e-05 0 0.0035980525833895715 0.00012471962002555254 0 0.0035222847854847117 8.0372821190544637e-05 0 0.0036683454165193827 8.4882984775444978e-05 0 0.0035393580615158595 7.0758283569530896e-05 0 0.0035980525833895715 0.00012471962002555254 0 0.0035980525833895715 0.00012471962002555254 0 0.0035644508625632524 0.00020473704888523104 0 0.0037404194091125243 0.00016636168411486194 0 0.0036683454165193827 8.4882984775444978e-05 0 0.0035980525833895715 0.00012471962002555254 0 0.0037404194091125243 0.00016636168411486194 0 0.0035980525833895715 0.00012471962002555254 0 0.0035644508625632524 0.00020473704888523104 0 0.0035222847854847117 8.0372821190544637e-05 0 0.0041976418347492049 0.00014016194604984082 0 0.0041483051627502565 -8.3240541662047944e-06 0 0.0035644508625632524 0.00020473704888523104 0 0.0035222847854847117 8.0372821190544637e-05 0 0.0035339372343776636 5.0930934792143656e-06 0 0.003507973488963952 5.027778376367395e-05 0 0.0035222847854847117 8.0372821190544637e-05 0 0.0035339372343776636 5.0930934792143656e-06 0 0.0048241537835676078 7.9540415785568207e-05 0 0.0048085500533881029 7.0583323785653289e-05 0 0.0047485907436420217 -3.3081494143188828e-05 0 0.0048241537835676078 7.9540415785568207e-05 0 0.0048222969527628133 0.00011295781089477306 0 0.0048085500533881029 7.0583323785653289e-05 0 0.0041976418347492049 0.00014016194604984082 0 0.004298099682087388 0.00026987958876151274 0 0.0048241537835676078 7.9540415785568207e-05 0 0.0047611528520635302 0.00022999302716030073 0 0.0048222969527628133 0.00011295781089477306 0 0.0035644508625632524 0.00020473704888523104 0 0.0038629360271460731 0.0003353229855886305 0 0.0037404194091125243 0.00016636168411486194 0 0.0038220540654167121 0.00010558834982435121 0 0.0037404194091125243 0.00016636168411486194 0 0.0039641848820093171 0.00016517584092649344 0 0.0038629360271460731 0.0003353229855886305 0 0.0037404194091125243 0.00016636168411486194 0 0.0039641848820093171 0.00016517584092649344 0 0.0041801819884417345 0.00022530361137032768 0 0.0038629360271460731 0.0003353229855886305 0 0.0039641848820093171 0.00016517584092649344 0 0.0043373723465177155 0.00030530239459827465 0 0.0047611528520635302 0.00022999302716030073 0 0.0046940649080292407 0.00013357811787455858 0 0.0043184261058476104 0.00029850924473803672 0 0.004298099682087388 0.00026987958876151274 0 0.0043373723465177155 0.00030530239459827465 0 0.0041801819884417345 0.00022530361137032768 0 0.0038629360271460731 0.0003353229855886305 0 0.0046143642423780214 3.7224373981251723e-05 0 0.0043373723465177155 0.00030530239459827465 0 0.0046940649080292407 0.00013357811787455858 0 0.0046940649080292407 0.00013357811787455858 0 0.0048222969527628133 0.00011295781089477306 0 0.0047724978515619829 5.7130269221050825e-05 0 0.0047611528520635302 0.00022999302716030073 0 0.0046940649080292407 0.00013357811787455858 0 0.0048222969527628133 0.00011295781089477306 0 0.0048222969527628133 0.00011295781089477306 0 0.0047724978515619829 5.7130269221050825e-05 0 0.0048628175539320376 5.1918599946437581e-05 0 0.0047724978515619829 5.7130269221050825e-05 0 0.0048459081686803504 1.2171295550671626e-05 0 0.0048628175539320376 5.1918599946437581e-05 0 0.0046143642423780214 3.7224373981251723e-05 0 0.0046940649080292407 0.00013357811787455858 0 0.0047724978515619829 5.7130269221050825e-05 0 0.0046143642423780214 3.7224373981251723e-05 0 0.0047724978515619829 5.7130269221050825e-05 0 0.0048459081686803504 1.2171295550671626e-05 0 0.0046771787167358692 1.7635798588061412e-05 0 0.0046143642423780214 3.7224373981251723e-05 0 0.0048459081686803504 1.2171295550671626e-05 0 0.0046771787167358692 1.7635798588061412e-05 0 0.0048459081686803504 1.2171295550671626e-05 0 0.0049995294780420009 -1.0141303135349475e-07 0 0.0048459081686803504 1.2171295550671626e-05 0 0.004925804654489988 1.916277079949155e-05 0 0.0048628175539320376 5.1918599946437581e-05 0 0.0048459081686803504 1.2171295550671626e-05 0 0.0050000475704052669 -1.5704648366461381e-08 0 0.004925804654489988 1.916277079949155e-05 0 0.0048459081686803504 1.2171295550671626e-05 0 0.0050000475704052669 -1.5704648366461381e-08 0 0.0049995294780420009 -1.0141303135349475e-07 0 0.0049996076181996231 1.6220013429017646e-07 0 0.004925804654489988 1.916277079949155e-05 0 0.0048654909092502377 3.788117560356567e-05 0 0.0050000475704052669 -1.5704648366461381e-08 0 0.0049996076181996231 1.6220013429017646e-07 0 0.004925804654489988 1.916277079949155e-05 0 0.004925804654489988 1.916277079949155e-05 0 0.0048654909092502377 3.788117560356567e-05 0 0.0048628175539320376 5.1918599946437581e-05 0 0.0048654909092502377 3.788117560356567e-05 0 0.0048628175539320376 5.1918599946437581e-05 0 0.0048085500533881029 7.0583323785653289e-05 0 0.0048222969527628133 0.00011295781089477306 0 0.0048628175539320376 5.1918599946437581e-05 0 0.0048085500533881029 7.0583323785653289e-05 0 0.0049999989436123543 -1.2693247828617061e-09 0 0.0049878413912625317 2.8522857153491366e-06 0 0.0049995958991919569 5.0502167439761925e-08 0 0.0048085500533881029 7.0583323785653289e-05 0 0.0047330736430041152 5.9574308027252226e-05 0 0.0046473470829494507 2.7023032411021189e-05 0 0.0047330736430041152 5.9574308027252226e-05 0 0.0045757991289147029 3.6531255661244162e-05 0 0.0046473470829494507 2.7023032411021189e-05 0 0.0047330736430041152 5.9574308027252226e-05 0 0.0048094789608891407 5.2154216336735068e-05 0 0.0047418034483208086 4.3065282234915399e-05 0 0.0048654909092502377 3.788117560356567e-05 0 0.0047330736430041152 5.9574308027252226e-05 0 0.0048094789608891407 5.2154216336735068e-05 0 0.0048654909092502377 3.788117560356567e-05 0 0.0048085500533881029 7.0583323785653289e-05 0 0.0047330736430041152 5.9574308027252226e-05 0 0.0048654909092502377 3.788117560356567e-05 0 0.0048094789608891407 5.2154216336735068e-05 0 0.0048452641794082306 3.2426264224914949e-05 0 0.0048094789608891407 5.2154216336735068e-05 0 0.0048452641794082306 3.2426264224914949e-05 0 0.0049386354350051493 1.1425873657691029e-05 0 0.004919621702409044 1.3912556534356509e-05 0 0.0049397297990530185 1.4429692620223975e-05 0 0.0049999649407417744 8.6624622630178783e-09 0 0.004919621702409044 1.3912556534356509e-05 0 0.0049996076181996231 1.6220013429017646e-07 0 0.0048654909092502377 3.788117560356567e-05 0 0.0048452641794082306 3.2426264224914949e-05 0 0.0049995958991919569 5.0502167439761925e-08 0 0.0049386354350051493 1.1425873657691029e-05 0 0.0047418034483208086 4.3065282234915399e-05 0 0.0049878413912625317 2.8522857153491366e-06 0 0.0049995958991919569 5.0502167439761925e-08 0 0.0049386354350051493 1.1425873657691029e-05 0 0.0049995958991919569 5.0502167439761925e-08 0 0.0047418034483208086 4.3065282234915399e-05 0 0.0044247561338697731 1.5107522102059545e-07 0 0.0048094789608891407 5.2154216336735068e-05 0 0.0049386354350051493 1.1425873657691029e-05 0 0.0047418034483208086 4.3065282234915399e-05 0 0.0047330736430041152 5.9574308027252226e-05 0 0.0047418034483208086 4.3065282234915399e-05 0 0.0045757991289147029 3.6531255661244162e-05 0 0.0047418034483208086 4.3065282234915399e-05 0 0.0045757991289147029 3.6531255661244162e-05 0 0.0044247561338697731 1.5107522102059545e-07 0 0.0044247561338697731 1.5107522102059545e-07 0 0.0043558044131407391 -1.9191250619278392e-06 0 0.004000114395013416 -1.3167540863899508e-07 0 0.0045757991289147029 3.6531255661244162e-05 0 0.0044247561338697731 1.5107522102059545e-07 0 0.0043558044131407391 -1.9191250619278392e-06 0 0.0043558044131407391 -1.9191250619278392e-06 0 0.004000114395013416 -1.3167540863899508e-07 0 0.0040886340494173798 -4.5524823268192089e-05 0 0.0043558044131407391 -1.9191250619278392e-06 0 0.0045337273349605068 -0.00011796895924685772 0 0.0040886340494173798 -4.5524823268192089e-05 0 0.0045757991289147029 3.6531255661244162e-05 0 0.0043558044131407391 -1.9191250619278392e-06 0 0.0046473470829494507 2.7023032411021189e-05 0 0.0048085500533881029 7.0583323785653289e-05 0 0.0046473470829494507 2.7023032411021189e-05 0 0.0047485907436420217 -3.3081494143188828e-05 0 0.0035339372343776636 5.0930934792143656e-06 0 0.003764571332174674 -8.543136939740042e-05 0 0.0035897454459931466 3.4092914709541507e-05 0 0.0041483051627502565 -8.3240541662047944e-06 0 0.004151551386326946 -8.3087634420539499e-05 0 0.0046473470829494507 2.7023032411021189e-05 0 0.0047485907436420217 -3.3081494143188828e-05 0 0.0045337273349605068 -0.00011796895924685772 0 0.0043558044131407391 -1.9191250619278392e-06 0 0.0046473470829494507 2.7023032411021189e-05 0 0.0045337273349605068 -0.00011796895924685772 0 0.003764571332174674 -8.543136939740042e-05 0 0.003719524774583208 3.4058063250373165e-05 0 0.0038428903555049261 4.3029616750330431e-05 0 0.003764571332174674 -8.543136939740042e-05 0 0.003719524774583208 3.4058063250373165e-05 0 0.0035897454459931466 3.4092914709541507e-05 0 0.003507973488963952 5.027778376367395e-05 0 0.0035339372343776636 5.0930934792143656e-06 0 0.0035897454459931466 3.4092914709541507e-05 0 0.003719524774583208 3.4058063250373165e-05 0 0.0035897454459931466 3.4092914709541507e-05 0 0.0036836287024742762 0.00013898082526484138 0 0.0035897454459931466 3.4092914709541507e-05 0 0.0035330126218878492 6.4133971133907195e-05 0 0.0036836287024742762 0.00013898082526484138 0 0.003507973488963952 5.027778376367395e-05 0 0.0035897454459931466 3.4092914709541507e-05 0 0.0035330126218878492 6.4133971133907195e-05 0 0.0034526455289014095 8.9895138950640452e-06 0 0.00359973146628548 4.2114786491416885e-05 0 0.0034298140165338782 8.4194074836552171e-05 0 0.0035330126218878492 6.4133971133907195e-05 0 0.0036836287024742762 0.00013898082526484138 0 0.0032991124984880259 -6.0483909891680464e-05 0 0.0034526455289014095 8.9895138950640452e-06 0 0.0030648943026120473 -9.1247786883182693e-05 0 0.0034298140165338782 8.4194074836552171e-05 0 0.0032616787548815185 -3.8336448344560479e-05 0 0.0035211817477290644 -2.1052775255930423e-05 0 0.0034740989575570333 -5.2931845447481052e-05 0 0.0035214404002649503 -4.2902737386927157e-05 0 0.0036836287024742762 0.00013898082526484138 0 0.0039162436900632659 7.5222964407074984e-05 0 0.0038428903555049261 4.3029616750330431e-05 0 0.00359973146628548 4.2114786491416885e-05 0 0.0037311163878983814 2.6293072296577874e-05 0 0.0035211817477290644 -2.1052775255930423e-05 0 0.0035214404002649503 -4.2902737386927157e-05 0 0.0035671731043387883 -2.9491940779383466e-05 0 0.003719524774583208 3.4058063250373165e-05 0 0.0036836287024742762 0.00013898082526484138 0 0.0038428903555049261 4.3029616750330431e-05 0 0.0039457985213764233 3.6386740225940019e-05 0 0.0039162436900632659 7.5222964407074984e-05 0 0.0038428903555049261 4.3029616750330431e-05 0 0.0036877039426588942 6.2053657317586858e-08 0 0.0039279563319971475 2.9251660562901861e-05 0 0.004000114395013416 -1.3167540863899508e-07 0 0.0039457985213764233 3.6386740225940019e-05 0 0.0039162436900632659 7.5222964407074984e-05 0 0.0039279563319971475 2.9251660562901861e-05 0 0.0036877039426588942 6.2053657317586858e-08 0 0.0039162436900632659 7.5222964407074984e-05 0 0.0039279563319971475 2.9251660562901861e-05 0 0.0039457985213764233 3.6386740225940019e-05 0 0.0039279563319971475 2.9251660562901861e-05 0 0.0040886340494173798 -4.5524823268192089e-05 0 0.0039279563319971475 2.9251660562901861e-05 0 0.004000114395013416 -1.3167540863899508e-07 0 0.0040886340494173798 -4.5524823268192089e-05 0 0.004151551386326946 -8.3087634420539499e-05 0 0.0041099043287552298 -5.7786617745676564e-05 0 0.003764571332174674 -8.543136939740042e-05 0 0.0040886340494173798 -4.5524823268192089e-05 0 0.0038428903555049261 4.3029616750330431e-05 0 0.0039457985213764233 3.6386740225940019e-05 0 0.0040886340494173798 -4.5524823268192089e-05 0 0.0038428903555049261 4.3029616750330431e-05 0 0.0046862686276892525 0.00023924137894689785 0 0.004769999506062635 0.00020181000346819784 0 0.0047031347889382813 0.00023435800774836249 0 0.0047244985574155787 0.00020235250204541248 0 0.0046804888988155819 0.00020606024044632977 0 0.0046717886321860618 0.00024123513884508475 0 0.0047275856437931259 0.00022293585018564447 0 0.004702147395083108 0.00019542506316489399 0 0.0047031347889382813 0.00023435800774836249 0 0.0046698457320377617 0.00023597385433871517 0 0.0046804888988155819 0.00020606024044632977 0 0.0047031347889382813 0.00023435800774836249 0 0.0046698457320377617 0.00023597385433871517 0 0.0046811909478148344 0.00026681293579682052 0 0.0046698457320377617 0.00023597385433871517 0 0.0046541055115477291 0.0002655048528084917 0 0.0046811909478148344 0.00026681293579682052 0 0.0046862686276892525 0.00023924137894689785 0 0.0046135657646296756 0.00026767928193387305 0 0.0046717886321860618 0.00024123513884508475 0 0.0047150770154970609 0.00025996422541392305 0 0.0046898417150993792 0.00028811321646427402 0 0.0046717886321860618 0.00024123513884508475 0 0.0046898417150993792 0.00028811321646427402 0 0.0046417741225907921 0.00028666250347941314 0 0.0047150770154970609 0.00025996422541392305 0 0.0046898417150993792 0.00028811321646427402 0 0.0047374431435526984 0.00028915913620383623 0 0.0047150770154970609 0.00025996422541392305 0 0.0047459634809757225 0.00025639142326038629 0 0.0047374431435526984 0.00028915913620383623 0 0.0047150770154970609 0.00025996422541392305 0 0.0047459634809757225 0.00025639142326038629 0 0.0047275856437931259 0.00022293585018564447 0 0.0047791271937596309 0.00027614186208074033 0 0.0047702695966167904 0.00023373135470579134 0 0.0047932527743521428 0.00024991359717259766 0 0.0047013798259785662 0.00024216705446861834 0 0.0045101928596237469 0.00023119029388656381 0 0.0047791271937596309 0.00027614186208074033 0 0.0047459634809757225 0.00025639142326038629 0 0.0047374431435526984 0.00028915913620383623 0 0.0047791271937596309 0.00027614186208074033 0 0.0047459634809757225 0.00025639142326038629 0 0.0047702695966167904 0.00023373135470579134 0 0.0047702695966167904 0.00023373135470579134 0 0.004798661502965991 0.00022601748382035334 0 0.0047868550055012553 0.00019340257078557502 0 0.0047702695966167904 0.00023373135470579134 0 0.0047275856437931259 0.00022293585018564447 0 0.0047484828009282613 0.00019059067041540044 0 0.0047702695966167904 0.00023373135470579134 0 0.0047484828009282613 0.00019059067041540044 0 0.0047868550055012553 0.00019340257078557502 0 0.0047459634809757225 0.00025639142326038629 0 0.0047702695966167904 0.00023373135470579134 0 0.0047275856437931259 0.00022293585018564447 0 0.0047275856437931259 0.00022293585018564447 0 0.0047484828009282613 0.00019059067041540044 0 0.0047035810898523765 0.0001967893889058894 0 0.0046717886321860618 0.00024123513884508475 0 0.0047150770154970609 0.00025996422541392305 0 0.0047275856437931259 0.00022293585018564447 0 0.0047198910247505752 0.00020441776200396912 0 0.004769999506062635 0.00020181000346819784 0 0.0047484828009282613 0.00019059067041540044 0 0.0047365661131222947 0.00014585039305151893 0 0.0047035810898523765 0.0001967893889058894 0 0.0048360396874732653 0.00014723025421063573 0 0.004769999506062635 0.00020181000346819784 0 0.0047484828009282613 0.00019059067041540044 0 0.0047752481847224493 0.00014932385038593396 0 0.0047868550055012553 0.00019340257078557502 0 0.0047752481847224493 0.00014932385038593396 0 0.0047365661131222947 0.00014585039305151893 0 0.0047713275764394852 9.3103330023226567e-05 0 0.0047484828009282613 0.00019059067041540044 0 0.0047752481847224493 0.00014932385038593396 0 0.0047365661131222947 0.00014585039305151893 0 0.0047752481847224493 0.00014932385038593396 0 0.0048007294020210858 0.00011722765405317148 0 0.0047713275764394852 9.3103330023226567e-05 0 0.0049287121041234798 0.00015189441301939691 0 0.004887428581916424 0.00013731969463141421 0 0.0048915904923132521 0.00020742986330272566 0 0.0049287121041234798 0.00015189441301939691 0 0.004887428581916424 0.00013731969463141421 0 0.0049158313274445748 0.00010750913869994349 0 0.004887428581916424 0.00013731969463141421 0 0.0048501488408175843 0.00016222279630608361 0 0.0048686245058434958 9.1192791343216165e-05 0 0.004887428581916424 0.00013731969463141421 0 0.0048501488408175843 0.00016222279630608361 0 0.0048915904923132521 0.00020742986330272566 0 0.0047675673675086506 0.00016683024540580055 0 0.004769999506062635 0.00020181000346819784 0 0.0046977805171402589 0.00017354751821933018 0 0.0047244985574155787 0.00020235250204541248 0 0.0046804888988155819 0.00020606024044632977 0 0.0046977805171402589 0.00017354751821933018 0 0.0046804888988155819 0.00020606024044632977 0 0.0046602769042083199 0.00018184210103610059 0 0.0046977805171402589 0.00017354751821933018 0 0.0046602769042083199 0.00018184210103610059 0 0.0046719273113136964 0.00014474722907973186 0 0.0047675673675086506 0.00016683024540580055 0 0.0048422524134034339 0.00011062754100431929 0 0.0046403749953909381 0.00015809605039181281 0 0.0046602769042083199 0.00018184210103610059 0 0.0046719273113136964 0.00014474722907973186 0 0.0047754977926694276 0.00015248343508973201 0 0.0048422524134034339 0.00011062754100431929 0 0.0046403749953909381 0.00015809605039181281 0 0.0046268087571388469 0.00019166287636615499 0 0.0046602769042083199 0.00018184210103610059 0 0.0047754977926694276 0.00015248343508973201 0 0.0047763296700534729 0.00017795199447340264 0 0.0049271339054587551 0.00013978084907403246 0 0.004895880238115163 0.00014733547487053418 0 0.0048837196177338379 0.00016204671791777335 0 0.0046403749953909381 0.00015809605039181281 0 0.0046268087571388469 0.00019166287636615499 0 0.0046089638314250033 0.00017164195482655169 0 0.004895880238115163 0.00014733547487053418 0 0.0048696216427053744 0.00014302279706674282 0 0.0048907851333517939 0.00012534253453650536 0 0.0049271339054587551 0.00013978084907403246 0 0.004895880238115163 0.00014733547487053418 0 0.0048907851333517939 0.00012534253453650536 0 0.0048486324778067155 0.00013526891171534026 0 0.0047763296700534729 0.00017795199447340264 0 0.0046268087571388469 0.00019166287636615499 0 0.0046602769042083199 0.00018184210103610059 0 0.0046440971709275358 0.00021710485109481976 0 0.0046804888988155819 0.00020606024044632977 0 0.0046602769042083199 0.00018184210103610059 0 0.0046440971709275358 0.00021710485109481976 0 0.0047899358863820671 0.00012266977731003622 0 0.0048295154868766418 0.0001724174553728299 0 0.0047616757742022578 0.00018190836241597079 0 0.0047899358863820671 0.00012266977731003622 0 0.0048295154868766418 0.0001724174553728299 0 0.0048367639075625 0.00012666451524121508 0 0.0048295154868766418 0.0001724174553728299 0 0.0048696216427053744 0.00014302279706674282 0 0.00488560466655363 0.00016774499551290675 0 0.0048295154868766418 0.0001724174553728299 0 0.0048367639075625 0.00012666451524121508 0 0.0048696216427053744 0.00014302279706674282 0 0.004895880238115163 0.00014733547487053418 0 0.0048696216427053744 0.00014302279706674282 0 0.00488560466655363 0.00016774499551290675 0 0.0048295154868766418 0.0001724174553728299 0 0.00488560466655363 0.00016774499551290675 0 0.0048410216603947424 0.00023490850027070847 0 0.0046268087571388469 0.00019166287636615499 0 0.0045840572672422907 0.00019948867981276988 0 0.0046110109571621495 0.00021656762048253807 0 0.0046268087571388469 0.00019166287636615499 0 0.0046089638314250033 0.00017164195482655169 0 0.0045840572672422907 0.00019948867981276988 0 0.0047763296700534729 0.00017795199447340264 0 0.0047188004159388619 0.00021094704698292668 0 0.0048295154868766418 0.0001724174553728299 0 0.0047872269833059431 0.00023083997506337731 0 0.0047616757742022578 0.00018190836241597079 0 0.0048295154868766418 0.0001724174553728299 0 0.0048410216603947424 0.00023490850027070847 0 0.0047872269833059431 0.00023083997506337731 0 0.0048410216603947424 0.00023490850027070847 0 0.0047872269833059431 0.00023083997506337731 0 0.0047818207645111774 0.00030780165494107524 0 0.0047872269833059431 0.00023083997506337731 0 0.0047818207645111774 0.00030780165494107524 0 0.0047310113555643829 0.00025707291984671383 0 0.0045840572672422907 0.00019948867981276988 0 0.0045597858505953054 0.00022706105839471333 0 0.0045937105726472352 0.00023010673001123307 0 0.0047188004159388619 0.00021094704698292668 0 0.0045890454728322021 0.00028326207379578507 0 0.0045840572672422907 0.00019948867981276988 0 0.0045937105726472352 0.00023010673001123307 0 0.0046110109571621495 0.00021656762048253807 0 0.0045937105726472352 0.00023010673001123307 0 0.0046110109571621495 0.00021656762048253807 0 0.0046199781524561738 0.00024201308301176818 0 0.0045597858505953054 0.00022706105839471333 0 0.0045937105726472352 0.00023010673001123307 0 0.0045937276091890652 0.00026490246574390147 0 0.0045937105726472352 0.00023010673001123307 0 0.0046199781524561738 0.00024201308301176818 0 0.0045937276091890652 0.00026490246574390147 0 0.0044003400840298152 0.00043273636777723073 0 0.0043976683684242568 0.00032360967277646706 0 0.0043236687685561772 0.00034290225318113937 0 0.0044003400840298152 0.00043273636777723073 0 0.0043976683684242568 0.00032360967277646706 0 0.004451141810632068 0.00038180713296967977 0 0.0045890454728322021 0.00028326207379578507 0 0.0044425781072477437 0.00030855897623386454 0 0.0046698457320377617 0.00023597385433871517 0 0.0046804888988155819 0.00020606024044632977 0 0.0046440971709275358 0.00021710485109481976 0 0.0046440971709275358 0.00021710485109481976 0 0.0046199781524561738 0.00024201308301176818 0 0.0046463729053405085 0.00024447821490860595 0 0.0046698457320377617 0.00023597385433871517 0 0.0046440971709275358 0.00021710485109481976 0 0.0046463729053405085 0.00024447821490860595 0 0.0046440971709275358 0.00021710485109481976 0 0.0046110109571621495 0.00021656762048253807 0 0.0046199781524561738 0.00024201308301176818 0 0.0046268087571388469 0.00019166287636615499 0 0.0046440971709275358 0.00021710485109481976 0 0.0046110109571621495 0.00021656762048253807 0 0.0046199781524561738 0.00024201308301176818 0 0.0046317338501006312 0.00027016300232216744 0 0.0045937276091890652 0.00026490246574390147 0 0.0046199781524561738 0.00024201308301176818 0 0.0046463729053405085 0.00024447821490860595 0 0.0046317338501006312 0.00027016300232216744 0 0.0046698457320377617 0.00023597385433871517 0 0.0046463729053405085 0.00024447821490860595 0 0.0046541055115477291 0.0002655048528084917 0 0.0046463729053405085 0.00024447821490860595 0 0.0046541055115477291 0.0002655048528084917 0 0.0046317338501006312 0.00027016300232216744 0 0.0046541055115477291 0.0002655048528084917 0 0.0046317338501006312 0.00027016300232216744 0 0.004659150232360262 0.0002915949723788465 0 0.0046317338501006312 0.00027016300232216744 0 0.004626709116523138 0.00030168073492811139 0 0.004659150232360262 0.0002915949723788465 0 0.0046317338501006312 0.00027016300232216744 0 0.004626709116523138 0.00030168073492811139 0 0.0045937276091890652 0.00026490246574390147 0 0.004450299699480389 0.00028505170584283197 0 0.0044425781072477437 0.00030855897623386454 0 0.0042766569381053618 0.00027185281075368652 0 0.0042724542626696397 0.00027307923743646011 0 0.0043236687685561772 0.00034290225318113937 0 0.0042766569381053618 0.00027185281075368652 0 0.0043236687685561772 0.00034290225318113937 0 0.0043048795178744432 0.00026257719978203689 0 0.0044359246584532988 0.00028789586005120856 0 0.004450299699480389 0.00028505170584283197 0 0.0042766569381053618 0.00027185281075368652 0 0.0042867817406929505 0.00025849367580590201 0 0.0043048795178744432 0.00026257719978203689 0 0.0043048795178744432 0.00026257719978203689 0 0.0043014432017106918 0.00023908257120505453 0 0.0042890408503385982 0.00024463828583673247 0 0.0042867817406929505 0.00025849367580590201 0 0.0043048795178744432 0.00026257719978203689 0 0.0042890408503385982 0.00024463828583673247 0 0.0042736870153410244 0.00027292833639356765 0 0.0042766769785105557 0.0002552194491069754 0 0.0042529114230244929 0.0002470975839088045 0 0.0042766769785105557 0.0002552194491069754 0 0.0042529114230244929 0.0002470975839088045 0 0.0042790706966199096 0.00024077294108701511 0 0.0042766569381053618 0.00027185281075368652 0 0.0042736870153410244 0.00027292833639356765 0 0.0042766769785105557 0.0002552194491069754 0 0.0042766569381053618 0.00027185281075368652 0 0.0042867817406929505 0.00025849367580590201 0 0.0042766769785105557 0.0002552194491069754 0 0.0042867817406929505 0.00025849367580590201 0 0.0042766769785105557 0.0002552194491069754 0 0.0042890408503385982 0.00024463828583673247 0 0.004450299699480389 0.00028505170584283197 0 0.0042336995749315525 0.00025894776862283745 0 0.0041395297140347873 0.00025794763864356974 0 0.0041577896771597695 0.00021771879947784853 0 0.0041518866498285257 0.00027075987357910627 0 0.004450299699480389 0.00028505170584283197 0 0.0044165675678450303 0.00025742830648037897 0 0.0043628043204876291 0.0002657496106076079 0 0.0043664213668804172 0.00027009941549102016 0 0.0043714782170072696 0.00026290638179175981 0 0.0042336995749315525 0.00025894776862283745 0 0.0044165675678450303 0.00025742830648037897 0 0.0043976683684242568 0.00032360967277646706 0 0.0043236687685561772 0.00034290225318113937 0 0.0043451963507833346 0.00026203771021030518 0 0.0043236687685561772 0.00034290225318113937 0 0.0043048795178744432 0.00026257719978203689 0 0.0043451963507833346 0.00026203771021030518 0 0.0043048795178744432 0.00026257719978203689 0 0.0043451963507833346 0.00026203771021030518 0 0.0043161597011277053 0.0002337280984968011 0 0.0043976683684242568 0.00032360967277646706 0 0.0043451963507833346 0.00026203771021030518 0 0.0044244306553532639 0.00026568808789865177 0 0.0043451963507833346 0.00026203771021030518 0 0.0043727256239964249 0.00021934240972820856 0 0.0044244306553532639 0.00026568808789865177 0 0.0043451963507833346 0.00026203771021030518 0 0.0043727256239964249 0.00021934240972820856 0 0.0043292233438845347 0.00021073453181796954 0 0.0043451963507833346 0.00026203771021030518 0 0.0043292233438845347 0.00021073453181796954 0 0.0043161597011277053 0.0002337280984968011 0 0.0043048795178744432 0.00026257719978203689 0 0.0043161597011277053 0.0002337280984968011 0 0.0043014432017106918 0.00023908257120505453 0 0.0043161597011277053 0.0002337280984968011 0 0.0043014432017106918 0.00023908257120505453 0 0.004303564593331595 0.0002239572406148824 0 0.0043161597011277053 0.0002337280984968011 0 0.0043130321217849845 0.00021201106921755247 0 0.004303564593331595 0.0002239572406148824 0 0.0043292233438845347 0.00021073453181796954 0 0.0043161597011277053 0.0002337280984968011 0 0.0043130321217849845 0.00021201106921755247 0 0.0043292233438845347 0.00021073453181796954 0 0.0043130321217849845 0.00021201106921755247 0 0.0043128239989863853 0.00020023023476540584 0 0.0043130321217849845 0.00021201106921755247 0 0.0043128239989863853 0.00020023023476540584 0 0.0043044814469874321 0.00020478913803666519 0 0.0043128239989863853 0.00020023023476540584 0 0.0043212447065364857 0.00019109747469382027 0 0.0042983729798872277 0.00019561322358374884 0 0.0043267310490490568 0.0001868230017680191 0 0.0043212447065364857 0.00019109747469382027 0 0.0043371880310006548 0.00019138567529600724 0 0.0043292233438845347 0.00021073453181796954 0 0.0043212447065364857 0.00019109747469382027 0 0.0043371880310006548 0.00019138567529600724 0 0.0043292233438845347 0.00021073453181796954 0 0.0043128239989863853 0.00020023023476540584 0 0.0043212447065364857 0.00019109747469382027 0 0.0043312107950875403 0.00018717611034109837 0 0.0043371880310006548 0.00019138567529600724 0 0.0043591048442730221 0.00018274156892647379 0 0.0043727256239964249 0.00021934240972820856 0 0.0043292233438845347 0.00021073453181796954 0 0.0043371880310006548 0.00019138567529600724 0 0.0043727256239964249 0.00021934240972820856 0 0.0043371880310006548 0.00019138567529600724 0 0.0043591048442730221 0.00018274156892647379 0 0.0041474248389922015 0.00027636104030202152 0 0.004155299553867212 0.00027558020387061759 0 0.0041633412442369355 0.00027600280542196715 0 0.004155299553867212 0.00027558020387061759 0 0.0041587681361138678 0.0002757930048296158 0 0.0041573742005648305 0.00027793520154635679 0 0.004155299553867212 0.00027558020387061759 0 0.0041587681361138678 0.0002757930048296158 0 0.0041526320661161931 0.00027369952165321593 0 0.0041587681361138678 0.0002757930048296158 0 0.0041518866498285257 0.00027075987357910627 0 0.0041526320661161931 0.00027369952165321593 0 0.0041587681361138678 0.0002757930048296158 0 0.0041518866498285257 0.00027075987357910627 0 0.0041687328199612773 0.00027302027239722783 0 0.0041474248389922015 0.00027636104030202152 0 0.0041518866498285257 0.00027075987357910627 0 0.0041526320661161931 0.00027369952165321593 0 0.0041474248389922015 0.00027636104030202152 0 0.004155299553867212 0.00027558020387061759 0 0.0041526320661161931 0.00027369952165321593 0 0.0042336995749315525 0.00025894776862283745 0 0.0041894399375635204 0.00024618612878469018 0 0.0042529114230244929 0.0002470975839088045 0 0.0042790706966199096 0.00024077294108701511 0 0.0042834545933842522 0.00022547674271973435 0 0.0042529114230244929 0.0002470975839088045 0 0.0042834545933842522 0.00022547674271973435 0 0.0042983729798872277 0.00019561322358374884 0 0.0041474248389922015 0.00027636104030202152 0 0.0041633412442369355 0.00027600280542196715 0 0.0041708754800329588 0.00027522330760710949 0 0.0042336995749315525 0.00025894776862283745 0 0.0042313147677546592 0.00023769343256084161 0 0.0042766769785105557 0.0002552194491069754 0 0.0042790706966199096 0.00024077294108701511 0 0.0042890408503385982 0.00024463828583673247 0 0.0042790706966199096 0.00024077294108701511 0 0.0042925706133640834 0.00023177864172514143 0 0.0042834545933842522 0.00022547674271973435 0 0.0042790706966199096 0.00024077294108701511 0 0.0042890408503385982 0.00024463828583673247 0 0.0042925706133640834 0.00023177864172514143 0 0.0043014432017106918 0.00023908257120505453 0 0.0042890408503385982 0.00024463828583673247 0 0.0042925706133640834 0.00023177864172514143 0 0.0043014432017106918 0.00023908257120505453 0 0.0042925706133640834 0.00023177864172514143 0 0.004303564593331595 0.0002239572406148824 0 0.0042925706133640834 0.00023177864172514143 0 0.004303564593331595 0.0002239572406148824 0 0.0042945910760225801 0.00022382075496985327 0 0.004303564593331595 0.0002239572406148824 0 0.0042945910760225801 0.00022382075496985327 0 0.0042984737835447808 0.00021412070627697461 0 0.0042925706133640834 0.00023177864172514143 0 0.0042945910760225801 0.00022382075496985327 0 0.0042834545933842522 0.00022547674271973435 0 0.0042945910760225801 0.00022382075496985327 0 0.0042984737835447808 0.00021412070627697461 0 0.0042834545933842522 0.00022547674271973435 0 0.0042984737835447808 0.00021412070627697461 0 0.0042834545933842522 0.00022547674271973435 0 0.0042964470418339227 0.00020988717005530734 0 0.0043130321217849845 0.00021201106921755247 0 0.004303564593331595 0.0002239572406148824 0 0.0042984737835447808 0.00021412070627697461 0 0.0043130321217849845 0.00021201106921755247 0 0.0042984737835447808 0.00021412070627697461 0 0.0043044814469874321 0.00020478913803666519 0 0.0041789460991515145 0.00027530273800165447 0 0.0041647028291508584 0.00027931912760010484 0 0.0042119848434814065 0.00025480350744883572 0 0.0041633412442369355 0.00027600280542196715 0 0.0041708754800329588 0.00027522330760710949 0 0.0041458169749872048 0.00029451769066481142 0 0.0041633412442369355 0.00027600280542196715 0 0.0041575052454849793 0.0002822848721161833 0 0.0041633412442369355 0.00027600280542196715 0 0.0041589414214106713 0.00027888390692843405 0 0.0041575052454849793 0.0002822848721161833 0 0.004155299553867212 0.00027558020387061759 0 0.0041633412442369355 0.00027600280542196715 0 0.0041580736449189646 0.00027744374460535268 0 0.0041589414214106713 0.00027888390692843405 0 0.004157209686767192 0.00028104497337111552 0 0.0041580736449189646 0.00027744374460535268 0 0.0041633412442369355 0.00027600280542196715 0 0.0041589414214106713 0.00027888390692843405 0 0.0041580736449189646 0.00027744374460535268 0 0.0043128239989863853 0.00020023023476540584 0 0.0043044814469874321 0.00020478913803666519 0 0.0042983729798872277 0.00019561322358374884 0 0.0042834545933842522 0.00022547674271973435 0 0.0042964470418339227 0.00020988717005530734 0 0.0042983729798872277 0.00019561322358374884 0 0.0042984737835447808 0.00021412070627697461 0 0.0043044814469874321 0.00020478913803666519 0 0.0042964470418339227 0.00020988717005530734 0 0.0043044814469874321 0.00020478913803666519 0 0.0042964470418339227 0.00020988717005530734 0 0.0042983729798872277 0.00019561322358374884 0 0.0041589414214106713 0.00027888390692843405 0 0.0041575052454849793 0.0002822848721161833 0 0.004157209686767192 0.00028104497337111552 0 0.0041551668682055067 0.00028556011967703133 0 0.0041536815519717957 0.00028732600419521429 0 0.0041575052454849793 0.0002822848721161833 0 0.0041551668682055067 0.00028556011967703133 0 0.0041575052454849793 0.0002822848721161833 0 0.004157209686767192 0.00028104497337111552 0 0.0041569296347828662 0.0002847608805126424 0 0.004157209686767192 0.00028104497337111552 0 0.0041590038618967897 0.00028000848353867302 0 0.0041551668682055067 0.00028556011967703133 0 0.0041569296347828662 0.0002847608805126424 0 0.004157209686767192 0.00028104497337111552 0 0.004157209686767192 0.00028104497337111552 0 0.0041573742005648305 0.00027793520154635679 0 0.0041590038618967897 0.00028000848353867302 0 0.004157209686767192 0.00028104497337111552 0 0.0041580736449189646 0.00027744374460535268 0 0.0041573742005648305 0.00027793520154635679 0 0.004155299553867212 0.00027558020387061759 0 0.0041580736449189646 0.00027744374460535268 0 0.0041573742005648305 0.00027793520154635679 0 0.0041587681361138678 0.0002757930048296158 0 0.0041573742005648305 0.00027793520154635679 0 0.0041590038618967897 0.00028000848353867302 0 0.0041590038618967897 0.00028000848353867302 0 0.0041614697610147027 0.00028299032748331038 0 0.0041648872465033168 0.00027766787922650339 0 0.0041587681361138678 0.0002757930048296158 0 0.0041590038618967897 0.00028000848353867302 0 0.0041648872465033168 0.00027766787922650339 0 0.0041569296347828662 0.0002847608805126424 0 0.0041590038618967897 0.00028000848353867302 0 0.0041614697610147027 0.00028299032748331038 0 0.0041654071899513059 0.0002868896224121828 0 0.0041614697610147027 0.00028299032748331038 0 0.0041764485429589271 0.0002758159205479624 0 0.004186048223666348 0.00028519718580535054 0 0.0041654071899513059 0.0002868896224121828 0 0.0041764485429589271 0.0002758159205479624 0 0.0041614697610147027 0.00028299032748331038 0 0.0041764485429589271 0.0002758159205479624 0 0.0041648872465033168 0.00027766787922650339 0 0.004186048223666348 0.00028519718580535054 0 0.0041764485429589271 0.0002758159205479624 0 0.0041932402564117876 0.00027522840104095958 0 0.0041764485429589271 0.0002758159205479624 0 0.0041931023604103732 0.00026061357055462002 0 0.0041806530023252098 0.00026436933866444461 0 0.0041764485429589271 0.0002758159205479624 0 0.0041931023604103732 0.00026061357055462002 0 0.0041932402564117876 0.00027522840104095958 0 0.0042285111859891311 0.0002667737766726396 0 0.0041837485434483854 0.00026497712556015549 0 0.0041764485429589271 0.0002758159205479624 0 0.0041806530023252098 0.00026436933866444461 0 0.0041687328199612773 0.00027302027239722783 0 0.0041518866498285257 0.00027075987357910627 0 0.0041806530023252098 0.00026436933866444461 0 0.0041687328199612773 0.00027302027239722783 0 0.0041764485429589271 0.0002758159205479624 0 0.0041648872465033168 0.00027766787922650339 0 0.0041687328199612773 0.00027302027239722783 0 0.0041587681361138678 0.0002757930048296158 0 0.0041648872465033168 0.00027766787922650339 0 0.0041687328199612773 0.00027302027239722783 0 0.0041577896771597695 0.00021771879947784853 0 0.0041806530023252098 0.00026436933866444461 0 0.0042194315702030437 0.00023629073736983555 0 0.0041577896771597695 0.00021771879947784853 0 0.0042194315702030437 0.00023629073736983555 0 0.0042259976188692089 0.00018830099176835762 0 0.0041577896771597695 0.00021771879947784853 0 0.0041518866498285257 0.00027075987357910627 0 0.0041806530023252098 0.00026436933866444461 0 0.0042194315702030437 0.00023629073736983555 0 0.0042259976188692089 0.00018830099176835762 0 0.0042787542340935562 0.00021642328811489217 0 0.004257857641284714 0.00027367680425851567 0 0.0042194315702030437 0.00023629073736983555 0 0.0042787542340935562 0.00021642328811489217 0 0.004257857641284714 0.00027367680425851567 0 0.0041806530023252098 0.00026436933866444461 0 0.0042194315702030437 0.00023629073736983555 0 0.0044853176731486288 0.00024524253454289542 0 0.0044805711279614895 0.00025228998910359552 0 0.00450184594410751 0.0002450367649153256 0 0.0044853176731486288 0.00024524253454289542 0 0.0044805711279614895 0.00025228998910359552 0 0.004469009172147184 0.00024511703311606701 0 0.0045966175500360548 0.00026734014329722345 0 0.0046135657646296756 0.00026767928193387305 0 0.0044595370195764754 0.00025904092195107992 0 0.0044805711279614895 0.00025228998910359552 0 0.004469009172147184 0.00024511703311606701 0 0.0044165675678450303 0.00025742830648037897 0 0.0043141400936415773 0.00022184202702800834 0 0.0046741673020975162 0.00026678474125226215 0 0.0046135657646296756 0.00026767928193387305 0 0.0046541055115477291 0.0002655048528084917 0 0.004659150232360262 0.0002915949723788465 0 0.0046751313436903799 0.00026644418166821531 0 0.0044165675678450303 0.00025742830648037897 0 0.0046135657646296756 0.00026767928193387305 0 0.0045101928596237469 0.00023119029388656381 0 0.0044976789599187866 0.00019630618615549937 0 0.0043103491374546152 0.00015942415744479331 0 0.0043471267739750782 0.00021451401899766251 0 0.0043964606316251372 0.00018818956418881398 0 0.0043103491374546152 0.00015942415744479331 0 0.0044116962137823413 0.0001619055844018839 0 0.0043964606316251372 0.00018818956418881398 0 0.0045827675086904246 0.00022353784146808756 0 0.0045363296290189259 0.00023785079070090827 0 0.0046162064906083086 0.00023985182955456032 0 0.0042259976188692089 0.00018830099176835762 0 0.0043103491374546152 0.00015942415744479331 0 0.0042787542340935562 0.00021642328811489217 0 0.0043103491374546152 0.00015942415744479331 0 0.0042787542340935562 0.00021642328811489217 0 0.0043471267739750782 0.00021451401899766251 0 0.0043141400936415773 0.00022184202702800834 0 0.0045101928596237469 0.00023119029388656381 0 0.0045966175500360548 0.00026734014329722345 0 0.0045101928596237469 0.00023119029388656381 0 0.004257857641284714 0.00027367680425851567 0 0.0042787542340935562 0.00021642328811489217 0 0.0043386636640262303 0.00027693355021871324 0 0.0042787542340935562 0.00021642328811489217 0 0.0043471267739750782 0.00021451401899766251 0 0.0043386636640262303 0.00027693355021871324 0 0.0043471267739750782 0.00021451401899766251 0 0.0043386636640262303 0.00027693355021871324 0 0.00437999242313421 0.00024769732989405945 0 0.0043471267739750782 0.00021451401899766251 0 0.0043914025539759476 0.00021876699722963672 0 0.00437999242313421 0.00024769732989405945 0 0.0042163932777207081 0.00025834442082342432 0 0.0042097807130968973 0.00028026130469806693 0 0.0042387452156567029 0.00026922926032114556 0 0.0042285111859891311 0.0002667737766726396 0 0.004263654255649508 0.00026874660244367957 0 0.0041931023604103732 0.00026061357055462002 0 0.0042163932777207081 0.00025834442082342432 0 0.0041932402564117876 0.00027522840104095958 0 0.0042163932777207081 0.00025834442082342432 0 0.0041932402564117876 0.00027522840104095958 0 0.0042097807130968973 0.00028026130469806693 0 0.0042216289893689772 0.00028496349845070297 0 0.004186048223666348 0.00028519718580535054 0 0.0042171297584647919 0.00026955793279452768 0 0.004186048223666348 0.00028519718580535054 0 0.0041932402564117876 0.00027522840104095958 0 0.0042097807130968973 0.00028026130469806693 0 0.0041918985891169266 0.00028350156316550362 0 0.0042039816605679335 0.00027676115602781132 0 0.0042389386453686537 0.00027393326584828888 0 0.0042752145294803201 0.00026582121237758797 0 0.0042914406822931357 0.00021636010398455948 0 0.0042216289893689772 0.00028496349845070297 0 0.0042171297584647919 0.00026955793279452768 0 0.0042508643394284628 0.00025403159854014046 0 0.0042039816605679335 0.00027676115602781132 0 0.0042913906196564737 0.00026326614117810253 0 0.0042276422047028911 0.00027501268701466086 0 0.0042913906196564737 0.00026326614117810253 0 0.004293759178714331 0.00026731519295514965 0 0.0043753894634734414 0.00024823721603251078 0 0.0043022507541288823 0.00027579687853577747 0 0.004320920095311662 0.00024826709178880289 0 0.0043325235887530468 0.00026183937812926172 0 0.0043022507541288823 0.00027579687853577747 0 0.0042914406822931357 0.00021636010398455948 0 0.0043034753615284315 0.00021069413413925698 0 0.0043022507541288823 0.00027579687853577747 0 0.0042752145294803201 0.00026582121237758797 0 0.0042914406822931357 0.00021636010398455948 0 0.004263654255649508 0.00026874660244367957 0 0.004402813163019487 0.00025002926867465775 0 0.0042163932777207081 0.00025834442082342432 0 0.0042387452156567029 0.00026922926032114556 0 0.0042452581406507463 0.00025761506725473519 0 0.0043753894634734414 0.00024823721603251078 0 0.0043885438003111238 0.00025049747098448126 0 0.0042913906196564737 0.00026326614117810253 0 0.0043885438003111238 0.00025049747098448126 0 0.0043316430157388213 0.00026552538502538095 0 0.0043590197455278014 0.00025256761702287033 0 0.0043598504662901039 0.00023424307867615541 0 0.0042913906196564737 0.00026326614117810253 0 0.0043753894634734414 0.00024823721603251078 0 0.0045342562367682851 0.00026325581370086195 0 0.0045298897875788186 0.00026296002652833402 0 0.004535979011947534 0.00025276864786982794 0 0.0042387452156567029 0.00026922926032114556 0 0.0042449218895870607 0.00026290097260425293 0 0.0042452581406507463 0.00025761506725473519 0 0.0044204589413505612 0.00024754886940857378 0 0.0044138698141977205 0.00025515932517124006 0 0.0044202319339594533 0.00025527207242975698 0 0.0043885438003111238 0.00025049747098448126 0 0.0044909548679178991 0.0002354447722596772 0 0.0045497300135206899 0.00023751359817738381 0 0.0045497202544102344 0.00023707474838269624 0 0.0045504219256666091 0.00023643452349584516 0 0.0043885438003111238 0.00025049747098448126 0 0.004402813163019487 0.00025002926867465775 0 0.0044909548679178991 0.0002354447722596772 0 0.004402813163019487 0.00025002926867465775 0 0.0045497300135206899 0.00023751359817738381 0 0.0045533871408638179 0.0002363329468854407 0 0.00455222914132292 0.00023657169991387204 0 0.004320920095311662 0.00024826709178880289 0 0.004362460364952454 0.00023279653808925367 0 0.0043462376558702767 0.00025152275918574103 0 0.0043753894634734414 0.00024823721603251078 0 0.0044711693265469541 0.00023537715592482136 0 0.004362460364952454 0.00023279653808925367 0 0.0043462376558702767 0.00025152275918574103 0 0.0043670192562209539 0.00025529243179537908 0 0.0044909548679178991 0.0002354447722596772 0 0.0045518808019326109 0.00023646531538178768 0 0.0045497300135206899 0.00023751359817738381 0 0.0045504219256666091 0.00023643452349584516 0 0.00455222914132292 0.00023657169991387204 0 0.004320920095311662 0.00024826709178880289 0 0.0043462376558702767 0.00025152275918574103 0 0.0043325235887530468 0.00026183937812926172 0 0.0043462376558702767 0.00025152275918574103 0 0.0043557668712840281 0.0002612422709044218 0 0.0043325235887530468 0.00026183937812926172 0 0.0043462376558702767 0.00025152275918574103 0 0.0043557668712840281 0.0002612422709044218 0 0.0043670192562209539 0.00025529243179537908 0 0.0043557668712840281 0.0002612422709044218 0 0.0043325235887530468 0.00026183937812926172 0 0.0043376947361671849 0.00027295439414197438 0 0.0043022507541288823 0.00027579687853577747 0 0.0043325235887530468 0.00026183937812926172 0 0.0043376947361671849 0.00027295439414197438 0 0.0043582129054164451 0.00027662818441591202 0 0.0043376947361671849 0.00027295439414197438 0 0.0043725062733116563 0.00026534587576239744 0 0.0043709916844048291 0.00027016774232127132 0 0.0043725062733116563 0.00026534587576239744 0 0.0043751893653517279 0.00026497491386399973 0 0.0043582129054164451 0.00027662818441591202 0 0.0043709916844048291 0.00027016774232127132 0 0.0043725062733116563 0.00026534587576239744 0 0.0043737812573868716 0.00027736170920047813 0 0.0043582129054164451 0.00027662818441591202 0 0.0043709916844048291 0.00027016774232127132 0 0.0043725062733116563 0.00026534587576239744 0 0.0043790522101039512 0.00026133639848969706 0 0.0043806410919079537 0.00025962148195451869 0 0.0043725062733116563 0.00026534587576239744 0 0.0043751893653517279 0.00026497491386399973 0 0.0043806410919079537 0.00025962148195451869 0 0.0043557668712840281 0.0002612422709044218 0 0.0043725062733116563 0.00026534587576239744 0 0.0043790522101039512 0.00026133639848969706 0 0.0043557668712840281 0.0002612422709044218 0 0.0043376947361671849 0.00027295439414197438 0 0.0043725062733116563 0.00026534587576239744 0 0.0043737812573868716 0.00027736170920047813 0 0.0043751893653517279 0.00026497491386399973 0 0.004376722264686563 0.00026305786546669622 0 0.0043737812573868716 0.00027736170920047813 0 0.0043709916844048291 0.00027016774232127132 0 0.0043751893653517279 0.00026497491386399973 0 0.0043751893653517279 0.00026497491386399973 0 0.0043723974469771446 0.00026088340955086745 0 0.0043806410919079537 0.00025962148195451869 0 0.0043751893653517279 0.00026497491386399973 0 0.0043723974469771446 0.00026088340955086745 0 0.004376722264686563 0.00026305786546669622 0 0.0043723974469771446 0.00026088340955086745 0 0.004376722264686563 0.00026305786546669622 0 0.0043585937731876528 0.00026291626676235654 0 0.0043723974469771446 0.00026088340955086745 0 0.004379567984720569 0.00026193376329425782 0 0.0043806410919079537 0.00025962148195451869 0 0.0043723974469771446 0.00026088340955086745 0 0.0043685265417333112 0.0002669621972692125 0 0.004379567984720569 0.00026193376329425782 0 0.0043685265417333112 0.0002669621972692125 0 0.004379567984720569 0.00026193376329425782 0 0.0044032098744449721 0.0002627583955222961 0 0.0043723974469771446 0.00026088340955086745 0 0.0043685265417333112 0.0002669621972692125 0 0.0043585937731876528 0.00026291626676235654 0 0.0043557668712840281 0.0002612422709044218 0 0.0043790522101039512 0.00026133639848969706 0 0.0043670192562209539 0.00025529243179537908 0 0.0043790522101039512 0.00026133639848969706 0 0.0043670192562209539 0.00025529243179537908 0 0.0044032098744449721 0.0002627583955222961 0 0.0043790522101039512 0.00026133639848969706 0 0.0043806410919079537 0.00025962148195451869 0 0.0044032098744449721 0.0002627583955222961 0 0.004379567984720569 0.00026193376329425782 0 0.0043806410919079537 0.00025962148195451869 0 0.0044032098744449721 0.0002627583955222961 0 0.004362460364952454 0.00023279653808925367 0 0.0043670192562209539 0.00025529243179537908 0 0.0044032098744449721 0.0002627583955222961 0 0.0045533871408638179 0.0002363329468854407 0 0.0045480091938412846 0.00024415570807656333 0 0.004526977699159049 0.00024379127661218017 0 0.0045533871408638179 0.0002363329468854407 0 0.0045480091938412846 0.00024415570807656333 0 0.0045512994259733061 0.00024382952641939962 0 0.004362460364952454 0.00023279653808925367 0 0.0044032098744449721 0.0002627583955222961 0 0.004526977699159049 0.00024379127661218017 0 0.0044711693265469541 0.00023537715592482136 0 0.0045081632584414583 0.00024133246596528448 0 0.0045480175373298426 0.00024421227244355155 0 0.0045480091938412846 0.00024415570807656333 0 0.004526977699159049 0.00024379127661218017 0 0.0045480175373298426 0.00024421227244355155 0 0.0045480091938412846 0.00024415570807656333 0 0.0045531016533038914 0.00024226641693135182 0 0.0045480091938412846 0.00024415570807656333 0 0.0045531016533038914 0.00024226641693135182 0 0.0045512994259733061 0.00024382952641939962 0 0.0043685265417333112 0.0002669621972692125 0 0.0044032098744449721 0.0002627583955222961 0 0.0043510871743057001 0.000283483408040041 0 0.0043685265417333112 0.0002669621972692125 0 0.0043510871743057001 0.000283483408040041 0 0.0043585937731876528 0.00026291626676235654 0 0.0044032098744449721 0.0002627583955222961 0 0.004526977699159049 0.00024379127661218017 0 0.0045979303469649334 0.00024317002022192493 0 0.0044180844695177043 0.00026126756310357048 0 0.004471899559090645 0.00025736110961027209 0 0.0045480175373298426 0.00024421227244355155 0 0.004526977699159049 0.00024379127661218017 0 0.0045979303469649334 0.00024317002022192493 0 0.0045979303469649334 0.00024317002022192493 0 0.004576315728788115 0.00023460850888319085 0 0.0046085151724674029 0.00023044714237556807 0 0.0045480175373298426 0.00024421227244355155 0 0.0045979303469649334 0.00024317002022192493 0 0.004576315728788115 0.00023460850888319085 0 0.0045934459213886848 0.00022758606858178275 0 0.0045745507452033349 0.00023164540213724478 0 0.0045779478249074104 0.00022536070951189249 0 0.004576315728788115 0.00023460850888319085 0 0.0045934459213886848 0.00022758606858178275 0 0.0046085151724674029 0.00023044714237556807 0 0.004576315728788115 0.00023460850888319085 0 0.0045934459213886848 0.00022758606858178275 0 0.0045745507452033349 0.00023164540213724478 0 0.0045934459213886848 0.00022758606858178275 0 0.0046085151724674029 0.00023044714237556807 0 0.004613768727543887 0.00022246390081445198 0 0.004556346063441772 0.00023703707810297355 0 0.0045531016533038914 0.00024226641693135182 0 0.0045604378631212434 0.00023796810191430517 0 0.004556346063441772 0.00023703707810297355 0 0.0045531016533038914 0.00024226641693135182 0 0.0045505460133779289 0.00023984150469933584 0 0.0045480175373298426 0.00024421227244355155 0 0.004576315728788115 0.00023460850888319085 0 0.0045604378631212434 0.00023796810191430517 0 0.004576315728788115 0.00023460850888319085 0 0.0045604378631212434 0.00023796810191430517 0 0.0045745507452033349 0.00023164540213724478 0 0.0045480175373298426 0.00024421227244355155 0 0.0045531016533038914 0.00024226641693135182 0 0.0045604378631212434 0.00023796810191430517 0 0.0045604378631212434 0.00023796810191430517 0 0.0045745507452033349 0.00023164540213724478 0 0.0045676153481569544 0.00022891119566147315 0 0.0045745507452033349 0.00023164540213724478 0 0.0045779478249074104 0.00022536070951189249 0 0.0045676153481569544 0.00022891119566147315 0 0.004556346063441772 0.00023703707810297355 0 0.0045676153481569544 0.00022891119566147315 0 0.0045515220717254039 0.00023409378413545532 0 0.0045676153481569544 0.00022891119566147315 0 0.0045650297498749347 0.00022413679920647939 0 0.0045665748074705552 0.00022517225853214731 0 0.0045676153481569544 0.00022891119566147315 0 0.0045610798845466425 0.00022449103964460637 0 0.0045650297498749347 0.00022413679920647939 0 0.004556346063441772 0.00023703707810297355 0 0.0045604378631212434 0.00023796810191430517 0 0.0045676153481569544 0.00022891119566147315 0 0.0045676153481569544 0.00022891119566147315 0 0.0045610798845466425 0.00022449103964460637 0 0.0045558104821403341 0.00022304725966675059 0 0.0045676153481569544 0.00022891119566147315 0 0.0045430352507025776 0.00023158098506679525 0 0.0045304989083448238 0.00022591163798411278 0 0.0045721893246759692 0.00023417160194978253 0 0.0045305625217735316 0.00020077251560433464 0 0.0045676153481569544 0.00022891119566147315 0 0.0045515220717254039 0.00023409378413545532 0 0.0045430352507025776 0.00023158098506679525 0 0.004556346063441772 0.00023703707810297355 0 0.0045515220717254039 0.00023409378413545532 0 0.0045505460133779289 0.00023984150469933584 0 0.0045515220717254039 0.00023409378413545532 0 0.0045446262300913101 0.00023649885046261659 0 0.0045505460133779289 0.00023984150469933584 0 0.0045515220717254039 0.00023409378413545532 0 0.0045446262300913101 0.00023649885046261659 0 0.0045430352507025776 0.00023158098506679525 0 0.0045446262300913101 0.00023649885046261659 0 0.0045505460133779289 0.00023984150469933584 0 0.0045423806555356661 0.0002417411076028009 0 0.0045355301480061632 0.00023345667078729894 0 0.0045385160116315363 0.00023675707204567491 0 0.0045314323056727893 0.00024413525278193189 0 0.0045385160116315363 0.00023675707204567491 0 0.0045314323056727893 0.00024413525278193189 0 0.0045423806555356661 0.0002417411076028009 0 0.0045446262300913101 0.00023649885046261659 0 0.0045385160116315363 0.00023675707204567491 0 0.0045423806555356661 0.0002417411076028009 0 0.0045446262300913101 0.00023649885046261659 0 0.0045385160116315363 0.00023675707204567491 0 0.0045430352507025776 0.00023158098506679525 0 0.0045355301480061632 0.00023345667078729894 0 0.0045385160116315363 0.00023675707204567491 0 0.0045430352507025776 0.00023158098506679525 0 0.0045610798845466425 0.00022449103964460637 0 0.0045558104821403341 0.00022304725966675059 0 0.0045576793155232588 0.0002213597826642304 0 0.0045355301480061632 0.00023345667078729894 0 0.0045430352507025776 0.00023158098506679525 0 0.0045304989083448238 0.00022591163798411278 0 0.0045631879165411084 0.00020809154132757652 0 0.0045614477504689072 0.00020803406713930866 0 0.0045635954003198972 0.00020487898316503739 0 0.0045305625217735316 0.00020077251560433464 0 0.0044760462763228466 0.00023421801682172065 0 0.0045355301480061632 0.00023345667078729894 0 0.0045304989083448238 0.00022591163798411278 0 0.0045314323056727893 0.00024413525278193189 0 0.0044256285384410825 0.00016285717839481842 0 0.0043964606316251372 0.00018818956418881398 0 0.0044225502150450052 0.00022041722111465354 0 0.0045305625217735316 0.00020077251560433464 0 0.0044976789599187866 0.00019630618615549937 0 0.0044256285384410825 0.00016285717839481842 0 0.0044114566504405081 0.00016241839115476198 0 0.0043964606316251372 0.00018818956418881398 0 0.0044976789599187866 0.00019630618615549937 0 0.0044459038390102642 0.00020271475340135402 0 0.0043471267739750782 0.00021451401899766251 0 0.0043964606316251372 0.00018818956418881398 0 0.0043914025539759476 0.00021876699722963672 0 0.0043964606316251372 0.00018818956418881398 0 0.0044225502150450052 0.00022041722111465354 0 0.0043914025539759476 0.00021876699722963672 0 0.0044197760192894392 0.000278508435917042 0 0.0044225502150450052 0.00022041722111465354 0 0.00437999242313421 0.00024769732989405945 0 0.004402813163019487 0.00025002926867465775 0 0.0044760462763228466 0.00023421801682172065 0 0.0043386636640262303 0.00027693355021871324 0 0.0044197760192894392 0.000278508435917042 0 0.00437999242313421 0.00024769732989405945 0 0.0045298897875788186 0.00026296002652833402 0 0.0045314323056727893 0.00024413525278193189 0 0.004535979011947534 0.00025276864786982794 0 0.0044225502150450052 0.00022041722111465354 0 0.0043914025539759476 0.00021876699722963672 0 0.00437999242313421 0.00024769732989405945 0 0.0044909548679178991 0.0002354447722596772 0 0.0045596962106095804 0.00024017576146585055 0 0.0045556769671379442 0.0002365449360005547 0 0.00455222914132292 0.00023657169991387204 0 0.0045512994259733061 0.00024382952641939962 0 0.0045342562367682851 0.00026325581370086195 0 0.004535979011947534 0.00025276864786982794 0 0.0045512994259733061 0.00024382952641939962 0 0.0045533871408638179 0.0002363329468854407 0 0.00455222914132292 0.00023657169991387204 0 0.0045512994259733061 0.00024382952641939962 0 0.0045531016533038914 0.00024226641693135182 0 0.0045505460133779289 0.00023984150469933584 0 0.0045512994259733061 0.00024382952641939962 0 0.0045505460133779289 0.00023984150469933584 0 0.0045512994259733061 0.00024382952641939962 0 0.0045423806555356661 0.0002417411076028009 0 0.004535979011947534 0.00025276864786982794 0 0.0045512994259733061 0.00024382952641939962 0 0.0045423806555356661 0.0002417411076028009 0 0.0045314323056727893 0.00024413525278193189 0 0.004535979011947534 0.00025276864786982794 0 0.0045423806555356661 0.0002417411076028009 0 0.002127441549351441 -0.00034046060205483535 0 0.0021195105166940983 -0.00033613811873629747 0 0.0021265405447749757 -0.00035316456592356918 0 0.0027572552460031069 -4.7830973840816616e-05 0 0.0026250980041311236 -0.00017441766835871823 0 0.0031363500163658162 1.3703226690006065e-05 0 0.00314308028014635 3.4280568531584628e-05 0 0.0031293930614446006 3.1013246231645414e-05 0 0.0017678083481046118 0.00015995968624043347 0 0.0017700587166304832 0.00015570507686081387 0 0.0017715611084761203 0.00016181962338160795 0 0.0021336778676650163 -0.00033316949132316392 0 0.002127441549351441 -0.00034046060205483535 0 0.002119940866755246 -0.00032919357428023212 0 0.0019294375151072481 -0.00010742987619643636 0 0.0021918182062491301 8.1338466290796163e-05 0 0.0021918182062491301 8.1338466290796163e-05 0 0.0027572552460031069 -4.7830973840816616e-05 0 0.002127441549351441 -0.00034046060205483535 0 0.002119940866755246 -0.00032919357428023212 0 0.0021195105166940983 -0.00033613811873629747 0 0.0030935812261058408 0.00010503593645992339 0 0.0031118243373500264 8.7698041159007666e-05 0 0.0031434989055236433 4.4599716771854074e-05 0 0.0026389479303101557 0.0001309734926711665 0 0.0026283339458621235 3.8026817142576949e-05 0 0.0025651384149323929 0.00013887842188135588 0 0.0031558586421241651 5.2213541258656516e-05 0 0.0031420426081254478 8.2122397306772345e-05 0 0.0031434989055236433 4.4599716771854074e-05 0 0.0027572552460031069 -4.7830973840816616e-05 0 0.0027640801035722414 0.00012401900189348559 0 0.0031205572585614855 8.6803401464631235e-05 0 0.0031407643811695177 4.8622783574966742e-05 0 0.0021918182062491301 8.1338466290796163e-05 0 0.0027640801035722414 0.00012401900189348559 0 0.0023546164191732902 0.00022777990429090046 0 0.0023307177735439155 0.00027782878910214922 0 0.0023558394667726624 0.00027549390725483189 0 0.0027640801035722414 0.00012401900189348559 0 0.0031019930946258943 8.8605375297566837e-05 0 0.0030935812261058408 0.00010503593645992339 0 0.0031413374325919355 8.2882352974436189e-05 0 0.0031118243373500264 8.7698041159007666e-05 0 0.0031420426081254478 8.2122397306772345e-05 0 0.0031118243373500264 8.7698041159007666e-05 0 0.0031434989055236433 4.4599716771854074e-05 0 0.0027572552460031069 -4.7830973840816616e-05 0 0.0031724043877246221 7.7902926051596463e-05 0 0.0031558586421241651 5.2213541258656516e-05 0 0.0031434989055236433 4.4599716771854074e-05 0 0.00314308028014635 3.4280568531584628e-05 0 0.0031434989055236433 4.4599716771854074e-05 0 0.0031452871950382946 3.6356756614678139e-05 0 0.00314308028014635 3.4280568531584628e-05 0 0.0031434989055236433 4.4599716771854074e-05 0 0.0031448705372660959 5.3447540644999091e-05 0 0.0031452871950382946 3.6356756614678139e-05 0 0.0036847116120491642 0.00015570042884967359 0 0.0036762153220186661 0.0001367403926540233 0 0.0042352498686581922 0.00023255037195253349 0 0.0042156191630390479 0.00025868447008836279 0 0.0042366586447152247 0.00023228768198033795 0 0.0042352498686581922 0.00023255037195253349 0 0.0042156191630390479 0.00025868447008836279 0 0.0042027464413450649 0.000241674752305246 0 0.0042352498686581922 0.00023255037195253349 0 0.0042705653355884698 0.00022371114019996462 0 0.0042786413325177734 0.00019017015611012933 0 0.0042308732986620782 0.00023289925660405916 0 0.0042484800133754446 0.00020797451818788877 0 0.003151916345485116 6.0936279028319629e-05 0 0.0031434989055236433 4.4599716771854074e-05 0 0.0031448705372660959 5.3447540644999091e-05 0 0.0041527413137591972 0.00023248567841681968 0 0.0042484800133754446 0.00020797451818788877 0 0.0042156191630390479 0.00025868447008836279 0 0.0041680501187604958 0.00026144941676798424 0 0.0042027464413450649 0.000241674752305246 0 0.0043121607477684667 0.00015685211523706476 0 0.0042786413325177734 0.00019017015611012933 0 0.004311220893144418 0.00022244713516777687 0 0.0041527413137591972 0.00023248567841681968 0 0.0043491063328692323 0.00023979208078980744 0 0.0042705653355884698 0.00022371114019996462 0 0.004311220893144418 0.00022244713516777687 0 0.0042802578256330315 0.00024109731918349776 0 0.0042705653355884698 0.00022371114019996462 0 0.0042786413325177734 0.00019017015611012933 0 0.004311220893144418 0.00022244713516777687 0 0.004311220893144418 0.00022244713516777687 0 0.0042866584371960732 0.00026797350692566926 0 0.0043193247617153386 0.00028933660307946322 0 0.0043510871743057001 0.000283483408040041 0 0.0043585937731876528 0.00026291626676235654 0 0.0043193247617153386 0.00028933660307946322 0 0.004311220893144418 0.00022244713516777687 0 0.0042802578256330315 0.00024109731918349776 0 0.0042866584371960732 0.00026797350692566926 0 0.0043491063328692323 0.00023979208078980744 0 0.0043200584172553499 0.00029137463011717166 0 0.0045979303469649334 0.00024317002022192493 0 0.0046085151724674029 0.00023044714237556807 0 0.0046507595790524284 0.00022738735009147131 0 0.004471899559090645 0.00025736110961027209 0 0.0044655922160902204 0.00027016904128944404 0 0.0043510871743057001 0.000283483408040041 0 0.0043193247617153386 0.00028933660307946322 0 0.0042758797603874308 0.00031599866136011159 0 0.0043193247617153386 0.00028933660307946322 0 0.0042788725203333489 0.00029109734344631699 0 0.0042758797603874308 0.00031599866136011159 0 0.0042866584371960732 0.00026797350692566926 0 0.0043193247617153386 0.00028933660307946322 0 0.0042788725203333489 0.00029109734344631699 0 0.0042866584371960732 0.00026797350692566926 0 0.0042788725203333489 0.00029109734344631699 0 0.0042612154182710129 0.00027711279586909755 0 0.0042788725203333489 0.00029109734344631699 0 0.0042612154182710129 0.00027711279586909755 0 0.0042568034121302691 0.00029661611006250743 0 0.0042788725203333489 0.00029109734344631699 0 0.0042568034121302691 0.00029661611006250743 0 0.0042758797603874308 0.00031599866136011159 0 0.0042568034121302691 0.00029661611006250743 0 0.0042329646566597401 0.00029774073256904439 0 0.0042439648124683897 0.00030496528515673604 0 0.0042568034121302691 0.00029661611006250743 0 0.0042493397091757324 0.00028307640925042142 0 0.0042329646566597401 0.00029774073256904439 0 0.0042612154182710129 0.00027711279586909755 0 0.0042493397091757324 0.00028307640925042142 0 0.0042428070567448314 0.00027268631131473886 0 0.0042612154182710129 0.00027711279586909755 0 0.0042568034121302691 0.00029661611006250743 0 0.0042493397091757324 0.00028307640925042142 0 0.0042428070567448314 0.00027268631131473886 0 0.0042550066274038593 0.00024867351090293994 0 0.0042366586447152247 0.00023228768198033795 0 0.0042612154182710129 0.00027711279586909755 0 0.0042428070567448314 0.00027268631131473886 0 0.0042550066274038593 0.00024867351090293994 0 0.0042866584371960732 0.00026797350692566926 0 0.0042612154182710129 0.00027711279586909755 0 0.0042550066274038593 0.00024867351090293994 0 0.0042802578256330315 0.00024109731918349776 0 0.0042866584371960732 0.00026797350692566926 0 0.0042550066274038593 0.00024867351090293994 0 0.0042352498686581922 0.00023255037195253349 0 0.0042705653355884698 0.00022371114019996462 0 0.0042550066274038593 0.00024867351090293994 0 0.0042705653355884698 0.00022371114019996462 0 0.0042802578256330315 0.00024109731918349776 0 0.0042550066274038593 0.00024867351090293994 0 0.0042352498686581922 0.00023255037195253349 0 0.0042550066274038593 0.00024867351090293994 0 0.0042366586447152247 0.00023228768198033795 0 0.0036762153220186661 0.0001367403926540233 0 0.0037764487617793171 0.00018528922396585649 0 0.0031452871950382946 3.6356756614678139e-05 0 0.00314308028014635 3.4280568531584628e-05 0 0.0031464012523139588 4.9906445290201128e-05 0 0.0042428070567448314 0.00027268631131473886 0 0.0042366586447152247 0.00023228768198033795 0 0.0042109332175987828 0.0003019573151059538 0 0.0042493397091757324 0.00028307640925042142 0 0.0042428070567448314 0.00027268631131473886 0 0.0042329646566597401 0.00029774073256904439 0 0.0042428070567448314 0.00027268631131473886 0 0.0042329646566597401 0.00029774073256904439 0 0.0042109332175987828 0.0003019573151059538 0 0.0042329646566597401 0.00029774073256904439 0 0.0042258765766938419 0.00030181468413677064 0 0.0042439648124683897 0.00030496528515673604 0 0.0041749571134988145 0.00018881964131572699 0 0.0037764487617793171 0.00018528922396585649 0 0.0037764487617793171 0.00018528922396585649 0 0.0034584122480085158 3.600588391115341e-05 0 0.00314308028014635 3.4280568531584628e-05 0 0.0031464012523139588 4.9906445290201128e-05 0 0.00313377504536741 4.1815995859226197e-05 0 0.0031464012523139588 4.9906445290201128e-05 0 0.00313377504536741 4.1815995859226197e-05 0 0.003128240335599546 5.4916997515585385e-05 0 0.0031196769148170312 4.1766431400630685e-05 0 0.00313377504536741 4.1815995859226197e-05 0 0.003128240335599546 5.4916997515585385e-05 0 0.0031196769148170312 4.1766431400630685e-05 0 0.00313377504536741 4.1815995859226197e-05 0 0.0031293930614446006 3.1013246231645414e-05 0 0.00314308028014635 3.4280568531584628e-05 0 0.00313377504536741 4.1815995859226197e-05 0 0.0031293930614446006 3.1013246231645414e-05 0 0.0039534204682903865 0.00023675841609465144 0 0.0040026819982330398 0.00018314432116115918 0 0.0037764487617793171 0.00018528922396585649 0 0.0040026819982330398 0.00018314432116115918 0 0.0037425958227396191 2.2502971159923414e-05 0 0.0037210745398627604 7.5086729163525775e-05 0 0.003698637647112916 3.0892894984156489e-05 0 0.0042258765766938419 0.00030181468413677064 0 0.0042294122155513156 0.00032245882485601386 0 0.004237309207161772 0.00031598422924764973 0 0.0042258765766938419 0.00030181468413677064 0 0.0042439648124683897 0.00030496528515673604 0 0.004237309207161772 0.00031598422924764973 0 0.0042294122155513156 0.00032245882485601386 0 0.004237309207161772 0.00031598422924764973 0 0.0042399007333449286 0.00032652310763961576 0 0.0042294122155513156 0.00032245882485601386 0 0.0042399007333449286 0.00032652310763961576 0 0.0042332517025375459 0.0003223342247793765 0 0.0046855207408312022 0.0002098647299137567 0 0.0046572149028792382 0.00021176739397102084 0 0.0046696971982017046 0.00020388536277799482 0 0.0046855207408312022 0.0002098647299137567 0 0.0046507595790524284 0.00022738735009147131 0 0.0046572149028792382 0.00021176739397102084 0 0.0044639423228722084 0.0002678118851374319 0 0.0044655922160902204 0.00027016904128944404 0 0.004237309207161772 0.00031598422924764973 0 0.0042399007333449286 0.00032652310763961576 0 0.0042758797603874308 0.00031599866136011159 0 0.0042439648124683897 0.00030496528515673604 0 0.004237309207161772 0.00031598422924764973 0 0.0042758797603874308 0.00031599866136011159 0 0.0042568034121302691 0.00029661611006250743 0 0.0042439648124683897 0.00030496528515673604 0 0.0042758797603874308 0.00031599866136011159 0 0.0046085151724674029 0.00023044714237556807 0 0.0046507595790524284 0.00022738735009147131 0 0.004613768727543887 0.00022246390081445198 0 0.0046507595790524284 0.00022738735009147131 0 0.004613768727543887 0.00022246390081445198 0 0.0046317350989725746 0.00021267330469434511 0 0.0046507595790524284 0.00022738735009147131 0 0.0046572149028792382 0.00021176739397102084 0 0.0046317350989725746 0.00021267330469434511 0 0.0046572149028792382 0.00021176739397102084 0 0.0046483424026472486 0.00020538736130172255 0 0.0046317350989725746 0.00021267330469434511 0 0.0046572149028792382 0.00021176739397102084 0 0.0046483424026472486 0.00020538736130172255 0 0.0046696971982017046 0.00020388536277799482 0 0.0046483424026472486 0.00020538736130172255 0 0.004667794097333762 0.00019715604531681099 0 0.0046696971982017046 0.00020388536277799482 0 0.004667794097333762 0.00019715604531681099 0 0.0046834912722131519 0.00019806722346345161 0 0.0046696971982017046 0.00020388536277799482 0 0.004667794097333762 0.00019715604531681099 0 0.0046884753879168403 0.0001945281170985013 0 0.0046834912722131519 0.00019806722346345161 0 0.0046782178701737787 0.00019324435299040602 0 0.0046884753879168403 0.0001945281170985013 0 0.0046909486329010054 0.00019362934496327015 0 0.004667794097333762 0.00019715604531681099 0 0.0046782178701737787 0.00019324435299040602 0 0.0046884753879168403 0.0001945281170985013 0 0.0046884753879168403 0.0001945281170985013 0 0.0046957575554438325 0.00019510046681943898 0 0.0047017212794114825 0.0001948560357286954 0 0.0046884753879168403 0.0001945281170985013 0 0.0046834912722131519 0.00019806722346345161 0 0.0046957575554438325 0.00019510046681943898 0 0.0046834912722131519 0.00019806722346345161 0 0.0046934577222813275 0.00019805004675998368 0 0.0046957575554438325 0.00019510046681943898 0 0.0046855207408312022 0.0002098647299137567 0 0.0046834912722131519 0.00019806722346345161 0 0.0046696971982017046 0.00020388536277799482 0 0.0044639423228722084 0.0002678118851374319 0 0.0044616189852339653 0.00025610052793191242 0 0.0046855207408312022 0.0002098647299137567 0 0.0046834912722131519 0.00019806722346345161 0 0.0046934577222813275 0.00019805004675998368 0 0.0046855207408312022 0.0002098647299137567 0 0.0046934577222813275 0.00019805004675998368 0 0.0046996015711350597 0.00019683340270574382 0 0.0046934577222813275 0.00019805004675998368 0 0.0046957575554438325 0.00019510046681943898 0 0.0046989900126946614 0.00019518185985300249 0 0.0046957575554438325 0.00019510046681943898 0 0.0046989900126946614 0.00019518185985300249 0 0.0047036105804503965 0.00019460997339131988 0 0.0046989900126946614 0.00019518185985300249 0 0.0046989858659374755 0.00019587074973880601 0 0.0047036105804503965 0.00019460997339131988 0 0.0046934577222813275 0.00019805004675998368 0 0.0046989900126946614 0.00019518185985300249 0 0.0046996015711350597 0.00019683340270574382 0 0.004694714990726964 0.00019685370731565763 0 0.0046996015711350597 0.00019683340270574382 0 0.0046989858659374755 0.00019587074973880601 0 0.0046989900126946614 0.00019518185985300249 0 0.0046996015711350597 0.00019683340270574382 0 0.0046989858659374755 0.00019587074973880601 0 0.0045024879726980891 0.00028150774741838078 0 0.0044616189852339653 0.00025610052793191242 0 0.004234934805911997 0.00032233070578290224 0 0.0042402165907896921 0.00031054380728270502 0 0.0042332517025375459 0.0003223342247793765 0 0.004234934805911997 0.00032233070578290224 0 0.0042294122155513156 0.00032245882485601386 0 0.0042332517025375459 0.0003223342247793765 0 0.0047217639892908917 0.00023140942497785271 0 0.0046553548529455185 0.00023174428990903188 0 0.0045627096519178321 0.00020159274802183279 0 0.0045590058001630969 0.00021659619786753401 0 0.0045640454560821253 0.00021470525635864071 0 0.0048746791470451823 0.00025956033626356868 0 0.0048521866297884042 0.00029507151626940434 0 0.0048539762299309669 0.00023887684611234477 0 0.0045627096519178321 0.00020159274802183279 0 0.0045640454560821253 0.00021470525635864071 0 0.0045697753731783241 0.00020792741571340538 0 0.004798661502965991 0.00022601748382035334 0 0.0048193475817775366 0.00026328276616628085 0 0.0048230364073414767 0.00019023475379874522 0 0.0046976699787214292 0.00024023708176115438 0 0.004854236896148831 0.00022612064219028883 0 0.0048483709045040223 0.00029616645731038579 0 0.0048521866297884042 0.00029507151626940434 0 0.0048539762299309669 0.00023887684611234477 0 0.0047702695966167904 0.00023373135470579134 0 0.004798661502965991 0.00022601748382035334 0 0.0047932527743521428 0.00024991359717259766 0 0.0045827675086904246 0.00022353784146808756 0 0.0046292013976168243 0.00020934590089417401 0 0.0046287384312117584 0.00021806644848811009 0 0.0047013798259785662 0.00024216705446861834 0 0.0046976699787214292 0.00024023708176115438 0 0.0047791271937596309 0.00027614186208074033 0 0.0048193475817775366 0.00026328276616628085 0 0.0047932527743521428 0.00024991359717259766 0 0.0046976699787214292 0.00024023708176115438 0 0.0046553548529455185 0.00023174428990903188 0 0.004798661502965991 0.00022601748382035334 0 0.0048193475817775366 0.00026328276616628085 0 0.0047932527743521428 0.00024991359717259766 0 0.0045827675086904246 0.00022353784146808756 0 0.0046162064906083086 0.00023985182955456032 0 0.0046287384312117584 0.00021806644848811009 0 0.004634462492353093 0.00020410602147186564 0 0.0046535115268369178 0.00019829048135519949 0 0.0046331975042493154 0.0002345097185816161 0 0.0046553548529455185 0.00023174428990903188 0 0.0046269256713573799 0.00022152075493790397 0 0.0046976699787214292 0.00024023708176115438 0 0.0046269256713573799 0.00022152075493790397 0 0.0044976789599187866 0.00019630618615549937 0 0.0046269256713573799 0.00022152075493790397 0 0.0045305625217735316 0.00020077251560433464 0 0.0046269256713573799 0.00022152075493790397 0 0.0045558104821403341 0.00022304725966675059 0 0.0045555499290299423 0.00022021496410688118 0 0.0045576793155232588 0.0002213597826642304 0 0.0045627096519178321 0.00020159274802183279 0 0.0045544207301693148 0.00021823537265869164 0 0.0045590058001630969 0.00021659619786753401 0 0.0045610798845466425 0.00022449103964460637 0 0.0045576793155232588 0.0002213597826642304 0 0.0045601178503560241 0.00022031961635468728 0 0.0045562243884257492 0.00021814932157805585 0 0.0045555499290299423 0.00022021496410688118 0 0.0045576793155232588 0.0002213597826642304 0 0.0045562243884257492 0.00021814932157805585 0 0.0045576793155232588 0.0002213597826642304 0 0.0045601178503560241 0.00022031961635468728 0 0.0046553548529455185 0.00023174428990903188 0 0.0045911067135303296 0.0002390111194956073 0 0.0045562243884257492 0.00021814932157805585 0 0.0045601178503560241 0.00022031961635468728 0 0.0045590058001630969 0.00021659619786753401 0 0.0045640454560821253 0.00021470525635864071 0 0.0045637133278758858 0.00022178661719295589 0 0.0045688470574494254 0.00021668767404176136 0 0.0045601178503560241 0.00022031961635468728 0 0.0045590058001630969 0.00021659619786753401 0 0.0045640454560821253 0.00021470525635864071 0 0.0045601178503560241 0.00022031961635468728 0 0.0045640454560821253 0.00021470525635864071 0 0.0045637133278758858 0.00022178661719295589 0 0.0045610798845466425 0.00022449103964460637 0 0.0045601178503560241 0.00022031961635468728 0 0.0045637133278758858 0.00022178661719295589 0 0.0045610798845466425 0.00022449103964460637 0 0.0045637133278758858 0.00022178661719295589 0 0.0045650297498749347 0.00022413679920647939 0 0.0045779478249074104 0.00022536070951189249 0 0.0046071880182577719 0.00021646076279035071 0 0.0046183203469160727 0.00020835892293818051 0 0.0045779478249074104 0.00022536070951189249 0 0.0045722464537355191 0.00022063260866570517 0 0.0045793402669750127 0.00020673627054898565 0 0.0045722464537355191 0.00022063260866570517 0 0.0045688470574494254 0.00021668767404176136 0 0.0045793402669750127 0.00020673627054898565 0 0.0045637133278758858 0.00022178661719295589 0 0.0045650297498749347 0.00022413679920647939 0 0.0045670584431207134 0.00022190637462662788 0 0.0045831144361366573 0.00022632774590696799 0 0.0045981682149877781 0.0002100769461210593 0 0.0045676153481569544 0.00022891119566147315 0 0.0045722464537355191 0.00022063260866570517 0 0.0045665748074705552 0.00022517225853214731 0 0.0045650297498749347 0.00022413679920647939 0 0.0045670584431207134 0.00022190637462662788 0 0.0045665748074705552 0.00022517225853214731 0 0.0045637133278758858 0.00022178661719295589 0 0.0045670584431207134 0.00022190637462662788 0 0.0045688470574494254 0.00021668767404176136 0 0.0045670584431207134 0.00022190637462662788 0 0.0045722464537355191 0.00022063260866570517 0 0.0045688470574494254 0.00021668767404176136 0 0.0045670584431207134 0.00022190637462662788 0 0.0045722464537355191 0.00022063260866570517 0 0.0045665748074705552 0.00022517225853214731 0 0.0045779478249074104 0.00022536070951189249 0 0.0045676153481569544 0.00022891119566147315 0 0.0045722464537355191 0.00022063260866570517 0 0.0045640454560821253 0.00021470525635864071 0 0.0045688470574494254 0.00021668767404176136 0 0.0045697753731783241 0.00020792741571340538 0 0.0046071880182577719 0.00021646076279035071 0 0.0046317350989725746 0.00021267330469434511 0 0.0046183203469160727 0.00020835892293818051 0 0.004613768727543887 0.00022246390081445198 0 0.0045984052211437958 0.00022287244443665289 0 0.0046071880182577719 0.00021646076279035071 0 0.0045934459213886848 0.00022758606858178275 0 0.0045779478249074104 0.00022536070951189249 0 0.0045984052211437958 0.00022287244443665289 0 0.0045779478249074104 0.00022536070951189249 0 0.0045984052211437958 0.00022287244443665289 0 0.0046071880182577719 0.00021646076279035071 0 0.0045934459213886848 0.00022758606858178275 0 0.004613768727543887 0.00022246390081445198 0 0.0045984052211437958 0.00022287244443665289 0 0.004613768727543887 0.00022246390081445198 0 0.0046071880182577719 0.00021646076279035071 0 0.0046317350989725746 0.00021267330469434511 0 0.0046483424026472486 0.00020538736130172255 0 0.0046183203469160727 0.00020835892293818051 0 0.0046466506074413841 0.00020101542390811822 0 0.0046483424026472486 0.00020538736130172255 0 0.0046317350989725746 0.00021267330469434511 0 0.0046183203469160727 0.00020835892293818051 0 0.0045981682149877781 0.0002100769461210593 0 0.0046025461353444005 0.0001916303994644182 0 0.0045688470574494254 0.00021668767404176136 0 0.0045697753731783241 0.00020792741571340538 0 0.0045793402669750127 0.00020673627054898565 0 0.0045697753731783241 0.00020792741571340538 0 0.0045793402669750127 0.00020673627054898565 0 0.0045740326388468457 0.00019579616620052647 0 0.0045627096519178321 0.00020159274802183279 0 0.0045697753731783241 0.00020792741571340538 0 0.0045740326388468457 0.00019579616620052647 0 0.0045627096519178321 0.00020159274802183279 0 0.0045740326388468457 0.00019579616620052647 0 0.0045738720242356028 0.0001829303103972868 0 0.0045793402669750127 0.00020673627054898565 0 0.0045740326388468457 0.00019579616620052647 0 0.0045838924354755029 0.00018632667113350693 0 0.0045740326388468457 0.00019579616620052647 0 0.0045838924354755029 0.00018632667113350693 0 0.0045738720242356028 0.0001829303103972868 0 0.0046183203469160727 0.00020835892293818051 0 0.0046415616762872343 0.00019951519827302719 0 0.0046466506074413841 0.00020101542390811822 0 0.0046483424026472486 0.00020538736130172255 0 0.004667794097333762 0.00019715604531681099 0 0.0046466506074413841 0.00020101542390811822 0 0.0046415616762872343 0.00019951519827302719 0 0.0046466506074413841 0.00020101542390811822 0 0.0046573309847739433 0.00019248536854128061 0 0.004667794097333762 0.00019715604531681099 0 0.0046466506074413841 0.00020101542390811822 0 0.0046573309847739433 0.00019248536854128061 0 0.0046643703476664609 0.0001896675882632302 0 0.0046644908104662855 0.00018309061130789689 0 0.0046782178701737787 0.00019324435299040602 0 0.0046573309847739433 0.00019248536854128061 0 0.0046886074630582662 0.00019295123114769692 0 0.0046415616762872343 0.00019951519827302719 0 0.0046573309847739433 0.00019248536854128061 0 0.0046475647512213281 0.00017275576776050859 0 0.0046573309847739433 0.00019248536854128061 0 0.0046475647512213281 0.00017275576776050859 0 0.0046713350642038059 0.00015624430218074493 0 0.004667794097333762 0.00019715604531681099 0 0.0046782178701737787 0.00019324435299040602 0 0.0046573309847739433 0.00019248536854128061 0 0.0047344519760829989 0.0002036495761199238 0 0.0047694450044412154 0.00017769301711456184 0 0.0045838924354755029 0.00018632667113350693 0 0.0045738720242356028 0.0001829303103972868 0 0.0045879707931711826 0.00016239460332445786 0 0.0046025461353444005 0.0001916303994644182 0 0.0047694450044412154 0.00017769301711456184 0 0.0048974411547783063 0.00022362016790270926 0 0.0049204843366765895 0.00018699877049450458 0 0.0048865645781958796 0.00019819855690739484 0 0.0048865645781958796 0.00019819855690739484 0 0.0048539762299309669 0.00023887684611234477 0 0.004858612400817237 0.00017987781801244581 0 0.0048974411547783063 0.00022362016790270926 0 0.0048865645781958796 0.00019819855690739484 0 0.0048539762299309669 0.00023887684611234477 0 0.0048746791470451823 0.00025956033626356868 0 0.0048974411547783063 0.00022362016790270926 0 0.0048539762299309669 0.00023887684611234477 0 0.0047217639892908917 0.00023140942497785271 0 0.0047344519760829989 0.0002036495761199238 0 0.0047752481847224493 0.00014932385038593396 0 0.0047868550055012553 0.00019340257078557502 0 0.0048111254390343075 0.00015256848819568622 0 0.004798661502965991 0.00022601748382035334 0 0.0047868550055012553 0.00019340257078557502 0 0.0048230364073414767 0.00019023475379874522 0 0.0047868550055012553 0.00019340257078557502 0 0.0048230364073414767 0.00019023475379874522 0 0.0048068498164921102 0.00015745463135324194 0 0.0047898019958097634 0.00018903476645427836 0 0.0048088669178993288 0.00015521707634169431 0 0.004854236896148831 0.00022612064219028883 0 0.0048611806256259596 0.00013596483550814891 0 0.0048230364073414767 0.00019023475379874522 0 0.0048068498164921102 0.00015745463135324194 0 0.0048262157492096024 0.0001214603286564944 0 0.0048088669178993288 0.00015521707634169431 0 0.0048611806256259596 0.00013596483550814891 0 0.0048111254390343075 0.00015256848819568622 0 0.0048007294020210858 0.00011722765405317148 0 0.0048345118006463727 0.0001110586301338168 0 0.0047752481847224493 0.00014932385038593396 0 0.0048111254390343075 0.00015256848819568622 0 0.0048007294020210858 0.00011722765405317148 0 0.0048114907562785665 7.9977916702949535e-05 0 0.0048384116495697599 4.9287374897230872e-05 0 0.0048345118006463727 0.0001110586301338168 0 0.0048007294020210858 0.00011722765405317148 0 0.0048114907562785665 7.9977916702949535e-05 0 0.0048345118006463727 0.0001110586301338168 0 0.0048007294020210858 0.00011722765405317148 0 0.0048114907562785665 7.9977916702949535e-05 0 0.0047713275764394852 9.3103330023226567e-05 0 0.0048114907562785665 7.9977916702949535e-05 0 0.0048069451484298439 4.0275111838051857e-05 0 0.0047713275764394852 9.3103330023226567e-05 0 0.0049908512266814324 4.2791871388790725e-05 0 0.0049985345007359325 4.2151743473234681e-05 0 0.0049664325392603419 9.5478665992163432e-05 0 0.0048114907562785665 7.9977916702949535e-05 0 0.0048069451484298439 4.0275111838051857e-05 0 0.0048384116495697599 4.9287374897230872e-05 0 0.0049908512266814324 4.2791871388790725e-05 0 0.0049985345007359325 4.2151743473234681e-05 0 0.004988825471177019 3.6822103485035802e-05 0 0.0049432819069891746 9.1403684152245427e-05 0 0.0049278647271598199 9.1244241806038879e-05 0 0.0049253444524587527 0.00012419938716018859 0 0.0048805618137007321 6.7041058791283566e-05 0 0.0048611806256259596 0.00013596483550814891 0 0.0048851830592735127 0.00013326424458884656 0 0.004858612400817237 0.00017987781801244581 0 0.0049028282064617632 0.00016088298458131399 0 0.0048865645781958796 0.00019819855690739484 0 0.004858612400817237 0.00017987781801244581 0 0.0049028282064617632 0.00016088298458131399 0 0.0049175674728840933 0.00011416186928069509 0 0.0048611806256259596 0.00013596483550814891 0 0.0049204843366765895 0.00018699877049450458 0 0.0048865645781958796 0.00019819855690739484 0 0.0049028282064617632 0.00016088298458131399 0 0.0047694450044412154 0.00017769301711456184 0 0.0049560328995984799 0.00014338310200613061 0 0.0049204843366765895 0.00018699877049450458 0 0.0049028282064617632 0.00016088298458131399 0 0.004926811689770735 0.00013616569182260362 0 0.0046475647512213281 0.00017275576776050859 0 0.0046713350642038059 0.00015624430218074493 0 0.0046649985793537794 0.00014424893509238021 0 0.0049214394218729399 0.00019404637752587725 0 0.0049457658193948701 0.00015452382364224929 0 0.004926811689770735 0.00013616569182260362 0 0.0047694450044412154 0.00017769301711456184 0 0.0048071319042772747 0.00014686488328247968 0 0.004926811689770735 0.00013616569182260362 0 0.0049337091026746228 0.00011297985464842006 0 0.0049683780815947516 0.00011654943358069351 0 0.0048071319042772747 0.00014686488328247968 0 0.0048285256146382727 0.00013246351898815715 0 0.0049457658193948701 0.00015452382364224929 0 0.004926811689770735 0.00013616569182260362 0 0.0049683780815947516 0.00011654943358069351 0 0.0046644908104662855 0.00018309061130789689 0 0.0048285256146382727 0.00013246351898815715 0 0.0046713350642038059 0.00015624430218074493 0 0.0046649985793537794 0.00014424893509238021 0 0.0046862007563601921 0.0001132341164025296 0 0.0048851830592735127 0.00013326424458884656 0 0.0049028282064617632 0.00016088298458131399 0 0.0049126265597695291 0.00012584751599346804 0 0.0049028282064617632 0.00016088298458131399 0 0.0049126265597695291 0.00012584751599346804 0 0.004926811689770735 0.00013616569182260362 0 0.0049126265597695291 0.00012584751599346804 0 0.004926811689770735 0.00013616569182260362 0 0.0049337091026746228 0.00011297985464842006 0 0.0049126265597695291 0.00012584751599346804 0 0.0049337091026746228 0.00011297985464842006 0 0.0049149814802309519 8.4902623266371613e-05 0 0.0048851830592735127 0.00013326424458884656 0 0.0049126265597695291 0.00012584751599346804 0 0.0049149814802309519 8.4902623266371613e-05 0 0.0049175674728840933 0.00011416186928069509 0 0.0049366610796670171 7.3129660856280083e-05 0 0.0049337091026746228 0.00011297985464842006 0 0.004953271220441216 8.7079366627505276e-05 0 0.0049149814802309519 8.4902623266371613e-05 0 0.0049337091026746228 0.00011297985464842006 0 0.004953271220441216 8.7079366627505276e-05 0 0.0049683780815947516 0.00011654943358069351 0 0.0049546307248579868 6.3377435229812029e-05 0 0.0049149814802309519 8.4902623266371613e-05 0 0.004947416101079038 4.1091317576582738e-05 0 0.004953271220441216 8.7079366627505276e-05 0 0.0049546307248579868 6.3377435229812029e-05 0 0.0049149814802309519 8.4902623266371613e-05 0 0.004953271220441216 8.7079366627505276e-05 0 0.0049546307248579868 6.3377435229812029e-05 0 0.0049815931148183825 6.4254007752361414e-05 0 0.0049592647341364796 6.0893438551949687e-05 0 0.0049486606836627901 3.6952067968086035e-05 0 0.0049722214453211677 3.3946210043496224e-05 0 0.0049366610796670171 7.3129660856280083e-05 0 0.0049600086106493255 3.8356355770450436e-05 0 0.0049400305357773034 2.3311647122959647e-05 0 0.0050066621436653169 6.0601520827427459e-06 0 0.0049400305357773034 2.3311647122959647e-05 0 0.0049753226676374687 2.3589138028348246e-05 0 0.0049592647341364796 6.0893438551949687e-05 0 0.0049308685122998498 6.0476203437413517e-05 0 0.0049486606836627901 3.6952067968086035e-05 0 0.0050056390923542728 2.6034299999734498e-05 0 0.0049955346153769268 1.6076699003846057e-05 0 0.0049928683160103187 2.7573384703344533e-05 0 0.0050056390923542728 2.6034299999734498e-05 0 0.0049955346153769268 1.6076699003846057e-05 0 0.0050041721140080117 7.4800402057037747e-06 0 0.0049985345007359325 4.2151743473234681e-05 0 0.0049928683160103187 2.7573384703344533e-05 0 0.004988825471177019 3.6822103485035802e-05 0 0.0049985345007359325 4.2151743473234681e-05 0 0.0050056390923542728 2.6034299999734498e-05 0 0.0049928683160103187 2.7573384703344533e-05 0 0.0049012503236327771 4.0102994080277577e-05 0 0.0049400305357773034 2.3311647122959647e-05 0 0.0048069451484298439 4.0275111838051857e-05 0 0.0048384116495697599 4.9287374897230872e-05 0 0.0048425148130189222 -1.1959353931560995e-05 0 0.0049432819069891746 9.1403684152245427e-05 0 0.0049592647341364796 6.0893438551949687e-05 0 0.0049308685122998498 6.0476203437413517e-05 0 0.0049432819069891746 9.1403684152245427e-05 0 0.0049278647271598199 9.1244241806038879e-05 0 0.0049308685122998498 6.0476203437413517e-05 0 0.0048805618137007321 6.7041058791283566e-05 0 0.0049400305357773034 2.3311647122959647e-05 0 0.0049306758310075473 0.00017739463408907751 0 0.0049126532587153854 0.0002047659804195207 0 0.0049120355933291501 0.00016271000985980735 0 0.0049126532587153854 0.0002047659804195207 0 0.0048761039694494197 0.00017081689462662467 0 0.0049120355933291501 0.00016271000985980735 0 0.0048423726670431197 0.00021654098725048352 0 0.0047821446469006618 0.0001928210877105364 0 0.0049306758310075473 0.00017739463408907751 0 0.0049389133716124783 0.00020694710445891783 0 0.0049126532587153854 0.0002047659804195207 0 0.004694714990726964 0.00019685370731565763 0 0.0046984903550352144 0.00020121221752852369 0 0.0046989858659374755 0.00019587074973880601 0 0.0046984903550352144 0.00020121221752852369 0 0.0046989858659374755 0.00019587074973880601 0 0.0047036105804503965 0.00019460997339131988 0 0.0046984903550352144 0.00020121221752852369 0 0.0047036105804503965 0.00019460997339131988 0 0.0047140823900265706 0.00019710867663926332 0 0.0046957575554438325 0.00019510046681943898 0 0.0047036105804503965 0.00019460997339131988 0 0.0047017212794114825 0.0001948560357286954 0 0.0047036105804503965 0.00019460997339131988 0 0.0047140823900265706 0.00019710867663926332 0 0.0047017212794114825 0.0001948560357286954 0 0.0046984903550352144 0.00020121221752852369 0 0.0047140823900265706 0.00019710867663926332 0 0.0047093170394430532 0.00021053930348871407 0 0.0047106941113190188 0.00020380121341631723 0 0.0047821446469006618 0.0001928210877105364 0 0.0047140823900265706 0.00019710867663926332 0 0.0047268209214860121 0.00019228121921567828 0 0.0047036815581532844 0.00019475975621039451 0 0.0047140823900265706 0.00019710867663926332 0 0.0047268209214860121 0.00019228121921567828 0 0.0047499096340377061 0.00018916401762637578 0 0.0047140823900265706 0.00019710867663926332 0 0.0047017212794114825 0.0001948560357286954 0 0.0047036815581532844 0.00019475975621039451 0 0.0046884753879168403 0.0001945281170985013 0 0.0047017212794114825 0.0001948560357286954 0 0.0047036815581532844 0.00019475975621039451 0 0.0047036815581532844 0.00019475975621039451 0 0.0046909486329010054 0.00019362934496327015 0 0.0047018346398263969 0.0001934936302561923 0 0.0046884753879168403 0.0001945281170985013 0 0.0047036815581532844 0.00019475975621039451 0 0.0046909486329010054 0.00019362934496327015 0 0.0046782178701737787 0.00019324435299040602 0 0.0046886074630582662 0.00019295123114769692 0 0.0046909486329010054 0.00019362934496327015 0 0.0046886074630582662 0.00019295123114769692 0 0.0046909486329010054 0.00019362934496327015 0 0.0047018346398263969 0.0001934936302561923 0 0.0046886074630582662 0.00019295123114769692 0 0.0047018346398263969 0.0001934936302561923 0 0.0047048873095959865 0.00018812767175449132 0 0.0047268209214860121 0.00019228121921567828 0 0.0047036815581532844 0.00019475975621039451 0 0.0047018346398263969 0.0001934936302561923 0 0.0047268209214860121 0.00019228121921567828 0 0.0047018346398263969 0.0001934936302561923 0 0.0047048873095959865 0.00018812767175449132 0 0.004953271220441216 8.7079366627505276e-05 0 0.0049683780815947516 0.00011654943358069351 0 0.0049815931148183825 6.4254007752361414e-05 0 0.0048285256146382727 0.00013246351898815715 0 0.0048622435332424671 0.00010738982548324911 0 0.0048285256146382727 0.00013246351898815715 0 0.0049932201267950281 5.4473136580819806e-05 0 0.0047268209214860121 0.00019228121921567828 0 0.0047048873095959865 0.00018812767175449132 0 0.0047343853111163322 0.00018039591535076255 0 0.0047048873095959865 0.00018812767175449132 0 0.0047375376969695229 0.00014484879324773415 0 0.0047343853111163322 0.00018039591535076255 0 0.0049584242981108835 0.00010918664435758393 0 0.0049861143977952055 6.2287249298160168e-05 0 0.0049733325323575274 6.0075852515482297e-05 0 0.0049546307248579868 6.3377435229812029e-05 0 0.0049815931148183825 6.4254007752361414e-05 0 0.0049717111914145233 4.2377606911441524e-05 0 0.0047375376969695229 0.00014484879324773415 0 0.004770180815721497 0.00018550603757143009 0 0.0048249421086929735 0.00012180600852268601 0 0.0047268209214860121 0.00019228121921567828 0 0.004770180815721497 0.00018550603757143009 0 0.0047343853111163322 0.00018039591535076255 0 0.0047268209214860121 0.00019228121921567828 0 0.004770180815721497 0.00018550603757143009 0 0.0047499096340377061 0.00018916401762637578 0 0.0047375376969695229 0.00014484879324773415 0 0.004770180815721497 0.00018550603757143009 0 0.0047343853111163322 0.00018039591535076255 0 0.004770180815721497 0.00018550603757143009 0 0.0048280401555586471 0.00024100057047788935 0 0.0048885388398544009 0.0001435407934020348 0 0.0047821446469006618 0.0001928210877105364 0 0.0049046577021979402 0.00012801754021476655 0 0.0047750674490095414 0.00019339798948711921 0 0.0047821446469006618 0.0001928210877105364 0 0.004770180815721497 0.00018550603757143009 0 0.0048249421086929735 0.00012180600852268601 0 0.0048885388398544009 0.0001435407934020348 0 0.0049381224862326267 0.0001451922322344355 0 0.004947875880722148 0.00010814832181712107 0 0.0049028871129902256 0.00011390595884381283 0 0.0048761039694494197 0.00017081689462662467 0 0.0049028871129902256 0.00011390595884381283 0 0.0049120355933291501 0.00016271000985980735 0 0.0049381224862326267 0.0001451922322344355 0 0.0049028871129902256 0.00011390595884381283 0 0.0049120355933291501 0.00016271000985980735 0 0.0049306758310075473 0.00017739463408907751 0 0.0049381224862326267 0.0001451922322344355 0 0.0049120355933291501 0.00016271000985980735 0 0.0049478253973582638 6.6568224617666715e-05 0 0.0048209978680731052 6.4975561324351089e-05 0 0.0049132731341144436 7.9590088971208207e-06 0 0.0048249421086929735 0.00012180600852268601 0 0.0049478253973582638 6.6568224617666715e-05 0 0.0048209978680731052 6.4975561324351089e-05 0 0.0049046577021979402 0.00012801754021476655 0 0.0049405228524675099 6.1591748373459706e-05 0 0.004947875880722148 0.00010814832181712107 0 0.0049028871129902256 0.00011390595884381283 0 0.0049347620310604186 5.6861744214540881e-05 0 0.0048249421086929735 0.00012180600852268601 0 0.0048885388398544009 0.0001435407934020348 0 0.0049478253973582638 6.6568224617666715e-05 0 0.0049112070822032042 4.7855001983788888e-05 0 0.0049570699548866816 1.2060201360109096e-05 0 0.0049959474828574525 1.530268017927948e-05 0 0.0050030996892012408 2.7005676129589887e-05 0 0.0050042358595346424 6.3958953680751549e-06 0 0.0049959474828574525 1.530268017927948e-05 0 0.0050030996892012408 2.7005676129589887e-05 0 0.004988098207060746 2.4267478730057939e-05 0 0.0047375376969695229 0.00014484879324773415 0 0.0048249421086929735 0.00012180600852268601 0 0.0048209978680731052 6.4975561324351089e-05 0 0.0048622435332424671 0.00010738982548324911 0 0.0049112070822032042 4.7855001983788888e-05 0 0.0049861143977952055 6.2287249298160168e-05 0 0.0050030996892012408 2.7005676129589887e-05 0 0.004988098207060746 2.4267478730057939e-05 0 0.0049815931148183825 6.4254007752361414e-05 0 0.0049717111914145233 4.2377606911441524e-05 0 0.004988098207060746 2.4267478730057939e-05 0 0.0049932201267950281 5.4473136580819806e-05 0 0.0049832933446858482 3.0798728269863454e-05 0 0.0049861143977952055 6.2287249298160168e-05 0 0.0049733325323575274 6.0075852515482297e-05 0 0.004988098207060746 2.4267478730057939e-05 0 0.0049717111914145233 4.2377606911441524e-05 0 0.0049731007098230027 3.0178576617521246e-05 0 0.004988098207060746 2.4267478730057939e-05 0 0.0049731007098230027 3.0178576617521246e-05 0 0.004988098207060746 2.4267478730057939e-05 0 0.0049804633377172995 1.4181065768702718e-05 0 0.0049959474828574525 1.530268017927948e-05 0 0.004988098207060746 2.4267478730057939e-05 0 0.0049804633377172995 1.4181065768702718e-05 0 0.0049959474828574525 1.530268017927948e-05 0 0.0049804633377172995 1.4181065768702718e-05 0 0.0049957863251405598 6.2316540134160684e-06 0 0.0049804633377172995 1.4181065768702718e-05 0 0.0049889432272948132 6.5063807229336457e-06 0 0.0049957863251405598 6.2316540134160684e-06 0 0.0049889432272948132 6.5063807229336457e-06 0 0.0049999663258038342 -6.2009181658069376e-09 0 0.0049784605408156792 5.9108659420371008e-06 0 0.0049889432272948132 6.5063807229336457e-06 0 0.0049999663258038342 -6.2009181658069376e-09 0 0.0049957863251405598 6.2316540134160684e-06 0 0.0049999663258038342 -6.2009181658069376e-09 0 0.0050000068874475022 3.5215136781983101e-09 0 0.0049957863251405598 6.2316540134160684e-06 0 0.0050000068874475022 3.5215136781983101e-09 0 0.0049957863251405598 6.2316540134160684e-06 0 0.0050042358595346424 6.3958953680751549e-06 0 0.0049959474828574525 1.530268017927948e-05 0 0.0049957863251405598 6.2316540134160684e-06 0 0.0050042358595346424 6.3958953680751549e-06 0 0.0050000068874475022 3.5215136781983101e-09 0 0.0050042358595346424 6.3958953680751549e-06 0 0.0050000042842990953 6.6758436651223835e-10 0 0.0049900451240454235 1.1702361368637724e-05 0 0.0049132731341144436 7.9590088971208207e-06 0 0.0049998458857756882 -6.3403374655762143e-08 0 0.0049570699548866816 1.2060201360109096e-05 0 0.004999980552287871 8.2842304556722237e-09 0 0.0049900451240454235 1.1702361368637724e-05 0 0.0049478253973582638 6.6568224617666715e-05 0 0.0049132731341144436 7.9590088971208207e-06 0 0.0050066621436653169 6.0601520827427459e-06 0 0.0049985852334653918 1.7427066629921475e-07 0 0.0049983286114250024 3.5288200055179967e-06 0 0.0049957993300891214 6.0002264243811901e-06 0 0.0049977842493672793 1.5940583761418178e-06 0 0.0049967452959155337 -1.3095870544719964e-06 0 0.0050041721140080117 7.4800402057037747e-06 0 0.0050005558095086704 -2.5914728107295913e-06 0 0.0049967452959155337 -1.3095870544719964e-06 0 0.0050041721140080117 7.4800402057037747e-06 0 0.0049901731342933998 5.7229499899547305e-06 0 0.0049955346153769268 1.6076699003846057e-05 0 0.0050041721140080117 7.4800402057037747e-06 0 0.0049901731342933998 5.7229499899547305e-06 0 0.0049983286114250024 3.5288200055179967e-06 0 0.0049984134722714764 7.63975163958652e-06 0 0.0049957993300891214 6.0002264243811901e-06 0 0.0049943202329731625 1.3287415466128958e-05 0 0.0049984134722714764 7.63975163958652e-06 0 0.0049957993300891214 6.0002264243811901e-06 0 0.0049486606836627901 3.6952067968086035e-05 0 0.0049722214453211677 3.3946210043496224e-05 0 0.0049645752917932603 1.8383196005697546e-05 0 0.0049753226676374687 2.3589138028348246e-05 0 0.004982094156400634 1.1084891798108797e-05 0 0.0049546307248579868 6.3377435229812029e-05 0 0.0049717111914145233 4.2377606911441524e-05 0 0.004947416101079038 4.1091317576582738e-05 0 0.0049717111914145233 4.2377606911441524e-05 0 0.0049731007098230027 3.0178576617521246e-05 0 0.004947416101079038 4.1091317576582738e-05 0 0.0049778381440836253 1.5878400441241418e-05 0 0.0049600086106493255 3.8356355770450436e-05 0 0.0049731007098230027 3.0178576617521246e-05 0 0.0049804633377172995 1.4181065768702718e-05 0 0.004947416101079038 4.1091317576582738e-05 0 0.0049804633377172995 1.4181065768702718e-05 0 0.0049722214453211677 3.3946210043496224e-05 0 0.0049645752917932603 1.8383196005697546e-05 0 0.0049983286114250024 3.5288200055179967e-06 0 0.0049984134722714764 7.63975163958652e-06 0 0.0050002522905971212 3.3904713657214431e-06 0 0.0049983286114250024 3.5288200055179967e-06 0 0.0050002522905971212 3.3904713657214431e-06 0 0.0049995407724491023 8.8642736311113395e-07 0 0.0050002522905971212 3.3904713657214431e-06 0 0.0049995407724491023 8.8642736311113395e-07 0 0.0050005544989535156 8.8786642780219259e-07 0 0.004982094156400634 1.1084891798108797e-05 0 0.0049895462848690312 4.3996798962394167e-06 0 0.0049804633377172995 1.4181065768702718e-05 0 0.0049645752917932603 1.8383196005697546e-05 0 0.0049784605408156792 5.9108659420371008e-06 0 0.0049804633377172995 1.4181065768702718e-05 0 0.0049889432272948132 6.5063807229336457e-06 0 0.0049784605408156792 5.9108659420371008e-06 0 0.0050000008019594226 1.6072624402710449e-10 0 0.0050005544989535156 8.8786642780219259e-07 0 0.0050000005661077979 4.6378173811294188e-10 0 0.0049999946847873568 2.243904059125955e-09 0 0.0049895462848690312 4.3996798962394167e-06 0 0.0049995407724491023 8.8642736311113395e-07 0 0.0050000005661077979 4.6378173811294188e-10 0 0.0049999967936711787 -2.2703542228951017e-10 0 0.0049995407724491023 8.8642736311113395e-07 0 0.0050005544989535156 8.8786642780219259e-07 0 0.0050000005661077979 4.6378173811294188e-10 0 0.0049999999445152097 -5.0734663996814407e-10 0 0.0049985852334653918 1.7427066629921475e-07 0 0.0049999970584316458 -5.1735751010142615e-09 0 0.0050005558095086704 -2.5914728107295913e-06 0 0.0049986133366283509 -2.8105517556987859e-06 0 0.0049995407724491023 8.8642736311113395e-07 0 0.0049999967936711787 -2.2703542228951017e-10 0 0.0049977842493672793 1.5940583761418178e-06 0 0.0049983286114250024 3.5288200055179967e-06 0 0.0049995407724491023 8.8642736311113395e-07 0 0.0049977842493672793 1.5940583761418178e-06 0 0.0049967452959155337 -1.3095870544719964e-06 0 0.0049986133366283509 -2.8105517556987859e-06 0 0.0049941882811895492 -5.5093244331104031e-06 0 0.0049967452959155337 -1.3095870544719964e-06 0 0.0050005558095086704 -2.5914728107295913e-06 0 0.0049986133366283509 -2.8105517556987859e-06 0 0.0049999970584316458 -5.1735751010142615e-09 0 0.0049986133366283509 -2.8105517556987859e-06 0 0.0049999944329516786 -2.1720405627830883e-09 0 0.0049999944329516786 -2.1720405627830883e-09 0 0.0049988833537815093 -1.2326749824712296e-06 0 0.0049941882811895492 -5.5093244331104031e-06 0 0.0049986133366283509 -2.8105517556987859e-06 0 0.0049999944329516786 -2.1720405627830883e-09 0 0.0049941882811895492 -5.5093244331104031e-06 0 0.0049988833537815093 -1.2326749824712296e-06 0 0.0050000008809870967 7.4327703056569305e-10 0 0.0050007452203453314 -1.507033336426996e-06 0 0.0049999944329516786 -2.1720405627830883e-09 0 0.0049988833537815093 -1.2326749824712296e-06 0 0.0050000008809870967 7.4327703056569305e-10 0 0.004992961483424381 -6.0772141126170359e-06 0 0.0049833837675094268 -7.2454938446099743e-06 0 0.0049988833537815093 -1.2326749824712296e-06 0 0.0049941882811895492 -5.5093244331104031e-06 0 0.0050007452203453314 -1.507033336426996e-06 0 0.0049941882811895492 -5.5093244331104031e-06 0 0.0049665888176318174 -1.4306157199665374e-05 0 0.0049819418769519088 -1.9002014510287321e-06 0 0.0049967452959155337 -1.3095870544719964e-06 0 0.0049941882811895492 -5.5093244331104031e-06 0 0.0049819418769519088 -1.9002014510287321e-06 0 0.0050005891702213871 5.9664782834488325e-08 0 0.0050000023712135997 -2.5506011336326403e-09 0 0.0050005349583387166 1.973476964441558e-06 0 0.0050005891702213871 5.9664782834488325e-08 0 0.0050000008809870967 7.4327703056569305e-10 0 0.0050007452203453314 -1.507033336426996e-06 0 0.0050005891702213871 5.9664782834488325e-08 0 0.0050000023712135997 -2.5506011336326403e-09 0 0.0050000008809870967 7.4327703056569305e-10 0 0.0049833837675094268 -7.2454938446099743e-06 0 0.0049750743870643783 -3.1498297401984338e-06 0 0.0050005891702213871 5.9664782834488325e-08 0 0.0050007452203453314 -1.507033336426996e-06 0 0.0050005349583387166 1.973476964441558e-06 0 0.0049665888176318174 -1.4306157199665374e-05 0 0.0049474448992406633 -8.4617359838523358e-06 0 0.0049519254397710029 -7.8158453445321357e-06 0 0.0049665888176318174 -1.4306157199665374e-05 0 0.0049519254397710029 -7.8158453445321357e-06 0 0.0049673779771738707 1.1374437961203324e-06 0 0.0049673779771738707 1.1374437961203324e-06 0 0.004974931551916072 1.4904324522041631e-05 0 0.0049625704632085439 1.6042871139360365e-05 0 0.0049519254397710029 -7.8158453445321357e-06 0 0.0049673779771738707 1.1374437961203324e-06 0 0.0049541852360050938 4.7833851109785816e-06 0 0.0049673779771738707 1.1374437961203324e-06 0 0.0049541852360050938 4.7833851109785816e-06 0 0.0049625704632085439 1.6042871139360365e-05 0 0.0049519254397710029 -7.8158453445321357e-06 0 0.0049541852360050938 4.7833851109785816e-06 0 0.0049398659198054652 1.3515140386050375e-06 0 0.0049541852360050938 4.7833851109785816e-06 0 0.00494674614436383 1.8154807184733963e-05 0 0.0049398659198054652 1.3515140386050375e-06 0 0.0049967452959155337 -1.3095870544719964e-06 0 0.0049819418769519088 -1.9002014510287321e-06 0 0.0049901731342933998 5.7229499899547305e-06 0 0.0049819418769519088 -1.9002014510287321e-06 0 0.0049786702478705957 5.9093801247875289e-06 0 0.0049901731342933998 5.7229499899547305e-06 0 0.0049665888176318174 -1.4306157199665374e-05 0 0.0049673779771738707 1.1374437961203324e-06 0 0.0049819418769519088 -1.9002014510287321e-06 0 0.0049673779771738707 1.1374437961203324e-06 0 0.0049819418769519088 -1.9002014510287321e-06 0 0.0049786702478705957 5.9093801247875289e-06 0 0.0049786702478705957 5.9093801247875289e-06 0 0.0049843885105826857 1.8471508797015207e-05 0 0.004974931551916072 1.4904324522041631e-05 0 0.0049673779771738707 1.1374437961203324e-06 0 0.0049786702478705957 5.9093801247875289e-06 0 0.004974931551916072 1.4904324522041631e-05 0 0.0049955346153769268 1.6076699003846057e-05 0 0.0049901731342933998 5.7229499899547305e-06 0 0.0049843885105826857 1.8471508797015207e-05 0 0.0049786702478705957 5.9093801247875289e-06 0 0.0049901731342933998 5.7229499899547305e-06 0 0.0049843885105826857 1.8471508797015207e-05 0 0.0049928683160103187 2.7573384703344533e-05 0 0.0049843885105826857 1.8471508797015207e-05 0 0.0049829785704860741 3.1949383129369629e-05 0 0.0049955346153769268 1.6076699003846057e-05 0 0.0049928683160103187 2.7573384703344533e-05 0 0.0049843885105826857 1.8471508797015207e-05 0 0.0049928683160103187 2.7573384703344533e-05 0 0.0049829785704860741 3.1949383129369629e-05 0 0.004988825471177019 3.6822103485035802e-05 0 0.0049829785704860741 3.1949383129369629e-05 0 0.0049836988863646266 4.0212449781795854e-05 0 0.004988825471177019 3.6822103485035802e-05 0 0.0049829785704860741 3.1949383129369629e-05 0 0.0049836988863646266 4.0212449781795854e-05 0 0.0049769099313751097 3.8997342967830872e-05 0 0.0049908512266814324 4.2791871388790725e-05 0 0.0049836988863646266 4.0212449781795854e-05 0 0.004988825471177019 3.6822103485035802e-05 0 0.0049769099313751097 3.8997342967830872e-05 0 0.0049725461757790567 2.8121471217436386e-05 0 0.0049651518559550795 4.3932458331474165e-05 0 0.0049829785704860741 3.1949383129369629e-05 0 0.0049769099313751097 3.8997342967830872e-05 0 0.0049725461757790567 2.8121471217436386e-05 0 0.0049843885105826857 1.8471508797015207e-05 0 0.0049829785704860741 3.1949383129369629e-05 0 0.0049725461757790567 2.8121471217436386e-05 0 0.0049843885105826857 1.8471508797015207e-05 0 0.0049725461757790567 2.8121471217436386e-05 0 0.004974931551916072 1.4904324522041631e-05 0 0.0049725461757790567 2.8121471217436386e-05 0 0.004974931551916072 1.4904324522041631e-05 0 0.0049625704632085439 1.6042871139360365e-05 0 0.0049725461757790567 2.8121471217436386e-05 0 0.0049625704632085439 1.6042871139360365e-05 0 0.0049557659242400491 3.2477662453934482e-05 0 0.0049541852360050938 4.7833851109785816e-06 0 0.0049625704632085439 1.6042871139360365e-05 0 0.00494674614436383 1.8154807184733963e-05 0 0.0049625704632085439 1.6042871139360365e-05 0 0.00494674614436383 1.8154807184733963e-05 0 0.0049557659242400491 3.2477662453934482e-05 0 0.00494674614436383 1.8154807184733963e-05 0 0.0049557659242400491 3.2477662453934482e-05 0 0.0049331606300248429 3.7620198847814451e-05 0 0.0049557659242400491 3.2477662453934482e-05 0 0.0049460752595077671 5.2280934589732069e-05 0 0.0049331606300248429 3.7620198847814451e-05 0 0.0049725461757790567 2.8121471217436386e-05 0 0.0049557659242400491 3.2477662453934482e-05 0 0.0049651518559550795 4.3932458331474165e-05 0 0.0049557659242400491 3.2477662453934482e-05 0 0.0049651518559550795 4.3932458331474165e-05 0 0.0049460752595077671 5.2280934589732069e-05 0 0.0049651518559550795 4.3932458331474165e-05 0 0.0049606706433682236 6.2867432630683549e-05 0 0.0049789054957166366 5.0565624824669544e-05 0 0.0049651518559550795 4.3932458331474165e-05 0 0.0049460752595077671 5.2280934589732069e-05 0 0.0049606706433682236 6.2867432630683549e-05 0 0.0048501488408175843 0.00016222279630608361 0 0.004808419826987609 0.00011698815469811768 0 0.0048686245058434958 9.1192791343216165e-05 0 0.0048422524134034339 0.00011062754100431929 0 0.0049208464588883132 7.4165453584233831e-05 0 0.0049460752595077671 5.2280934589732069e-05 0 0.004938677825928532 7.4683388600760555e-05 0 0.0049606706433682236 6.2867432630683549e-05 0 0.004887428581916424 0.00013731969463141421 0 0.0048686245058434958 9.1192791343216165e-05 0 0.0049158313274445748 0.00010750913869994349 0 0.0049158313274445748 0.00010750913869994349 0 0.0049664325392603419 9.5478665992163432e-05 0 0.0049300843555750385 6.559192647200792e-05 0 0.0049287121041234798 0.00015189441301939691 0 0.0049158313274445748 0.00010750913869994349 0 0.0049664325392603419 9.5478665992163432e-05 0 0.0049208464588883132 7.4165453584233831e-05 0 0.0049533089157973702 5.8859954250064126e-05 0 0.0048686245058434958 9.1192791343216165e-05 0 0.0049158313274445748 0.00010750913869994349 0 0.0049300843555750385 6.559192647200792e-05 0 0.0048360396874732653 0.00014723025421063573 0 0.0048682953733401981 9.4935901521616485e-05 0 0.0049908512266814324 4.2791871388790725e-05 0 0.0049836988863646266 4.0212449781795854e-05 0 0.0049789054957166366 5.0565624824669544e-05 0 0.0049908512266814324 4.2791871388790725e-05 0 0.0049664325392603419 9.5478665992163432e-05 0 0.0049300843555750385 6.559192647200792e-05 0 0.0049884336046800643 4.3717410152505731e-05 0 0.0049533089157973702 5.8859954250064126e-05 0 0.0049012503236327771 4.0102994080277577e-05 0 0.0048682953733401981 9.4935901521616485e-05 0 0.0049769099313751097 3.8997342967830872e-05 0 0.0049651518559550795 4.3932458331474165e-05 0 0.0049789054957166366 5.0565624824669544e-05 0 0.0049836988863646266 4.0212449781795854e-05 0 0.0049769099313751097 3.8997342967830872e-05 0 0.0049789054957166366 5.0565624824669544e-05 0 0.0048761614057318279 6.8163269907502467e-05 0 0.0048414289715094537 4.0238458906220719e-05 0 0.0048846150934153008 3.0632643981878735e-05 0 0.0048761614057318279 6.8163269907502467e-05 0 0.0048414289715094537 4.0238458906220719e-05 0 0.0048364173114892849 8.8049815488899739e-05 0 0.0048414289715094537 4.0238458906220719e-05 0 0.0048364173114892849 8.8049815488899739e-05 0 0.0047894169419890661 6.829584966031038e-05 0 0.0048414289715094537 4.0238458906220719e-05 0 0.0048018196187998513 3.7179070977229341e-05 0 0.0047894169419890661 6.829584966031038e-05 0 0.0047899358863820671 0.00012266977731003622 0 0.0048364173114892849 8.8049815488899739e-05 0 0.0047894169419890661 6.829584966031038e-05 0 0.0047899358863820671 0.00012266977731003622 0 0.0048367639075625 0.00012666451524121508 0 0.0048364173114892849 8.8049815488899739e-05 0 0.0048367639075625 0.00012666451524121508 0 0.0048696216427053744 0.00014302279706674282 0 0.004867986637366626 0.0001069132980629587 0 0.0048367639075625 0.00012666451524121508 0 0.0048364173114892849 8.8049815488899739e-05 0 0.004867986637366626 0.0001069132980629587 0 0.0048761614057318279 6.8163269907502467e-05 0 0.0048364173114892849 8.8049815488899739e-05 0 0.004867986637366626 0.0001069132980629587 0 0.0048761614057318279 6.8163269907502467e-05 0 0.004867986637366626 0.0001069132980629587 0 0.0048975763829548387 0.00010070749580280503 0 0.0048696216427053744 0.00014302279706674282 0 0.004867986637366626 0.0001069132980629587 0 0.0048907851333517939 0.00012534253453650536 0 0.0049271339054587551 0.00013978084907403246 0 0.0048975763829548387 0.00010070749580280503 0 0.0049291588394060719 7.2550880909705453e-05 0 0.004867986637366626 0.0001069132980629587 0 0.0048907851333517939 0.00012534253453650536 0 0.0048975763829548387 0.00010070749580280503 0 0.0049271339054587551 0.00013978084907403246 0 0.0048907851333517939 0.00012534253453650536 0 0.0048975763829548387 0.00010070749580280503 0 0.0048422524134034339 0.00011062754100431929 0 0.0049400737447882039 7.0886556000271064e-05 0 0.0049271339054587551 0.00013978084907403246 0 0.0049718415577204491 0.00011940672703183925 0 0.0049291588394060719 7.2550880909705453e-05 0 0.0049460752595077671 5.2280934589732069e-05 0 0.004938677825928532 7.4683388600760555e-05 0 0.0049212096900542179 5.8675319180462439e-05 0 0.0049460752595077671 5.2280934589732069e-05 0 0.0049212096900542179 5.8675319180462439e-05 0 0.0049331606300248429 3.7620198847814451e-05 0 0.0048761614057318279 6.8163269907502467e-05 0 0.0048975763829548387 0.00010070749580280503 0 0.0049291588394060719 7.2550880909705453e-05 0 0.0048761614057318279 6.8163269907502467e-05 0 0.0049291588394060719 7.2550880909705453e-05 0 0.0048846150934153008 3.0632643981878735e-05 0 0.0049212096900542179 5.8675319180462439e-05 0 0.0048976499940800097 4.1723682283719953e-05 0 0.0049331606300248429 3.7620198847814451e-05 0 0.0049400737447882039 7.0886556000271064e-05 0 0.0048884474380490239 3.3561514381502093e-05 0 0.0048976499940800097 4.1723682283719953e-05 0 0.0049331606300248429 3.7620198847814451e-05 0 0.0049200621414128487 2.0296513086033536e-05 0 0.0048976499940800097 4.1723682283719953e-05 0 0.0049200621414128487 2.0296513086033536e-05 0 0.0048946816510056865 1.5962043310496676e-05 0 0.00494674614436383 1.8154807184733963e-05 0 0.0049200621414128487 2.0296513086033536e-05 0 0.0049398659198054652 1.3515140386050375e-06 0 0.00494674614436383 1.8154807184733963e-05 0 0.0049331606300248429 3.7620198847814451e-05 0 0.0049200621414128487 2.0296513086033536e-05 0 0.0049200621414128487 2.0296513086033536e-05 0 0.0049398659198054652 1.3515140386050375e-06 0 0.004899799929935781 -1.1414008562433638e-07 0 0.0049200621414128487 2.0296513086033536e-05 0 0.0048946816510056865 1.5962043310496676e-05 0 0.004899799929935781 -1.1414008562433638e-07 0 0.0048946816510056865 1.5962043310496676e-05 0 0.0048611093104503457 5.0365589339419144e-06 0 0.004899799929935781 -1.1414008562433638e-07 0 0.0048414289715094537 4.0238458906220719e-05 0 0.0048846150934153008 3.0632643981878735e-05 0 0.0048611093104503457 5.0365589339419144e-06 0 0.0048884474380490239 3.3561514381502093e-05 0 0.0048641155753026324 8.0036911996067611e-06 0 0.0048976499940800097 4.1723682283719953e-05 0 0.0048946816510056865 1.5962043310496676e-05 0 0.0048611093104503457 5.0365589339419144e-06 0 0.0048414289715094537 4.0238458906220719e-05 0 0.0048611093104503457 5.0365589339419144e-06 0 0.0048296222599193105 1.4801322552925405e-05 0 0.0048414289715094537 4.0238458906220719e-05 0 0.0048296222599193105 1.4801322552925405e-05 0 0.0048018196187998513 3.7179070977229341e-05 0 0.0048611093104503457 5.0365589339419144e-06 0 0.0048439400455634746 -1.6284356475286022e-05 0 0.0048616363468054324 -1.2110499301959518e-05 0 0.0048611093104503457 5.0365589339419144e-06 0 0.0048296222599193105 1.4801322552925405e-05 0 0.0048439400455634746 -1.6284356475286022e-05 0 0.0048439400455634746 -1.6284356475286022e-05 0 0.0048616363468054324 -1.2110499301959518e-05 0 0.0048769593681103202 -6.5947623879741565e-06 0 0.0048616363468054324 -1.2110499301959518e-05 0 0.0048821657290246592 -2.7186653316850373e-05 0 0.004899799929935781 -1.1414008562433638e-07 0 0.0048611093104503457 5.0365589339419144e-06 0 0.0048616363468054324 -1.2110499301959518e-05 0 0.004899799929935781 -1.1414008562433638e-07 0 0.0049363418467407456 -1.7859271008404851e-05 0 0.0049338015325329724 -2.4145720027247777e-06 0 0.0048616363468054324 -1.2110499301959518e-05 0 0.0048821657290246592 -2.7186653316850373e-05 0 0.0048645670003477108 -2.5604428614014128e-06 0 0.0049896215674820254 -1.2946684197111506e-05 0 0.0049998041838497029 -2.0372222581261776e-06 0 0.0049967190980119312 1.5526418754195758e-06 0 0.0048616363468054324 -1.2110499301959518e-05 0 0.0048645670003477108 -2.5604428614014128e-06 0 0.0048769593681103202 -6.5947623879741565e-06 0 0.0049398659198054652 1.3515140386050375e-06 0 0.004899799929935781 -1.1414008562433638e-07 0 0.0049440538429715323 -1.8102691069658137e-05 0 0.0048821657290246592 -2.7186653316850373e-05 0 0.004899799929935781 -1.1414008562433638e-07 0 0.0049440538429715323 -1.8102691069658137e-05 0 0.0049896215674820254 -1.2946684197111506e-05 0 0.0049440538429715323 -1.8102691069658137e-05 0 0.0049857689983502469 2.2010917737251759e-06 0 0.0049363418467407456 -1.7859271008404851e-05 0 0.0049433403728992211 -1.8759355245655915e-05 0 0.0049474448992406633 -8.4617359838523358e-06 0 0.0049519254397710029 -7.8158453445321357e-06 0 0.0049440538429715323 -1.8102691069658137e-05 0 0.0049519254397710029 -7.8158453445321357e-06 0 0.0049398659198054652 1.3515140386050375e-06 0 0.0049440538429715323 -1.8102691069658137e-05 0 0.0049750743870643783 -3.1498297401984338e-06 0 0.0049853933825243328 1.2581790673456801e-06 0 0.0050005349583387166 1.973476964441558e-06 0 0.0049857689983502469 2.2010917737251759e-06 0 0.0049969099632669999 -2.511158802375484e-07 0 0.0049474448992406633 -8.4617359838523358e-06 0 0.0049440538429715323 -1.8102691069658137e-05 0 0.0049857689983502469 2.2010917737251759e-06 0 0.0049857689983502469 2.2010917737251759e-06 0 0.0049999799826256361 2.4212326625981352e-09 0 0.0049969099632669999 -2.511158802375484e-07 0 0.0050000023712135997 -2.5506011336326403e-09 0 0.0050005349583387166 1.973476964441558e-06 0 0.0049969099632669999 -2.511158802375484e-07 0 0.0050000023712135997 -2.5506011336326403e-09 0 0.0049999799826256361 2.4212326625981352e-09 0 0.0049969099632669999 -2.511158802375484e-07 0 0.0049998041838497029 -2.0372222581261776e-06 0 0.0049967190980119312 1.5526418754195758e-06 0 0.0050002870512880181 2.0719324409910734e-06 0 0.0049896215674820254 -1.2946684197111506e-05 0 0.0049857689983502469 2.2010917737251759e-06 0 0.0049967190980119312 1.5526418754195758e-06 0 0.0049999799826256361 2.4212326625981352e-09 0 0.0049967190980119312 1.5526418754195758e-06 0 0.0050000017956649389 2.6533600692854373e-09 0 0.0049857689983502469 2.2010917737251759e-06 0 0.0049999799826256361 2.4212326625981352e-09 0 0.0049967190980119312 1.5526418754195758e-06 0 0.0049967190980119312 1.5526418754195758e-06 0 0.0050000017956649389 2.6533600692854373e-09 0 0.0050002870512880181 2.0719324409910734e-06 0 0.0050000017956649389 2.6533600692854373e-09 0 0.004999996401645895 -4.0668976456240962e-10 0 0.0050002870512880181 2.0719324409910734e-06 0 0.0049998041838497029 -2.0372222581261776e-06 0 0.0050002870512880181 2.0719324409910734e-06 0 0.0049981910105880737 8.0751403037524619e-06 0 0.0049942265446099457 2.8018843293004778e-06 0 0.0049753726829167705 1.5848469951259062e-05 0 0.0049981910105880737 8.0751403037524619e-06 0 0.0050002870512880181 2.0719324409910734e-06 0 0.0049942265446099457 2.8018843293004778e-06 0 0.0049981910105880737 8.0751403037524619e-06 0 0.004999996401645895 -4.0668976456240962e-10 0 0.0049942265446099457 2.8018843293004778e-06 0 0.0049999869285704745 1.3523305343030021e-09 0 0.004999996401645895 -4.0668976456240962e-10 0 0.0050002870512880181 2.0719324409910734e-06 0 0.0049942265446099457 2.8018843293004778e-06 0 0.0049942265446099457 2.8018843293004778e-06 0 0.0049999869285704745 1.3523305343030021e-09 0 0.0049861508992652716 5.7115909305128357e-06 0 0.0049999869285704745 1.3523305343030021e-09 0 0.0049861508992652716 5.7115909305128357e-06 0 0.0049999579766971357 5.1447060869589746e-09 0 0.0049861508992652716 5.7115909305128357e-06 0 0.0049753726829167705 1.5848469951259062e-05 0 0.004976819480450873 9.5197343399964223e-06 0 0.0049942265446099457 2.8018843293004778e-06 0 0.0049861508992652716 5.7115909305128357e-06 0 0.0049753726829167705 1.5848469951259062e-05 0 0.0049753726829167705 1.5848469951259062e-05 0 0.0049659257314699215 3.5673023826632968e-06 0 0.0049444035715194542 -2.5037363329924612e-06 0 0.0049753726829167705 1.5848469951259062e-05 0 0.004976819480450873 9.5197343399964223e-06 0 0.0049701700127527115 6.3474009255181413e-06 0 0.0049753726829167705 1.5848469951259062e-05 0 0.0049659257314699215 3.5673023826632968e-06 0 0.0049701700127527115 6.3474009255181413e-06 0 0.0048941070050762987 4.6844224263108147e-06 0 0.004949242321451732 1.3774672964209444e-05 0 0.0049701700127527115 6.3474009255181413e-06 0 0.004969051881765549 -8.6373410588992864e-06 0 0.0049556604645022897 1.4042247961081544e-05 0 0.0049659257314699215 3.5673023826632968e-06 0 0.0049701700127527115 6.3474009255181413e-06 0 0.004969051881765549 -8.6373410588992864e-06 0 0.0048941070050762987 4.6844224263108147e-06 0 0.0048426453619871716 -1.6527396539676267e-05 0 0.004969051881765549 -8.6373410588992864e-06 0 0.0049444035715194542 -2.5037363329924612e-06 0 0.0049153444540389552 -3.2991072385491186e-05 0 0.0049659257314699215 3.5673023826632968e-06 0 0.004969051881765549 -8.6373410588992864e-06 0 0.0049444035715194542 -2.5037363329924612e-06 0 0.0049444035715194542 -2.5037363329924612e-06 0 0.0048769593681103202 -6.5947623879741565e-06 0 0.0049153444540389552 -3.2991072385491186e-05 0 0.0048439400455634746 -1.6284356475286022e-05 0 0.0048769593681103202 -6.5947623879741565e-06 0 0.0049153444540389552 -3.2991072385491186e-05 0 0.0049338015325329724 -2.4145720027247777e-06 0 0.0049503861788328229 1.3411639169700133e-05 0 0.0048645670003477108 -2.5604428614014128e-06 0 0.0048769593681103202 -6.5947623879741565e-06 0 0.0049022437744401792 2.2773262545610341e-05 0 0.0049444035715194542 -2.5037363329924612e-06 0 0.0048769593681103202 -6.5947623879741565e-06 0 0.0049022437744401792 2.2773262545610341e-05 0 0.0049716203025083521 1.6346942025988986e-05 0 0.0049503861788328229 1.3411639169700133e-05 0 0.0049753726829167705 1.5848469951259062e-05 0 0.0049444035715194542 -2.5037363329924612e-06 0 0.0049022437744401792 2.2773262545610341e-05 0 0.0049913884015355733 5.2421213125339395e-06 0 0.0049945243947015754 6.3162701015968201e-06 0 0.0050002495238855825 1.5018611030278052e-07 0 0.0050001621273666561 1.7049816908071695e-06 0 0.0049991445066511139 -1.8747180368221786e-07 0 0.0050002495238855825 1.5018611030278052e-07 0 0.0049999998669453391 -1.3740150449597222e-10 0 0.0050000003856506131 1.6843705891274279e-10 0 0.0050002495238855825 1.5018611030278052e-07 0 0.0049999998669453391 -1.3740150449597222e-10 0 0.0049991445066511139 -1.8747180368221786e-07 0 0.0049860118475317005 6.3096011082700255e-06 0 0.0049999803024644582 -4.9673869868529733e-09 0 0.0049951172792400619 7.9473526582846805e-06 0 0.0049913884015355733 5.2421213125339395e-06 0 0.004999999112991105 -1.2099991553271859e-09 0 0.0049860118475317005 6.3096011082700255e-06 0 0.0049951172792400619 7.9473526582846805e-06 0 0.004987683247371511 1.4674390534100566e-05 0 0.0049951172792400619 7.9473526582846805e-06 0 0.0049953420924605885 1.7201317378513492e-05 0 0.004987683247371511 1.4674390534100566e-05 0 0.0049951172792400619 7.9473526582846805e-06 0 0.0050010791764298042 5.431621159698554e-06 0 0.0049953420924605885 1.7201317378513492e-05 0 0.0050019265457684706 4.3281953856850582e-06 0 0.0049298063305821538 1.9480576036987383e-05 0 0.0049900032808419988 8.0334001391569169e-06 0 0.0049949967417428518 9.0331061372112615e-06 0 0.0049907321298225124 2.0774725890668488e-05 0 0.0049999803024644582 -4.9673869868529733e-09 0 0.0050010791764298042 5.431621159698554e-06 0 0.0050000149946826831 5.2003454127971619e-09 0 0.0049999803024644582 -4.9673869868529733e-09 0 0.0049951172792400619 7.9473526582846805e-06 0 0.0050010791764298042 5.431621159698554e-06 0 0.0050000166179858512 -8.6235122166528247e-10 0 0.0049999811721213811 4.8419188723308809e-10 0 0.0049949967417428518 9.0331061372112615e-06 0 0.0049861508992652716 5.7115909305128357e-06 0 0.0049999579766971357 5.1447060869589746e-09 0 0.0049779977035081342 6.2897607694517978e-06 0 0.0049900032808419988 8.0334001391569169e-06 0 0.0049999811721213811 4.8419188723308809e-10 0 0.0049949967417428518 9.0331061372112615e-06 0 0.0049999942826694363 1.9489026383452421e-09 0 0.0049856842367523866 1.040999826822521e-05 0 0.0050019265457684706 4.3281953856850582e-06 0 0.0049999932933039145 8.4662802579983687e-09 0 0.0049861508992652716 5.7115909305128357e-06 0 0.004976819480450873 9.5197343399964223e-06 0 0.0049779977035081342 6.2897607694517978e-06 0 0.0049856842367523866 1.040999826822521e-05 0 0.0049885661254974907 1.1480395823204725e-05 0 0.004976819480450873 9.5197343399964223e-06 0 0.0049701700127527115 6.3474009255181413e-06 0 0.0049630582382427435 1.497807163158726e-05 0 0.004976819480450873 9.5197343399964223e-06 0 0.0049779977035081342 6.2897607694517978e-06 0 0.0049630582382427435 1.497807163158726e-05 0 0.0048202298124644417 2.2519179319853311e-05 0 0.0049556604645022897 1.4042247961081544e-05 0 0.0049114763661923608 -1.1353088364408721e-05 0 0.0049701700127527115 6.3474009255181413e-06 0 0.0049556604645022897 1.4042247961081544e-05 0 0.0049630582382427435 1.497807163158726e-05 0 0.0049556604645022897 1.4042247961081544e-05 0 0.0049680247495882627 2.9961543401034136e-07 0 0.0049478860962936357 -4.6167914130899944e-06 0 0.0049556604645022897 1.4042247961081544e-05 0 0.0049630582382427435 1.497807163158726e-05 0 0.0049680247495882627 2.9961543401034136e-07 0 0.0049885661254974907 1.1480395823204725e-05 0 0.0048478682604930125 3.1040136139301154e-05 0 0.0049298063305821538 1.9480576036987383e-05 0 0.0048478682604930125 3.1040136139301154e-05 0 0.0048022843314963629 1.7067794835124751e-05 0 0.0048009014913939514 3.7723439751916147e-05 0 0.0048152401002273162 4.8785391571766095e-05 0 0.0049907321298225124 2.0774725890668488e-05 0 0.0049819370004933645 1.8723379910911934e-05 0 0.0049866876627246755 3.254469989071711e-05 0 0.0048009014913939514 3.7723439751916147e-05 0 0.004803040871677591 4.7384330888941246e-05 0 0.0048152401002273162 4.8785391571766095e-05 0 0.0050010791764298042 5.431621159698554e-06 0 0.0049953420924605885 1.7201317378513492e-05 0 0.0049963588050557515 1.9347615003827673e-05 0 0.0049900032808419988 8.0334001391569169e-06 0 0.0049907321298225124 2.0774725890668488e-05 0 0.0049819370004933645 1.8723379910911934e-05 0 0.0049408192371296709 2.5748273704604318e-05 0 0.0049298063305821538 1.9480576036987383e-05 0 0.0049953420924605885 1.7201317378513492e-05 0 0.004987683247371511 1.4674390534100566e-05 0 0.0049878952966716395 2.3012574856745799e-05 0 0.0049878952966716395 2.3012574856745799e-05 0 0.0049967060796845221 2.0271318084510262e-05 0 0.0049900057928795845 3.2485321027362115e-05 0 0.0049298063305821538 1.9480576036987383e-05 0 0.0048911004824583734 2.9554553654718929e-05 0 0.0049953420924605885 1.7201317378513492e-05 0 0.0049878952966716395 2.3012574856745799e-05 0 0.0049967060796845221 2.0271318084510262e-05 0 0.0048022843314963629 1.7067794835124751e-05 0 0.0048009014913939514 3.7723439751916147e-05 0 0.0047920162504839622 3.3633271542289537e-05 0 0.0048009014913939514 3.7723439751916147e-05 0 0.0047927983074556738 4.5189593878128122e-05 0 0.004803040871677591 4.7384330888941246e-05 0 0.0048009014913939514 3.7723439751916147e-05 0 0.0047927983074556738 4.5189593878128122e-05 0 0.0047920162504839622 3.3633271542289537e-05 0 0.0048911004824583734 2.9554553654718929e-05 0 0.0048070524317838439 4.6170465940012532e-05 0 0.0049900057928795845 3.2485321027362115e-05 0 0.0049772875319797263 3.2505848413824615e-05 0 0.0049824630438151446 4.4876765372110472e-05 0 0.0047927983074556738 4.5189593878128122e-05 0 0.0047920162504839622 3.3633271542289537e-05 0 0.0047819472154871341 5.0502113191869904e-05 0 0.0049878952966716395 2.3012574856745799e-05 0 0.0049900057928795845 3.2485321027362115e-05 0 0.0049772875319797263 3.2505848413824615e-05 0 0.0049772875319797263 3.2505848413824615e-05 0 0.0049824630438151446 4.4876765372110472e-05 0 0.0049555561417082153 4.0719327830760376e-05 0 0.004987683247371511 1.4674390534100566e-05 0 0.0049878952966716395 2.3012574856745799e-05 0 0.0049700965655909797 2.1724119829936315e-05 0 0.0049878952966716395 2.3012574856745799e-05 0 0.0049772875319797263 3.2505848413824615e-05 0 0.0049700965655909797 2.1724119829936315e-05 0 0.0049860118475317005 6.3096011082700255e-06 0 0.004987683247371511 1.4674390534100566e-05 0 0.0049700965655909797 2.1724119829936315e-05 0 0.0045390949661615028 0.0001150172366931526 0 0.0045321918235922531 0.00011957480309101428 0 0.0045301488129447648 0.00011779924191192062 0 0.0045237116140067913 0.00013292426456144152 0 0.0046292996100117667 0.00010225893231033615 0 0.0045390949661615028 0.0001150172366931526 0 0.0045351672666098129 0.00012315947911252094 0 0.0045474427065510014 0.00011625810947427598 0 0.0045390949661615028 0.0001150172366931526 0 0.0045310957100423458 0.0001147820061030873 0 0.0045301488129447648 0.00011779924191192062 0 0.0048070524317838439 4.6170465940012532e-05 0 0.0049157713856643722 3.7857820409308191e-05 0 0.0047470594807607867 5.2772464321259348e-05 0 0.0047441347906618282 5.8371645979093988e-05 0 0.004766946960690438 6.174748371865693e-05 0 0.0046292996100117667 0.00010225893231033615 0 0.0048070524317838439 4.6170465940012532e-05 0 0.0045298036222360975 0.00011843014172854083 0 0.0045287924502647875 0.00011705649602332661 0 0.0045294268893385147 0.00011563794110436385 0 0.0045298036222360975 0.00011843014172854083 0 0.0045287924502647875 0.00011705649602332661 0 0.0045301488129447648 0.00011779924191192062 0 0.0045321918235922531 0.00011957480309101428 0 0.0045298036222360975 0.00011843014172854083 0 0.0045301488129447648 0.00011779924191192062 0 0.0046292996100117667 0.00010225893231033615 0 0.0046756001326538699 6.9663772960095277e-05 0 0.0047897619861072818 5.1660757802325614e-05 0 0.0047924456024107743 5.0054093423451205e-05 0 0.0048137526919791339 5.5175249489073721e-05 0 0.0048070524317838439 4.6170465940012532e-05 0 0.0046756001326538699 6.9663772960095277e-05 0 0.0046782536618320729 8.7584221521495734e-05 0 0.0046989236996779152 5.1098044403691266e-05 0 0.0047299636241660004 5.5785929486932214e-05 0 0.0047927983074556738 4.5189593878128122e-05 0 0.0047819472154871341 5.0502113191869904e-05 0 0.0047898384799891511 5.1706396498911953e-05 0 0.0046756001326538699 6.9663772960095277e-05 0 0.0046963969418159683 6.002041492261673e-05 0 0.0047927983074556738 4.5189593878128122e-05 0 0.0047924456024107743 5.0054093423451205e-05 0 0.004803040871677591 4.7384330888941246e-05 0 0.0047927983074556738 4.5189593878128122e-05 0 0.0047898384799891511 5.1706396498911953e-05 0 0.0047924456024107743 5.0054093423451205e-05 0 0.0045287924502647875 0.00011705649602332661 0 0.0045281382403116917 0.00011698771619606053 0 0.0045301488129447648 0.00011779924191192062 0 0.0045287924502647875 0.00011705649602332661 0 0.0045281382403116917 0.00011698771619606053 0 0.0045280679503784489 0.0001163539778201724 0 0.0045281382403116917 0.00011698771619606053 0 0.0045257887631264667 0.00011668555243611915 0 0.0045280679503784489 0.0001163539778201724 0 0.0045281382403116917 0.00011698771619606053 0 0.0045281778150217927 0.00011675715559455098 0 0.0045257887631264667 0.00011668555243611915 0 0.0045281382403116917 0.00011698771619606053 0 0.0045301488129447648 0.00011779924191192062 0 0.0045281778150217927 0.00011675715559455098 0 0.0045310957100423458 0.0001147820061030873 0 0.0045301488129447648 0.00011779924191192062 0 0.0045281778150217927 0.00011675715559455098 0 0.0045310957100423458 0.0001147820061030873 0 0.0045281778150217927 0.00011675715559455098 0 0.0045270968839213653 0.00011575209207448702 0 0.0045270968839213653 0.00011575209207448702 0 0.0045257887631264667 0.00011668555243611915 0 0.0045222223833277543 0.00011655257922189936 0 0.0045281778150217927 0.00011675715559455098 0 0.0045270968839213653 0.00011575209207448702 0 0.0045257887631264667 0.00011668555243611915 0 0.0045276580905309841 0.00011669082814316721 0 0.0045269129211952851 0.00011785853796078003 0 0.0045307121646812869 0.00011672109016547697 0 0.0045257887631264667 0.00011668555243611915 0 0.0045276580905309841 0.00011669082814316721 0 0.0045269129211952851 0.00011785853796078003 0 0.0045257887631264667 0.00011668555243611915 0 0.0045269129211952851 0.00011785853796078003 0 0.0045222223833277543 0.00011655257922189936 0 0.0045269129211952851 0.00011785853796078003 0 0.0045307121646812869 0.00011672109016547697 0 0.0045316861139415177 0.00012018288342301773 0 0.0045276580905309841 0.00011669082814316721 0 0.0045307121646812869 0.00011672109016547697 0 0.0045293803342772851 0.00011501737978441437 0 0.0045276580905309841 0.00011669082814316721 0 0.0045280679503784489 0.0001163539778201724 0 0.0045293803342772851 0.00011501737978441437 0 0.0045257887631264667 0.00011668555243611915 0 0.0045276580905309841 0.00011669082814316721 0 0.0045280679503784489 0.0001163539778201724 0 0.0045287924502647875 0.00011705649602332661 0 0.0045294268893385147 0.00011563794110436385 0 0.0045293803342772851 0.00011501737978441437 0 0.0046756001326538699 6.9663772960095277e-05 0 0.0047026709346340645 6.3222017188864006e-05 0 0.0047924456024107743 5.0054093423451205e-05 0 0.004803040871677591 4.7384330888941246e-05 0 0.0048137526919791339 5.5175249489073721e-05 0 0.0045287924502647875 0.00011705649602332661 0 0.0045280679503784489 0.0001163539778201724 0 0.0045293803342772851 0.00011501737978441437 0 0.004803040871677591 4.7384330888941246e-05 0 0.0048152401002273162 4.8785391571766095e-05 0 0.0048137526919791339 5.5175249489073721e-05 0 0.0048478682604930125 3.1040136139301154e-05 0 0.0047026709346340645 6.3222017188864006e-05 0 0.0049680247495882627 2.9961543401034136e-07 0 0.0049661587050407636 -2.7558009198082989e-05 0 0.0049478860962936357 -4.6167914130899944e-06 0 0.0048478682604930125 3.1040136139301154e-05 0 0.0047471169665059655 2.8388543971709907e-05 0 0.0047941372926818627 4.6852674474171234e-05 0 0.0047804455109816749 1.7456625193260504e-05 0 0.0047992268687791165 2.0369732548191666e-05 0 0.0045307121646812869 0.00011672109016547697 0 0.0045317649635198071 0.00011240388377643717 0 0.0045293803342772851 0.00011501737978441437 0 0.0047471169665059655 2.8388543971709907e-05 0 0.0047026709346340645 6.3222017188864006e-05 0 0.0045317649635198071 0.00011240388377643717 0 0.0045304758073515111 0.00011217983281606299 0 0.0045293803342772851 0.00011501737978441437 0 0.0047026709346340645 6.3222017188864006e-05 0 0.0046287253300821745 0.00012286925158981068 0 0.0049661587050407636 -2.7558009198082989e-05 0 0.0049114763661923608 -1.1353088364408721e-05 0 0.0048560842334887224 -3.577282904377777e-05 0 0.0046475063559771081 -1.7015345285277481e-05 0 0.0046637800710646934 2.065253957984339e-05 0 0.0046976699448522926 -1.1052197225247164e-05 0 0.0047471169665059655 2.8388543971709907e-05 0 0.0047905687397560492 -2.5048017541033277e-05 0 0.0049556604645022897 1.4042247961081544e-05 0 0.0049478860962936357 -4.6167914130899944e-06 0 0.0049114763661923608 -1.1353088364408721e-05 0 0.0049661587050407636 -2.7558009198082989e-05 0 0.0049478860962936357 -4.6167914130899944e-06 0 0.0049114763661923608 -1.1353088364408721e-05 0 0.0045307121646812869 0.00011672109016547697 0 0.0045317649635198071 0.00011240388377643717 0 0.0045349583088599293 0.00011740570576616435 0 0.0047471169665059655 2.8388543971709907e-05 0 0.0045926710899633289 6.3817747846920149e-05 0 0.0045307121646812869 0.00011672109016547697 0 0.0045349583088599293 0.00011740570576616435 0 0.0045316861139415177 0.00012018288342301773 0 0.0045349583088599293 0.00011740570576616435 0 0.0045399057244402165 0.00012541283470431108 0 0.0045316861139415177 0.00012018288342301773 0 0.0045926710899633289 6.3817747846920149e-05 0 0.0045753453090202467 0.0001017777743764412 0 0.0045753453090202467 0.0001017777743764412 0 0.0045156796734006355 0.0001313077285669232 0 0.0046637800710646934 2.065253957984339e-05 0 0.0046815741222530436 5.8050034723598171e-05 0 0.0046908996456265948 2.5042854883704999e-05 0 0.0045597158950004754 0.000135490722671922 0 0.004543533979923956 0.00015733304309405665 0 0.0045368948554209282 0.00014158116427735574 0 0.0045597158950004754 0.000135490722671922 0 0.004543533979923956 0.00015733304309405665 0 0.0045697986298792164 0.00016051060159919697 0 0.0045368948554209282 0.00014158116427735574 0 0.0045325788439508708 0.00015011496460815132 0 0.0045234016972804979 0.00014249990455710406 0 0.004543533979923956 0.00015733304309405665 0 0.0045368948554209282 0.00014158116427735574 0 0.0045325788439508708 0.00015011496460815132 0 0.004543533979923956 0.00015733304309405665 0 0.0045325788439508708 0.00015011496460815132 0 0.0045265720524798022 0.00015910455896563289 0 0.0045325788439508708 0.00015011496460815132 0 0.0045265720524798022 0.00015910455896563289 0 0.0045234016972804979 0.00014249990455710406 0 0.0045265720524798022 0.00015910455896563289 0 0.0045124615395421884 0.00015672976260402871 0 0.0045161637094405264 0.00016713665865754275 0 0.0045265720524798022 0.00015910455896563289 0 0.0045234016972804979 0.00014249990455710406 0 0.0045124615395421884 0.00015672976260402871 0 0.0045368948554209282 0.00014158116427735574 0 0.0045234016972804979 0.00014249990455710406 0 0.0045249599419644989 0.00012386395377772066 0 0.0045597158950004754 0.000135490722671922 0 0.0045368948554209282 0.00014158116427735574 0 0.0045249599419644989 0.00012386395377772066 0 0.0045399057244402165 0.00012541283470431108 0 0.0045316861139415177 0.00012018288342301773 0 0.0045249599419644989 0.00012386395377772066 0 0.0045269129211952851 0.00011785853796078003 0 0.0045316861139415177 0.00012018288342301773 0 0.0045249599419644989 0.00012386395377772066 0 0.0045269129211952851 0.00011785853796078003 0 0.0045249599419644989 0.00012386395377772066 0 0.0045222223833277543 0.00011655257922189936 0 0.0045249599419644989 0.00012386395377772066 0 0.0045222223833277543 0.00011655257922189936 0 0.0044925666386815199 0.00014947855748492227 0 0.0045222223833277543 0.00011655257922189936 0 0.0045299440421246945 0.00011104375735231137 0 0.0045315672178649104 9.8194370851380585e-05 0 0.004525450800640601 0.00010963229498446151 0 0.0045033016606224911 0.00014114638168009075 0 0.0045270968839213653 0.00011575209207448702 0 0.0045222223833277543 0.00011655257922189936 0 0.0045299440421246945 0.00011104375735231137 0 0.0045310957100423458 0.0001147820061030873 0 0.0045270968839213653 0.00011575209207448702 0 0.0045299440421246945 0.00011104375735231137 0 0.0045234016972804979 0.00014249990455710406 0 0.0045124615395421884 0.00015672976260402871 0 0.0044925666386815199 0.00014947855748492227 0 0.0045234016972804979 0.00014249990455710406 0 0.0045249599419644989 0.00012386395377772066 0 0.0044925666386815199 0.00014947855748492227 0 0.0045124615395421884 0.00015672976260402871 0 0.0044925666386815199 0.00014947855748492227 0 0.0045036264589643632 0.00016524299426117723 0 0.0045315672178649104 9.8194370851380585e-05 0 0.0045355074281555755 0.00010833966091846019 0 0.0045457148359748989 0.00010084055212456043 0 0.0045315672178649104 9.8194370851380585e-05 0 0.0045429827515881009 8.298991076267944e-05 0 0.0045457148359748989 0.00010084055212456043 0 0.0045299440421246945 0.00011104375735231137 0 0.0045315672178649104 9.8194370851380585e-05 0 0.0045355074281555755 0.00010833966091846019 0 0.0045390949661615028 0.0001150172366931526 0 0.0045355074281555755 0.00010833966091846019 0 0.0045457148359748989 0.00010084055212456043 0 0.0045310957100423458 0.0001147820061030873 0 0.0045299440421246945 0.00011104375735231137 0 0.0045355074281555755 0.00010833966091846019 0 0.0045390949661615028 0.0001150172366931526 0 0.0045310957100423458 0.0001147820061030873 0 0.0045355074281555755 0.00010833966091846019 0 0.0047884037745853985 9.4086471055383048e-06 0 0.0047587790301385465 -6.2132667164448628e-06 0 0.0047581383559955415 4.390878028564421e-05 0 0.0048296222599193105 1.4801322552925405e-05 0 0.0048018196187998513 3.7179070977229341e-05 0 0.0047884037745853985 9.4086471055383048e-06 0 0.0048018196187998513 3.7179070977229341e-05 0 0.0047884037745853985 9.4086471055383048e-06 0 0.0047581383559955415 4.390878028564421e-05 0 0.0048455630966075967 -1.7110043030200646e-05 0 0.0048426453619871716 -1.6527396539676267e-05 0 0.0048296222599193105 1.4801322552925405e-05 0 0.0048439400455634746 -1.6284356475286022e-05 0 0.0047884037745853985 9.4086471055383048e-06 0 0.0048439400455634746 -1.6284356475286022e-05 0 0.0047884037745853985 9.4086471055383048e-06 0 0.0047640834938515618 -5.6699756539815913e-06 0 0.0047884037745853985 9.4086471055383048e-06 0 0.0047640834938515618 -5.6699756539815913e-06 0 0.0047587790301385465 -6.2132667164448628e-06 0 0.0047905687397560492 -2.5048017541033277e-05 0 0.0047583302490446181 -9.6607158246862613e-06 0 0.0048202298124644417 2.2519179319853311e-05 0 0.0048560842334887224 -3.577282904377777e-05 0 0.0047587790301385465 -6.2132667164448628e-06 0 0.0048202298124644417 2.2519179319853311e-05 0 0.0047640834938515618 -5.6699756539815913e-06 0 0.0047587790301385465 -6.2132667164448628e-06 0 0.0048202298124644417 2.2519179319853311e-05 0 0.0049114763661923608 -1.1353088364408721e-05 0 0.0048560842334887224 -3.577282904377777e-05 0 0.0046976699448522926 -1.1052197225247164e-05 0 0.0046908996456265948 2.5042854883704999e-05 0 0.0047209659330592025 3.0757694314152434e-05 0 0.0046637800710646934 2.065253957984339e-05 0 0.0046976699448522926 -1.1052197225247164e-05 0 0.0046908996456265948 2.5042854883704999e-05 0 0.0047209659330592025 3.0757694314152434e-05 0 0.0047587790301385465 -6.2132667164448628e-06 0 0.0047581383559955415 4.390878028564421e-05 0 0.0046976699448522926 -1.1052197225247164e-05 0 0.0047209659330592025 3.0757694314152434e-05 0 0.0047587790301385465 -6.2132667164448628e-06 0 0.0047209659330592025 3.0757694314152434e-05 0 0.0047286128974730907 6.6860046038544051e-05 0 0.0047581383559955415 4.390878028564421e-05 0 0.0046815741222530436 5.8050034723598171e-05 0 0.0047209659330592025 3.0757694314152434e-05 0 0.0047286128974730907 6.6860046038544051e-05 0 0.0045753453090202467 0.0001017777743764412 0 0.0046710019026697663 6.2672128555022705e-05 0 0.0046815741222530436 5.8050034723598171e-05 0 0.0046908996456265948 2.5042854883704999e-05 0 0.0047209659330592025 3.0757694314152434e-05 0 0.0045108640150892916 5.0585082151138381e-05 0 0.0045411788198336947 0.00011796530841948124 0 0.0046034386624202355 6.6284752057707645e-05 0 0.0045753453090202467 0.0001017777743764412 0 0.0045531057102373464 0.00013589792478320054 0 0.0045411788198336947 0.00011796530841948124 0 0.0046034386624202355 6.6284752057707645e-05 0 0.0046327917422325435 0.00014684725309707853 0 0.0046710019026697663 6.2672128555022705e-05 0 0.004732182267316312 8.4685385586115994e-05 0 0.0046034386624202355 6.6284752057707645e-05 0 0.004736126684314705 8.5205695118869551e-05 0 0.0046327917422325435 0.00014684725309707853 0 0.0047286128974730907 6.6860046038544051e-05 0 0.0047581383559955415 4.390878028564421e-05 0 0.004736126684314705 8.5205695118869551e-05 0 0.0047581383559955415 4.390878028564421e-05 0 0.0047894169419890661 6.829584966031038e-05 0 0.004736126684314705 8.5205695118869551e-05 0 0.0048018196187998513 3.7179070977229341e-05 0 0.0047581383559955415 4.390878028564421e-05 0 0.0047894169419890661 6.829584966031038e-05 0 0.0047899358863820671 0.00012266977731003622 0 0.0047894169419890661 6.829584966031038e-05 0 0.004736126684314705 8.5205695118869551e-05 0 0.0047899358863820671 0.00012266977731003622 0 0.004736126684314705 8.5205695118869551e-05 0 0.0047184094302374522 0.00014344145669246717 0 0.0047899358863820671 0.00012266977731003622 0 0.0047184094302374522 0.00014344145669246717 0 0.0047616757742022578 0.00018190836241597079 0 0.0047184094302374522 0.00014344145669246717 0 0.0047616757742022578 0.00018190836241597079 0 0.0046642004247961508 0.00019877134063771721 0 0.0047184094302374522 0.00014344145669246717 0 0.0046642004247961508 0.00019877134063771721 0 0.0046327917422325435 0.00014684725309707853 0 0.004736126684314705 8.5205695118869551e-05 0 0.0047184094302374522 0.00014344145669246717 0 0.0046327917422325435 0.00014684725309707853 0 0.0046642004247961508 0.00019877134063771721 0 0.0046146717145482737 0.00019913375955949318 0 0.0046327917422325435 0.00014684725309707853 0 0.0046642004247961508 0.00019877134063771721 0 0.0046191673244853669 0.00022056515133386348 0 0.0046146717145482737 0.00019913375955949318 0 0.0047616757742022578 0.00018190836241597079 0 0.0046642004247961508 0.00019877134063771721 0 0.0047310113555643829 0.00025707291984671383 0 0.0046642004247961508 0.00019877134063771721 0 0.0046191673244853669 0.00022056515133386348 0 0.0046367764364758663 0.00022168347408995184 0 0.004658911885618856 0.00020033345286603525 0 0.0046907235582958531 0.00024830672745374118 0 0.0047872269833059431 0.00023083997506337731 0 0.0047616757742022578 0.00018190836241597079 0 0.0047310113555643829 0.00025707291984671383 0 0.0045890454728322021 0.00028326207379578507 0 0.0046907235582958531 0.00024830672745374118 0 0.0046568509980403506 0.0002502066687987128 0 0.0046367764364758663 0.00022168347408995184 0 0.0046168907195684953 0.00025061042994232167 0 0.0046568509980403506 0.0002502066687987128 0 0.0046168907195684953 0.00025061042994232167 0 0.0046117402882073673 0.000289781034627301 0 0.0046191673244853669 0.00022056515133386348 0 0.0046367764364758663 0.00022168347408995184 0 0.0046168907195684953 0.00025061042994232167 0 0.0046191673244853669 0.00022056515133386348 0 0.0046168907195684953 0.00025061042994232167 0 0.0045584984495776974 0.00028707003102751899 0 0.0046084154941604932 0.0002224773745001664 0 0.0045748824150603148 0.00026510212489509196 0 0.0046191673244853669 0.00022056515133386348 0 0.0045584984495776974 0.00028707003102751899 0 0.0045201177269633486 0.00028379465023682356 0 0.0045584984495776974 0.00028707003102751899 0 0.0046117402882073673 0.000289781034627301 0 0.0045160645946778601 0.000315513119260555 0 0.0045203116647902636 0.00034247104455739977 0 0.0045283422251383397 0.00031405028825190332 0 0.0045890454728322021 0.00028326207379578507 0 0.0045203116647902636 0.00034247104455739977 0 0.0046168907195684953 0.00025061042994232167 0 0.0045584984495776974 0.00028707003102751899 0 0.0046117402882073673 0.000289781034627301 0 0.0045748824150603148 0.00026510212489509196 0 0.0044529316677431414 0.00023751229385603973 0 0.0045936370054691011 0.00023953652077395219 0 0.0045592936140397642 0.00024094974087417932 0 0.0045615958691630184 0.00026781927276443488 0 0.0045584984495776974 0.00028707003102751899 0 0.0045201177269633486 0.00028379465023682356 0 0.004524221026334525 0.00030306620196284879 0 0.0046191673244853669 0.00022056515133386348 0 0.0045936370054691011 0.00023953652077395219 0 0.0045938643974598511 0.00021538091239868041 0 0.0045936370054691011 0.00023953652077395219 0 0.0045938643974598511 0.00021538091239868041 0 0.0045639537528368319 0.00021771693697926104 0 0.0045936370054691011 0.00023953652077395219 0 0.0045639537528368319 0.00021771693697926104 0 0.0045592936140397642 0.00024094974087417932 0 0.0045938643974598511 0.00021538091239868041 0 0.0045639537528368319 0.00021771693697926104 0 0.0045780731092123937 0.00018611384827183882 0 0.0045639537528368319 0.00021771693697926104 0 0.0045780731092123937 0.00018611384827183882 0 0.0045516468502813387 0.00019442387869192555 0 0.0046191673244853669 0.00022056515133386348 0 0.0045938643974598511 0.00021538091239868041 0 0.0046146717145482737 0.00019913375955949318 0 0.0045938643974598511 0.00021538091239868041 0 0.0045780731092123937 0.00018611384827183882 0 0.0046146717145482737 0.00019913375955949318 0 0.0045780731092123937 0.00018611384827183882 0 0.0046146717145482737 0.00019913375955949318 0 0.0046327917422325435 0.00014684725309707853 0 0.0045411788198336947 0.00011796530841948124 0 0.0045780731092123937 0.00018611384827183882 0 0.0046327917422325435 0.00014684725309707853 0 0.0045531057102373464 0.00013589792478320054 0 0.0045761469155178695 0.00018247575705892559 0 0.0045697986298792164 0.00016051060159919697 0 0.0045780731092123937 0.00018611384827183882 0 0.0045574769041857128 0.00017510572307143771 0 0.0045780731092123937 0.00018611384827183882 0 0.0045574769041857128 0.00017510572307143771 0 0.0045516468502813387 0.00019442387869192555 0 0.004543533979923956 0.00015733304309405665 0 0.0045697986298792164 0.00016051060159919697 0 0.0045574769041857128 0.00017510572307143771 0 0.0045574769041857128 0.00017510572307143771 0 0.0045431274905720371 0.00017675326279038619 0 0.0045516468502813387 0.00019442387869192555 0 0.004543533979923956 0.00015733304309405665 0 0.0045574769041857128 0.00017510572307143771 0 0.0045431274905720371 0.00017675326279038619 0 0.004543533979923956 0.00015733304309405665 0 0.0045265720524798022 0.00015910455896563289 0 0.0045299528552383977 0.00017159446739637956 0 0.004543533979923956 0.00015733304309405665 0 0.0045431274905720371 0.00017675326279038619 0 0.0045299528552383977 0.00017159446739637956 0 0.0045265720524798022 0.00015910455896563289 0 0.0045299528552383977 0.00017159446739637956 0 0.0045161637094405264 0.00016713665865754275 0 0.0045299528552383977 0.00017159446739637956 0 0.0045198044670187038 0.00017869783479719241 0 0.0045161637094405264 0.00016713665865754275 0 0.0045299528552383977 0.00017159446739637956 0 0.0045198044670187038 0.00017869783479719241 0 0.004530844818204401 0.00018406130929704746 0 0.0045431274905720371 0.00017675326279038619 0 0.0045299528552383977 0.00017159446739637956 0 0.004530844818204401 0.00018406130929704746 0 0.004530844818204401 0.00018406130929704746 0 0.0045320789220785491 0.00019931561969111042 0 0.0045516468502813387 0.00019442387869192555 0 0.0045198044670187038 0.00017869783479719241 0 0.004530844818204401 0.00018406130929704746 0 0.0045175658693763993 0.00019363114246081172 0 0.004530844818204401 0.00018406130929704746 0 0.0045175658693763993 0.00019363114246081172 0 0.0045320789220785491 0.00019931561969111042 0 0.0045175658693763993 0.00019363114246081172 0 0.0045320789220785491 0.00019931561969111042 0 0.0045238054296170265 0.00021260854745293746 0 0.0045175658693763993 0.00019363114246081172 0 0.0045104848084095523 0.00020643999821107269 0 0.0045238054296170265 0.00021260854745293746 0 0.0045320789220785491 0.00019931561969111042 0 0.0045516468502813387 0.00019442387869192555 0 0.0045441961119520573 0.00021859237023220328 0 0.0045431274905720371 0.00017675326279038619 0 0.004530844818204401 0.00018406130929704746 0 0.0045516468502813387 0.00019442387869192555 0 0.0044919647281691727 0.00017027309531451502 0 0.0044921973992557733 0.00017947402986884857 0 0.0044709773992401385 0.00017819326225366089 0 0.0044925666386815199 0.00014947855748492227 0 0.0044919647281691727 0.00017027309531451502 0 0.0044709773992401385 0.00017819326225366089 0 0.0045033016606224911 0.00014114638168009075 0 0.0045356256578129688 4.7263918502970023e-05 0 0.0044919647281691727 0.00017027309531451502 0 0.0044921973992557733 0.00017947402986884857 0 0.0044995803889006838 0.00017491192044030073 0 0.0044921973992557733 0.00017947402986884857 0 0.0044995803889006838 0.00017491192044030073 0 0.0045008171745057083 0.00018427759791687261 0 0.0044995803889006838 0.00017491192044030073 0 0.0045089715815784569 0.00017480074522485095 0 0.0045008171745057083 0.00018427759791687261 0 0.0044925666386815199 0.00014947855748492227 0 0.0044919647281691727 0.00017027309531451502 0 0.0045036264589643632 0.00016524299426117723 0 0.0044919647281691727 0.00017027309531451502 0 0.0044995803889006838 0.00017491192044030073 0 0.0045036264589643632 0.00016524299426117723 0 0.0044995803889006838 0.00017491192044030073 0 0.0045036264589643632 0.00016524299426117723 0 0.0045089715815784569 0.00017480074522485095 0 0.0045124615395421884 0.00015672976260402871 0 0.0045036264589643632 0.00016524299426117723 0 0.0045161637094405264 0.00016713665865754275 0 0.0045036264589643632 0.00016524299426117723 0 0.0045161637094405264 0.00016713665865754275 0 0.0045089715815784569 0.00017480074522485095 0 0.0045198044670187038 0.00017869783479719241 0 0.0045161637094405264 0.00016713665865754275 0 0.0045089715815784569 0.00017480074522485095 0 0.0045089715815784569 0.00017480074522485095 0 0.0045111545631853706 0.00018419395108653446 0 0.0045008171745057083 0.00018427759791687261 0 0.0045198044670187038 0.00017869783479719241 0 0.0045089715815784569 0.00017480074522485095 0 0.0045111545631853706 0.00018419395108653446 0 0.0045198044670187038 0.00017869783479719241 0 0.0045175658693763993 0.00019363114246081172 0 0.0045111545631853706 0.00018419395108653446 0 0.0045111545631853706 0.00018419395108653446 0 0.0045079052055045244 0.00019423561901501179 0 0.0045008171745057083 0.00018427759791687261 0 0.0045175658693763993 0.00019363114246081172 0 0.0045111545631853706 0.00018419395108653446 0 0.0045079052055045244 0.00019423561901501179 0 0.0045175658693763993 0.00019363114246081172 0 0.0045079052055045244 0.00019423561901501179 0 0.0045104848084095523 0.00020643999821107269 0 0.0045079052055045244 0.00019423561901501179 0 0.0045104848084095523 0.00020643999821107269 0 0.004498953877481119 0.00020287449271580384 0 0.0045006131578428296 0.00019663628933417145 0 0.0044961389628790337 0.00018861332137615111 0 0.004500479038937054 0.00020295879260537797 0 0.0044685303718220177 0.00019168914280409419 0 0.0044298585285625774 0.00013374635064210865 0 0.0044685303718220177 0.00019168914280409419 0 0.0044839489563185163 0.00019729803031367165 0 0.0044685303718220177 0.00019168914280409419 0 0.0044902412667084859 0.00018857418188527298 0 0.0044996333510615534 0.00019539840277904165 0 0.0044961389628790337 0.00018861332137615111 0 0.0045008171745057083 0.00018427759791687261 0 0.0045079052055045244 0.00019423561901501179 0 0.004498953877481119 0.00020287449271580384 0 0.0045008171745057083 0.00018427759791687261 0 0.0044921973992557733 0.00017947402986884857 0 0.0044961389628790337 0.00018861332137615111 0 0.0045008171745057083 0.00018427759791687261 0 0.0044961389628790337 0.00018861332137615111 0 0.004500479038937054 0.00020295879260537797 0 0.0044709773992401385 0.00017819326225366089 0 0.0044913407971552462 1.6420035399608411e-05 0 0.0044874684096700866 1.6456655997295272e-05 0 0.0044945859057607786 2.1389013011686466e-05 0 0.0044921973992557733 0.00017947402986884857 0 0.0044961389628790337 0.00018861332137615111 0 0.0044709773992401385 0.00017819326225366089 0 0.0044913407971552462 1.6420035399608411e-05 0 0.0044940797582540895 1.887275770022569e-05 0 0.0044944778041859004 2.0870823036510789e-05 0 0.0044913407971552462 1.6420035399608411e-05 0 0.0044944778041859004 2.0870823036510789e-05 0 0.0044945859057607786 2.1389013011686466e-05 0 0.0044298585285625774 0.00013374635064210865 0 0.0045356256578129688 4.7263918502970023e-05 0 0.0044913407971552462 1.6420035399608411e-05 0 0.0044945685100355329 1.4589301658781225e-05 0 0.0044940797582540895 1.887275770022569e-05 0 0.0044928634755217562 1.278482845810299e-05 0 0.0044913407971552462 1.6420035399608411e-05 0 0.0044904720756135256 1.2632094814147123e-05 0 0.0044928634755217562 1.278482845810299e-05 0 0.0044913407971552462 1.6420035399608411e-05 0 0.0044945685100355329 1.4589301658781225e-05 0 0.0044913407971552462 1.6420035399608411e-05 0 0.0044904720756135256 1.2632094814147123e-05 0 0.0044874684096700866 1.6456655997295272e-05 0 0.0044904720756135256 1.2632094814147123e-05 0 0.0044874684096700866 1.6456655997295272e-05 0 0.0044882511897855306 9.216772949147175e-06 0 0.0044298585285625774 0.00013374635064210865 0 0.0043893585056965249 7.95244432725789e-05 0 0.0043012191586188223 0.00016605986726795055 0 0.004301287883017829 0.00016669830800572955 0 0.0042989512016781417 0.00016904649780002834 0 0.0044405687542164677 0.00017447282615128395 0 0.0044406919111686458 0.00016851791101330348 0 0.0044342651256675534 0.00016308014315544964 0 0.0044685303718220177 0.00019168914280409419 0 0.0044212012501586209 0.00018160902986879052 0 0.0044298585285625774 0.00013374635064210865 0 0.0044212012501586209 0.00018160902986879052 0 0.0045104848084095523 0.00020643999821107269 0 0.004498953877481119 0.00020287449271580384 0 0.0045070587224259641 0.00021850680671118403 0 0.0045104848084095523 0.00020643999821107269 0 0.0045070587224259641 0.00021850680671118403 0 0.0045238054296170265 0.00021260854745293746 0 0.004301287883017829 0.00016669830800572955 0 0.0042989512016781417 0.00016904649780002834 0 0.0043009651085578081 0.00016954404039787137 0 0.0044928634755217562 1.278482845810299e-05 0 0.0044904720756135256 1.2632094814147123e-05 0 0.004492399214339182 8.6106758116983245e-06 0 0.0044904720756135256 1.2632094814147123e-05 0 0.0044882511897855306 9.216772949147175e-06 0 0.004492399214339182 8.6106758116983245e-06 0 0.0045639537528368319 0.00021771693697926104 0 0.0045441961119520573 0.00021859237023220328 0 0.0045592936140397642 0.00024094974087417932 0 0.0045639537528368319 0.00021771693697926104 0 0.0045516468502813387 0.00019442387869192555 0 0.0045441961119520573 0.00021859237023220328 0 0.0045441961119520573 0.00021859237023220328 0 0.0045238054296170265 0.00021260854745293746 0 0.0045343366427076865 0.00024352495765205565 0 0.0045320789220785491 0.00019931561969111042 0 0.0045441961119520573 0.00021859237023220328 0 0.0045238054296170265 0.00021260854745293746 0 0.0045070587224259641 0.00021850680671118403 0 0.0045238054296170265 0.00021260854745293746 0 0.0045343366427076865 0.00024352495765205565 0 0.0044212012501586209 0.00018160902986879052 0 0.0044864919365433225 0.00023159992452811843 0 0.0044071570322192924 0.00019951988184918092 0 0.0044121746659144968 0.00020403841260952332 0 0.0044102431080652454 0.00020563258043321736 0 0.0044212012501586209 0.00018160902986879052 0 0.0043491786011566561 0.00018639199707356065 0 0.0045343366427076865 0.00024352495765205565 0 0.0045592936140397642 0.00024094974087417932 0 0.0045615958691630184 0.00026781927276443488 0 0.0044121746659144968 0.00020403841260952332 0 0.0044102431080652454 0.00020563258043321736 0 0.0044170053740874267 0.00020833048769160886 0 0.0045441961119520573 0.00021859237023220328 0 0.0045343366427076865 0.00024352495765205565 0 0.0045592936140397642 0.00024094974087417932 0 0.0044864919365433225 0.00023159992452811843 0 0.0044529316677431414 0.00023751229385603973 0 0.0044102431080652454 0.00020563258043321736 0 0.0044131140479715027 0.00021141555729317955 0 0.0044170053740874267 0.00020833048769160886 0 0.0043409718254049101 0.00018813578819447968 0 0.0044529316677431414 0.00023751229385603973 0 0.0043009651085578081 0.00016954404039787137 0 0.0042994648434734615 0.00017224766646869479 0 0.004301304211761274 0.00017338283659357924 0 0.0043491786011566561 0.00018639199707356065 0 0.0043409718254049101 0.00018813578819447968 0 0.0042994648434734615 0.00017224766646869479 0 0.0043000845753317155 0.00017426018314506425 0 0.004301304211761274 0.00017338283659357924 0 0.0042994648434734615 0.00017224766646869479 0 0.004298761079990999 0.00017419818858486696 0 0.0043000845753317155 0.00017426018314506425 0 0.004298761079990999 0.00017419818858486696 0 0.0042989803412033147 0.00017548238906139239 0 0.0042979402024259372 0.00017625304448473035 0 0.004298761079990999 0.00017419818858486696 0 0.0043000845753317155 0.00017426018314506425 0 0.0042989803412033147 0.00017548238906139239 0 0.0043000845753317155 0.00017426018314506425 0 0.0042989803412033147 0.00017548238906139239 0 0.0042995259615357948 0.00017530502954656889 0 0.0043000845753317155 0.00017426018314506425 0 0.0043002902778148406 0.00017391704416709831 0 0.0043002873523587193 0.00017410366285891169 0 0.0043000845753317155 0.00017426018314506425 0 0.0043002902778148406 0.00017391704416709831 0 0.0042995259615357948 0.00017530502954656889 0 0.0043122961246153824 0.00016657760617867169 0 0.0043409718254049101 0.00018813578819447968 0 0.0043002902778148406 0.00017391704416709831 0 0.004302474635132063 0.0001739894659887755 0 0.0043025066322169214 0.00017176331729068455 0 0.0042998075524383651 0.00017167326098402341 0 0.0043032653600236287 0.0001692645137023413 0 0.0043025066322169214 0.00017176331729068455 0 0.0043002902778148406 0.00017391704416709831 0 0.0042998075524383651 0.00017167326098402341 0 0.0043025066322169214 0.00017176331729068455 0 0.0043188095170249609 0.00018935978873508048 0 0.0043409718254049101 0.00018813578819447968 0 0.004492399214339182 8.6106758116983245e-06 0 0.004489839713225122 3.4618549551685435e-06 0 0.0044954223010793314 4.2332689218593785e-06 0 0.0044882511897855306 9.216772949147175e-06 0 0.004492399214339182 8.6106758116983245e-06 0 0.004489839713225122 3.4618549551685435e-06 0 0.0042989512016781417 0.00016904649780002834 0 0.0042994648434734615 0.00017224766646869479 0 0.004296602563947048 0.00017373374802421107 0 0.0042989512016781417 0.00016904649780002834 0 0.0043009651085578081 0.00016954404039787137 0 0.0042994648434734615 0.00017224766646869479 0 0.0043893585056965249 7.95244432725789e-05 0 0.0043934333223640369 9.268666683864691e-05 0 0.0042994648434734615 0.00017224766646869479 0 0.004298761079990999 0.00017419818858486696 0 0.004296602563947048 0.00017373374802421107 0 0.004298761079990999 0.00017419818858486696 0 0.004296602563947048 0.00017373374802421107 0 0.0042979402024259372 0.00017625304448473035 0 0.004489839713225122 3.4618549551685435e-06 0 0.004493551168901354 1.096166493880018e-06 0 0.0044954223010793314 4.2332689218593785e-06 0 0.004489839713225122 3.4618549551685435e-06 0 0.004493551168901354 1.096166493880018e-06 0 0.0044922187182218796 9.9738027439868315e-07 0 0.004296602563947048 0.00017373374802421107 0 0.0042959942952917772 0.0001797486728529313 0 0.0042979402024259372 0.00017625304448473035 0 0.0042959942952917772 0.0001797486728529313 0 0.0042979402024259372 0.00017625304448473035 0 0.00429771363310558 0.0001796287105309336 0 0.0043934333223640369 9.268666683864691e-05 0 0.0043971754399890735 8.2077798925572786e-05 0 0.0042959942952917772 0.0001797486728529313 0 0.00429771363310558 0.0001796287105309336 0 0.004298010715133512 0.00018252481084370264 0 0.004493551168901354 1.096166493880018e-06 0 0.0044922187182218796 9.9738027439868315e-07 0 0.0044942439403624895 -3.2535104246783383e-07 0 0.0044922187182218796 9.9738027439868315e-07 0 0.0044942439403624895 -3.2535104246783383e-07 0 0.0044931609723190382 1.7173845080954979e-06 0 0.004298361883844453 0.00017924142790788159 0 0.0043006162230894863 0.00017672478344220549 0 0.0043012519413061744 0.00017911451077792293 0 0.004298361883844453 0.00017924142790788159 0 0.0042997222863299118 0.00017601956077451758 0 0.004298505309377156 0.00017754117263398125 0 0.004298361883844453 0.00017924142790788159 0 0.0043006162230894863 0.00017672478344220549 0 0.0042997222863299118 0.00017601956077451758 0 0.0043006162230894863 0.00017672478344220549 0 0.0042997222863299118 0.00017601956077451758 0 0.004302474635132063 0.0001739894659887755 0 0.0043002902778148406 0.00017391704416709831 0 0.0042997222863299118 0.00017601956077451758 0 0.004302474635132063 0.0001739894659887755 0 0.0042997222863299118 0.00017601956077451758 0 0.0042995259615357948 0.00017530502954656889 0 0.004298505309377156 0.00017754117263398125 0 0.0043002902778148406 0.00017391704416709831 0 0.0042997222863299118 0.00017601956077451758 0 0.0042995259615357948 0.00017530502954656889 0 0.0042989803412033147 0.00017548238906139239 0 0.0042979402024259372 0.00017625304448473035 0 0.004298505309377156 0.00017754117263398125 0 0.0042989803412033147 0.00017548238906139239 0 0.0042995259615357948 0.00017530502954656889 0 0.004298505309377156 0.00017754117263398125 0 0.0042979402024259372 0.00017625304448473035 0 0.004298505309377156 0.00017754117263398125 0 0.00429771363310558 0.0001796287105309336 0 0.004298505309377156 0.00017754117263398125 0 0.00429771363310558 0.0001796287105309336 0 0.0042974130819704278 0.0001814873262876644 0 0.00429771363310558 0.0001796287105309336 0 0.0042974130819704278 0.0001814873262876644 0 0.004298010715133512 0.00018252481084370264 0 0.0042974130819704278 0.0001814873262876644 0 0.0042968047035581644 0.00018402623619933142 0 0.004296196948686961 0.00018479025486279585 0 0.004298361883844453 0.00017924142790788159 0 0.0042968047035581644 0.00018402623619933142 0 0.0043012519413061744 0.00017911451077792293 0 0.004298361883844453 0.00017924142790788159 0 0.0042974130819704278 0.0001814873262876644 0 0.0042968047035581644 0.00018402623619933142 0 0.004298361883844453 0.00017924142790788159 0 0.004298505309377156 0.00017754117263398125 0 0.0042974130819704278 0.0001814873262876644 0 0.0042968047035581644 0.00018402623619933142 0 0.0043012519413061744 0.00017911451077792293 0 0.004300766776984215 0.00018962708055799424 0 0.0043006162230894863 0.00017672478344220549 0 0.0043012519413061744 0.00017911451077792293 0 0.004302474635132063 0.0001739894659887755 0 0.004302474635132063 0.0001739894659887755 0 0.0043063472239697215 0.00017373092017863794 0 0.004306892922280748 0.00017008991045295703 0 0.0043012519413061744 0.00017911451077792293 0 0.004302474635132063 0.0001739894659887755 0 0.0043063472239697215 0.00017373092017863794 0 0.0043063472239697215 0.00017373092017863794 0 0.0043182957011195485 0.00016753978819525789 0 0.004306892922280748 0.00017008991045295703 0 0.0043012519413061744 0.00017911451077792293 0 0.0043063472239697215 0.00017373092017863794 0 0.0043079016350389141 0.0001802504925883699 0 0.0043063472239697215 0.00017373092017863794 0 0.0043079016350389141 0.0001802504925883699 0 0.0043182957011195485 0.00016753978819525789 0 0.0043079016350389141 0.0001802504925883699 0 0.0043185286529214134 0.00019024909196910743 0 0.004300766776984215 0.00018962708055799424 0 0.0043012519413061744 0.00017911451077792293 0 0.0043079016350389141 0.0001802504925883699 0 0.004300766776984215 0.00018962708055799424 0 0.0043079016350389141 0.0001802504925883699 0 0.0043185286529214134 0.00019024909196910743 0 0.0043182957011195485 0.00016753978819525789 0 0.0043185286529214134 0.00019024909196910743 0 0.0043591048442730221 0.00018274156892647379 0 0.0043182957011195485 0.00016753978819525789 0 0.0043659414526978878 0.00018361026874532212 0 0.0043997417286885752 0.00020018010083119419 0 0.0043727256239964249 0.00021934240972820856 0 0.0043591048442730221 0.00018274156892647379 0 0.0044809393868254846 0.00022527046947139407 0 0.0043727256239964249 0.00021934240972820856 0 0.0044809393868254846 0.00022527046947139407 0 0.0044244306553532639 0.00026568808789865177 0 0.0044809393868254846 0.00022527046947139407 0 0.00449493186954003 0.00027877753627544871 0 0.0045307526884624787 0.00028057564494110625 0 0.0044809393868254846 0.00022527046947139407 0 0.00449493186954003 0.00027877753627544871 0 0.0044244306553532639 0.00026568808789865177 0 0.00449493186954003 0.00027877753627544871 0 0.0044244306553532639 0.00026568808789865177 0 0.0045160645946778601 0.000315513119260555 0 0.0043976683684242568 0.00032360967277646706 0 0.004451141810632068 0.00038180713296967977 0 0.0045160645946778601 0.000315513119260555 0 0.0043976683684242568 0.00032360967277646706 0 0.0044244306553532639 0.00026568808789865177 0 0.0045160645946778601 0.000315513119260555 0 0.00449493186954003 0.00027877753627544871 0 0.0045160645946778601 0.000315513119260555 0 0.004524221026334525 0.00030306620196284879 0 0.0045584984495776974 0.00028707003102751899 0 0.0045160645946778601 0.000315513119260555 0 0.004524221026334525 0.00030306620196284879 0 0.004524221026334525 0.00030306620196284879 0 0.0045275108745484781 0.00029649317448587935 0 0.0045307526884624787 0.00028057564494110625 0 0.0045201177269633486 0.00028379465023682356 0 0.004524221026334525 0.00030306620196284879 0 0.0045275108745484781 0.00029649317448587935 0 0.0044529316677431414 0.00023751229385603973 0 0.00441137610643501 0.00022108207089108746 0 0.0043032653600236287 0.0001692645137023413 0 0.0043025066322169214 0.00017176331729068455 0 0.004306892922280748 0.00017008991045295703 0 0.004302474635132063 0.0001739894659887755 0 0.0043025066322169214 0.00017176331729068455 0 0.004306892922280748 0.00017008991045295703 0 0.00449493186954003 0.00027877753627544871 0 0.004524221026334525 0.00030306620196284879 0 0.0045307526884624787 0.00028057564494110625 0 0.0043997417286885752 0.00020018010083119419 0 0.00441137610643501 0.00022108207089108746 0 0.004526905988196407 -7.2654362862130018e-05 0 0.0045068263267094523 -1.8622428459285797e-05 0 0.0045545580490689002 -6.0127326108348213e-05 0 0.004526905988196407 -7.2654362862130018e-05 0 0.0045545580490689002 -6.0127326108348213e-05 0 0.0045521850072141453 -8.4801076951549276e-05 0 0.004526905988196407 -7.2654362862130018e-05 0 0.0044995753816974259 -6.0946187884141387e-05 0 0.0045405656490428081 -9.1455725916960234e-05 0 0.0045101495448859122 -7.815678021000774e-05 0 0.0044995753816974259 -6.0946187884141387e-05 0 0.0045405656490428081 -9.1455725916960234e-05 0 0.0044995753816974259 -6.0946187884141387e-05 0 0.0044663876794243454 -3.7711295632607213e-05 0 0.0044731319393002374 -5.4913987162748586e-05 0 0.0045101495448859122 -7.815678021000774e-05 0 0.0044995753816974259 -6.0946187884141387e-05 0 0.0044731319393002374 -5.4913987162748586e-05 0 0.004526905988196407 -7.2654362862130018e-05 0 0.0044995753816974259 -6.0946187884141387e-05 0 0.0044915123358847701 -3.5408510250046849e-05 0 0.0044995753816974259 -6.0946187884141387e-05 0 0.0044915123358847701 -3.5408510250046849e-05 0 0.0044663876794243454 -3.7711295632607213e-05 0 0.0044663876794243454 -3.7711295632607213e-05 0 0.0044288107840134445 -1.2240903226446715e-05 0 0.0044570470604440079 -8.2148637408130187e-06 0 0.0044915123358847701 -3.5408510250046849e-05 0 0.0044663876794243454 -3.7711295632607213e-05 0 0.0044570470604440079 -8.2148637408130187e-06 0 0.0044915123358847701 -3.5408510250046849e-05 0 0.0044808715130633895 2.4933337849239925e-07 0 0.0044570470604440079 -8.2148637408130187e-06 0 0.0044915123358847701 -3.5408510250046849e-05 0 0.0045068263267094523 -1.8622428459285797e-05 0 0.0044808715130633895 2.4933337849239925e-07 0 0.004526905988196407 -7.2654362862130018e-05 0 0.0044915123358847701 -3.5408510250046849e-05 0 0.0045068263267094523 -1.8622428459285797e-05 0 0.0045093343936087891 -1.8568957881024488e-05 0 0.0045279977934898647 -3.0811739924370093e-05 0 0.0045068263267094523 -1.8622428459285797e-05 0 0.0044977349077888612 -4.5891451011718527e-06 0 0.0044808715130633895 2.4933337849239925e-07 0 0.0045068263267094523 -1.8622428459285797e-05 0 0.0044999930861730503 -5.5569833566404481e-06 0 0.0044977349077888612 -4.5891451011718527e-06 0 0.0044999930861730503 -5.5569833566404481e-06 0 0.0045000110880487696 -1.9840389629121953e-06 0 0.0044977349077888612 -4.5891451011718527e-06 0 0.0044999930861730503 -5.5569833566404481e-06 0 0.0044973835316956881 -6.3696116732906008e-07 0 0.0044994546714216856 1.4487798485785199e-06 0 0.0044999930861730503 -5.5569833566404481e-06 0 0.0045000110880487696 -1.9840389629121953e-06 0 0.0044973835316956881 -6.3696116732906008e-07 0 0.0045068263267094523 -1.8622428459285797e-05 0 0.0044999930861730503 -5.5569833566404481e-06 0 0.0045037906800918688 -2.659821221305764e-07 0 0.0044942439403624895 -3.2535104246783383e-07 0 0.0045000110880487696 -1.9840389629121953e-06 0 0.0044973835316956881 -6.3696116732906008e-07 0 0.004493551168901354 1.096166493880018e-06 0 0.0044942439403624895 -3.2535104246783383e-07 0 0.0044973835316956881 -6.3696116732906008e-07 0 0.004493551168901354 1.096166493880018e-06 0 0.0044973835316956881 -6.3696116732906008e-07 0 0.0044954223010793314 4.2332689218593785e-06 0 0.0044973835316956881 -6.3696116732906008e-07 0 0.0044954223010793314 4.2332689218593785e-06 0 0.0044994546714216856 1.4487798485785199e-06 0 0.0044954223010793314 4.2332689218593785e-06 0 0.0045011403885103192 6.6423016311595213e-06 0 0.0044959371412314373 9.8843592710301407e-06 0 0.0044954223010793314 4.2332689218593785e-06 0 0.0044994546714216856 1.4487798485785199e-06 0 0.0045011403885103192 6.6423016311595213e-06 0 0.004492399214339182 8.6106758116983245e-06 0 0.0044954223010793314 4.2332689218593785e-06 0 0.0044959371412314373 9.8843592710301407e-06 0 0.0044999930861730503 -5.5569833566404481e-06 0 0.0045037906800918688 -2.659821221305764e-07 0 0.0044994546714216856 1.4487798485785199e-06 0 0.0045279977934898647 -3.0811739924370093e-05 0 0.0045327686080856109 -3.6377528680269451e-05 0 0.0045037906800918688 -2.659821221305764e-07 0 0.0044994546714216856 1.4487798485785199e-06 0 0.0045011403885103192 6.6423016311595213e-06 0 0.0045545580490689002 -6.0127326108348213e-05 0 0.0045655960777896704 -8.308705658335199e-05 0 0.0045521850072141453 -8.4801076951549276e-05 0 0.0045655960777896704 -8.308705658335199e-05 0 0.0045575449836718568 -9.21766931879278e-05 0 0.0045521850072141453 -8.4801076951549276e-05 0 0.0045655960777896704 -8.308705658335199e-05 0 0.0045622060942556372 -9.1938338916095857e-05 0 0.0045575449836718568 -9.21766931879278e-05 0 0.0045655960777896704 -8.308705658335199e-05 0 0.0045668318887006525 -8.8387680813918444e-05 0 0.0045622060942556372 -9.1938338916095857e-05 0 0.0044928634755217562 1.278482845810299e-05 0 0.004492399214339182 8.6106758116983245e-06 0 0.0044959371412314373 9.8843592710301407e-06 0 0.0045011403885103192 6.6423016311595213e-06 0 0.0044959371412314373 9.8843592710301407e-06 0 0.0044984661970652205 1.3399634758397381e-05 0 0.0045327686080856109 -3.6377528680269451e-05 0 0.0045343921144397692 -4.3951378251177701e-05 0 0.0044984661970652205 1.3399634758397381e-05 0 0.0044945685100355329 1.4589301658781225e-05 0 0.0044940797582540895 1.887275770022569e-05 0 0.0044959371412314373 9.8843592710301407e-06 0 0.0044984661970652205 1.3399634758397381e-05 0 0.0044945685100355329 1.4589301658781225e-05 0 0.0044928634755217562 1.278482845810299e-05 0 0.0044959371412314373 9.8843592710301407e-06 0 0.0044945685100355329 1.4589301658781225e-05 0 0.0045343921144397692 -4.3951378251177701e-05 0 0.0045286894831444522 -2.8772035946515944e-06 0 0.0044984661970652205 1.3399634758397381e-05 0 0.0044940797582540895 1.887275770022569e-05 0 0.0044945697810177994 2.0789053359642006e-05 0 0.0045668318887006525 -8.8387680813918444e-05 0 0.004565872980314023 -9.1733123646697126e-05 0 0.004568079323147632 -9.1094032602700656e-05 0 0.0045172528373801134 1.3238838117942219e-05 0 0.0045286894831444522 -2.8772035946515944e-06 0 0.0045668318887006525 -8.8387680813918444e-05 0 0.004565872980314023 -9.1733123646697126e-05 0 0.0045622060942556372 -9.1938338916095857e-05 0 0.004565872980314023 -9.1733123646697126e-05 0 0.004568048563916096 -9.1291964072762286e-05 0 0.0045659810068385829 -9.3592171998050887e-05 0 0.004565872980314023 -9.1733123646697126e-05 0 0.004563927404758342 -9.3533547994551674e-05 0 0.0045659810068385829 -9.3592171998050887e-05 0 0.004565872980314023 -9.1733123646697126e-05 0 0.004568079323147632 -9.1094032602700656e-05 0 0.004568048563916096 -9.1291964072762286e-05 0 0.0045356256578129688 4.7263918502970023e-05 0 0.0045697076669196793 5.5247738493829851e-05 0 0.0045356256578129688 4.7263918502970023e-05 0 0.0045866449795583736 -6.491188389467886e-05 0 0.0045286894831444522 -2.8772035946515944e-06 0 0.0045356256578129688 4.7263918502970023e-05 0 0.0045622060942556372 -9.1938338916095857e-05 0 0.004561539418581775 -9.3663709324267252e-05 0 0.0045590399108925879 -9.1934743391542894e-05 0 0.0045622060942556372 -9.1938338916095857e-05 0 0.0045590399108925879 -9.1934743391542894e-05 0 0.0045575449836718568 -9.21766931879278e-05 0 0.004565872980314023 -9.1733123646697126e-05 0 0.0045622060942556372 -9.1938338916095857e-05 0 0.004563927404758342 -9.3533547994551674e-05 0 0.0045622060942556372 -9.1938338916095857e-05 0 0.004563927404758342 -9.3533547994551674e-05 0 0.004561539418581775 -9.3663709324267252e-05 0 0.0045812272081380417 -0.00010401412488170616 0 0.0045850232748747008 -0.00011038238183940635 0 0.0045994620408392915 -0.00010308058285117372 0 0.0045622002063711725 -0.00010274494357716718 0 0.0045723435624898962 -0.00010126191507445593 0 0.0045850232748747008 -0.00011038238183940635 0 0.0045936194318202186 -0.00011193610231827872 0 0.0045994620408392915 -0.00010308058285117372 0 0.0045850232748747008 -0.00011038238183940635 0 0.0045628805841892274 -9.8946595236528169e-05 0 0.0045936194318202186 -0.00011193610231827872 0 0.004526905988196407 -7.2654362862130018e-05 0 0.0045628805841892274 -9.8946595236528169e-05 0 0.0045405656490428081 -9.1455725916960234e-05 0 0.0045590399108925879 -9.1934743391542894e-05 0 0.0045575449836718568 -9.21766931879278e-05 0 0.0045628805841892274 -9.8946595236528169e-05 0 0.004526905988196407 -7.2654362862130018e-05 0 0.0045628805841892274 -9.8946595236528169e-05 0 0.0045521850072141453 -8.4801076951549276e-05 0 0.0045723435624898962 -0.00010126191507445593 0 0.0045645942748985344 -9.9163998938534443e-05 0 0.0045575449836718568 -9.21766931879278e-05 0 0.0045628805841892274 -9.8946595236528169e-05 0 0.0045521850072141453 -8.4801076951549276e-05 0 0.0045101495448859122 -7.815678021000774e-05 0 0.0045405656490428081 -9.1455725916960234e-05 0 0.0045609528035121848 -0.00010302515034429558 0 0.004517359935018111 -7.9066366149857604e-05 0 0.0045454058395928689 -9.7431941038406429e-05 0 0.0045628805841892274 -9.8946595236528169e-05 0 0.0045405656490428081 -9.1455725916960234e-05 0 0.0045711285999137157 -0.00010535836053772492 0 0.0045628805841892274 -9.8946595236528169e-05 0 0.0045711285999137157 -0.00010535836053772492 0 0.0045936194318202186 -0.00011193610231827872 0 0.0045711285999137157 -0.00010535836053772492 0 0.0045609528035121848 -0.00010302515034429558 0 0.0046088724180426682 -0.00011204154987416303 0 0.0045405656490428081 -9.1455725916960234e-05 0 0.0045711285999137157 -0.00010535836053772492 0 0.0045609528035121848 -0.00010302515034429558 0 0.0045711285999137157 -0.00010535836053772492 0 0.0045936194318202186 -0.00011193610231827872 0 0.0046088724180426682 -0.00011204154987416303 0 0.0045936194318202186 -0.00011193610231827872 0 0.0046438472682841002 -0.00010974469986188708 0 0.0046088724180426682 -0.00011204154987416303 0 0.0045936194318202186 -0.00011193610231827872 0 0.0046438472682841002 -0.00010974469986188708 0 0.0045994620408392915 -0.00010308058285117372 0 0.0046438472682841002 -0.00010974469986188708 0 0.0047040481466224787 -0.00011644489861092273 0 0.0046883907335649603 -0.00011818486129843397 0 0.0046515142629958636 -0.00010941526788375363 0 0.00465313710851407 -9.9013544866885574e-05 0 0.0046438472682841002 -0.00010974469986188708 0 0.0045994620408392915 -0.00010308058285117372 0 0.0046242145563518125 -7.0136589910481338e-05 0 0.0045812272081380417 -0.00010401412488170616 0 0.0045994620408392915 -0.00010308058285117372 0 0.0045867236406163126 -9.0610595388945897e-05 0 0.0045867236406163126 -9.0610595388945897e-05 0 0.0045978168264699327 -7.8389602121598645e-05 0 0.0045802639898471411 -7.2367392883899913e-05 0 0.0045994620408392915 -0.00010308058285117372 0 0.0045867236406163126 -9.0610595388945897e-05 0 0.0045978168264699327 -7.8389602121598645e-05 0 0.0045994620408392915 -0.00010308058285117372 0 0.0045978168264699327 -7.8389602121598645e-05 0 0.0046242145563518125 -7.0136589910481338e-05 0 0.0045978168264699327 -7.8389602121598645e-05 0 0.0045951242759056125 -5.6800259869912127e-05 0 0.0046242145563518125 -7.0136589910481338e-05 0 0.0045951242759056125 -5.6800259869912127e-05 0 0.0046130639044018153 -4.1913876397380208e-05 0 0.0046242145563518125 -7.0136589910481338e-05 0 0.0047915712125003651 -1.4219829084263978e-05 0 0.0047785859796799016 -2.5916603166086437e-05 0 0.0049694607901957554 1.656640280979764e-05 0 0.0049774470174963883 2.179313497333017e-05 0 0.0049787826468385048 1.2190798448595001e-05 0 0.0045978168264699327 -7.8389602121598645e-05 0 0.0045951242759056125 -5.6800259869912127e-05 0 0.0045802639898471411 -7.2367392883899913e-05 0 0.0049694607901957554 1.656640280979764e-05 0 0.0049694934175779221 8.877083036852952e-06 0 0.0049787826468385048 1.2190798448595001e-05 0 0.0047915712125003651 -1.4219829084263978e-05 0 0.0047260519906426211 -3.3803364128185728e-05 0 0.0049694607901957554 1.656640280979764e-05 0 0.0049694934175779221 8.877083036852952e-06 0 0.0049588594207378668 9.8165492336486859e-06 0 0.0047260519906426211 -3.3803364128185728e-05 0 0.0047037876081821575 -6.1684870287352655e-05 0 0.0047036745900130832 -8.3041224636404781e-05 0 0.004716779738881194 -8.919888331646096e-05 0 0.0047088884209714257 -7.5196523752113053e-05 0 0.004716779738881194 -8.919888331646096e-05 0 0.0047295590393525502 -7.4520202736384278e-05 0 0.0047088884209714257 -7.5196523752113053e-05 0 0.004716779738881194 -8.919888331646096e-05 0 0.0047349503113837607 -9.30400598712708e-05 0 0.0047040481466224787 -0.00011644489861092273 0 0.0047036745900130832 -8.3041224636404781e-05 0 0.004716779738881194 -8.919888331646096e-05 0 0.0047040481466224787 -0.00011644489861092273 0 0.004716779738881194 -8.919888331646096e-05 0 0.0047349503113837607 -9.30400598712708e-05 0 0.0047295590393525502 -7.4520202736384278e-05 0 0.0047349503113837607 -9.30400598712708e-05 0 0.0047309886106917578 -0.00010869120799131313 0 0.0047816523224278925 -8.1221084244563108e-05 0 0.0047349503113837607 -9.30400598712708e-05 0 0.0047584598636985151 -5.9782192029611774e-05 0 0.0047816523224278925 -8.1221084244563108e-05 0 0.0047309886106917578 -0.00010869120799131313 0 0.0047040481466224787 -0.00011644489861092273 0 0.0046883907335649603 -0.00011818486129843397 0 0.0047349503113837607 -9.30400598712708e-05 0 0.0047309886106917578 -0.00010869120799131313 0 0.0047040481466224787 -0.00011644489861092273 0 0.0047260519906426211 -3.3803364128185728e-05 0 0.00465313710851407 -9.9013544866885574e-05 0 0.0045390949661615028 0.0001150172366931526 0 0.0045457148359748989 0.00010084055212456043 0 0.0045474427065510014 0.00011625810947427598 0 0.0045697076669196793 5.5247738493829851e-05 0 0.0046701784609156256 6.6770390506085733e-05 0 0.0046061108525931958 1.2252080382760177e-05 0 0.0046261398674132632 1.9707038554636713e-05 0 0.0046129751382783021 4.9963280223403065e-05 0 0.0045992916177383736 -2.4459241876383977e-05 0 0.0046061108525931958 1.2252080382760177e-05 0 0.0046283287643611387 -1.6302069128608673e-06 0 0.0046283287643611387 -1.6302069128608673e-06 0 0.0046261398674132632 1.9707038554636713e-05 0 0.0046579000344122183 2.1982868034006064e-05 0 0.0046061108525931958 1.2252080382760177e-05 0 0.0046283287643611387 -1.6302069128608673e-06 0 0.0046261398674132632 1.9707038554636713e-05 0 0.0046261398674132632 1.9707038554636713e-05 0 0.0046352809946657346 3.6102853097903959e-05 0 0.0046579000344122183 2.1982868034006064e-05 0 0.0046261398674132632 1.9707038554636713e-05 0 0.0046352809946657346 3.6102853097903959e-05 0 0.0046129751382783021 4.9963280223403065e-05 0 0.0047651766532473923 -2.5885933623945136e-05 0 0.004896761996807086 3.4589929311783434e-05 0 0.0047769558709491039 3.0051106561997444e-05 0 0.0047912131637757186 2.2655555466615855e-05 0 0.0047897332892700706 2.1460649607373343e-05 0 0.0047769558709491039 3.0051106561997444e-05 0 0.0047912131637757186 2.2655555466615855e-05 0 0.0047793388487223374 4.24327634282816e-05 0 0.0047100624609422324 3.0935726327329805e-05 0 0.00469039451782155 -3.4480356939371311e-05 0 0.0047651766532473923 -2.5885933623945136e-05 0 0.00469039451782155 -3.4480356939371311e-05 0 0.0047651766532473923 -2.5885933623945136e-05 0 0.0046591778735956971 -3.8495808127327755e-05 0 0.0046591778735956971 -3.8495808127327755e-05 0 0.00469039451782155 -3.4480356939371311e-05 0 0.0047242438024476122 -6.6785948783872111e-05 0 0.0046887920569277878 -1.5172862327671458e-05 0 0.0047449467310136063 -4.9313109651031073e-05 0 0.004563927404758342 -9.3533547994551674e-05 0 0.0045659810068385829 -9.3592171998050887e-05 0 0.0045645223573389758 -9.5010152998837666e-05 0 0.004563927404758342 -9.3533547994551674e-05 0 0.0045639817696503902 -9.4864478628428454e-05 0 0.0045645223573389758 -9.5010152998837666e-05 0 0.0045866449795583736 -6.491188389467886e-05 0 0.00469039451782155 -3.4480356939371311e-05 0 0.004570371610142631 -8.8523369443496973e-05 0 0.0045792408065293 -9.3447968550859728e-05 0 0.004576037136724026 -8.6610791483324802e-05 0 0.0045622002063711725 -0.00010274494357716718 0 0.0046591778735956971 -3.8495808127327755e-05 0 0.004563927404758342 -9.3533547994551674e-05 0 0.004561539418581775 -9.3663709324267252e-05 0 0.0045639817696503902 -9.4864478628428454e-05 0 0.0045812272081380417 -0.00010401412488170616 0 0.0045867236406163126 -9.0610595388945897e-05 0 0.0045792408065293 -9.3447968550859728e-05 0 0.0045812272081380417 -0.00010401412488170616 0 0.004570371610142631 -8.8523369443496973e-05 0 0.0045792408065293 -9.3447968550859728e-05 0 0.0045867236406163126 -9.0610595388945897e-05 0 0.0045792408065293 -9.3447968550859728e-05 0 0.004576037136724026 -8.6610791483324802e-05 0 0.0045682994845912383 -8.5064753540041547e-05 0 0.004576037136724026 -8.6610791483324802e-05 0 0.0045802639898471411 -7.2367392883899913e-05 0 0.0045867236406163126 -9.0610595388945897e-05 0 0.004576037136724026 -8.6610791483324802e-05 0 0.0045802639898471411 -7.2367392883899913e-05 0 0.0047651766532473923 -2.5885933623945136e-05 0 0.0047785859796799016 -2.5916603166086437e-05 0 0.0045682994845912383 -8.5064753540041547e-05 0 0.004570371610142631 -8.8523369443496973e-05 0 0.004576037136724026 -8.6610791483324802e-05 0 0.0049774470174963883 2.179313497333017e-05 0 0.0049787826468385048 1.2190798448595001e-05 0 0.0049856524607877597 1.6530417349220561e-05 0 0.0049839591585542839 2.7630355452537793e-05 0 0.0049774470174963883 2.179313497333017e-05 0 0.0049856524607877597 1.6530417349220561e-05 0 0.0049787826468385048 1.2190798448595001e-05 0 0.0049875559274686438 8.3893303074450534e-06 0 0.0049856524607877597 1.6530417349220561e-05 0 0.0049875559274686438 8.3893303074450534e-06 0 0.0049856524607877597 1.6530417349220561e-05 0 0.004992740600656978 1.1149121646390849e-05 0 0.0049856524607877597 1.6530417349220561e-05 0 0.0049929010143962126 1.785616012894692e-05 0 0.004992740600656978 1.1149121646390849e-05 0 0.0049839591585542839 2.7630355452537793e-05 0 0.0049856524607877597 1.6530417349220561e-05 0 0.0049929010143962126 1.785616012894692e-05 0 0.0047769558709491039 3.0051106561997444e-05 0 0.0047793388487223374 4.24327634282816e-05 0 0.0047634761453232829 3.8526195805210835e-05 0 0.0047793388487223374 4.24327634282816e-05 0 0.0047675087113366616 5.6931406430361982e-05 0 0.0047634761453232829 3.8526195805210835e-05 0 0.0047100624609422324 3.0935726327329805e-05 0 0.0046701784609156256 6.6770390506085733e-05 0 0.0047793388487223374 4.24327634282816e-05 0 0.0047675087113366616 5.6931406430361982e-05 0 0.004766946960690438 6.174748371865693e-05 0 0.004992740600656978 1.1149121646390849e-05 0 0.00499944454503374 7.5616229502877347e-06 0 0.0049973039618664691 7.1425828554652254e-06 0 0.0049929010143962126 1.785616012894692e-05 0 0.004992740600656978 1.1149121646390849e-05 0 0.00499944454503374 7.5616229502877347e-06 0 0.004896761996807086 3.4589929311783434e-05 0 0.0049157713856643722 3.7857820409308191e-05 0 0.0047470594807607867 5.2772464321259348e-05 0 0.0047675087113366616 5.6931406430361982e-05 0 0.0047639043107414857 4.2460036681067082e-05 0 0.0047470594807607867 5.2772464321259348e-05 0 0.0047675087113366616 5.6931406430361982e-05 0 0.004766946960690438 6.174748371865693e-05 0 0.0047764096769979938 4.9913071231100196e-05 0 0.0046701784609156256 6.6770390506085733e-05 0 0.0046292996100117667 0.00010225893231033615 0 0.0046701784609156256 6.6770390506085733e-05 0 0.0050001621273666561 1.7049816908071695e-06 0 0.0049976123092516402 3.9032429863740871e-06 0 0.0049972486325561474 7.6854747247505438e-07 0 0.0050001621273666561 1.7049816908071695e-06 0 0.0049972486325561474 7.6854747247505438e-07 0 0.0049991445066511139 -1.8747180368221786e-07 0 0.0050001621273666561 1.7049816908071695e-06 0 0.0049983827763646991 6.9814923592610622e-06 0 0.0049976123092516402 3.9032429863740871e-06 0 0.0049772875319797263 3.2505848413824615e-05 0 0.0049700965655909797 2.1724119829936315e-05 0 0.0049555561417082153 4.0719327830760376e-05 0 0.0049945243947015754 6.3162701015968201e-06 0 0.0049157713856643722 3.7857820409308191e-05 0 0.004992740600656978 1.1149121646390849e-05 0 0.0049973039618664691 7.1425828554652254e-06 0 0.0049943194415083556 4.2824000336259017e-06 0 0.0049983827763646991 6.9814923592610622e-06 0 0.0049976123092516402 3.9032429863740871e-06 0 0.0049973039618664691 7.1425828554652254e-06 0 0.0049976123092516402 3.9032429863740871e-06 0 0.0049973039618664691 7.1425828554652254e-06 0 0.0049943194415083556 4.2824000336259017e-06 0 0.0049157713856643722 3.7857820409308191e-05 0 0.004965695247477999 3.5317053477847802e-05 0 0.0049976123092516402 3.9032429863740871e-06 0 0.0049943194415083556 4.2824000336259017e-06 0 0.0049972486325561474 7.6854747247505438e-07 0 0.0049972486325561474 7.6854747247505438e-07 0 0.0049914972996018356 -1.9890839340685268e-06 0 0.0049976705026539914 -4.626951459301272e-07 0 0.0049943194415083556 4.2824000336259017e-06 0 0.0049972486325561474 7.6854747247505438e-07 0 0.0049914972996018356 -1.9890839340685268e-06 0 0.0049875559274686438 8.3893303074450534e-06 0 0.004992740600656978 1.1149121646390849e-05 0 0.0049943194415083556 4.2824000336259017e-06 0 0.0049875559274686438 8.3893303074450534e-06 0 0.0049943194415083556 4.2824000336259017e-06 0 0.0049914972996018356 -1.9890839340685268e-06 0 0.0049875559274686438 8.3893303074450534e-06 0 0.0049914972996018356 -1.9890839340685268e-06 0 0.0049770837709189218 4.3154685973735736e-06 0 0.0049787826468385048 1.2190798448595001e-05 0 0.0049875559274686438 8.3893303074450534e-06 0 0.0049770837709189218 4.3154685973735736e-06 0 0.0049914972996018356 -1.9890839340685268e-06 0 0.0049969120510321118 -3.8873165644542296e-07 0 0.0049987688580790208 -2.4619166399233918e-07 0 0.0049969120510321118 -3.8873165644542296e-07 0 0.0049999954622442786 7.4936316343446641e-10 0 0.0050003169229201685 5.9983949701155361e-07 0 0.0049969120510321118 -3.8873165644542296e-07 0 0.0049976705026539914 -4.626951459301272e-07 0 0.0049999964947837249 -1.5130279048635822e-09 0 0.0049969120510321118 -3.8873165644542296e-07 0 0.0049999954622442786 7.4936316343446641e-10 0 0.0049999964947837249 -1.5130279048635822e-09 0 0.0049914972996018356 -1.9890839340685268e-06 0 0.0049969120510321118 -3.8873165644542296e-07 0 0.0049976705026539914 -4.626951459301272e-07 0 0.0049972486325561474 7.6854747247505438e-07 0 0.0049976705026539914 -4.626951459301272e-07 0 0.0049991445066511139 -1.8747180368221786e-07 0 0.0049976705026539914 -4.626951459301272e-07 0 0.0049999964947837249 -1.5130279048635822e-09 0 0.0049991445066511139 -1.8747180368221786e-07 0 0.0049999998669453391 -1.3740150449597222e-10 0 0.0049999964947837249 -1.5130279048635822e-09 0 0.0049991445066511139 -1.8747180368221786e-07 0 0.004739435067848516 7.4665433097559251e-06 0 0.0047584598636985151 -5.9782192029611774e-05 0 0.0047141535202926653 -4.0738835296293507e-05 0 0.0048432892641028565 1.6095755943804472e-05 0 0.004902030387755052 1.3346798230862969e-05 0 0.004739435067848516 7.4665433097559251e-06 0 0.0047584598636985151 -5.9782192029611774e-05 0 0.0048333277384903367 -4.2588175648480698e-05 0 0.004739435067848516 7.4665433097559251e-06 0 0.0048966021891559798 1.2017823944732599e-05 0 0.0048333277384903367 -4.2588175648480698e-05 0 0.0047584598636985151 -5.9782192029611774e-05 0 0.0048333277384903367 -4.2588175648480698e-05 0 0.0047816523224278925 -8.1221084244563108e-05 0 0.0047349503113837607 -9.30400598712708e-05 0 0.0047584598636985151 -5.9782192029611774e-05 0 0.0047295590393525502 -7.4520202736384278e-05 0 0.0047584598636985151 -5.9782192029611774e-05 0 0.0047295590393525502 -7.4520202736384278e-05 0 0.0047141535202926653 -4.0738835296293507e-05 0 0.0047295590393525502 -7.4520202736384278e-05 0 0.0047141535202926653 -4.0738835296293507e-05 0 0.0047088884209714257 -7.5196523752113053e-05 0 0.0046946297767280496 -8.7193027766085794e-05 0 0.0047088884209714257 -7.5196523752113053e-05 0 0.0046770220916233689 -4.6684092058539396e-05 0 0.0047260519906426211 -3.3803364128185728e-05 0 0.0048197783042604444 -2.2136588064541334e-05 0 0.0049694934175779221 8.877083036852952e-06 0 0.0049588594207378668 9.8165492336486859e-06 0 0.0049630499275481474 1.407301898407397e-06 0 0.0047141535202926653 -4.0738835296293507e-05 0 0.0047088884209714257 -7.5196523752113053e-05 0 0.0046770220916233689 -4.6684092058539396e-05 0 0.0049630499275481474 1.407301898407397e-06 0 0.0049770837709189218 4.3154685973735736e-06 0 0.0049673305735366807 -8.1593855147707203e-06 0 0.0049694934175779221 8.877083036852952e-06 0 0.0049630499275481474 1.407301898407397e-06 0 0.0049770837709189218 4.3154685973735736e-06 0 0.0049694934175779221 8.877083036852952e-06 0 0.0049787826468385048 1.2190798448595001e-05 0 0.0049770837709189218 4.3154685973735736e-06 0 0.0049914972996018356 -1.9890839340685268e-06 0 0.0049995080822043802 -3.2986091387282552e-06 0 0.0049987688580790208 -2.4619166399233918e-07 0 0.0050215640566826395 1.2581958210862032e-06 0 0.0049140469448723028 -1.4940891366991744e-05 0 0.0049914972996018356 -1.9890839340685268e-06 0 0.0049770837709189218 4.3154685973735736e-06 0 0.0049673305735366807 -8.1593855147707203e-06 0 0.0048432892641028565 1.6095755943804472e-05 0 0.0049140469448723028 -1.4940891366991744e-05 0 0.004739435067848516 7.4665433097559251e-06 0 0.0047141535202926653 -4.0738835296293507e-05 0 0.004659332695410902 -4.4017881699275406e-06 0 0.0047141535202926653 -4.0738835296293507e-05 0 0.0046770220916233689 -4.6684092058539396e-05 0 0.004659332695410902 -4.4017881699275406e-06 0 0.0048197783042604444 -2.2136588064541334e-05 0 0.0049140469448723028 -1.4940891366991744e-05 0 0.0050032499872907608 1.7398228752506129e-05 0 0.004996192199139173 4.0373626224225075e-06 0 0.0050041369965949847 6.540460213769719e-06 0 0.004996192199139173 4.0373626224225075e-06 0 0.0050041369965949847 6.540460213769719e-06 0 0.0050005693458693417 1.9183594852946561e-06 0 0.0049844449955496906 2.4095343334934429e-05 0 0.0050032499872907608 1.7398228752506129e-05 0 0.004996192199139173 4.0373626224225075e-06 0 0.0049969120510321118 -3.8873165644542296e-07 0 0.0049987688580790208 -2.4619166399233918e-07 0 0.0050003169229201685 5.9983949701155361e-07 0 0.0049140469448723028 -1.4940891366991744e-05 0 0.0049995352983862656 5.0586316355301965e-07 0 0.0049999954622442786 7.4936316343446641e-10 0 0.0050003169229201685 5.9983949701155361e-07 0 0.0050000095253138555 4.8638225224707843e-09 0 0.0050005693458693417 1.9183594852946561e-06 0 0.0050003169229201685 5.9983949701155361e-07 0 0.0050000095253138555 4.8638225224707843e-09 0 0.0049995352983862656 5.0586316355301965e-07 0 0.0050002582646129362 2.249740100875287e-06 0 0.0050041369965949847 6.540460213769719e-06 0 0.0050005693458693417 1.9183594852946561e-06 0 0.0050003169229201685 5.9983949701155361e-07 0 0.004996192199139173 4.0373626224225075e-06 0 0.0050005693458693417 1.9183594852946561e-06 0 0.0050000095253138555 4.8638225224707843e-09 0 0.004996192199139173 4.0373626224225075e-06 0 0.0049678549247306279 -8.474153816632174e-07 0 0.0049999581865666125 -1.1789935854075483e-08 0 0.004996192199139173 4.0373626224225075e-06 0 0.0050000095253138555 4.8638225224707843e-09 0 0.0049999581865666125 -1.1789935854075483e-08 0 0.0049844449955496906 2.4095343334934429e-05 0 0.004996192199139173 4.0373626224225075e-06 0 0.0049678549247306279 -8.474153816632174e-07 0 0.0049844449955496906 2.4095343334934429e-05 0 0.0049678549247306279 -8.474153816632174e-07 0 0.0048966021891559798 1.2017823944732599e-05 0 0.0049678549247306279 -8.474153816632174e-07 0 0.0049999581865666125 -1.1789935854075483e-08 0 0.0049999071818461593 -4.7865351783072925e-10 0 0.0049999071818461593 -4.7865351783072925e-10 0 0.0049421071864754786 1.1477674910915327e-06 0 0.0048966021891559798 1.2017823944732599e-05 0 0.0049678549247306279 -8.474153816632174e-07 0 0.0049999071818461593 -4.7865351783072925e-10 0 0.0048966021891559798 1.2017823944732599e-05 0 0.0049999071818461593 -4.7865351783072925e-10 0 0.0049421071864754786 1.1477674910915327e-06 0 0.0049999462677489202 6.9157178137334629e-09 0 0.0048966021891559798 1.2017823944732599e-05 0 0.004883906715935674 -2.0406765299127276e-05 0 0.0048333277384903367 -4.2588175648480698e-05 0 0.004883906715935674 -2.0406765299127276e-05 0 0.0048397667372042001 -5.901556322077311e-05 0 0.004910262499222739 -2.2207396343957368e-05 0 0.0049421071864754786 1.1477674910915327e-06 0 0.004883906715935674 -2.0406765299127276e-05 0 0.004910262499222739 -2.2207396343957368e-05 0 0.0049421071864754786 1.1477674910915327e-06 0 0.0048966021891559798 1.2017823944732599e-05 0 0.004883906715935674 -2.0406765299127276e-05 0 0.0048397667372042001 -5.901556322077311e-05 0 0.0048333277384903367 -4.2588175648480698e-05 0 0.0047816523224278925 -8.1221084244563108e-05 0 0.004883906715935674 -2.0406765299127276e-05 0 0.0048397667372042001 -5.901556322077311e-05 0 0.0048333277384903367 -4.2588175648480698e-05 0 0.0049283476301982942 -3.4324190848844729e-05 0 0.0048779936138390236 -5.4656083724027955e-05 0 0.0049226693663209685 -6.9607504778326274e-05 0 0.0049283476301982942 -3.4324190848844729e-05 0 0.0049626903034296977 -3.1850574026225778e-05 0 0.0049226693663209685 -6.9607504778326274e-05 0 0.0048397667372042001 -5.901556322077311e-05 0 0.0048779936138390236 -5.4656083724027955e-05 0 0.004910262499222739 -2.2207396343957368e-05 0 0.0049283476301982942 -3.4324190848844729e-05 0 0.0048779936138390236 -5.4656083724027955e-05 0 0.004910262499222739 -2.2207396343957368e-05 0 0.0048397667372042001 -5.901556322077311e-05 0 0.0048779936138390236 -5.4656083724027955e-05 0 0.0048133629447521115 -0.00010057909639026968 0 0.0049283476301982942 -3.4324190848844729e-05 0 0.004910262499222739 -2.2207396343957368e-05 0 0.0049644325738633392 -4.4769258619470268e-06 0 0.0049283476301982942 -3.4324190848844729e-05 0 0.0049644325738633392 -4.4769258619470268e-06 0 0.0049626903034296977 -3.1850574026225778e-05 0 0.0049421071864754786 1.1477674910915327e-06 0 0.0049644325738633392 -4.4769258619470268e-06 0 0.0049999462677489202 6.9157178137334629e-09 0 0.0049421071864754786 1.1477674910915327e-06 0 0.004910262499222739 -2.2207396343957368e-05 0 0.0049644325738633392 -4.4769258619470268e-06 0 0.0049644325738633392 -4.4769258619470268e-06 0 0.0049999462677489202 6.9157178137334629e-09 0 0.0049999800184643796 4.496256093298511e-09 0 0.0049999800184643796 4.496256093298511e-09 0 0.0049965221078951483 -4.1829134992379029e-06 0 0.0049805501776833804 -1.213391689118882e-05 0 0.0049999800184643796 4.496256093298511e-09 0 0.0049965221078951483 -4.1829134992379029e-06 0 0.0050000079320210522 -1.7663717474482633e-09 0 0.0049965221078951483 -4.1829134992379029e-06 0 0.0049805501776833804 -1.213391689118882e-05 0 0.004995794608734342 -2.2832783680144444e-05 0 0.0049965221078951483 -4.1829134992379029e-06 0 0.0050072818986952828 -4.5647359315086193e-06 0 0.004995794608734342 -2.2832783680144444e-05 0 0.0049644325738633392 -4.4769258619470268e-06 0 0.0049999800184643796 4.496256093298511e-09 0 0.0049805501776833804 -1.213391689118882e-05 0 0.0050024128734206174 -2.2788064220453661e-06 0 0.0050000079320210522 -1.7663717474482633e-09 0 0.0050000057406845719 -3.7702038066573833e-09 0 0.0050024128734206174 -2.2788064220453661e-06 0 0.0050024705276409684 -3.0318031222874229e-06 0 0.0050000057406845719 -3.7702038066573833e-09 0 0.0050009029661971949 3.2985486578211866e-06 0 0.0049999966435332038 -8.6911227143964277e-09 0 0.0050024128734206174 -2.2788064220453661e-06 0 0.0050000079320210522 -1.7663717474482633e-09 0 0.0050072818986952828 -4.5647359315086193e-06 0 0.0049965221078951483 -4.1829134992379029e-06 0 0.0050000079320210522 -1.7663717474482633e-09 0 0.0050072818986952828 -4.5647359315086193e-06 0 0.0050009029661971949 3.2985486578211866e-06 0 0.0049652910228729329 -3.4446418996172625e-05 0 0.0049942117142250464 -2.6135679412596075e-06 0 0.0049903556928356674 -6.8277093429855416e-06 0 0.0049944123099953637 -5.6220386555758332e-06 0 0.0050072818986952828 -4.5647359315086193e-06 0 0.0050024705276409684 -3.0318031222874229e-06 0 0.0050040033616695805 -2.1869108623925391e-07 0 0.0050024128734206174 -2.2788064220453661e-06 0 0.0050072818986952828 -4.5647359315086193e-06 0 0.0050024705276409684 -3.0318031222874229e-06 0 0.0050142882307333096 -8.0873548340326439e-06 0 0.0049652910228729329 -3.4446418996172625e-05 0 0.0048406853649737239 -8.3802999230264092e-05 0 0.0048424326043766354 -9.8695204022031084e-05 0 0.0048508819179695455 -9.8916616635565851e-05 0 0.0048406853649737239 -8.3802999230264092e-05 0 0.0048347156882724632 -9.9992218115796082e-05 0 0.0048424326043766354 -9.8695204022031084e-05 0 0.0049652910228729329 -3.4446418996172625e-05 0 0.0047356662015227468 -0.00010664507745300238 0 0.0050319430528113652 -2.366476458840569e-05 0 0.0050138653412885766 -2.860289653233013e-05 0 0.0050288744427695519 -5.2787698865391659e-05 0 0.0049652910228729329 -3.4446418996172625e-05 0 0.0049330271742232187 -7.5049612502010326e-05 0 0.0050072818986952828 -4.5647359315086193e-06 0 0.0050319430528113652 -2.366476458840569e-05 0 0.0050138653412885766 -2.860289653233013e-05 0 0.0050072818986952828 -4.5647359315086193e-06 0 0.0050138653412885766 -2.860289653233013e-05 0 0.004995794608734342 -2.2832783680144444e-05 0 0.0050138653412885766 -2.860289653233013e-05 0 0.0050079057024739956 -4.4354656868228649e-05 0 0.004995794608734342 -2.2832783680144444e-05 0 0.0050107960448706529 -6.6758253857011923e-05 0 0.0050288744427695519 -5.2787698865391659e-05 0 0.0050243988975017286 -8.9864938584689955e-05 0 0.0049330271742232187 -7.5049612502010326e-05 0 0.0048735964029999954 -0.00012878040062597187 0 0.0050079057024739956 -4.4354656868228649e-05 0 0.0050107960448706529 -6.6758253857011923e-05 0 0.0050288744427695519 -5.2787698865391659e-05 0 0.0050138653412885766 -2.860289653233013e-05 0 0.0050079057024739956 -4.4354656868228649e-05 0 0.0050288744427695519 -5.2787698865391659e-05 0 0.0045961377797588783 -0.00019929579566487239 0 0.0045677755552679692 -0.00022084595783886506 0 0.0045693478185301166 -0.00018212940932636596 0 0.0048347156882724632 -9.9992218115796082e-05 0 0.0048401343984423957 -0.00010756035003387074 0 0.0048296183104432379 -0.00011625212225090219 0 0.0048347156882724632 -9.9992218115796082e-05 0 0.0048401343984423957 -0.00010756035003387074 0 0.0048424326043766354 -9.8695204022031084e-05 0 0.0048401343984423957 -0.00010756035003387074 0 0.0048424326043766354 -9.8695204022031084e-05 0 0.0048508819179695455 -9.8916616635565851e-05 0 0.0046972927309521404 -0.00017129164009576246 0 0.0047356662015227468 -0.00010664507745300238 0 0.0049805501776833804 -1.213391689118882e-05 0 0.0049626903034296977 -3.1850574026225778e-05 0 0.004995794608734342 -2.2832783680144444e-05 0 0.0049644325738633392 -4.4769258619470268e-06 0 0.0049805501776833804 -1.213391689118882e-05 0 0.0049626903034296977 -3.1850574026225778e-05 0 0.0049626903034296977 -3.1850574026225778e-05 0 0.004995794608734342 -2.2832783680144444e-05 0 0.0049884563305259699 -6.2744535256373886e-05 0 0.0050079057024739956 -4.4354656868228649e-05 0 0.004995794608734342 -2.2832783680144444e-05 0 0.0049884563305259699 -6.2744535256373886e-05 0 0.0050079057024739956 -4.4354656868228649e-05 0 0.0050107960448706529 -6.6758253857011923e-05 0 0.0049884563305259699 -6.2744535256373886e-05 0 0.0049626903034296977 -3.1850574026225778e-05 0 0.0049596581781051604 -7.0626113540623732e-05 0 0.0049226693663209685 -6.9607504778326274e-05 0 0.0049626903034296977 -3.1850574026225778e-05 0 0.0049884563305259699 -6.2744535256373886e-05 0 0.0049596581781051604 -7.0626113540623732e-05 0 0.0049596581781051604 -7.0626113540623732e-05 0 0.0049580998714728406 -0.0001148423904813747 0 0.0049226693663209685 -6.9607504778326274e-05 0 0.0049596581781051604 -7.0626113540623732e-05 0 0.0049832748602031034 -9.2795749671735166e-05 0 0.0049580998714728406 -0.0001148423904813747 0 0.0049884563305259699 -6.2744535256373886e-05 0 0.0049596581781051604 -7.0626113540623732e-05 0 0.0049832748602031034 -9.2795749671735166e-05 0 0.0050107960448706529 -6.6758253857011923e-05 0 0.0049884563305259699 -6.2744535256373886e-05 0 0.0050032321561946725 -8.6355336224413378e-05 0 0.0049884563305259699 -6.2744535256373886e-05 0 0.0050032321561946725 -8.6355336224413378e-05 0 0.0049832748602031034 -9.2795749671735166e-05 0 0.0050032321561946725 -8.6355336224413378e-05 0 0.0049832748602031034 -9.2795749671735166e-05 0 0.0050017057122015464 -0.00011470356609840221 0 0.0049832748602031034 -9.2795749671735166e-05 0 0.0049815688808311472 -0.00011610643590996855 0 0.0050017057122015464 -0.00011470356609840221 0 0.0049832748602031034 -9.2795749671735166e-05 0 0.0049815688808311472 -0.00011610643590996855 0 0.0049580998714728406 -0.0001148423904813747 0 0.0049815688808311472 -0.00011610643590996855 0 0.0049830591341488038 -0.00014143173773597368 0 0.0049580998714728406 -0.0001148423904813747 0 0.0049815688808311472 -0.00011610643590996855 0 0.0050017057122015464 -0.00011470356609840221 0 0.0049830591341488038 -0.00014143173773597368 0 0.0050017057122015464 -0.00011470356609840221 0 0.0049830591341488038 -0.00014143173773597368 0 0.0050131683440609214 -0.00014022422033655094 0 0.0049830591341488038 -0.00014143173773597368 0 0.0049580998714728406 -0.0001148423904813747 0 0.0049570090442163503 -0.00016040015746295443 0 0.0049580998714728406 -0.0001148423904813747 0 0.0049570090442163503 -0.00016040015746295443 0 0.0049081173361815071 -0.00014150316708671788 0 0.0048961649332611946 -0.00015711638762555853 0 0.004826819302076955 -0.00011979548227886952 0 0.0045941620412033269 -0.00017300377457723059 0 0.0045693478185301166 -0.00018212940932636596 0 0.0045745921741948744 -0.00016204669413997675 0 0.0045961377797588783 -0.00019929579566487239 0 0.0045941620412033269 -0.00017300377457723059 0 0.0045693478185301166 -0.00018212940932636596 0 0.0045961377797588783 -0.00019929579566487239 0 0.0045941620412033269 -0.00017300377457723059 0 0.0046251097320186927 -0.00017766173440564444 0 0.0046972927309521404 -0.00017129164009576246 0 0.0048735964029999954 -0.00012878040062597187 0 0.0045941620412033269 -0.00017300377457723059 0 0.0046251097320186927 -0.00017766173440564444 0 0.0045981601060726841 -0.0001443025842020004 0 0.0050107960448706529 -6.6758253857011923e-05 0 0.0050032321561946725 -8.6355336224413378e-05 0 0.0050243988975017286 -8.9864938584689955e-05 0 0.0050032321561946725 -8.6355336224413378e-05 0 0.0050017057122015464 -0.00011470356609840221 0 0.0050243988975017286 -8.9864938584689955e-05 0 0.0050330008106227141 -8.1367900056931813e-05 0 0.0048735964029999954 -0.00012878040062597187 0 0.0046251097320186927 -0.00017766173440564444 0 0.004640054737623747 -0.00013325243283207169 0 0.0045981601060726841 -0.0001443025842020004 0 0.0050017057122015464 -0.00011470356609840221 0 0.0050266898014618257 -9.4549644397273815e-05 0 0.0050131683440609214 -0.00014022422033655094 0 0.0048735964029999954 -0.00012878040062597187 0 0.0048311967988952705 -0.00013242785910874062 0 0.0045981601060726841 -0.0001443025842020004 0 0.0045648951595691784 -0.00014270802642601848 0 0.0045646230566986495 -0.00011496034333914077 0 0.0045941620412033269 -0.00017300377457723059 0 0.0045981601060726841 -0.0001443025842020004 0 0.0045745921741948744 -0.00016204669413997675 0 0.0045981601060726841 -0.0001443025842020004 0 0.0045745921741948744 -0.00016204669413997675 0 0.0045648951595691784 -0.00014270802642601848 0 0.0045981601060726841 -0.0001443025842020004 0 0.0046021985551742348 -0.00010201889348333904 0 0.0045646230566986495 -0.00011496034333914077 0 0.004640054737623747 -0.00013325243283207169 0 0.0045981601060726841 -0.0001443025842020004 0 0.0046021985551742348 -0.00010201889348333904 0 0.004640054737623747 -0.00013325243283207169 0 0.0046021985551742348 -0.00010201889348333904 0 0.0046555656101399051 -8.8117579565899284e-05 0 0.0048311967988952705 -0.00013242785910874062 0 0.0047183399662368312 -0.00015478987644384397 0 0.0047183399662368312 -0.00015478987644384397 0 0.0044706343417131086 -0.00011936524228739683 0 0.0044880544763555054 -0.00024734692846336897 0 0.0044132222102948159 -0.00019842205462700102 0 0.0044602577558356072 -0.0001873695973330053 0 0.0046021985551742348 -0.00010201889348333904 0 0.0046555656101399051 -8.8117579565899284e-05 0 0.0045970931945399883 -4.8885532367649507e-05 0 0.0046021985551742348 -0.00010201889348333904 0 0.0045457280461799997 -7.4315441411747224e-05 0 0.0045970931945399883 -4.8885532367649507e-05 0 0.0047782027966546273 -0.00013053979156997406 0 0.0047776421800982301 -0.00014467683673050375 0 0.0047667222144904334 -0.00013809113781185445 0 0.0047782027966546273 -0.00013053979156997406 0 0.0047898670356008579 -0.00014208033747537549 0 0.0047776421800982301 -0.00014467683673050375 0 0.0049830591341488038 -0.00014143173773597368 0 0.0050131683440609214 -0.00014022422033655094 0 0.0049964397450345801 -0.00018577587569006108 0 0.0049830591341488038 -0.00014143173773597368 0 0.0049570090442163503 -0.00016040015746295443 0 0.0049964397450345801 -0.00018577587569006108 0 0.0048961649332611946 -0.00015711638762555853 0 0.0047183399662368312 -0.00015478987644384397 0 0.0047183399662368312 -0.00015478987644384397 0 0.0045887166522825523 -0.00016510465926933805 0 0.0047898670356008579 -0.00014208033747537549 0 0.0047776421800982301 -0.00014467683673050375 0 0.0047826425024760305 -0.00015907377976831901 0 0.0047776421800982301 -0.00014467683673050375 0 0.0047694739601480693 -0.00015175712639272452 0 0.0047826425024760305 -0.00015907377976831901 0 0.0046716939658705738 -0.00015491625404078104 0 0.0047730189935757108 -0.00015177610908291106 0 0.0047776421800982301 -0.00014467683673050375 0 0.0047694739601480693 -0.00015175712639272452 0 0.0047667222144904334 -0.00013809113781185445 0 0.0047761768682908759 -0.00018496239956365625 0 0.0047409254454485851 -0.00016693531838818547 0 0.0047667222144904334 -0.00013809113781185445 0 0.0046716939658705738 -0.00015491625404078104 0 0.0046552873319596899 -0.00015283174297067126 0 0.0045273996366552525 -0.00013544664082009686 0 0.0045746114329288179 -0.00014869380706021736 0 0.0045576619952561381 -0.00011744878104251773 0 0.0047782027966546273 -0.00013053979156997406 0 0.0047667222144904334 -0.00013809113781185445 0 0.0047589095207739886 -0.00010981717829297649 0 0.0047667222144904334 -0.00013809113781185445 0 0.0047364055347884071 -0.00012702114951792108 0 0.0047589095207739886 -0.00010981717829297649 0 0.0047409254454485851 -0.00016693531838818547 0 0.0047667222144904334 -0.00013809113781185445 0 0.0047364055347884071 -0.00012702114951792108 0 0.0047364055347884071 -0.00012702114951792108 0 0.0046801901124320687 -0.00014381638940963166 0 0.0047439962480727033 -0.00011553594984735622 0 0.0047409254454485851 -0.00016693531838818547 0 0.0047364055347884071 -0.00012702114951792108 0 0.0046801901124320687 -0.00014381638940963166 0 0.0046552873319596899 -0.00015283174297067126 0 0.0046709061189173515 -0.00014783470938247286 0 0.0045746114329288179 -0.00014869380706021736 0 0.0046801901124320687 -0.00014381638940963166 0 0.0046214024887513286 -0.00012617288988229746 0 0.0045746114329288179 -0.00014869380706021736 0 0.0046214024887513286 -0.00012617288988229746 0 0.0045576619952561381 -0.00011744878104251773 0 0.0046801901124320687 -0.00014381638940963166 0 0.0046214024887513286 -0.00012617288988229746 0 0.0046484745057618782 -0.00012133062349586829 0 0.0046801901124320687 -0.00014381638940963166 0 0.0046484745057618782 -0.00012133062349586829 0 0.004695920147333949 -0.00012692387613599308 0 0.0046438472682841002 -0.00010974469986188708 0 0.0046484745057618782 -0.00012133062349586829 0 0.0046883907335649603 -0.00011818486129843397 0 0.0046883907335649603 -0.00011818486129843397 0 0.004695920147333949 -0.00012692387613599308 0 0.0047250125041113705 -0.00011508595026701585 0 0.0046484745057618782 -0.00012133062349586829 0 0.0046883907335649603 -0.00011818486129843397 0 0.004695920147333949 -0.00012692387613599308 0 0.004695920147333949 -0.00012692387613599308 0 0.0047250125041113705 -0.00011508595026701585 0 0.0047439962480727033 -0.00011553594984735622 0 0.0046801901124320687 -0.00014381638940963166 0 0.004695920147333949 -0.00012692387613599308 0 0.0047439962480727033 -0.00011553594984735622 0 0.0047804827317186873 -9.7216884302740055e-05 0 0.0048133629447521115 -0.00010057909639026968 0 0.0047439962480727033 -0.00011553594984735622 0 0.0047250125041113705 -0.00011508595026701585 0 0.0047804827317186873 -9.7216884302740055e-05 0 0.0047439962480727033 -0.00011553594984735622 0 0.0047309886106917578 -0.00010869120799131313 0 0.0046883907335649603 -0.00011818486129843397 0 0.0047250125041113705 -0.00011508595026701585 0 0.0047309886106917578 -0.00010869120799131313 0 0.0047250125041113705 -0.00011508595026701585 0 0.0047804827317186873 -9.7216884302740055e-05 0 0.0048397667372042001 -5.901556322077311e-05 0 0.0047816523224278925 -8.1221084244563108e-05 0 0.0047804827317186873 -9.7216884302740055e-05 0 0.0047309886106917578 -0.00010869120799131313 0 0.0047816523224278925 -8.1221084244563108e-05 0 0.0047804827317186873 -9.7216884302740055e-05 0 0.0048397667372042001 -5.901556322077311e-05 0 0.0047804827317186873 -9.7216884302740055e-05 0 0.0048133629447521115 -0.00010057909639026968 0 0.0048779936138390236 -5.4656083724027955e-05 0 0.0048133629447521115 -0.00010057909639026968 0 0.0049226693663209685 -6.9607504778326274e-05 0 0.0048133629447521115 -0.00010057909639026968 0 0.0049226693663209685 -6.9607504778326274e-05 0 0.0049081173361815071 -0.00014150316708671788 0 0.0049580998714728406 -0.0001148423904813747 0 0.0049226693663209685 -6.9607504778326274e-05 0 0.0049081173361815071 -0.00014150316708671788 0 0.0048133629447521115 -0.00010057909639026968 0 0.0047589095207739886 -0.00010981717829297649 0 0.0047439962480727033 -0.00011553594984735622 0 0.0047364055347884071 -0.00012702114951792108 0 0.0047589095207739886 -0.00010981717829297649 0 0.0047439962480727033 -0.00011553594984735622 0 0.0048129965051689361 -0.00010320032023936141 0 0.004826819302076955 -0.00011979548227886952 0 0.0044151540977310482 -1.4004704882851421e-07 0 0.0043856634850427852 -3.8634405033549502e-05 0 0.0044813068528785464 -3.4336936400223079e-05 0 0.0043856634850427852 -3.8634405033549502e-05 0 0.0044432496230410483 -3.6329721611474605e-05 0 0.0044746310253791543 -5.567650776759235e-05 0 0.0043856634850427852 -3.8634405033549502e-05 0 0.0044432496230410483 -3.6329721611474605e-05 0 0.0044813068528785464 -3.4336936400223079e-05 0 0.0044151540977310482 -1.4004704882851421e-07 0 0.0046815837742310252 1.0843574131149738e-07 0 0.0044813068528785464 -3.4336936400223079e-05 0 0.0046743555208744051 -3.8195712104244776e-05 0 0.0046820108575368908 -1.3053457751326145e-08 0 0.0044432496230410483 -3.6329721611474605e-05 0 0.0046815837742310252 1.0843574131149738e-07 0 0.0044813068528785464 -3.4336936400223079e-05 0 0.0046825400537085842 1.0842044699987211e-07 0 0.0048848065050715967 -2.8742944798154087e-05 0 0.0049998634833118101 -1.425437337447111e-07 0 0.0048848065050715967 -2.8742944798154087e-05 0 0.0049998634833118101 -1.425437337447111e-07 0 0.004896967178757026 -8.7147862164013563e-06 0 0.0049072399001056054 -3.0683848061404011e-05 0 0.0046825400537085842 1.0842044699987211e-07 0 0.0048848065050715967 -2.8742944798154087e-05 0 0.0049998634833118101 -1.425437337447111e-07 0 0.004896967178757026 -8.7147862164013563e-06 0 0.0049990502703653253 2.1282049696731318e-07 0 0.0049072399001056054 -3.0683848061404011e-05 0 0.0048848065050715967 -2.8742944798154087e-05 0 0.004896967178757026 -8.7147862164013563e-06 0 0.004896967178757026 -8.7147862164013563e-06 0 0.0046977557622881897 -7.783621005987583e-05 0 0.0046552838716980155 -9.8244705248414033e-05 0 0.0049072399001056054 -3.0683848061404011e-05 0 0.004896967178757026 -8.7147862164013563e-06 0 0.0046552838716980155 -9.8244705248414033e-05 0 0.004896967178757026 -8.7147862164013563e-06 0 0.0049990502703653253 2.1282049696731318e-07 0 0.0046977557622881897 -7.783621005987583e-05 0 0.0049990502703653253 2.1282049696731318e-07 0 0.0046977557622881897 -7.783621005987583e-05 0 0.0045972344626522294 -3.2922114444269004e-05 0 0.0045423615707719089 -9.3209853386349618e-05 0 0.0046552838716980155 -9.8244705248414033e-05 0 0.0044746310253791543 -5.567650776759235e-05 0 0.0046977557622881897 -7.783621005987583e-05 0 0.0045423615707719089 -9.3209853386349618e-05 0 0.0046552838716980155 -9.8244705248414033e-05 0 0.0044432496230410483 -3.6329721611474605e-05 0 0.0046552838716980155 -9.8244705248414033e-05 0 0.0044746310253791543 -5.567650776759235e-05 0 0.0046743555208744051 -3.8195712104244776e-05 0 0.0046577191484568183 -8.305095917568045e-05 0 0.0043856634850427852 -3.8634405033549502e-05 0 0.0044746310253791543 -5.567650776759235e-05 0 0.0043191436245834641 -5.6318518914012893e-05 0 0.0045423615707719089 -9.3209853386349618e-05 0 0.0044746310253791543 -5.567650776759235e-05 0 0.0044028954193858164 -7.7683465421513065e-05 0 0.0045423615707719089 -9.3209853386349618e-05 0 0.0044668759520995307 -9.5209772081157867e-05 0 0.0045571427383777445 -9.6746380359320522e-05 0 0.0045060428116145195 -0.00011411790649018224 0 0.0045426279380895197 -0.00010192973191283211 0 0.0045423615707719089 -9.3209853386349618e-05 0 0.0044668759520995307 -9.5209772081157867e-05 0 0.0044028954193858164 -7.7683465421513065e-05 0 0.0045330552227524391 -0.00011100691383100016 0 0.0045423343120615783 -0.00012403703130193098 0 0.0045571427383777445 -9.6746380359320522e-05 0 0.0045330552227524391 -0.00011100691383100016 0 0.0045423343120615783 -0.00012403703130193098 0 0.004529035537447392 -0.00013257011737653196 0 0.0045330552227524391 -0.00011100691383100016 0 0.00451559510600611 -0.00011599164386334951 0 0.004529035537447392 -0.00013257011737653196 0 0.0045330552227524391 -0.00011100691383100016 0 0.0045571427383777445 -9.6746380359320522e-05 0 0.0045141873428564136 -8.7013958161833325e-05 0 0.0046977557622881897 -7.783621005987583e-05 0 0.0045423615707719089 -9.3209853386349618e-05 0 0.0045571427383777445 -9.6746380359320522e-05 0 0.0046977557622881897 -7.783621005987583e-05 0 0.0045571427383777445 -9.6746380359320522e-05 0 0.0045972344626522294 -3.2922114444269004e-05 0 0.0050000006789489024 4.5190734380590627e-10 0 0.00499951405007764 -1.7111499192695089e-06 0 0.0049999988990397197 -1.3002345185128077e-09 0 0.0049999141826171517 -1.0350436412172056e-08 0 0.0047985836238315146 -2.8172087314128635e-05 0 0.0049999988990397197 -1.3002345185128077e-09 0 0.0049989198544136988 -2.0985995121532097e-06 0 0.0049999998123815281 -1.4705439679671231e-09 0 0.00499951405007764 -1.7111499192695089e-06 0 0.0049999988990397197 -1.3002345185128077e-09 0 0.0049989198544136988 -2.0985995121532097e-06 0 0.00499951405007764 -1.7111499192695089e-06 0 0.0049989198544136988 -2.0985995121532097e-06 0 0.0049975441673444764 -5.8825890317642803e-06 0 0.0047985836238315146 -2.8172087314128635e-05 0 0.0047596423952888144 -3.7444363367702961e-05 0 0.0045571427383777445 -9.6746380359320522e-05 0 0.0045972344626522294 -3.2922114444269004e-05 0 0.0045141873428564136 -8.7013958161833325e-05 0 0.0049989198544136988 -2.0985995121532097e-06 0 0.0049976883630507164 -2.1555253438792292e-06 0 0.0049975441673444764 -5.8825890317642803e-06 0 0.0049976883630507164 -2.1555253438792292e-06 0 0.0049944123099953637 -5.6220386555758332e-06 0 0.0049975441673444764 -5.8825890317642803e-06 0 0.0049989198544136988 -2.0985995121532097e-06 0 0.0049999998123815281 -1.4705439679671231e-09 0 0.0049976883630507164 -2.1555253438792292e-06 0 0.0049999998123815281 -1.4705439679671231e-09 0 0.0049999888743965529 2.1833401452139235e-10 0 0.0049976883630507164 -2.1555253438792292e-06 0 0.0049942117142250464 -2.6135679412596075e-06 0 0.0049999888743965529 2.1833401452139235e-10 0 0.0049976883630507164 -2.1555253438792292e-06 0 0.0049942117142250464 -2.6135679412596075e-06 0 0.0049976883630507164 -2.1555253438792292e-06 0 0.0049944123099953637 -5.6220386555758332e-06 0 0.0049944123099953637 -5.6220386555758332e-06 0 0.0049975441673444764 -5.8825890317642803e-06 0 0.0049917499003146876 -1.1341558470750292e-05 0 0.0047596423952888144 -3.7444363367702961e-05 0 0.0047356662015227468 -0.00010664507745300238 0 0.0049903556928356674 -6.8277093429855416e-06 0 0.0049944123099953637 -5.6220386555758332e-06 0 0.0049917499003146876 -1.1341558470750292e-05 0 0.0045330552227524391 -0.00011100691383100016 0 0.0045141873428564136 -8.7013958161833325e-05 0 0.00451559510600611 -0.00011599164386334951 0 0.0045141873428564136 -8.7013958161833325e-05 0 0.00451559510600611 -0.00011599164386334951 0 0.0044891886658993199 -0.00011546207961493848 0 0.00451559510600611 -0.00011599164386334951 0 0.0044891886658993199 -0.00011546207961493848 0 0.0045126156148700648 -0.0001295097621032183 0 0.0044891886658993199 -0.00011546207961493848 0 0.0045126156148700648 -0.0001295097621032183 0 0.0045103132264187277 -0.0001385745972808091 0 0.00451559510600611 -0.00011599164386334951 0 0.0045126156148700648 -0.0001295097621032183 0 0.004529035537447392 -0.00013257011737653196 0 0.0047356662015227468 -0.00010664507745300238 0 0.0044918741537881765 -0.00015576986863268354 0 0.0045693478185301166 -0.00018212940932636596 0 0.0045306883520724959 -0.000176519475163002 0 0.0045493806153600151 -0.00015834018870028465 0 0.0045677755552679692 -0.00022084595783886506 0 0.0045693478185301166 -0.00018212940932636596 0 0.0045306883520724959 -0.000176519475163002 0 0.0045693478185301166 -0.00018212940932636596 0 0.0045493806153600151 -0.00015834018870028465 0 0.0045745921741948744 -0.00016204669413997675 0 0.0045122459378806072 -0.00013821281139598371 0 0.0045103132264187277 -0.0001385745972808091 0 0.0044991086281530807 -0.00013623229873128954 0 0.0045126156148700648 -0.0001295097621032183 0 0.0045122459378806072 -0.00013821281139598371 0 0.0045103132264187277 -0.0001385745972808091 0 0.0045126156148700648 -0.0001295097621032183 0 0.0045122459378806072 -0.00013821281139598371 0 0.004529035537447392 -0.00013257011737653196 0 0.0045261499830326363 -0.00015023668471053102 0 0.0045379858213143859 -0.00013387415010117089 0 0.0045493806153600151 -0.00015834018870028465 0 0.0044918741537881765 -0.00015576986863268354 0 0.0045078679939642777 -0.00013689747452634313 0 0.0045103132264187277 -0.0001385745972808091 0 0.0044976735502055476 -0.00013169666831576703 0 0.0044991086281530807 -0.00013623229873128954 0 0.0045306883520724959 -0.000176519475163002 0 0.0045261499830326363 -0.00015023668471053102 0 0.0044976735502055476 -0.00013169666831576703 0 0.0045306883520724959 -0.000176519475163002 0 0.0045261499830326363 -0.00015023668471053102 0 0.0045493806153600151 -0.00015834018870028465 0 0.0045261499830326363 -0.00015023668471053102 0 0.0045190520349680198 -0.00013562287408952083 0 0.0044976735502055476 -0.00013169666831576703 0 0.0045190520349680198 -0.00013562287408952083 0 0.0045161422082737428 -0.00012055260924171698 0 0.0044976735502055476 -0.00013169666831576703 0 0.0045190520349680198 -0.00013562287408952083 0 0.0045379858213143859 -0.00013387415010117089 0 0.0045161422082737428 -0.00012055260924171698 0 0.0045261499830326363 -0.00015023668471053102 0 0.0045190520349680198 -0.00013562287408952083 0 0.0045379858213143859 -0.00013387415010117089 0 0.0045379858213143859 -0.00013387415010117089 0 0.0045648951595691784 -0.00014270802642601848 0 0.0045646230566986495 -0.00011496034333914077 0 0.0045379858213143859 -0.00013387415010117089 0 0.0045493806153600151 -0.00015834018870028465 0 0.0045648951595691784 -0.00014270802642601848 0 0.0045493806153600151 -0.00015834018870028465 0 0.0045745921741948744 -0.00016204669413997675 0 0.0045648951595691784 -0.00014270802642601848 0 0.0045646230566986495 -0.00011496034333914077 0 0.0045372946284184309 -0.00010669928645020782 0 0.0045457280461799997 -7.4315441411747224e-05 0 0.0046021985551742348 -0.00010201889348333904 0 0.0045646230566986495 -0.00011496034333914077 0 0.0045457280461799997 -7.4315441411747224e-05 0 0.0045379858213143859 -0.00013387415010117089 0 0.0045646230566986495 -0.00011496034333914077 0 0.0045372946284184309 -0.00010669928645020782 0 0.0045457280461799997 -7.4315441411747224e-05 0 0.004503744958283375 -7.0410802676357589e-05 0 0.0045142395634719728 -9.7123446190240447e-05 0 0.0045457280461799997 -7.4315441411747224e-05 0 0.004503744958283375 -7.0410802676357589e-05 0 0.0045111260272136895 -4.2240140248338369e-05 0 0.004503744958283375 -7.0410802676357589e-05 0 0.0045142395634719728 -9.7123446190240447e-05 0 0.0044920620417705486 -9.3811387973836123e-05 0 0.0045142395634719728 -9.7123446190240447e-05 0 0.0045161422082737428 -0.00012055260924171698 0 0.0044979926356338391 -0.00011285415096576157 0 0.0045142395634719728 -9.7123446190240447e-05 0 0.0044979926356338391 -0.00011285415096576157 0 0.0044920620417705486 -9.3811387973836123e-05 0 0.0045372946284184309 -0.00010669928645020782 0 0.0045142395634719728 -9.7123446190240447e-05 0 0.0045161422082737428 -0.00012055260924171698 0 0.0045372946284184309 -0.00010669928645020782 0 0.0045457280461799997 -7.4315441411747224e-05 0 0.0045142395634719728 -9.7123446190240447e-05 0 0.0045379858213143859 -0.00013387415010117089 0 0.0045372946284184309 -0.00010669928645020782 0 0.0045161422082737428 -0.00012055260924171698 0 0.0045161422082737428 -0.00012055260924171698 0 0.0044979926356338391 -0.00011285415096576157 0 0.0044976735502055476 -0.00013169666831576703 0 0.0044979926356338391 -0.00011285415096576157 0 0.0044779764236266518 -0.00011815044896735727 0 0.0044976735502055476 -0.00013169666831576703 0 0.0044979926356338391 -0.00011285415096576157 0 0.0044779764236266518 -0.00011815044896735727 0 0.0044920620417705486 -9.3811387973836123e-05 0 0.0044640950019646432 -9.9686486526288882e-05 0 0.0044725992911626442 -8.0369023956105141e-05 0 0.0044779764236266518 -0.00011815044896735727 0 0.0044920620417705486 -9.3811387973836123e-05 0 0.0044712088519964473 -6.8515165726583136e-05 0 0.0044650154984914583 -0.00012701107152580878 0 0.0044712088519964473 -6.8515165726583136e-05 0 0.0044411087244099548 -7.9548826143323447e-05 0 0.004503744958283375 -7.0410802676357589e-05 0 0.0044920620417705486 -9.3811387973836123e-05 0 0.0044712088519964473 -6.8515165726583136e-05 0 0.0044712088519964473 -6.8515165726583136e-05 0 0.0044411087244099548 -7.9548826143323447e-05 0 0.0044526214565797743 -4.9454697032953754e-05 0 0.004503744958283375 -7.0410802676357589e-05 0 0.0044712088519964473 -6.8515165726583136e-05 0 0.0044790578635783328 -4.4528299039761003e-05 0 0.0043898442009613911 1.3795704463365606e-05 0 0.0040004063500010505 -8.7606669119818795e-06 0 0.0043279087220978651 9.1322924013450299e-05 0 0.0040964773078910367 1.3679779005059706e-05 0 0.0042313392173366224 0.0002791045231715302 0 0.0043279087220978651 9.1322924013450299e-05 0 0.0042915487953124427 -1.7854564130836065e-05 0 0.0040964773078910367 1.3679779005059706e-05 0 0.0043776371814527341 -2.6366609705472075e-05 0 0.0043279087220978651 9.1322924013450299e-05 0 0.0042915487953124427 -1.7854564130836065e-05 0 0.0044640950019646432 -9.9686486526288882e-05 0 0.0043898442009613911 1.3795704463365606e-05 0 0.0043776371814527341 -2.6366609705472075e-05 0 0.0042915487953124427 -1.7854564130836065e-05 0 0.0043430318907226933 -5.5208987399842808e-05 0 0.0042915487953124427 -1.7854564130836065e-05 0 0.0043430318907226933 -5.5208987399842808e-05 0 0.0042822003174692288 -5.6747089833961949e-05 0 0.0043430318907226933 -5.5208987399842808e-05 0 0.0043805796251805461 -7.7645420381415096e-05 0 0.0042822003174692288 -5.6747089833961949e-05 0 0.0043430318907226933 -5.5208987399842808e-05 0 0.0043914763784144179 -7.8378871016359571e-05 0 0.0043805796251805461 -7.7645420381415096e-05 0 0.0044640950019646432 -9.9686486526288882e-05 0 0.0044664017542053016 -0.00011582552190692598 0 0.0043776371814527341 -2.6366609705472075e-05 0 0.0043430318907226933 -5.5208987399842808e-05 0 0.0043914763784144179 -7.8378871016359571e-05 0 0.0044640950019646432 -9.9686486526288882e-05 0 0.0045136194335370534 -0.00015278874588080658 0 0.0045307639453678814 -0.00017069502409159274 0 0.0045241587477067094 -0.00015634007662524861 0 0.0045344967497863674 -0.00014867533404524185 0 0.0044779764236266518 -0.00011815044896735727 0 0.0044976735502055476 -0.00013169666831576703 0 0.0044991086281530807 -0.00013623229873128954 0 0.0045096350643814937 -0.00013679805853131788 0 0.0045136194335370534 -0.00015278874588080658 0 0.0045241587477067094 -0.00015634007662524861 0 0.0045344967497863674 -0.00014867533404524185 0 0.0045252369533914458 -0.00014405840313714497 0 0.0045060428116145195 -0.00011411790649018224 0 0.0044664017542053016 -0.00011582552190692598 0 0.0045344967497863674 -0.00014867533404524185 0 0.0045252369533914458 -0.00014405840313714497 0 0.004529035537447392 -0.00013257011737653196 0 0.0045423343120615783 -0.00012403703130193098 0 0.0045344967497863674 -0.00014867533404524185 0 0.004529035537447392 -0.00013257011737653196 0 0.0045122459378806072 -0.00013821281139598371 0 0.0045252369533914458 -0.00014405840313714497 0 0.004529035537447392 -0.00013257011737653196 0 0.0045122459378806072 -0.00013821281139598371 0 0.0045241587477067094 -0.00015634007662524861 0 0.0045252369533914458 -0.00014405840313714497 0 0.0044668759520995307 -9.5209772081157867e-05 0 0.0043914763784144179 -7.8378871016359571e-05 0 0.0043805796251805461 -7.7645420381415096e-05 0 0.0043805796251805461 -7.7645420381415096e-05 0 0.0044028954193858164 -7.7683465421513065e-05 0 0.0042822003174692288 -5.6747089833961949e-05 0 0.0044668759520995307 -9.5209772081157867e-05 0 0.0043805796251805461 -7.7645420381415096e-05 0 0.0044028954193858164 -7.7683465421513065e-05 0 0.0044028954193858164 -7.7683465421513065e-05 0 0.0043191436245834641 -5.6318518914012893e-05 0 0.0042822003174692288 -5.6747089833961949e-05 0 0.0044746310253791543 -5.567650776759235e-05 0 0.0044028954193858164 -7.7683465421513065e-05 0 0.0043191436245834641 -5.6318518914012893e-05 0 0.0043191436245834641 -5.6318518914012893e-05 0 0.0041581968558702795 -3.1373158607210921e-05 0 0.0042298350371715015 -3.4352900447707566e-05 0 0.0043191436245834641 -5.6318518914012893e-05 0 0.0042822003174692288 -5.6747089833961949e-05 0 0.0041581968558702795 -3.1373158607210921e-05 0 0.0042915487953124427 -1.7854564130836065e-05 0 0.0042822003174692288 -5.6747089833961949e-05 0 0.0040964773078910367 1.3679779005059706e-05 0 0.0042822003174692288 -5.6747089833961949e-05 0 0.0040964773078910367 1.3679779005059706e-05 0 0.0041581968558702795 -3.1373158607210921e-05 0 0.0041127469858033838 7.632540980134169e-05 0 0.0040004063500010505 -8.7606669119818795e-06 0 0.0040964773078910367 1.3679779005059706e-05 0 0.0039831054728192723 -8.4517177681304515e-06 0 0.0039032517421620093 -1.1003014543397278e-05 0 0.0039831054728192723 -8.4517177681304515e-06 0 0.0041581968558702795 -3.1373158607210921e-05 0 0.0040439339846774164 -2.0109593684386422e-05 0 0.0040964773078910367 1.3679779005059706e-05 0 0.0039831054728192723 -8.4517177681304515e-06 0 0.0041581968558702795 -3.1373158607210921e-05 0 0.0039831054728192723 -8.4517177681304515e-06 0 0.003867487844063139 -1.1253907509855267e-05 0 0.0038034553870157223 -1.2904881248156737e-05 0 0.0039831054728192723 -8.4517177681304515e-06 0 0.0040439339846774164 -2.0109593684386422e-05 0 0.003867487844063139 -1.1253907509855267e-05 0 0.003867487844063139 -1.1253907509855267e-05 0 0.0038814249370470082 -2.9945438224278272e-08 0 0.0036145570505394234 -3.1190627346389486e-08 0 0.0040439339846774164 -2.0109593684386422e-05 0 0.003867487844063139 -1.1253907509855267e-05 0 0.0038814249370470082 -2.9945438224278272e-08 0 0.0040439339846774164 -2.0109593684386422e-05 0 0.0038814249370470082 -2.9945438224278272e-08 0 0.0041482562102377728 -2.7861777934940257e-08 0 0.0040439339846774164 -2.0109593684386422e-05 0 0.0041482562102377728 -2.7861777934940257e-08 0 0.0042298350371715015 -3.4352900447707566e-05 0 0.0041581968558702795 -3.1373158607210921e-05 0 0.0040439339846774164 -2.0109593684386422e-05 0 0.0042298350371715015 -3.4352900447707566e-05 0 0.0043856634850427852 -3.8634405033549502e-05 0 0.0043191436245834641 -5.6318518914012893e-05 0 0.0042298350371715015 -3.4352900447707566e-05 0 0.0044151540977310482 -1.4004704882851421e-07 0 0.0043856634850427852 -3.8634405033549502e-05 0 0.0042298350371715015 -3.4352900447707566e-05 0 0.0044151540977310482 -1.4004704882851421e-07 0 0.0041482562102377728 -2.7861777934940257e-08 0 0.0042298350371715015 -3.4352900447707566e-05 0 0.0033920530515069718 1.7978142788964036e-05 0 0.0033477303680644957 -1.1261388062567355e-08 0 0.0030808287650935912 7.5414070334693433e-10 0 0.0033920530515069718 1.7978142788964036e-05 0 0.0035886397724284101 -8.3032726663351315e-06 0 0.0036577366096447344 3.3913992032032481e-05 0 0.0033920530515069718 1.7978142788964036e-05 0 0.0035886397724284101 -8.3032726663351315e-06 0 0.0033477303680644957 -1.1261388062567355e-08 0 0.0035886397724284101 -8.3032726663351315e-06 0 0.0033477303680644957 -1.1261388062567355e-08 0 0.0036145570505394234 -3.1190627346389486e-08 0 0.003867487844063139 -1.1253907509855267e-05 0 0.0036145570505394234 -3.1190627346389486e-08 0 0.0038034553870157223 -1.2904881248156737e-05 0 0.0035886397724284101 -8.3032726663351315e-06 0 0.0036145570505394234 -3.1190627346389486e-08 0 0.0038034553870157223 -1.2904881248156737e-05 0 0.0035886397724284101 -8.3032726663351315e-06 0 0.0038034553870157223 -1.2904881248156737e-05 0 0.0037631998109889995 -1.0161711661920048e-05 0 0.0037631998109889995 -1.0161711661920048e-05 0 0.0039032517421620093 -1.1003014543397278e-05 0 0.0038227100515854521 -5.1611680527545151e-07 0 0.0038034553870157223 -1.2904881248156737e-05 0 0.0037631998109889995 -1.0161711661920048e-05 0 0.0039032517421620093 -1.1003014543397278e-05 0 0.0039831054728192723 -8.4517177681304515e-06 0 0.0038034553870157223 -1.2904881248156737e-05 0 0.0039032517421620093 -1.1003014543397278e-05 0 0.0039032517421620093 -1.1003014543397278e-05 0 0.0038227100515854521 -5.1611680527545151e-07 0 0.0039150133383145415 -8.5261458414360171e-06 0 0.0040964773078910367 1.3679779005059706e-05 0 0.0039032517421620093 -1.1003014543397278e-05 0 0.0039150133383145415 -8.5261458414360171e-06 0 0.0036048147188455083 -3.873336252500065e-05 0 0.0040004063500010505 -8.7606669119818795e-06 0 0.0034467418446728821 -5.7263234601918706e-05 0 0.0034481945632648813 7.1971297951330714e-05 0 0.0035469609909030801 4.2250224544607153e-06 0 0.0034467418446728821 -5.7263234601918706e-05 0 0.0034481945632648813 7.1971297951330714e-05 0 0.0033373674987400115 0.00014137137532225548 0 0.0036048147188455083 -3.873336252500065e-05 0 0.0035498584704647539 6.6955698882376015e-05 0 0.0034481945632648813 7.1971297951330714e-05 0 0.0034908999784633117 0.00012182985541696308 0 0.0035469609909030801 4.2250224544607153e-06 0 0.0034481945632648813 7.1971297951330714e-05 0 0.0034908999784633117 0.00012182985541696308 0 0.0034167423435226799 0.00015122759769995971 0 0.0037631998109889995 -1.0161711661920048e-05 0 0.0038227100515854521 -5.1611680527545151e-07 0 0.0036577366096447344 3.3913992032032481e-05 0 0.0035886397724284101 -8.3032726663351315e-06 0 0.0037631998109889995 -1.0161711661920048e-05 0 0.0036577366096447344 3.3913992032032481e-05 0 0.0035498584704647539 6.6955698882376015e-05 0 0.0029088054897884155 0.00018961190967965049 0 0.0033373674987400115 0.00014137137532225548 0 0.0033610649307783485 0.00026384712740573445 0 0.0032248428912851359 0.00035200904269080415 0 0.0033920530515069718 1.7978142788964036e-05 0 0.0036577366096447344 3.3913992032032481e-05 0 0.0034747964759774142 0.00010402563593278895 0 0.0033610649307783485 0.00026384712740573445 0 0.0034921650780903838 0.00017556198524075814 0 0.0034167423435226799 0.00015122759769995971 0 0.002842782652135657 0.00020422394621097737 0 0.0030653181343772693 3.5459648329129051e-05 0 0.0030653181343772693 3.5459648329129051e-05 0 0.00317134457217077 0.00011020840904894066 0 0.0034921650780903838 0.00017556198524075814 0 0.0034908999784633117 0.00012182985541696308 0 0.0034167423435226799 0.00015122759769995971 0 0.0033373674987400115 0.00014137137532225548 0 0.0033610649307783485 0.00026384712740573445 0 0.0034167423435226799 0.00015122759769995971 0 0.0034481945632648813 7.1971297951330714e-05 0 0.0033373674987400115 0.00014137137532225548 0 0.0034167423435226799 0.00015122759769995971 0 0.003214142710786736 -0.00010702782297401037 0 0.0034125812049358587 -8.9117236874312978e-05 0 0.0034613443598506318 -0.00027032022692486464 0 0.003214142710786736 -0.00010702782297401037 0 0.0034125812049358587 -8.9117236874312978e-05 0 0.0033992703713345311 7.5160916369327213e-05 0 0.0034125812049358587 -8.9117236874312978e-05 0 0.0035753183084258552 -5.4175418616060282e-05 0 0.0033992703713345311 7.5160916369327213e-05 0 0.0034125812049358587 -8.9117236874312978e-05 0 0.0035753183084258552 -5.4175418616060282e-05 0 0.0034613443598506318 -0.00027032022692486464 0 0.0036564600871150771 -0.00018508482426460535 0 0.0039007134051968037 -4.7924546270151425e-05 0 0.0039816325150771352 -0.00012218331331855612 0 0.0039785653648978393 -0.00013024114830614144 0 0.0039806872230447928 -0.00013153136168677867 0 0.0044552427257096711 4.2074681973889426e-05 0 0.0044575370872882878 3.2276525869652715e-05 0 0.0044369094334141624 4.0722769062272757e-06 0 0.0044674231346576148 3.6117036083381617e-05 0 0.0044575370872882878 3.2276525869652715e-05 0 0.0044607505047075842 8.6188200436412475e-06 0 0.0044552427257096711 4.2074681973889426e-05 0 0.0044640640775965683 3.497846703276026e-05 0 0.0044575370872882878 3.2276525869652715e-05 0 0.0039007134051968037 -4.7924546270151425e-05 0 0.0042227496183245812 -7.9889940082053605e-05 0 0.0042227496183245812 -7.9889940082053605e-05 0 0.0043194296411440533 -3.981055818302942e-05 0 0.0036994149287952575 3.6410664549475343e-05 0 0.0035469609909030801 4.2250224544607153e-06 0 0.0036220182619974778 -0.00010738998893082107 0 0.0030653181343772693 3.5459648329129051e-05 0 0.0039007134051968037 -4.7924546270151425e-05 0 0.0034920967110297772 0.00017397753378970652 0 0.0034908999784633117 0.00012182985541696308 0 0.0036994149287952575 3.6410664549475343e-05 0 0.0034908999784633117 0.00012182985541696308 0 0.0036994149287952575 3.6410664549475343e-05 0 0.0035469609909030801 4.2250224544607153e-06 0 0.0034467418446728821 -5.7263234601918706e-05 0 0.0036220182619974778 -0.00010738998893082107 0 0.0035491479865788181 -0.00024790859821395008 0 0.0034467418446728821 -5.7263234601918706e-05 0 0.0035469609909030801 4.2250224544607153e-06 0 0.0036220182619974778 -0.00010738998893082107 0 0.0039007134051968037 -4.7924546270151425e-05 0 0.0040319472039544724 -4.6354353800714539e-05 0 0.0040319472039544724 -4.6354353800714539e-05 0 0.0040004063500010505 -8.7606669119818795e-06 0 0.0044411087244099548 -7.9548826143323447e-05 0 0.0044161994217479439 -3.4477884437696646e-05 0 0.0044526214565797743 -4.9454697032953754e-05 0 0.0044369094334141624 4.0722769062272757e-06 0 0.0044161994217479439 -3.4477884437696646e-05 0 0.0044552234296309423 -2.1514514359272962e-05 0 0.0044161994217479439 -3.4477884437696646e-05 0 0.0044526214565797743 -4.9454697032953754e-05 0 0.0044552234296309423 -2.1514514359272962e-05 0 0.0044712088519964473 -6.8515165726583136e-05 0 0.0044790578635783328 -4.4528299039761003e-05 0 0.0044526214565797743 -4.9454697032953754e-05 0 0.0044790578635783328 -4.4528299039761003e-05 0 0.0044526214565797743 -4.9454697032953754e-05 0 0.0044552234296309423 -2.1514514359272962e-05 0 0.0044790578635783328 -4.4528299039761003e-05 0 0.0044552234296309423 -2.1514514359272962e-05 0 0.0044837027405278717 -9.363365000121014e-06 0 0.0044790578635783328 -4.4528299039761003e-05 0 0.0044837027405278717 -9.363365000121014e-06 0 0.0045111260272136895 -4.2240140248338369e-05 0 0.0044674231346576148 3.6117036083381617e-05 0 0.0044837027405278717 -9.363365000121014e-06 0 0.0044607505047075842 8.6188200436412475e-06 0 0.0044369094334141624 4.0722769062272757e-06 0 0.0044552234296309423 -2.1514514359272962e-05 0 0.0044607505047075842 8.6188200436412475e-06 0 0.0044552234296309423 -2.1514514359272962e-05 0 0.0044837027405278717 -9.363365000121014e-06 0 0.0044607505047075842 8.6188200436412475e-06 0 0.0044575370872882878 3.2276525869652715e-05 0 0.0044369094334141624 4.0722769062272757e-06 0 0.0044607505047075842 8.6188200436412475e-06 0 0.0044674231346576148 3.6117036083381617e-05 0 0.0044837027405278717 -9.363365000121014e-06 0 0.0045362141380551639 -7.3063909650925851e-06 0 0.0042227496183245812 -7.9889940082053605e-05 0 0.0044706543558980828 -7.9017011508793504e-05 0 0.0042613584784352574 -0.00010131959377331995 0 0.0043400116385385627 -0.0001522907228695105 0 0.0043382830238265432 -0.00011198223124360231 0 0.0044837027405278717 -9.363365000121014e-06 0 0.0045111260272136895 -4.2240140248338369e-05 0 0.0045362141380551639 -7.3063909650925851e-06 0 0.0045457280461799997 -7.4315441411747224e-05 0 0.0045111260272136895 -4.2240140248338369e-05 0 0.0045362141380551639 -7.3063909650925851e-06 0 0.004503744958283375 -7.0410802676357589e-05 0 0.0044790578635783328 -4.4528299039761003e-05 0 0.0045111260272136895 -4.2240140248338369e-05 0 0.0045457280461799997 -7.4315441411747224e-05 0 0.0045362141380551639 -7.3063909650925851e-06 0 0.0045970931945399883 -4.8885532367649507e-05 0 0.0043798059520959078 -0.00014745478844135763 0 0.0043400116385385627 -0.0001522907228695105 0 0.0044132222102948159 -0.00019842205462700102 0 0.0044706543558980828 -7.9017011508793504e-05 0 0.0044706343417131086 -0.00011936524228739683 0 0.0043798059520959078 -0.00014745478844135763 0 0.0043400116385385627 -0.0001522907228695105 0 0.0043574531723642824 -0.00013105909241076192 0 0.0043574531723642824 -0.00013105909241076192 0 0.0043712780103383059 -0.00011219315445551285 0 0.0043382830238265432 -0.00011198223124360231 0 0.0043400116385385627 -0.0001522907228695105 0 0.0043574531723642824 -0.00013105909241076192 0 0.0043382830238265432 -0.00011198223124360231 0 0.0043798059520959078 -0.00014745478844135763 0 0.0043574531723642824 -0.00013105909241076192 0 0.0043712780103383059 -0.00011219315445551285 0 0.0043712780103383059 -0.00011219315445551285 0 0.0043707461583913374 -0.00010223724308908695 0 0.0044047507262373687 -0.00012869729140207439 0 0.0043712780103383059 -0.00011219315445551285 0 0.0043706217918694839 -0.00010217232401478348 0 0.0043382830238265432 -0.00011198223124360231 0 0.0043313442930385231 -0.00012629094824708931 0 0.0043273880610550193 -0.00013383593432821883 0 0.0043273880610550193 -0.00013383593432821883 0 0.0042261128838930349 -0.00015657890486720131 0 0.0041214480142669667 -0.00016007620040674284 0 0.0042261128838930349 -0.00015657890486720131 0 0.0043273880610550193 -0.00013383593432821883 0 0.0041214480142669667 -0.00016007620040674284 0 0.0042441504177780798 -0.00017609576192040096 0 0.0041987924379199675 -0.00014281382963546318 0 0.0042412318923482307 -0.00012649399951994937 0 0.0043706217918694839 -0.00010217232401478348 0 0.0043382830238265432 -0.00011198223124360231 0 0.0043327832154114697 -7.40714575009494e-05 0 0.0039816325150771352 -0.00012218331331855612 0 0.0039806872230447928 -0.00013153136168677867 0 0.0039914812777502593 -0.00012820093617229599 0 0.0042613584784352574 -0.00010131959377331995 0 0.0043382830238265432 -0.00011198223124360231 0 0.0043327832154114697 -7.40714575009494e-05 0 0.0042227496183245812 -7.9889940082053605e-05 0 0.0041214480142669667 -0.00016007620040674284 0 0.0038746608865815628 -0.00020096761267701283 0 0.0039319372487278898 -0.00024095759590773256 0 0.0039457375959160825 -0.00019029205212467009 0 0.0036564600871150771 -0.00018508482426460535 0 0.0041214480142669667 -0.00016007620040674284 0 0.0042261128838930349 -0.00015657890486720131 0 0.0041097195723927031 -0.00013233493731162554 0 0.0039457375959160825 -0.00019029205212467009 0 0.0039682735189745175 -0.00022616458243110971 0 0.0039626061927353741 -0.00015941047911219343 0 0.0039319372487278898 -0.00024095759590773256 0 0.0039457375959160825 -0.00019029205212467009 0 0.0039682735189745175 -0.00022616458243110971 0 0.0039457375959160825 -0.00019029205212467009 0 0.0039626061927353741 -0.00015941047911219343 0 0.0039175937421490822 -0.00013573287319706371 0 0.0042627107620195745 -0.00015505444157293833 0 0.0042607855779361716 -0.00010826231307467068 0 0.0042947335227560982 -0.00010869998304806797 0 0.0039626061927353741 -0.00015941047911219343 0 0.0039175937421490822 -0.00013573287319706371 0 0.0039435300607055428 -0.00012905833114904212 0 0.0033674861204258636 -0.00032143155302687365 0 0.0034471184363964245 -0.00017452562117895807 0 0.0033357418324688301 -0.00019720518158830027 0 0.0039686121582254439 -0.00018687281948610228 0 0.0037436876717396226 -0.00018400202898814937 0 0.0038746608865815628 -0.00020096761267701283 0 0.0039457375959160825 -0.00019029205212467009 0 0.0039122415912802447 -0.00012887939185218144 0 0.0036564600871150771 -0.00018508482426460535 0 0.0037436876717396226 -0.00018400202898814937 0 0.0039175937421490822 -0.00013573287319706371 0 0.0039301689708583047 -0.00011290229840280134 0 0.0039435300607055428 -0.00012905833114904212 0 0.0037267308934220283 -0.00020115770641928072 0 0.0037252911892673422 -0.00019852838822610614 0 0.0037295022101090777 -0.00019638675921770384 0 0.0034471184363964245 -0.00017452562117895807 0 0.0034317538449081158 -0.00014420639119342262 0 0.0033357418324688301 -0.00019720518158830027 0 0.0037436876717396226 -0.00018400202898814937 0 0.0037743306413819287 -0.00018456159948331013 0 0.0037436876717396226 -0.00018400202898814937 0 0.0035745004238464276 -0.00018639145023111386 0 0.0035745004238464276 -0.00018639145023111386 0 0.0037743306413819287 -0.00018456159948331013 0 0.0035745004238464276 -0.00018639145023111386 0 0.0033196583062828 -0.00021283073524822396 0 0.0035745004238464276 -0.00018639145023111386 0 0.0034631256357348776 -0.00012488654658185242 0 0.0034173678216826439 -0.0001513283585762826 0 0.0033697350278159639 -6.0450566557760429e-05 0 0.0033431755247119101 -0.00013159745290007563 0 0.0036110486913853144 -0.00029185854090104269 0 0.0036293293972009008 -0.00028211433424987759 0 0.0036259270200884063 -0.00025025055984970233 0 0.0037743306413819287 -0.00018456159948331013 0 0.00402569558346244 -0.00012285717824436995 0 0.0041097195723927031 -0.00013233493731162554 0 0.00402569558346244 -0.00012285717824436995 0 0.0039626061927353741 -0.00015941047911219343 0 0.0039435300607055428 -0.00012905833114904212 0 0.0039586105660698624 -9.7382020899556673e-05 0 0.0039301689708583047 -0.00011290229840280134 0 0.0039435300607055428 -0.00012905833114904212 0 0.0039586105660698624 -9.7382020899556673e-05 0 0.0042607855779361716 -0.00010826231307467068 0 0.0042593339518490715 -6.378639324208858e-05 0 0.0042898005417821494 -8.4522287085826277e-05 0 0.0040057826559436582 -0.0002419670588353095 0 0.0040001896247688533 -0.00014117029198527995 0 0.004126638890811286 -0.00017518567601331966 0 0.0038892626792062777 -0.00018176629696677179 0 0.0038522135848618306 -0.00020299695104481375 0 0.0038550282576333109 -0.000252101395436698 0 0.0037743306413819287 -0.00018456159948331013 0 0.0038505821567193523 -0.00033137214138464512 0 0.0038505821567193523 -0.00033137214138464512 0 0.0042506786605125829 -0.00010345556119735126 0 0.0036293293972009008 -0.00028211433424987759 0 0.0036558172501958185 -0.00023321399195701148 0 0.0036259270200884063 -0.00025025055984970233 0 0.00402569558346244 -0.00012285717824436995 0 0.0038505821567193523 -0.00033137214138464512 0 0.0038505821567193523 -0.00033137214138464512 0 0.0038250628412520855 -0.00059892865156982596 0 0.0037450917264800067 -0.00064940213443781362 0 0.0036760712261189586 -0.00050836796344219096 0 0.0038975100336603313 -0.00046558603917053973 0 0.003748660107315659 -0.00072761092582657237 0 0.0037450917264800067 -0.00064940213443781362 0 0.0038975100336603313 -0.00046558603917053973 0 0.0038505821567193523 -0.00033137214138464512 0 0.0040628798687598307 -0.00025317858892077522 0 0.0037494919840624446 -0.00072933784016672226 0 0.0037450917264800067 -0.00064940213443781362 0 0.0035494455200032501 -0.00067770568354944547 0 0.0037450917264800067 -0.00064940213443781362 0 0.0036760712261189586 -0.00050836796344219096 0 0.0035494455200032501 -0.00067770568354944547 0 0.0034891507882754461 -0.00050916912293127298 0 0.0035494455200032501 -0.00067770568354944547 0 0.0033467061010591884 -0.00062433439496181742 0 0.0036760712261189586 -0.00050836796344219096 0 0.0034891507882754461 -0.00050916912293127298 0 0.0035494455200032501 -0.00067770568354944547 0 0.0038505821567193523 -0.00033137214138464512 0 0.0035746842416886741 -0.0004427601991507586 0 0.0036108298528166388 -0.00022103694685124642 0 0.0036259270200884063 -0.00025025055984970233 0 0.0035886796656652712 -0.00025080398581923692 0 0.0036558172501958185 -0.00023321399195701148 0 0.0036108298528166388 -0.00022103694685124642 0 0.0036259270200884063 -0.00025025055984970233 0 0.0036110486913853144 -0.00029185854090104269 0 0.0036259270200884063 -0.00025025055984970233 0 0.0035886796656652712 -0.00025080398581923692 0 0.0033697350278159639 -6.0450566557760429e-05 0 0.0032594458577159826 -2.647246863789994e-05 0 0.0032666729134712409 -0.00010323642709645377 0 0.0033697350278159639 -6.0450566557760429e-05 0 0.0033208940814103767 3.0473393002111209e-05 0 0.0032594458577159826 -2.647246863789994e-05 0 0.0036108298528166388 -0.00022103694685124642 0 0.0035886796656652712 -0.00025080398581923692 0 0.0035654726238229582 -0.0002095367392977115 0 0.0034631256357348776 -0.00012488654658185242 0 0.0034136316296534417 -0.00034428913644853309 0 0.0034136316296534417 -0.00034428913644853309 0 0.0032684933190857512 -0.00049604003042999056 0 0.0033467061010591884 -0.00062433439496181742 0 0.0032341040355817361 -0.0004075789297567208 0 0.0033689096226382264 -0.00047846932987482741 0 0.0035746842416886741 -0.0004427601991507586 0 0.0034136316296534417 -0.00034428913644853309 0 0.0034891507882754461 -0.00050916912293127298 0 0.0033467061010591884 -0.00062433439496181742 0 0.0033689096226382264 -0.00047846932987482741 0 0.0033318729592914749 -0.00059769348159148896 0 0.0030686109683613085 -0.00052783379850655809 0 0.0032341040355817361 -0.0004075789297567208 0 0.0034136316296534417 -0.00034428913644853309 0 0.0028377942333220208 -0.00010096025031012917 0 0.0033208940814103767 3.0473393002111209e-05 0 0.0031821810244629777 6.7654353707698981e-05 0 0.0032594458577159826 -2.647246863789994e-05 0 0.0028377942333220208 -0.00010096025031012917 0 0.0027659137638753033 5.7935411395843036e-06 0 0.0028377942333220208 -0.00010096025031012917 0 0.0025567044520339137 -0.00014926719478574354 0 0.0031821810244629777 6.7654353707698981e-05 0 0.0032594458577159826 -2.647246863789994e-05 0 0.0031790713617520314 -5.3912681494335066e-05 0 0.0032594458577159826 -2.647246863789994e-05 0 0.0032666729134712409 -0.00010323642709645377 0 0.0031790713617520314 -5.3912681494335066e-05 0 0.0032666729134712409 -0.00010323642709645377 0 0.0031738964010972867 -0.00017607761805241742 0 0.0031790713617520314 -5.3912681494335066e-05 0 0.0032696888437645307 -0.00017450981675749624 0 0.0032666729134712409 -0.00010323642709645377 0 0.0031738964010972867 -0.00017607761805241742 0 0.0033697350278159639 -6.0450566557760429e-05 0 0.0032666729134712409 -0.00010323642709645377 0 0.0033431755247119101 -0.00013159745290007563 0 0.0032696888437645307 -0.00017450981675749624 0 0.0032666729134712409 -0.00010323642709645377 0 0.0033431755247119101 -0.00013159745290007563 0 0.0034173678216826439 -0.0001513283585762826 0 0.0033431755247119101 -0.00013159745290007563 0 0.0033357418324688301 -0.00019720518158830027 0 0.0032696888437645307 -0.00017450981675749624 0 0.0033431755247119101 -0.00013159745290007563 0 0.0033357418324688301 -0.00019720518158830027 0 0.0033674861204258636 -0.00032143155302687365 0 0.0033357418324688301 -0.00019720518158830027 0 0.0032679460231481486 -0.00024689140564112052 0 0.0032696888437645307 -0.00017450981675749624 0 0.0033357418324688301 -0.00019720518158830027 0 0.0032679460231481486 -0.00024689140564112052 0 0.0036564600871150771 -0.00018508482426460535 0 0.0033646948005893133 -0.0001051058313745706 0 0.003214142710786736 -0.00010702782297401037 0 0.0033992703713345311 7.5160916369327213e-05 0 0.0032219440923087215 0.00020416428302937067 0 0.0033646948005893133 -0.0001051058313745706 0 0.0027756668904262401 3.2569429613331657e-05 0 0.0032696888437645307 -0.00017450981675749624 0 0.0032679460231481486 -0.00024689140564112052 0 0.0031738964010972867 -0.00017607761805241742 0 0.0023884715969603194 0.00010004223613752712 0 0.0023855806566946587 9.1585445131527082e-05 0 0.0023740394824891412 8.6428763224523125e-05 0 0.0023884715969603194 0.00010004223613752712 0 0.0023850659352449648 0.00010421846791846924 0 0.0023740394824891412 8.6428763224523125e-05 0 0.0030653181343772693 3.5459648329129051e-05 0 0.0027756668904262401 3.2569429613331657e-05 0 0.002842782652135657 0.00020422394621097737 0 0.0029088054897884155 0.00018961190967965049 0 0.0023884715969603194 0.00010004223613752712 0 0.0023978766842470277 9.7802286361077723e-05 0 0.0023855806566946587 9.1585445131527082e-05 0 0.0023978766842470277 9.7802286361077723e-05 0 0.0023855806566946587 9.1585445131527082e-05 0 0.0023938175363068109 8.3658497041172642e-05 0 0.0023978766842470277 9.7802286361077723e-05 0 0.0023938175363068109 8.3658497041172642e-05 0 0.0024217827036042967 8.4838802351044657e-05 0 0.0023855806566946587 9.1585445131527082e-05 0 0.0023938175363068109 8.3658497041172642e-05 0 0.002376222984800805 5.5975744931750852e-05 0 0.0023938175363068109 8.3658497041172642e-05 0 0.002376222984800805 5.5975744931750852e-05 0 0.0023995230011357406 5.2598811694573419e-05 0 0.0023938175363068109 8.3658497041172642e-05 0 0.0023995230011357406 5.2598811694573419e-05 0 0.0024217827036042967 8.4838802351044657e-05 0 0.0027756668904262401 3.2569429613331657e-05 0 0.0022368961780947247 0.00010954347754921819 0 0.0023855806566946587 9.1585445131527082e-05 0 0.0023740394824891412 8.6428763224523125e-05 0 0.002376222984800805 5.5975744931750852e-05 0 0.0023609996047757875 6.061340045760473e-05 0 0.0023652743206862238 4.4805461957063452e-05 0 0.002376222984800805 5.5975744931750852e-05 0 0.0023609996047757875 6.061340045760473e-05 0 0.00235966601687123 4.2677649482756223e-05 0 0.0023652743206862238 4.4805461957063452e-05 0 0.0027756668904262401 3.2569429613331657e-05 0 0.0027659137638753033 5.7935411395843036e-06 0 0.0023652743206862238 4.4805461957063452e-05 0 0.0023638324802089275 3.6388878997274027e-05 0 0.0023656951539393701 3.2393997580210407e-05 0 0.00235966601687123 4.2677649482756223e-05 0 0.0023652743206862238 4.4805461957063452e-05 0 0.0023638324802089275 3.6388878997274027e-05 0 0.0023633875889404561 3.247752098028917e-05 0 0.00235966601687123 4.2677649482756223e-05 0 0.0023638324802089275 3.6388878997274027e-05 0 0.002239282619089419 -3.7713992602082955e-05 0 0.0023149541195371555 -2.2141907494597698e-05 0 0.0023656951539393701 3.2393997580210407e-05 0 0.0023638324802089275 3.6388878997274027e-05 0 0.0023640002127763952 3.3334129600761285e-05 0 0.0023656951539393701 3.2393997580210407e-05 0 0.0024104830798628925 -5.9155106654305794e-05 0 0.0023282402951761154 3.8601622990734038e-05 0 0.0022900649934140542 -5.1507827170596863e-05 0 0.002239282619089419 -3.7713992602082955e-05 0 0.0023149541195371555 -2.2141907494597698e-05 0 0.0022696768920104173 -3.64543449369078e-05 0 0.0024104830798628925 -5.9155106654305794e-05 0 0.0023633875889404561 3.247752098028917e-05 0 0.0023638324802089275 3.6388878997274027e-05 0 0.0023640002127763952 3.3334129600761285e-05 0 0.0028377942333220208 -0.00010096025031012917 0 0.0024104830798628925 -5.9155106654305794e-05 0 0.0024104830798628925 -5.9155106654305794e-05 0 0.0025567044520339137 -0.00014926719478574354 0 0.0026018161685617742 -2.9304964587022123e-05 0 0.0026498749404310095 -4.2613655804559976e-05 0 0.0025993734691830161 -8.9776140205529155e-05 0 0.0022900649934140542 -5.1507827170596863e-05 0 0.0023561822087256566 -2.9368217366411512e-05 0 0.0023149541195371555 -2.2141907494597698e-05 0 0.0023561822087256566 -2.9368217366411512e-05 0 0.0023149541195371555 -2.2141907494597698e-05 0 0.0023656951539393701 3.2393997580210407e-05 0 0.0023561822087256566 -2.9368217366411512e-05 0 0.0023656951539393701 3.2393997580210407e-05 0 0.0024113197233296608 1.6610823100567106e-06 0 0.0023656951539393701 3.2393997580210407e-05 0 0.0023995230011357406 5.2598811694573419e-05 0 0.0024113197233296608 1.6610823100567106e-06 0 0.0023652743206862238 4.4805461957063452e-05 0 0.0023656951539393701 3.2393997580210407e-05 0 0.002376222984800805 5.5975744931750852e-05 0 0.0023656951539393701 3.2393997580210407e-05 0 0.002376222984800805 5.5975744931750852e-05 0 0.0023995230011357406 5.2598811694573419e-05 0 0.0025146997264697637 -6.667152274365442e-06 0 0.0024189271170147013 0.00013491605490321496 0 0.0025098921093171371 2.0417108464357396e-06 0 0.0025676659135590949 7.1009368331976665e-05 0 0.0024832512109487959 0.00013362438099748887 0 0.0023995230011357406 5.2598811694573419e-05 0 0.0025098921093171371 2.0417108464357396e-06 0 0.0024217827036042967 8.4838802351044657e-05 0 0.0023995230011357406 5.2598811694573419e-05 0 0.0025098921093171371 2.0417108464357396e-06 0 0.0024113197233296608 1.6610823100567106e-06 0 0.0023561822087256566 -2.9368217366411512e-05 0 0.0024113197233296608 1.6610823100567106e-06 0 0.0024245625333331588 -2.2575268842100386e-05 0 0.0025098921093171371 2.0417108464357396e-06 0 0.0024113197233296608 1.6610823100567106e-06 0 0.0024245625333331588 -2.2575268842100386e-05 0 0.0023561822087256566 -2.9368217366411512e-05 0 0.0024245625333331588 -2.2575268842100386e-05 0 0.0023346342101318402 -4.9745717117811224e-05 0 0.0025098921093171371 2.0417108464357396e-06 0 0.0024245625333331588 -2.2575268842100386e-05 0 0.002569793414912589 -1.587551002237169e-07 0 0.0024245625333331588 -2.2575268842100386e-05 0 0.002569793414912589 -1.587551002237169e-07 0 0.002403575825104109 -2.7317501508821995e-05 0 0.0025098921093171371 2.0417108464357396e-06 0 0.002569793414912589 -1.587551002237169e-07 0 0.0028133494667106373 3.7352341679979908e-07 0 0.0025098921093171371 2.0417108464357396e-06 0 0.0028133494667106373 3.7352341679979908e-07 0 0.0025676659135590949 7.1009368331976665e-05 0 0.0028133494667106373 3.7352341679979908e-07 0 0.0025676659135590949 7.1009368331976665e-05 0 0.0025561132760641612 0.00019887997797368804 0 0.0028139226722799517 4.6502851815566995e-08 0 0.0028984153484936026 0.00012750137857403562 0 0.0028142379506080231 3.3671103217945789e-07 0 0.003210182257056382 0.00010039904498072338 0 0.0030808287650935912 7.5414070334693433e-10 0 0.0029088054897884155 0.00018961190967965049 0 0.0024189271170147013 0.00013491605490321496 0 0.0024144907908078151 0.00028769945989148317 0 0.0024832512109487959 0.00013362438099748887 0 0.0025561132760641612 0.00019887997797368804 0 0.0025676659135590949 7.1009368331976665e-05 0 0.0024832512109487959 0.00013362438099748887 0 0.0025561132760641612 0.00019887997797368804 0 0.0029088054897884155 0.00018961190967965049 0 0.0028984153484936026 0.00012750137857403562 0 0.0033920530515069718 1.7978142788964036e-05 0 0.0034747964759774142 0.00010402563593278895 0 0.003210182257056382 0.00010039904498072338 0 0.0033920530515069718 1.7978142788964036e-05 0 0.003210182257056382 0.00010039904498072338 0 0.0030808287650935912 7.5414070334693433e-10 0 0.0045223472432233602 -9.7655605846469278e-05 0 0.004501911194587668 -9.0528041551795531e-05 0 0.0045338267479200917 -9.7191283003498238e-05 0 0.0045223472432233602 -9.7655605846469278e-05 0 0.0044925207074860566 -9.388983576946978e-05 0 0.004501911194587668 -9.0528041551795531e-05 0 0.0045223472432233602 -9.7655605846469278e-05 0 0.0045037518096061376 -9.8604218818936461e-05 0 0.0044925207074860566 -9.388983576946978e-05 0 0.0045037518096061376 -9.8604218818936461e-05 0 0.0044801511160178845 -9.6427516781233437e-05 0 0.0044925207074860566 -9.388983576946978e-05 0 0.0044925207074860566 -9.388983576946978e-05 0 0.0044635262669436319 -9.135192009689524e-05 0 0.0044796386643251966 -8.7554462108822977e-05 0 0.0044801511160178845 -9.6427516781233437e-05 0 0.0044925207074860566 -9.388983576946978e-05 0 0.0044635262669436319 -9.135192009689524e-05 0 0.0044635262669436319 -9.135192009689524e-05 0 0.0044571956439820497 -8.5107854542639853e-05 0 0.0044466078518184699 -8.6954458272779907e-05 0 0.0044635262669436319 -9.135192009689524e-05 0 0.0044796386643251966 -8.7554462108822977e-05 0 0.0044571956439820497 -8.5107854542639853e-05 0 0.0044796386643251966 -8.7554462108822977e-05 0 0.004501911194587668 -9.0528041551795531e-05 0 0.0044735772735553549 -7.8356688690415304e-05 0 0.0044925207074860566 -9.388983576946978e-05 0 0.0044796386643251966 -8.7554462108822977e-05 0 0.004501911194587668 -9.0528041551795531e-05 0 0.004501911194587668 -9.0528041551795531e-05 0 0.0045045479904078402 -8.6359344367296876e-05 0 0.0045338267479200917 -9.7191283003498238e-05 0 0.004501911194587668 -9.0528041551795531e-05 0 0.0045045479904078402 -8.6359344367296876e-05 0 0.0044735772735553549 -7.8356688690415304e-05 0 0.0045101495448859122 -7.815678021000774e-05 0 0.0045045479904078402 -8.6359344367296876e-05 0 0.0045298429421977617 -9.5064886767143775e-05 0 0.0045045479904078402 -8.6359344367296876e-05 0 0.0045298429421977617 -9.5064886767143775e-05 0 0.0045338267479200917 -9.7191283003498238e-05 0 0.0045454058395928689 -9.7431941038406429e-05 0 0.004593474803231799 -0.00011036121012019661 0 0.0045298429421977617 -9.5064886767143775e-05 0 0.0045338267479200917 -9.7191283003498238e-05 0 0.0045740549808813268 -0.00010561932654482893 0 0.0045223472432233602 -9.7655605846469278e-05 0 0.0045338267479200917 -9.7191283003498238e-05 0 0.0045560996129626989 -0.00010354943022610448 0 0.0045338267479200917 -9.7191283003498238e-05 0 0.0045560996129626989 -0.00010354943022610448 0 0.0045740549808813268 -0.00010561932654482893 0 0.0045560996129626989 -0.00010354943022610448 0 0.0045740549808813268 -0.00010561932654482893 0 0.0045901529494293096 -0.00011143426577512846 0 0.0046438472682841002 -0.00010974469986188708 0 0.0046484745057618782 -0.00012133062349586829 0 0.0046088724180426682 -0.00011204154987416303 0 0.0046372259746142869 -0.00012058564876924378 0 0.004593474803231799 -0.00011036121012019661 0 0.0046484745057618782 -0.00012133062349586829 0 0.0045740549808813268 -0.00010561932654482893 0 0.0045901529494293096 -0.00011143426577512846 0 0.0046214024887513286 -0.00012617288988229746 0 0.0046484745057618782 -0.00012133062349586829 0 0.0045901529494293096 -0.00011143426577512846 0 0.0045901529494293096 -0.00011143426577512846 0 0.0045370679877503612 -0.00010420198857714159 0 0.0045576619952561381 -0.00011744878104251773 0 0.0046214024887513286 -0.00012617288988229746 0 0.0045901529494293096 -0.00011143426577512846 0 0.0045576619952561381 -0.00011744878104251773 0 0.0045223472432233602 -9.7655605846469278e-05 0 0.0045560996129626989 -0.00010354943022610448 0 0.0045370679877503612 -0.00010420198857714159 0 0.0045560996129626989 -0.00010354943022610448 0 0.0045901529494293096 -0.00011143426577512846 0 0.0045370679877503612 -0.00010420198857714159 0 0.0045037518096061376 -9.8604218818936461e-05 0 0.0045370679877503612 -0.00010420198857714159 0 0.0045058358023467669 -0.00010607974299194969 0 0.0045223472432233602 -9.7655605846469278e-05 0 0.0045037518096061376 -9.8604218818936461e-05 0 0.0045370679877503612 -0.00010420198857714159 0 0.0045273996366552525 -0.00013544664082009686 0 0.0045576619952561381 -0.00011744878104251773 0 0.0045058358023467669 -0.00010607974299194969 0 0.0045370679877503612 -0.00010420198857714159 0 0.0045576619952561381 -0.00011744878104251773 0 0.0045058358023467669 -0.00010607974299194969 0 0.0045902162521306014 -0.00016610821476907795 0 0.0045603697902560957 -0.00015035234916292492 0 0.0045828928255273139 -0.00013380794691694983 0 0.0046716939658705738 -0.00015491625404078104 0 0.0045379424677134206 -0.00011482835834490803 0 0.0046716939658705738 -0.00015491625404078104 0 0.0045887166522825523 -0.00016510465926933805 0 0.0044880544763555054 -0.00024734692846336897 0 0.0045101732967871774 -0.00018040962513150125 0 0.0044602577558356072 -0.0001873695973330053 0 0.0044871102631524945 -0.00017091455296319857 0 0.0044666787146180999 -0.00013936809204482327 0 0.0044362450099246229 -0.00014472849399894044 0 0.0045887166522825523 -0.00016510465926933805 0 0.0045335705156481186 -0.00013274460379424118 0 0.0044871102631524945 -0.00017091455296319857 0 0.0044666787146180999 -0.00013936809204482327 0 0.0044980329890815371 -0.00013800716623919447 0 0.0044666787146180999 -0.00013936809204482327 0 0.0044980329890815371 -0.00013800716623919447 0 0.0044640734540327331 -0.00011293482888399886 0 0.0045379424677134206 -0.00011482835834490803 0 0.0045069093975051806 -0.00010482502857321329 0 0.0045681507226560661 -0.00012606563789850278 0 0.0045828928255273139 -0.00013380794691694983 0 0.0045754630094061348 -0.00010209264440491282 0 0.0045037518096061376 -9.8604218818936461e-05 0 0.0045058358023467669 -0.00010607974299194969 0 0.0044806586119015028 -9.703128583694637e-05 0 0.0045603697902560957 -0.00015035234916292492 0 0.0045681507226560661 -0.00012606563789850278 0 0.0045828928255273139 -0.00013380794691694983 0 0.0043798059520959078 -0.00014745478844135763 0 0.0044132222102948159 -0.00019842205462700102 0 0.0044151213854553353 -0.00016107691389227421 0 0.0044132222102948159 -0.00019842205462700102 0 0.0044151213854553353 -0.00016107691389227421 0 0.0044602577558356072 -0.0001873695973330053 0 0.0045887166522825523 -0.00016510465926933805 0 0.0044060068252121387 -0.00014205827908839993 0 0.0045101732967871774 -0.00018040962513150125 0 0.0044602577558356072 -0.0001873695973330053 0 0.0044362450099246229 -0.00014472849399894044 0 0.0044151213854553353 -0.00016107691389227421 0 0.0044602577558356072 -0.0001873695973330053 0 0.0044362450099246229 -0.00014472849399894044 0 0.0044666787146180999 -0.00013936809204482327 0 0.0044380487105198122 -0.0001189501963072064 0 0.0044640734540327331 -0.00011293482888399886 0 0.0044666787146180999 -0.00013936809204482327 0 0.0044362450099246229 -0.00014472849399894044 0 0.0044380487105198122 -0.0001189501963072064 0 0.0044151213854553353 -0.00016107691389227421 0 0.0044362450099246229 -0.00014472849399894044 0 0.0044047507262373687 -0.00012869729140207439 0 0.0044362450099246229 -0.00014472849399894044 0 0.0044047507262373687 -0.00012869729140207439 0 0.0044380487105198122 -0.0001189501963072064 0 0.0043798059520959078 -0.00014745478844135763 0 0.0043712780103383059 -0.00011219315445551285 0 0.0044047507262373687 -0.00012869729140207439 0 0.0043798059520959078 -0.00014745478844135763 0 0.0044151213854553353 -0.00016107691389227421 0 0.0044047507262373687 -0.00012869729140207439 0 0.0043799509798106125 -0.00011100445933767283 0 0.0043779596508321467 -8.1051588304351015e-05 0 0.0044119577691805302 -9.7731458978083028e-05 0 0.0043273880610550193 -0.00013383593432821883 0 0.0043995936534905623 -0.00013472502202131829 0 0.0043799509798106125 -0.00011100445933767283 0 0.0044047507262373687 -0.00012869729140207439 0 0.0044119577691805302 -9.7731458978083028e-05 0 0.0044047507262373687 -0.00012869729140207439 0 0.0044119577691805302 -9.7731458978083028e-05 0 0.0044380487105198122 -0.0001189501963072064 0 0.0044119577691805302 -9.7731458978083028e-05 0 0.004443638600755466 -9.3663668598932716e-05 0 0.0044380487105198122 -0.0001189501963072064 0 0.004443638600755466 -9.3663668598932716e-05 0 0.0044380487105198122 -0.0001189501963072064 0 0.0044640734540327331 -0.00011293482888399886 0 0.0044119577691805302 -9.7731458978083028e-05 0 0.004443638600755466 -9.3663668598932716e-05 0 0.0044374963995148214 -5.8973644043673636e-05 0 0.004443638600755466 -9.3663668598932716e-05 0 0.0044374963995148214 -5.8973644043673636e-05 0 0.0044798845758358607 -9.3796952236658741e-05 0 0.0042627107620195745 -0.00015505444157293833 0 0.0043178354986133953 -0.00013434573279002591 0 0.0042947335227560982 -0.00010869998304806797 0 0.0042261128838930349 -0.00015657890486720131 0 0.0044013388442850849 -8.6226340015724083e-05 0 0.0043779596508321467 -8.1051588304351015e-05 0 0.0044119577691805302 -9.7731458978083028e-05 0 0.0044374963995148214 -5.8973644043673636e-05 0 0.004508937561013923 -0.00010403563612439837 0 0.0044798845758358607 -9.3796952236658741e-05 0 0.0045017897181538619 -7.077209827993659e-05 0 0.0045069093975051806 -0.00010482502857321329 0 0.0044713873295506457 -0.00010434602871377124 0 0.0045069093975051806 -0.00010482502857321329 0 0.0044686867016744619 -7.9434159622244173e-05 0 0.0044801511160178845 -9.6427516781233437e-05 0 0.0044806586119015028 -9.703128583694637e-05 0 0.0044594308627887097 -9.6410766281628652e-05 0 0.0045037518096061376 -9.8604218818936461e-05 0 0.0044801511160178845 -9.6427516781233437e-05 0 0.0044806586119015028 -9.703128583694637e-05 0 0.0045335705156481186 -0.00013274460379424118 0 0.0045069093975051806 -0.00010482502857321329 0 0.0044980329890815371 -0.00013800716623919447 0 0.0044640734540327331 -0.00011293482888399886 0 0.0044798845758358607 -9.3796952236658741e-05 0 0.0044980329890815371 -0.00013800716623919447 0 0.004508937561013923 -0.00010403563612439837 0 0.0044798845758358607 -9.3796952236658741e-05 0 0.004443638600755466 -9.3663668598932716e-05 0 0.0044640734540327331 -0.00011293482888399886 0 0.0044798845758358607 -9.3796952236658741e-05 0 0.0044374963995148214 -5.8973644043673636e-05 0 0.0045017897181538619 -7.077209827993659e-05 0 0.0044945672647868336 -3.7665249869871111e-05 0 0.0044374963995148214 -5.8973644043673636e-05 0 0.0044798845758358607 -9.3796952236658741e-05 0 0.0045017897181538619 -7.077209827993659e-05 0 0.0044407568976449589 -9.22236879272098e-05 0 0.0044451776400399462 -9.0810933840455315e-05 0 0.0044188582978892605 -8.7586194092117539e-05 0 0.0044686867016744619 -7.9434159622244173e-05 0 0.0044221146142542564 -8.8345013992913635e-05 0 0.004450638578328882 -0.00012399515600848663 0 0.0044407568976449589 -9.22236879272098e-05 0 0.0044594308627887097 -9.6410766281628652e-05 0 0.0044407568976449589 -9.22236879272098e-05 0 0.0044594308627887097 -9.6410766281628652e-05 0 0.0044451776400399462 -9.0810933840455315e-05 0 0.0044635262669436319 -9.135192009689524e-05 0 0.0044594308627887097 -9.6410766281628652e-05 0 0.0044451776400399462 -9.0810933840455315e-05 0 0.0044801511160178845 -9.6427516781233437e-05 0 0.0044635262669436319 -9.135192009689524e-05 0 0.0044594308627887097 -9.6410766281628652e-05 0 0.0044635262669436319 -9.135192009689524e-05 0 0.0044396537785463238 -8.88232784079817e-05 0 0.0044466078518184699 -8.6954458272779907e-05 0 0.0044635262669436319 -9.135192009689524e-05 0 0.0044451776400399462 -9.0810933840455315e-05 0 0.0044396537785463238 -8.88232784079817e-05 0 0.0044396537785463238 -8.88232784079817e-05 0 0.0044277539051793269 -8.7994994551554649e-05 0 0.0044466078518184699 -8.6954458272779907e-05 0 0.0044277539051793269 -8.7994994551554649e-05 0 0.0044316267758940289 -8.3258402155494772e-05 0 0.0044466078518184699 -8.6954458272779907e-05 0 0.0044316267758940289 -8.3258402155494772e-05 0 0.0044202736216291411 -8.311535445953111e-05 0 0.0044222542067830538 -7.4475234469697938e-05 0 0.0044277539051793269 -8.7994994551554649e-05 0 0.0044316267758940289 -8.3258402155494772e-05 0 0.0044202736216291411 -8.311535445953111e-05 0 0.0044277539051793269 -8.7994994551554649e-05 0 0.0044202736216291411 -8.311535445953111e-05 0 0.004415545795375799 -9.0236006673971049e-05 0 0.004415545795375799 -9.0236006673971049e-05 0 0.004375863120931741 -8.2816083093188744e-05 0 0.0044042413115519818 -7.7125919896643021e-05 0 0.0044202736216291411 -8.311535445953111e-05 0 0.004415545795375799 -9.0236006673971049e-05 0 0.0044042413115519818 -7.7125919896643021e-05 0 0.004415545795375799 -9.0236006673971049e-05 0 0.0043999405194784288 -9.7370803160384145e-05 0 0.004375863120931741 -8.2816083093188744e-05 0 0.0044396537785463238 -8.88232784079817e-05 0 0.0044277539051793269 -8.7994994551554649e-05 0 0.0044188582978892605 -8.7586194092117539e-05 0 0.0044451776400399462 -9.0810933840455315e-05 0 0.0044396537785463238 -8.88232784079817e-05 0 0.0044188582978892605 -8.7586194092117539e-05 0 0.004416401502393248 -9.0393858773980666e-05 0 0.0044221146142542564 -8.8345013992913635e-05 0 0.0044277539051793269 -8.7994994551554649e-05 0 0.004415545795375799 -9.0236006673971049e-05 0 0.0044188582978892605 -8.7586194092117539e-05 0 0.0044013388442850849 -8.6226340015724083e-05 0 0.0044221146142542564 -8.8345013992913635e-05 0 0.0043786017199182684 -0.00011175714586252716 0 0.0043459070492909164 -7.7499034015806594e-05 0 0.0043203795434289512 -9.4994912190008267e-05 0 0.0043786017199182684 -0.00011175714586252716 0 0.004375863120931741 -8.2816083093188744e-05 0 0.0043459070492909164 -7.7499034015806594e-05 0 0.0044221146142542564 -8.8345013992913635e-05 0 0.0043923877229681881 -8.3493400114484657e-05 0 0.004375863120931741 -8.2816083093188744e-05 0 0.0043459070492909164 -7.7499034015806594e-05 0 0.0043657125392633882 -6.4846917075353343e-05 0 0.0043459070492909164 -7.7499034015806594e-05 0 0.0043657125392633882 -6.4846917075353343e-05 0 0.0043297273332224941 -5.5931037225990618e-05 0 0.0043657125392633882 -6.4846917075353343e-05 0 0.0043921708305140758 -5.9883867146046994e-05 0 0.0044042413115519818 -7.7125919896643021e-05 0 0.0044202736216291411 -8.311535445953111e-05 0 0.0044042413115519818 -7.7125919896643021e-05 0 0.0044222542067830538 -7.4475234469697938e-05 0 0.0043921708305140758 -5.9883867146046994e-05 0 0.0044042413115519818 -7.7125919896643021e-05 0 0.0044222542067830538 -7.4475234469697938e-05 0 0.004375863120931741 -8.2816083093188744e-05 0 0.0043657125392633882 -6.4846917075353343e-05 0 0.0044042413115519818 -7.7125919896643021e-05 0 0.0042607855779361716 -0.00010826231307467068 0 0.0042947335227560982 -0.00010869998304806797 0 0.0042898005417821494 -8.4522287085826277e-05 0 0.0042947335227560982 -0.00010869998304806797 0 0.0043203795434289512 -9.4994912190008267e-05 0 0.0042898005417821494 -8.4522287085826277e-05 0 0.0043178354986133953 -0.00013434573279002591 0 0.0043786017199182684 -0.00011175714586252716 0 0.0043203795434289512 -9.4994912190008267e-05 0 0.0043178354986133953 -0.00013434573279002591 0 0.0042947335227560982 -0.00010869998304806797 0 0.0043203795434289512 -9.4994912190008267e-05 0 0.0043459070492909164 -7.7499034015806594e-05 0 0.0043203795434289512 -9.4994912190008267e-05 0 0.004312491217374613 -6.9361630457897357e-05 0 0.0043459070492909164 -7.7499034015806594e-05 0 0.004312491217374613 -6.9361630457897357e-05 0 0.0043297273332224941 -5.5931037225990618e-05 0 0.0043203795434289512 -9.4994912190008267e-05 0 0.004312491217374613 -6.9361630457897357e-05 0 0.0042898005417821494 -8.4522287085826277e-05 0 0.004312491217374613 -6.9361630457897357e-05 0 0.0042919642593982352 -6.3615826226442792e-05 0 0.0042898005417821494 -8.4522287085826277e-05 0 0.0042593339518490715 -6.378639324208858e-05 0 0.0042919642593982352 -6.3615826226442792e-05 0 0.0042898005417821494 -8.4522287085826277e-05 0 0.0041630994632823543 -9.0724489626312429e-05 0 0.0042204846701430166 -0.00010619749001383177 0 0.0042131030849325048 -6.2866057144304578e-05 0 0.00402569558346244 -0.00012285717824436995 0 0.0042506786605125829 -0.00010345556119735126 0 0.0042593339518490715 -6.378639324208858e-05 0 0.0042919642593982352 -6.3615826226442792e-05 0 0.0042919006115700624 -4.7638139064743391e-05 0 0.0042919642593982352 -6.3615826226442792e-05 0 0.0042919006115700624 -4.7638139064743391e-05 0 0.0043043778681888176 -5.1998705056977434e-05 0 0.004312491217374613 -6.9361630457897357e-05 0 0.0042919642593982352 -6.3615826226442792e-05 0 0.0043043778681888176 -5.1998705056977434e-05 0 0.0042506786605125829 -0.00010345556119735126 0 0.0042780085083834523 -9.3939031300666482e-05 0 0.0042506786605125829 -0.00010345556119735126 0 0.0043193082474906695 -3.4429938364134583e-05 0 0.004312491217374613 -6.9361630457897357e-05 0 0.0043043778681888176 -5.1998705056977434e-05 0 0.0043297273332224941 -5.5931037225990618e-05 0 0.0043043778681888176 -5.1998705056977434e-05 0 0.0043297273332224941 -5.5931037225990618e-05 0 0.0043159408440531519 -4.0645412482141896e-05 0 0.0043011643573177844 -5.1364483718567464e-05 0 0.0043043778681888176 -5.1998705056977434e-05 0 0.0043159408440531519 -4.0645412482141896e-05 0 0.004254170508062048 -3.5793444450864751e-05 0 0.0043159408440531519 -4.0645412482141896e-05 0 0.0042845189335479145 7.46936631376835e-07 0 0.0042204846701430166 -0.00010619749001383177 0 0.004254170508062048 -3.5793444450864751e-05 0 0.0043159408440531519 -4.0645412482141896e-05 0 0.0041630994632823543 -9.0724489626312429e-05 0 0.0042131030849325048 -6.2866057144304578e-05 0 0.0042108473381354521 -1.8548625010385995e-05 0 0.0042204846701430166 -0.00010619749001383177 0 0.004254170508062048 -3.5793444450864751e-05 0 0.0042131030849325048 -6.2866057144304578e-05 0 0.004254170508062048 -3.5793444450864751e-05 0 0.0042131030849325048 -6.2866057144304578e-05 0 0.0042108473381354521 -1.8548625010385995e-05 0 0.0043921708305140758 -5.9883867146046994e-05 0 0.0043874220117790814 -4.1746984009608411e-05 0 0.0043539776536210203 -4.5843777158198616e-05 0 0.0043657125392633882 -6.4846917075353343e-05 0 0.0043921708305140758 -5.9883867146046994e-05 0 0.0043539776536210203 -4.5843777158198616e-05 0 0.0043657125392633882 -6.4846917075353343e-05 0 0.0043297273332224941 -5.5931037225990618e-05 0 0.0043539776536210203 -4.5843777158198616e-05 0 0.0043297273332224941 -5.5931037225990618e-05 0 0.0043539776536210203 -4.5843777158198616e-05 0 0.0043159408440531519 -4.0645412482141896e-05 0 0.0043539776536210203 -4.5843777158198616e-05 0 0.0043159408440531519 -4.0645412482141896e-05 0 0.0043488151962990896 -2.085029176955516e-05 0 0.0043874220117790814 -4.1746984009608411e-05 0 0.0043539776536210203 -4.5843777158198616e-05 0 0.0043488151962990896 -2.085029176955516e-05 0 0.0043874220117790814 -4.1746984009608411e-05 0 0.0043488151962990896 -2.085029176955516e-05 0 0.004387116833663128 -2.2059454088893701e-05 0 0.0043874220117790814 -4.1746984009608411e-05 0 0.004387116833663128 -2.2059454088893701e-05 0 0.0044193664808670581 -3.6387862257316812e-05 0 0.004387116833663128 -2.2059454088893701e-05 0 0.0044193664808670581 -3.6387862257316812e-05 0 0.0044072027563190905 -1.7575666458927057e-05 0 0.0044193664808670581 -3.6387862257316812e-05 0 0.0044096980051882301 -2.1958797857781943e-05 0 0.0044072027563190905 -1.7575666458927057e-05 0 0.0044193664808670581 -3.6387862257316812e-05 0 0.0044437025254099932 -5.9234597709161342e-05 0 0.004445390899398406 -4.896684016169124e-05 0 0.0044193664808670581 -3.6387862257316812e-05 0 0.0044173999735928416 -5.6685147317261353e-05 0 0.0044437025254099932 -5.9234597709161342e-05 0 0.0043874220117790814 -4.1746984009608411e-05 0 0.0044193664808670581 -3.6387862257316812e-05 0 0.0044173999735928416 -5.6685147317261353e-05 0 0.0043921708305140758 -5.9883867146046994e-05 0 0.0043874220117790814 -4.1746984009608411e-05 0 0.0044173999735928416 -5.6685147317261353e-05 0 0.0043921708305140758 -5.9883867146046994e-05 0 0.0044173999735928416 -5.6685147317261353e-05 0 0.0044222542067830538 -7.4475234469697938e-05 0 0.0044173999735928416 -5.6685147317261353e-05 0 0.0044222542067830538 -7.4475234469697938e-05 0 0.0044450891322271391 -7.2067651901995466e-05 0 0.0044450891322271391 -7.2067651901995466e-05 0 0.0044437025254099932 -5.9234597709161342e-05 0 0.0044735772735553549 -7.8356688690415304e-05 0 0.0044173999735928416 -5.6685147317261353e-05 0 0.0044450891322271391 -7.2067651901995466e-05 0 0.0044437025254099932 -5.9234597709161342e-05 0 0.0044450891322271391 -7.2067651901995466e-05 0 0.0044735772735553549 -7.8356688690415304e-05 0 0.004462707418412119 -8.091696701024931e-05 0 0.0044796386643251966 -8.7554462108822977e-05 0 0.0044735772735553549 -7.8356688690415304e-05 0 0.004462707418412119 -8.091696701024931e-05 0 0.004462707418412119 -8.091696701024931e-05 0 0.0044571956439820497 -8.5107854542639853e-05 0 0.004441570504658935 -7.9950653428068766e-05 0 0.0044796386643251966 -8.7554462108822977e-05 0 0.004462707418412119 -8.091696701024931e-05 0 0.0044571956439820497 -8.5107854542639853e-05 0 0.0044316267758940289 -8.3258402155494772e-05 0 0.0044466078518184699 -8.6954458272779907e-05 0 0.004441570504658935 -7.9950653428068766e-05 0 0.0044571956439820497 -8.5107854542639853e-05 0 0.0044466078518184699 -8.6954458272779907e-05 0 0.004441570504658935 -7.9950653428068766e-05 0 0.0044222542067830538 -7.4475234469697938e-05 0 0.0044450891322271391 -7.2067651901995466e-05 0 0.004441570504658935 -7.9950653428068766e-05 0 0.0044316267758940289 -8.3258402155494772e-05 0 0.0044222542067830538 -7.4475234469697938e-05 0 0.004441570504658935 -7.9950653428068766e-05 0 0.0044450891322271391 -7.2067651901995466e-05 0 0.004462707418412119 -8.091696701024931e-05 0 0.004441570504658935 -7.9950653428068766e-05 0 0.0045101495448859122 -7.815678021000774e-05 0 0.0045045479904078402 -8.6359344367296876e-05 0 0.0044748317264780334 -6.7219856115538712e-05 0 0.0045045479904078402 -8.6359344367296876e-05 0 0.0044735772735553549 -7.8356688690415304e-05 0 0.0044748317264780334 -6.7219856115538712e-05 0 0.0044437025254099932 -5.9234597709161342e-05 0 0.0044748317264780334 -6.7219856115538712e-05 0 0.004445390899398406 -4.896684016169124e-05 0 0.0044437025254099932 -5.9234597709161342e-05 0 0.0044735772735553549 -7.8356688690415304e-05 0 0.0044748317264780334 -6.7219856115538712e-05 0 0.0044748317264780334 -6.7219856115538712e-05 0 0.0044731319393002374 -5.4913987162748586e-05 0 0.004445390899398406 -4.896684016169124e-05 0 0.0045101495448859122 -7.815678021000774e-05 0 0.0044748317264780334 -6.7219856115538712e-05 0 0.0044731319393002374 -5.4913987162748586e-05 0 0.0044663876794243454 -3.7711295632607213e-05 0 0.0044731319393002374 -5.4913987162748586e-05 0 0.0044443356803357268 -3.6456916215893604e-05 0 0.0044731319393002374 -5.4913987162748586e-05 0 0.0044443356803357268 -3.6456916215893604e-05 0 0.004445390899398406 -4.896684016169124e-05 0 0.0044443356803357268 -3.6456916215893604e-05 0 0.004445390899398406 -4.896684016169124e-05 0 0.0044096980051882301 -2.1958797857781943e-05 0 0.0044193664808670581 -3.6387862257316812e-05 0 0.004445390899398406 -4.896684016169124e-05 0 0.0044096980051882301 -2.1958797857781943e-05 0 0.0044663876794243454 -3.7711295632607213e-05 0 0.0044443356803357268 -3.6456916215893604e-05 0 0.0044288107840134445 -1.2240903226446715e-05 0 0.0044443356803357268 -3.6456916215893604e-05 0 0.0044096980051882301 -2.1958797857781943e-05 0 0.0044288107840134445 -1.2240903226446715e-05 0 0.0044096980051882301 -2.1958797857781943e-05 0 0.0044288107840134445 -1.2240903226446715e-05 0 0.0043895184901055597 1.4837479090379655e-05 0 0.0044096980051882301 -2.1958797857781943e-05 0 0.0043895184901055597 1.4837479090379655e-05 0 0.004326628285295976 5.3553819326130914e-06 0 0.0044026978162505295 -1.8376776730633914e-05 0 0.0043686291441506556 8.9711959051216581e-06 0 0.0043895184901055597 1.4837479090379655e-05 0 0.0043340233467891107 4.0926559314969415e-05 0 0.004326628285295976 5.3553819326130914e-06 0 0.0043895184901055597 1.4837479090379655e-05 0 0.0043739884584053437 5.1626270881373915e-05 0 0.0044187356977972827 2.4801642552143781e-05 0 0.0043895184901055597 1.4837479090379655e-05 0 0.0043739884584053437 5.1626270881373915e-05 0 0.0043340233467891107 4.0926559314969415e-05 0 0.0043739884584053437 5.1626270881373915e-05 0 0.0043340233467891107 4.0926559314969415e-05 0 0.0043293066788984485 7.736410210231689e-05 0 0.0043340233467891107 4.0926559314969415e-05 0 0.0043293066788984485 7.736410210231689e-05 0 0.0042953678140302551 7.1667396183359465e-05 0 0.0043293066788984485 7.736410210231689e-05 0 0.0042937918216874758 0.00010024758256822294 0 0.0043166384920351152 0.00010820498759140612 0 0.0043293066788984485 7.736410210231689e-05 0 0.0042937918216874758 0.00010024758256822294 0 0.0042953678140302551 7.1667396183359465e-05 0 0.0043293066788984485 7.736410210231689e-05 0 0.0043542109815319042 8.600270372465004e-05 0 0.0043166384920351152 0.00010820498759140612 0 0.0043739884584053437 5.1626270881373915e-05 0 0.0043293066788984485 7.736410210231689e-05 0 0.0043542109815319042 8.600270372465004e-05 0 0.0042530009727887166 7.659938522293221e-05 0 0.0042043594357604186 9.8999479264151171e-05 0 0.0042601580271101214 4.4129197697445766e-05 0 0.0043385370086915457 7.6970121989269614e-05 0 0.0043066918095646979 9.4676780006738547e-05 0 0.0043837805689107149 5.6888178938813055e-05 0 0.0042556923579902088 9.3781728235128154e-05 0 0.0043204152311092188 5.0228753836500466e-05 0 0.0042043594357604186 9.8999479264151171e-05 0 0.004241564090031731 9.9167866013278837e-05 0 0.0042123057647030348 0.00012098510127253985 0 0.0042530009727887166 7.659938522293221e-05 0 0.0042043594357604186 9.8999479264151171e-05 0 0.004241564090031731 9.9167866013278837e-05 0 0.004241564090031731 9.9167866013278837e-05 0 0.0042937918216874758 0.00010024758256822294 0 0.0042953678140302551 7.1667396183359465e-05 0 0.0042530009727887166 7.659938522293221e-05 0 0.004241564090031731 9.9167866013278837e-05 0 0.0042953678140302551 7.1667396183359465e-05 0 0.0042530009727887166 7.659938522293221e-05 0 0.0042953678140302551 7.1667396183359465e-05 0 0.0042601580271101214 4.4129197697445766e-05 0 0.0043340233467891107 4.0926559314969415e-05 0 0.0042953678140302551 7.1667396183359465e-05 0 0.0042601580271101214 4.4129197697445766e-05 0 0.0043385370086915457 7.6970121989269614e-05 0 0.0043837805689107149 5.6888178938813055e-05 0 0.0043446057255480692 4.3437716838199203e-05 0 0.0043837805689107149 5.6888178938813055e-05 0 0.0043801389445126959 2.6639691263013519e-05 0 0.0043446057255480692 4.3437716838199203e-05 0 0.0043801389445126959 2.6639691263013519e-05 0 0.0044128385228887849 6.6629230750293761e-06 0 0.0043743160453843044 2.8026936587317064e-06 0 0.0043801389445126959 2.6639691263013519e-05 0 0.0043743160453843044 2.8026936587317064e-06 0 0.0043446057255480692 4.3437716838199203e-05 0 0.0043837805689107149 5.6888178938813055e-05 0 0.0043801389445126959 2.6639691263013519e-05 0 0.0044128385228887849 6.6629230750293761e-06 0 0.0043340233467891107 4.0926559314969415e-05 0 0.0042601580271101214 4.4129197697445766e-05 0 0.004326628285295976 5.3553819326130914e-06 0 0.0043204152311092188 5.0228753836500466e-05 0 0.0043686291441506556 8.9711959051216581e-06 0 0.0044128385228887849 6.6629230750293761e-06 0 0.0044072027563190905 -1.7575666458927057e-05 0 0.0043743160453843044 2.8026936587317064e-06 0 0.0044096980051882301 -2.1958797857781943e-05 0 0.0044128385228887849 6.6629230750293761e-06 0 0.0044072027563190905 -1.7575666458927057e-05 0 0.004387116833663128 -2.2059454088893701e-05 0 0.0044072027563190905 -1.7575666458927057e-05 0 0.0043743160453843044 2.8026936587317064e-06 0 0.0043488151962990896 -2.085029176955516e-05 0 0.004387116833663128 -2.2059454088893701e-05 0 0.0043743160453843044 2.8026936587317064e-06 0 0.0043488151962990896 -2.085029176955516e-05 0 0.0043743160453843044 2.8026936587317064e-06 0 0.0043233904079700231 1.6546218152431273e-05 0 0.0043159408440531519 -4.0645412482141896e-05 0 0.0043488151962990896 -2.085029176955516e-05 0 0.0042845189335479145 7.46936631376835e-07 0 0.0043488151962990896 -2.085029176955516e-05 0 0.0043233904079700231 1.6546218152431273e-05 0 0.0042845189335479145 7.46936631376835e-07 0 0.0042736420239361259 3.3235370315396961e-05 0 0.0043233904079700231 1.6546218152431273e-05 0 0.0042845189335479145 7.46936631376835e-07 0 0.0042736420239361259 3.3235370315396961e-05 0 0.0043148667055902621 4.2244395610970867e-05 0 0.0043233904079700231 1.6546218152431273e-05 0 0.0043148667055902621 4.2244395610970867e-05 0 0.0043233904079700231 1.6546218152431273e-05 0 0.0043446057255480692 4.3437716838199203e-05 0 0.0043743160453843044 2.8026936587317064e-06 0 0.0043233904079700231 1.6546218152431273e-05 0 0.0043446057255480692 4.3437716838199203e-05 0 0.0040628798687598307 -0.00025317858892077522 0 0.00413830537890274 -8.3490019029381913e-05 0 0.0038975100336603313 -0.00046558603917053973 0 0.0040445742449466355 -0.00020676425757550063 0 0.0037808041505595171 -0.00033723296118762182 0 0.0042108473381354521 -1.8548625010385995e-05 0 0.0042459028892082706 -6.311981683215395e-06 0 0.0042339574063314485 2.6854469758380213e-05 0 0.004254170508062048 -3.5793444450864751e-05 0 0.0042108473381354521 -1.8548625010385995e-05 0 0.0042459028892082706 -6.311981683215395e-06 0 0.0042459028892082706 -6.311981683215395e-06 0 0.0042845189335479145 7.46936631376835e-07 0 0.0042339574063314485 2.6854469758380213e-05 0 0.004254170508062048 -3.5793444450864751e-05 0 0.0042459028892082706 -6.311981683215395e-06 0 0.0042845189335479145 7.46936631376835e-07 0 0.0042736420239361259 3.3235370315396961e-05 0 0.0042845189335479145 7.46936631376835e-07 0 0.0042339574063314485 2.6854469758380213e-05 0 0.0040445742449466355 -0.00020676425757550063 0 0.0039353247492425955 1.5589256303994788e-06 0 0.0038329901745135183 -0.00018152091075057761 0 0.0040445742449466355 -0.00020676425757550063 0 0.0037808041505595171 -0.00033723296118762182 0 0.0038329901745135183 -0.00018152091075057761 0 0.0039353247492425955 1.5589256303994788e-06 0 0.0038329901745135183 -0.00018152091075057761 0 0.0038129938652024051 1.081369262487683e-05 0 0.0039353247492425955 1.5589256303994788e-06 0 0.0038699651388519 9.9407574319560271e-05 0 0.0038129938652024051 1.081369262487683e-05 0 0.0042736420239361259 3.3235370315396961e-05 0 0.0042339574063314485 2.6854469758380213e-05 0 0.0042043270715729835 7.0493575137883151e-05 0 0.0040445742449466355 -0.00020676425757550063 0 0.0039353247492425955 1.5589256303994788e-06 0 0.0042043270715729835 7.0493575137883151e-05 0 0.00413830537890274 -8.3490019029381913e-05 0 0.0042042951875121198 6.1142683844285687e-05 0 0.0042043270715729835 7.0493575137883151e-05 0 0.0041414768736197068 0.00020863400839216432 0 0.0042661403744351789 0.00011798595925374182 0 0.0042043270715729835 7.0493575137883151e-05 0 0.0041414768736197068 0.00020863400839216432 0 0.0039998519717295644 0.00016260013341573456 0 0.0039353247492425955 1.5589256303994788e-06 0 0.0042043270715729835 7.0493575137883151e-05 0 0.0039998519717295644 0.00016260013341573456 0 0.0041414768736197068 0.00020863400839216432 0 0.0039998519717295644 0.00016260013341573456 0 0.0039510808751254088 0.00032787783154992583 0 0.0039998519717295644 0.00016260013341573456 0 0.0038699651388519 9.9407574319560271e-05 0 0.0038441575708641758 0.00022301098250777885 0 0.0039998519717295644 0.00016260013341573456 0 0.0039510808751254088 0.00032787783154992583 0 0.0038441575708641758 0.00022301098250777885 0 0.0039353247492425955 1.5589256303994788e-06 0 0.0039998519717295644 0.00016260013341573456 0 0.0038699651388519 9.9407574319560271e-05 0 0.0043385370086915457 7.6970121989269614e-05 0 0.0043446057255480692 4.3437716838199203e-05 0 0.0043092546063898101 7.716373917123589e-05 0 0.0043148667055902621 4.2244395610970867e-05 0 0.0043446057255480692 4.3437716838199203e-05 0 0.0043092546063898101 7.716373917123589e-05 0 0.0042736420239361259 3.3235370315396961e-05 0 0.0043148667055902621 4.2244395610970867e-05 0 0.0043092546063898101 7.716373917123589e-05 0 0.0042736420239361259 3.3235370315396961e-05 0 0.0042043270715729835 7.0493575137883151e-05 0 0.0043092546063898101 7.716373917123589e-05 0 0.0042043270715729835 7.0493575137883151e-05 0 0.0043092546063898101 7.716373917123589e-05 0 0.0042661403744351789 0.00011798595925374182 0 0.0043092546063898101 7.716373917123589e-05 0 0.0042661403744351789 0.00011798595925374182 0 0.0042947576941329618 0.00019562197675068073 0 0.0041414768736197068 0.00020863400839216432 0 0.0042661403744351789 0.00011798595925374182 0 0.0042947576941329618 0.00019562197675068073 0 0.0043092546063898101 7.716373917123589e-05 0 0.0042947576941329618 0.00019562197675068073 0 0.0043245717471270878 0.00013794854002584356 0 0.0042130631958535803 7.253912792957403e-05 0 0.0042519871086440664 3.5665687194687823e-05 0 0.0043385370086915457 7.6970121989269614e-05 0 0.0043092546063898101 7.716373917123589e-05 0 0.0043245717471270878 0.00013794854002584356 0 0.0043176619602630934 8.6498567496839219e-05 0 0.0042519871086440664 3.5665687194687823e-05 0 0.0043385370086915457 7.6970121989269614e-05 0 0.0043066918095646979 9.4676780006738547e-05 0 0.0042274925804631448 7.6620248809155714e-05 0 0.0042043594357604186 9.8999479264151171e-05 0 0.0041866919072147792 0.00013011982010962758 0 0.0042123057647030348 0.00012098510127253985 0 0.0043066918095646979 9.4676780006738547e-05 0 0.0042274925804631448 7.6620248809155714e-05 0 0.0041866919072147792 0.00013011982010962758 0 0.0042556923579902088 9.3781728235128154e-05 0 0.004198675279183022 0.00012728638394376936 0 0.0041866919072147792 0.00013011982010962758 0 0.0042123057647030348 0.00012098510127253985 0 0.0042024680916744276 0.00013552871924365175 0 0.0042519871086440664 3.5665687194687823e-05 0 0.0040791542065431886 8.5655735658014221e-05 0 0.0042274925804631448 7.6620248809155714e-05 0 0.0041866919072147792 0.00013011982010962758 0 0.0041358231866335015 0.00011513101015253178 0 0.0041328772230981936 -5.4638243646341371e-05 0 0.0042375799617113104 -0.00011306375849240835 0 0.0040348743640632283 7.0507309098115261e-05 0 0.0041866919072147792 0.00013011982010962758 0 0.0041535778416919317 0.00014520948908265779 0 0.0041358231866335015 0.00011513101015253178 0 0.0041535778416919317 0.00014520948908265779 0 0.0041358231866335015 0.00011513101015253178 0 0.0041144488721998234 0.00014584950177217576 0 0.0041866919072147792 0.00013011982010962758 0 0.0041839981951359555 0.00014842782869701842 0 0.0042024680916744276 0.00013552871924365175 0 0.0041866919072147792 0.00013011982010962758 0 0.0041535778416919317 0.00014520948908265779 0 0.0041839981951359555 0.00014842782869701842 0 0.0039510808751254088 0.00032787783154992583 0 0.0040632104558310502 0.00041149607287644882 0 0.0038262761924583192 0.00043297184096175194 0 0.0041414768736197068 0.00020863400839216432 0 0.0039510808751254088 0.00032787783154992583 0 0.0040632104558310502 0.00041149607287644882 0 0.0041414768736197068 0.00020863400839216432 0 0.0042947576941329618 0.00019562197675068073 0 0.0040632104558310502 0.00041149607287644882 0 0.0041328772230981936 -5.4638243646341371e-05 0 0.0040348743640632283 7.0507309098115261e-05 0 0.003870336195435154 9.1128436446893002e-05 0 0.0042130631958535803 7.253912792957403e-05 0 0.0039513632422755896 0.00024905606828310676 0 0.0040791542065431886 8.5655735658014221e-05 0 0.0039871407896047385 0.00020885477407812451 0 0.0041358231866335015 0.00011513101015253178 0 0.0040804985647629501 0.00013443492520599787 0 0.0041144488721998234 0.00014584950177217576 0 0.0040348743640632283 7.0507309098115261e-05 0 0.003870336195435154 9.1128436446893002e-05 0 0.0038260112843816634 0.00025465966175549883 0 0.0040632104558310502 0.00041149607287644882 0 0.0038262761924583192 0.00043297184096175194 0 0.0037323627254992613 0.00063063265379501704 0 0.003870336195435154 9.1128436446893002e-05 0 0.0038260112843816634 0.00025465966175549883 0 0.0037053771623386899 0.00027469747110162891 0 0.0039513632422755896 0.00024905606828310676 0 0.0037237195973448636 0.0004655594599739264 0 0.003870336195435154 9.1128436446893002e-05 0 0.0037053771623386899 0.00027469747110162891 0 0.0035942976836103434 0.0002404763250261001 0 0.0040765814285170041 0.00016030190234868049 0 0.0040569995046706355 0.00018194131465074662 0 0.0040149929332619835 0.00017435693383963111 0 0.0038260112843816634 0.00025465966175549883 0 0.0037053771623386899 0.00027469747110162891 0 0.0036089028532153558 0.00044801864506157512 0 0.0040804985647629501 0.00013443492520599787 0 0.0040765814285170041 0.00016030190234868049 0 0.0040149929332619835 0.00017435693383963111 0 0.0039871407896047385 0.00020885477407812451 0 0.0035682638512269296 0.00016228186863801675 0 0.0040765814285170041 0.00016030190234868049 0 0.0040837960584281545 0.00017308920983062496 0 0.0040569995046706355 0.00018194131465074662 0 0.0040765814285170041 0.00016030190234868049 0 0.0041046221655493481 0.00016599054781348839 0 0.0041144488721998234 0.00014584950177217576 0 0.0040765814285170041 0.00016030190234868049 0 0.0041046221655493481 0.00016599054781348839 0 0.0040837960584281545 0.00017308920983062496 0 0.0040804985647629501 0.00013443492520599787 0 0.0040765814285170041 0.00016030190234868049 0 0.0041144488721998234 0.00014584950177217576 0 0.0041046221655493481 0.00016599054781348839 0 0.0041320329901542987 0.000159917666454924 0 0.0041253619355088103 0.00017623048675655185 0 0.0041046221655493481 0.00016599054781348839 0 0.0041144488721998234 0.00014584950177217576 0 0.0041320329901542987 0.000159917666454924 0 0.0041046221655493481 0.00016599054781348839 0 0.0041007247810156307 0.00018176551820093409 0 0.0041253619355088103 0.00017623048675655185 0 0.0041116913459420205 0.00018954984565250739 0 0.0041007247810156307 0.00018176551820093409 0 0.0041253619355088103 0.00017623048675655185 0 0.0041007247810156307 0.00018176551820093409 0 0.0040789544835865199 0.00018003744494744507 0 0.0041075928653048878 0.00019516526250308331 0 0.0041116913459420205 0.00018954984565250739 0 0.0041007247810156307 0.00018176551820093409 0 0.0041075928653048878 0.00019516526250308331 0 0.0041046221655493481 0.00016599054781348839 0 0.0041007247810156307 0.00018176551820093409 0 0.0040837960584281545 0.00017308920983062496 0 0.0041007247810156307 0.00018176551820093409 0 0.0040837960584281545 0.00017308920983062496 0 0.0040789544835865199 0.00018003744494744507 0 0.0040789544835865199 0.00018003744494744507 0 0.0040497443099911995 0.00017683383665240395 0 0.0041075928653048878 0.00019516526250308331 0 0.0040837960584281545 0.00017308920983062496 0 0.0040789544835865199 0.00018003744494744507 0 0.0040569995046706355 0.00018194131465074662 0 0.0040789544835865199 0.00018003744494744507 0 0.0040497443099911995 0.00017683383665240395 0 0.0040569995046706355 0.00018194131465074662 0 0.0040497443099911995 0.00017683383665240395 0 0.0040818891617695049 0.00013472943612436212 0 0.0040019107683804929 4.6371803465289432e-05 0 0.0040497443099911995 0.00017683383665240395 0 0.0040569995046706355 0.00018194131465074662 0 0.0041055624118697632 0.00021928213696282292 0 0.0041535778416919317 0.00014520948908265779 0 0.0041839981951359555 0.00014842782869701842 0 0.0041566688615646474 0.00016434459783424426 0 0.0041839981951359555 0.00014842782869701842 0 0.0041566688615646474 0.00016434459783424426 0 0.0041781226539672834 0.00016435439584117534 0 0.0041535778416919317 0.00014520948908265779 0 0.0041566688615646474 0.00016434459783424426 0 0.0041320329901542987 0.000159917666454924 0 0.0041535778416919317 0.00014520948908265779 0 0.0041144488721998234 0.00014584950177217576 0 0.0041320329901542987 0.000159917666454924 0 0.0041566688615646474 0.00016434459783424426 0 0.0041320329901542987 0.000159917666454924 0 0.0041253619355088103 0.00017623048675655185 0 0.0041566688615646474 0.00016434459783424426 0 0.0041253619355088103 0.00017623048675655185 0 0.0041515501812271526 0.00018185769185456854 0 0.0041253619355088103 0.00017623048675655185 0 0.0041515501812271526 0.00018185769185456854 0 0.0041249004873170105 0.0001896257712305586 0 0.0041116913459420205 0.00018954984565250739 0 0.0041253619355088103 0.00017623048675655185 0 0.0041249004873170105 0.0001896257712305586 0 0.0041566688615646474 0.00016434459783424426 0 0.0041515501812271526 0.00018185769185456854 0 0.0041735957501280591 0.00017748609085478496 0 0.0041566688615646474 0.00016434459783424426 0 0.0041781226539672834 0.00016435439584117534 0 0.0041735957501280591 0.00017748609085478496 0 0.0041735957501280591 0.00017748609085478496 0 0.0041863173133065319 0.0001749456995190227 0 0.0041848202279887604 0.00018489205945261601 0 0.0041781226539672834 0.00016435439584117534 0 0.0041735957501280591 0.00017748609085478496 0 0.0041863173133065319 0.0001749456995190227 0 0.0041781226539672834 0.00016435439584117534 0 0.0041863173133065319 0.0001749456995190227 0 0.0041944918980025801 0.00016253412974231638 0 0.0041839981951359555 0.00014842782869701842 0 0.0041944918980025801 0.00016253412974231638 0 0.0042035173438256237 0.00014658529641928023 0 0.0041839981951359555 0.00014842782869701842 0 0.0041781226539672834 0.00016435439584117534 0 0.0041944918980025801 0.00016253412974231638 0 0.0041944918980025801 0.00016253412974231638 0 0.0041935265605199928 0.00017853492907870302 0 0.0042082297049555045 0.00016005587579270351 0 0.0041944918980025801 0.00016253412974231638 0 0.0042082297049555045 0.00016005587579270351 0 0.0042035173438256237 0.00014658529641928023 0 0.0041863173133065319 0.0001749456995190227 0 0.0041935265605199928 0.00017853492907870302 0 0.0041848202279887604 0.00018489205945261601 0 0.0041863173133065319 0.0001749456995190227 0 0.0041944918980025801 0.00016253412974231638 0 0.0041935265605199928 0.00017853492907870302 0 0.0041935265605199928 0.00017853492907870302 0 0.0041992324923784928 0.00017872222984013727 0 0.0041916779949431396 0.00018688135756861078 0 0.0041935265605199928 0.00017853492907870302 0 0.0041992324923784928 0.00017872222984013727 0 0.0042082297049555045 0.00016005587579270351 0 0.0041992324923784928 0.00017872222984013727 0 0.0041892828327955668 0.0001968181284531594 0 0.0041916779949431396 0.00018688135756861078 0 0.0042705570167340667 0.00016649965286640131 0 0.0042551983195625405 0.00017745979405126597 0 0.0042992158597501273 0.00014564714859641729 0 0.0042705570167340667 0.00016649965286640131 0 0.0042551983195625405 0.00017745979405126597 0 0.0041968309705192226 0.00020975189898617949 0 0.0042705570167340667 0.00016649965286640131 0 0.0042992158597501273 0.00014564714859641729 0 0.0042901058861759397 0.00014311444236651593 0 0.0042326457879873691 0.0001768281186866391 0 0.0042483413289656526 0.00015186010128340744 0 0.0042901058861759397 0.00014311444236651593 0 0.0043081625492231903 0.00012963854806969573 0 0.0042845997092443603 0.00012720216440517833 0 0.0042992158597501273 0.00014564714859641729 0 0.0043081625492231903 0.00012963854806969573 0 0.0043333366626196633 0.00011596001915602263 0 0.0042992158597501273 0.00014564714859641729 0 0.0042901058861759397 0.00014311444236651593 0 0.0043081625492231903 0.00012963854806969573 0 0.0043081625492231903 0.00012963854806969573 0 0.0043333366626196633 0.00011596001915602263 0 0.0043166384920351152 0.00010820498759140612 0 0.0043542109815319042 8.600270372465004e-05 0 0.0043333366626196633 0.00011596001915602263 0 0.0043166384920351152 0.00010820498759140612 0 0.0043081625492231903 0.00012963854806969573 0 0.0043166384920351152 0.00010820498759140612 0 0.0042845997092443603 0.00012720216440517833 0 0.0042937918216874758 0.00010024758256822294 0 0.0043166384920351152 0.00010820498759140612 0 0.0042845997092443603 0.00012720216440517833 0 0.004241564090031731 9.9167866013278837e-05 0 0.0042937918216874758 0.00010024758256822294 0 0.0042845997092443603 0.00012720216440517833 0 0.0042393183362338417 9.9232056136531541e-05 0 0.0042496849189191934 0.00012930014831067686 0 0.004241564090031731 9.9167866013278837e-05 0 0.0042185450554406301 0.00013687726837158782 0 0.0042123057647030348 0.00012098510127253985 0 0.0042185450554406301 0.00013687726837158782 0 0.0042123057647030348 0.00012098510127253985 0 0.0042024680916744276 0.00013552871924365175 0 0.0041839981951359555 0.00014842782869701842 0 0.0042035173438256237 0.00014658529641928023 0 0.0042024680916744276 0.00013552871924365175 0 0.0042185450554406301 0.00013687726837158782 0 0.0042035173438256237 0.00014658529641928023 0 0.0042024680916744276 0.00013552871924365175 0 0.0042082297049555045 0.00016005587579270351 0 0.0042185450554406301 0.00013687726837158782 0 0.0042035173438256237 0.00014658529641928023 0 0.0042483413289656526 0.00015186010128340744 0 0.0042496849189191934 0.00012930014831067686 0 0.0020761332075775471 -3.2260931137930242e-05 0 0.0020816618917339387 -5.3624117297249853e-08 0 0.0018374548610046743 -1.5825943296777934e-07 0 0.0020761332075775471 -3.2260931137930242e-05 0 0.0021185059410261282 -2.5214509729472325e-05 0 0.00198104729399788 5.8697680889449216e-06 0 0.0020761332075775471 -3.2260931137930242e-05 0 0.0022020305935706056 -6.0525931071441883e-05 0 0.0021185059410261282 -2.5214509729472325e-05 0 0.0020761332075775471 -3.2260931137930242e-05 0 0.0022414290165874047 -4.5267478212811485e-05 0 0.0022020305935706056 -6.0525931071441883e-05 0 0.0020761332075775471 -3.2260931137930242e-05 0 0.0020816618917339387 -5.3624117297249853e-08 0 0.0022414290165874047 -4.5267478212811485e-05 0 0.0023256043972485949 -6.102658561955608e-08 0 0.002403575825104109 -2.7317501508821995e-05 0 0.0022414290165874047 -4.5267478212811485e-05 0 0.0020816618917339387 -5.3624117297249853e-08 0 0.0023256043972485949 -6.102658561955608e-08 0 0.0022414290165874047 -4.5267478212811485e-05 0 0.002569793414912589 -1.587551002237169e-07 0 0.0023256043972485949 -6.102658561955608e-08 0 0.002403575825104109 -2.7317501508821995e-05 0 0.002403575825104109 -2.7317501508821995e-05 0 0.0023346342101318402 -4.9745717117811224e-05 0 0.0022414290165874047 -4.5267478212811485e-05 0 0.0024245625333331588 -2.2575268842100386e-05 0 0.002403575825104109 -2.7317501508821995e-05 0 0.0023346342101318402 -4.9745717117811224e-05 0 0.0023346342101318402 -4.9745717117811224e-05 0 0.0022414290165874047 -4.5267478212811485e-05 0 0.0022696244115861372 -6.1508755073015514e-05 0 0.0022414290165874047 -4.5267478212811485e-05 0 0.0022696244115861372 -6.1508755073015514e-05 0 0.0022020305935706056 -6.0525931071441883e-05 0 0.0022637562106534795 -7.3203375997856097e-05 0 0.0022696244115861372 -6.1508755073015514e-05 0 0.0022020305935706056 -6.0525931071441883e-05 0 0.0022637562106534795 -7.3203375997856097e-05 0 0.0022382513812151186 -6.4622956540879889e-05 0 0.0022020305935706056 -6.0525931071441883e-05 0 0.0023346342101318402 -4.9745717117811224e-05 0 0.0022696244115861372 -6.1508755073015514e-05 0 0.0023016173987102256 -5.9732152272165251e-05 0 0.0022637562106534795 -7.3203375997856097e-05 0 0.0022696244115861372 -6.1508755073015514e-05 0 0.0023016173987102256 -5.9732152272165251e-05 0 0.0022637562106534795 -7.3203375997856097e-05 0 0.0023016173987102256 -5.9732152272165251e-05 0 0.0022778474580819673 -6.7222351091848168e-05 0 0.0022900649934140542 -5.1507827170596863e-05 0 0.0023561822087256566 -2.9368217366411512e-05 0 0.0023016173987102256 -5.9732152272165251e-05 0 0.0022900649934140542 -5.1507827170596863e-05 0 0.0023016173987102256 -5.9732152272165251e-05 0 0.0022778474580819673 -6.7222351091848168e-05 0 0.0023561822087256566 -2.9368217366411512e-05 0 0.0023346342101318402 -4.9745717117811224e-05 0 0.0023016173987102256 -5.9732152272165251e-05 0 0.0022738453469687758 -6.7168352744757697e-05 0 0.0022711009022691108 -8.0946730774001351e-05 0 0.0022654065703931981 -6.2482426864309215e-05 0 0.0022713968378021633 -5.2241430032893108e-05 0 0.0022738453469687758 -6.7168352744757697e-05 0 0.0022654065703931981 -6.2482426864309215e-05 0 0.0022900649934140542 -5.1507827170596863e-05 0 0.0022713968378021633 -5.2241430032893108e-05 0 0.0022738453469687758 -6.7168352744757697e-05 0 0.0022900649934140542 -5.1507827170596863e-05 0 0.0022738453469687758 -6.7168352744757697e-05 0 0.0022778474580819673 -6.7222351091848168e-05 0 0.0022637562106534795 -7.3203375997856097e-05 0 0.0022778474580819673 -6.7222351091848168e-05 0 0.0022677104982987951 -7.5948124376258287e-05 0 0.0022738453469687758 -6.7168352744757697e-05 0 0.0022778474580819673 -6.7222351091848168e-05 0 0.0022677104982987951 -7.5948124376258287e-05 0 0.0022738453469687758 -6.7168352744757697e-05 0 0.0022677104982987951 -7.5948124376258287e-05 0 0.0022711009022691108 -8.0946730774001351e-05 0 0.0022677104982987951 -7.5948124376258287e-05 0 0.0022783881976450367 -8.0251004067265541e-05 0 0.0022711009022691108 -8.0946730774001351e-05 0 0.0022677104982987951 -7.5948124376258287e-05 0 0.0022637930206147066 -7.4684068249186161e-05 0 0.0022783881976450367 -8.0251004067265541e-05 0 0.0022637562106534795 -7.3203375997856097e-05 0 0.0022677104982987951 -7.5948124376258287e-05 0 0.0022637930206147066 -7.4684068249186161e-05 0 0.0022637562106534795 -7.3203375997856097e-05 0 0.0022637930206147066 -7.4684068249186161e-05 0 0.0022382513812151186 -6.4622956540879889e-05 0 0.0022637930206147066 -7.4684068249186161e-05 0 0.0022554387513737178 -5.3670561132990421e-05 0 0.0022382513812151186 -6.4622956540879889e-05 0 0.0022554387513737178 -5.3670561132990421e-05 0 0.0022382513812151186 -6.4622956540879889e-05 0 0.0021955785955556808 -3.6081609099747279e-05 0 0.0022382513812151186 -6.4622956540879889e-05 0 0.0022020305935706056 -6.0525931071441883e-05 0 0.0021955785955556808 -3.6081609099747279e-05 0 0.0022020305935706056 -6.0525931071441883e-05 0 0.0021185059410261282 -2.5214509729472325e-05 0 0.0021955785955556808 -3.6081609099747279e-05 0 0.0021185059410261282 -2.5214509729472325e-05 0 0.0021955785955556808 -3.6081609099747279e-05 0 0.0021296752893167027 1.4211347545133965e-05 0 0.0021955785955556808 -3.6081609099747279e-05 0 0.0022091364364820588 1.0611759257238567e-05 0 0.0021296752893167027 1.4211347545133965e-05 0 0.0022554387513737178 -5.3670561132990421e-05 0 0.0021955785955556808 -3.6081609099747279e-05 0 0.0022529320836536483 -1.3732118637146316e-05 0 0.0021955785955556808 -3.6081609099747279e-05 0 0.0022529320836536483 -1.3732118637146316e-05 0 0.0022091364364820588 1.0611759257238567e-05 0 0.0022529320836536483 -1.3732118637146316e-05 0 0.0023110572851426153 -3.5023921768130377e-05 0 0.0022956440595840785 1.4955456511905435e-05 0 0.0022529320836536483 -1.3732118637146316e-05 0 0.0022956440595840785 1.4955456511905435e-05 0 0.002254197596646986 3.0974518167980473e-05 0 0.0023492109840290414 1.3675684885108096e-05 0 0.0023110572851426153 -3.5023921768130377e-05 0 0.0022956440595840785 1.4955456511905435e-05 0 0.0023492109840290414 1.3675684885108096e-05 0 0.0023110572851426153 -3.5023921768130377e-05 0 0.0023980888170321395 -3.8622833645201695e-05 0 0.0023110572851426153 -3.5023921768130377e-05 0 0.0022890859378321598 -6.9977589619947956e-05 0 0.0023462538139887206 -7.3241626819440196e-05 0 0.0023110572851426153 -3.5023921768130377e-05 0 0.0023462538139887206 -7.3241626819440196e-05 0 0.0023980888170321395 -3.8622833645201695e-05 0 0.0022554387513737178 -5.3670561132990421e-05 0 0.0023110572851426153 -3.5023921768130377e-05 0 0.0022890859378321598 -6.9977589619947956e-05 0 0.0022554387513737178 -5.3670561132990421e-05 0 0.0022529320836536483 -1.3732118637146316e-05 0 0.0023110572851426153 -3.5023921768130377e-05 0 0.0022637930206147066 -7.4684068249186161e-05 0 0.0022890859378321598 -6.9977589619947956e-05 0 0.0022783881976450367 -8.0251004067265541e-05 0 0.0022637930206147066 -7.4684068249186161e-05 0 0.0022554387513737178 -5.3670561132990421e-05 0 0.0022890859378321598 -6.9977589619947956e-05 0 0.0022890859378321598 -6.9977589619947956e-05 0 0.0022783881976450367 -8.0251004067265541e-05 0 0.0022977883468500862 -8.9051815648165652e-05 0 0.0022711009022691108 -8.0946730774001351e-05 0 0.0022707924699348712 -8.9961351142822936e-05 0 0.0022977883468500862 -8.9051815648165652e-05 0 0.0022783881976450367 -8.0251004067265541e-05 0 0.0022711009022691108 -8.0946730774001351e-05 0 0.0022977883468500862 -8.9051815648165652e-05 0 0.0032341040355817361 -0.0004075789297567208 0 0.003070444638119263 -0.00045878787381955079 0 0.0032474433914297142 -0.00029734221692368862 0 0.0025567044520339137 -0.00014926719478574354 0 0.0027868586577088823 -0.00019238193766334992 0 0.0024209584102157997 -8.5355685463574057e-05 0 0.0025567044520339137 -0.00014926719478574354 0 0.0030686109683613085 -0.00052783379850655809 0 0.0032341040355817361 -0.0004075789297567208 0 0.003070444638119263 -0.00045878787381955079 0 0.0034891507882754461 -0.00050916912293127298 0 0.0033689096226382264 -0.00047846932987482741 0 0.0034048688058853239 -0.00037380434306818274 0 0.0032341040355817361 -0.0004075789297567208 0 0.0033689096226382264 -0.00047846932987482741 0 0.0034048688058853239 -0.00037380434306818274 0 0.0032341040355817361 -0.0004075789297567208 0 0.0032474433914297142 -0.00029734221692368862 0 0.0034048688058853239 -0.00037380434306818274 0 0.0032474433914297142 -0.00029734221692368862 0 0.0034048688058853239 -0.00037380434306818274 0 0.0034369554509993002 -0.00012721188461632291 0 0.0022890859378321598 -6.9977589619947956e-05 0 0.0022977883468500862 -8.9051815648165652e-05 0 0.0023462538139887206 -7.3241626819440196e-05 0 0.0027868586577088823 -0.00019238193766334992 0 0.0028473781097205775 -0.00012270283639451862 0 0.0034369554509993002 -0.00012721188461632291 0 0.0036404098131228393 -0.00016298114692157799 0 0.0036092207062310266 -0.00039017083862464733 0 0.0034048688058853239 -0.00037380434306818274 0 0.0034369554509993002 -0.00012721188461632291 0 0.0036092207062310266 -0.00039017083862464733 0 0.0034891507882754461 -0.00050916912293127298 0 0.0034048688058853239 -0.00037380434306818274 0 0.0036092207062310266 -0.00039017083862464733 0 0.0036760712261189586 -0.00050836796344219096 0 0.0034891507882754461 -0.00050916912293127298 0 0.0036092207062310266 -0.00039017083862464733 0 0.0036760712261189586 -0.00050836796344219096 0 0.0038975100336603313 -0.00046558603917053973 0 0.0037808041505595171 -0.00033723296118762182 0 0.0036760712261189586 -0.00050836796344219096 0 0.0036092207062310266 -0.00039017083862464733 0 0.0037808041505595171 -0.00033723296118762182 0 0.0036404098131228393 -0.00016298114692157799 0 0.0036092207062310266 -0.00039017083862464733 0 0.0037808041505595171 -0.00033723296118762182 0 0.0036404098131228393 -0.00016298114692157799 0 0.0037808041505595171 -0.00033723296118762182 0 0.0038329901745135183 -0.00018152091075057761 0 0.0036404098131228393 -0.00016298114692157799 0 0.0038329901745135183 -0.00018152091075057761 0 0.0036274935913614263 4.8704565522806793e-05 0 0.0038329901745135183 -0.00018152091075057761 0 0.0038129938652024051 1.081369262487683e-05 0 0.0036572238390124427 1.5610254630415682e-05 0 0.0038913011203387028 -0.00018594398823093902 0 0.0033707557167618461 -9.0741134817471485e-06 0 0.0038129938652024051 1.081369262487683e-05 0 0.0036572238390124427 1.5610254630415682e-05 0 0.0037580686071511642 0.00010730203548369026 0 0.0034369554509993002 -0.00012721188461632291 0 0.0036404098131228393 -0.00016298114692157799 0 0.0036274935913614263 4.8704565522806793e-05 0 0.0028473781097205775 -0.00012270283639451862 0 0.0033707557167618461 -9.0741134817471485e-06 0 0.0028032665094600293 0.00014011917727396102 0 0.0033707557167618461 -9.0741134817471485e-06 0 0.0033784027321065741 0.00023163307293157999 0 0.0036230193964688281 -1.8348807372217026e-05 0 0.0036477091465652073 0.00024174283295087278 0 0.0036477091465652073 0.00024174283295087278 0 0.0038441575708641758 0.00022301098250777885 0 0.0037580686071511642 0.00010730203548369026 0 0.0036230193964688281 -1.8348807372217026e-05 0 0.0036477091465652073 0.00024174283295087278 0 0.0037580686071511642 0.00010730203548369026 0 0.0038699651388519 9.9407574319560271e-05 0 0.0038129938652024051 1.081369262487683e-05 0 0.0037580686071511642 0.00010730203548369026 0 0.0038699651388519 9.9407574319560271e-05 0 0.0038441575708641758 0.00022301098250777885 0 0.0037580686071511642 0.00010730203548369026 0 0.0033707557167618461 -9.0741134817471485e-06 0 0.0037424875620405466 0.00014555839532703679 0 0.0038262761924583192 0.00043297184096175194 0 0.0037651822657962433 0.00035182506287932539 0 0.0036090564761571964 0.00044160145094715344 0 0.0039510808751254088 0.00032787783154992583 0 0.0038262761924583192 0.00043297184096175194 0 0.0037651822657962433 0.00035182506287932539 0 0.0036477091465652073 0.00024174283295087278 0 0.0038441575708641758 0.00022301098250777885 0 0.0037651822657962433 0.00035182506287932539 0 0.0039510808751254088 0.00032787783154992583 0 0.0038441575708641758 0.00022301098250777885 0 0.0037651822657962433 0.00035182506287932539 0 0.0036477091465652073 0.00024174283295087278 0 0.0037651822657962433 0.00035182506287932539 0 0.0036090564761571964 0.00044160145094715344 0 0.0033784027321065741 0.00023163307293157999 0 0.0036090564761571964 0.00044160145094715344 0 0.0034060810885489356 0.00052342684937931147 0 0.0033784027321065741 0.00023163307293157999 0 0.0036477091465652073 0.00024174283295087278 0 0.0036090564761571964 0.00044160145094715344 0 0.0036090564761571964 0.00044160145094715344 0 0.0035482869338878857 0.00057282387349058236 0 0.0037323627254992613 0.00063063265379501704 0 0.0034627202575800908 0.00066128563412265473 0 0.0035482869338878857 0.00057282387349058236 0 0.0037323627254992613 0.00063063265379501704 0 0.0036090564761571964 0.00044160145094715344 0 0.0035482869338878857 0.00057282387349058236 0 0.0034060810885489356 0.00052342684937931147 0 0.0034627202575800908 0.00066128563412265473 0 0.0035482869338878857 0.00057282387349058236 0 0.0034060810885489356 0.00052342684937931147 0 0.0038262761924583192 0.00043297184096175194 0 0.0036090564761571964 0.00044160145094715344 0 0.0037323627254992613 0.00063063265379501704 0 0.0037053771623386899 0.00027469747110162891 0 0.0036177990799881455 0.0003488500562611812 0 0.0036089028532153558 0.00044801864506157512 0 0.0037053771623386899 0.00027469747110162891 0 0.0035942976836103434 0.0002404763250261001 0 0.0036177990799881455 0.0003488500562611812 0 0.0035838503364457298 0.00038786239674604839 0 0.0035682638512269296 0.00016228186863801675 0 0.0041912533088767781 0.00021514524339543182 0 0.0035682638512269296 0.00016228186863801675 0 0.0041055624118697632 0.00021928213696282292 0 0.0040818891617695049 0.00013472943612436212 0 0.0041432755880697406 6.5815707804528685e-05 0 0.0028807814738713586 -9.7012837955376676e-05 0 0.0027074244540861571 5.4895082308798722e-05 0 0.002845801136622575 0.00025568992359895813 0 0.0035682638512269296 0.00016228186863801675 0 0.0025999699459934179 8.6569614674910571e-05 0 0.0040497443099911995 0.00017683383665240395 0 0.0041055624118697632 0.00021928213696282292 0 0.0040818891617695049 0.00013472943612436212 0 0.0035682638512269296 0.00016228186863801675 0 0.0026863573862458659 0.00011066379382392023 0 0.0030243712104869834 0.0003675934559079738 0 0.0026049670767585688 3.1798279019504454e-06 0 0.0024232249927638384 0.00020982470521176515 0 0.0033083049705363897 0.00011309740007778913 0 0.0030243712104869834 0.0003675934559079738 0 0.0026049670767585688 3.1798279019504454e-06 0 0.0022921900508033216 0.00015731130991955577 0 0.0023412576766626034 0.00011332748738936316 0 0.0021196215913553934 5.6735170560587902e-05 0 0.0026863573862458659 0.00011066379382392023 0 0.0021130160315607758 8.5098150662642495e-05 0 0.0026267568199447272 0.0001262188362520491 0 0.0027074244540861571 5.4895082308798722e-05 0 0.002845801136622575 0.00025568992359895813 0 0.0020032780261649407 6.4771770045193104e-05 0 0.0026863573862458659 0.00011066379382392023 0 0.0036177990799881455 0.0003488500562611812 0 0.0036078551285523811 0.00045562914018504411 0 0.0032967628449129534 0.00040649315536644731 0 0.0037237195973448636 0.0004655594599739264 0 0.0029828521918323393 0.00035024095635056529 0 0.0034627202575800908 0.00066128563412265473 0 0.0037323627254992613 0.00063063265379501704 0 0.0033750067874211242 0.00084204492294096174 0 0.0035682638512269296 0.00016228186863801675 0 0.0029828521918323393 0.00035024095635056529 0 0.0035942976836103434 0.0002404763250261001 0 0.0036177990799881455 0.0003488500562611812 0 0.0032967628449129534 0.00040649315536644731 0 0.0029828521918323393 0.00035024095635056529 0 0.002771995215294074 0.00050937211959326586 0 0.0026085223892241645 0.0002413867898822863 0 0.0024583285674474827 0.0003278144049919201 0 0.0023497839545041253 0.00020312086060494386 0 0.0033750067874211242 0.00084204492294096174 0 0.0031223137959312027 0.0008038725530524469 0 0.0032859508870228754 0.00066756209911500864 0 0.0034627202575800908 0.00066128563412265473 0 0.0033750067874211242 0.00084204492294096174 0 0.0032859508870228754 0.00066756209911500864 0 0.0029828521918323393 0.00035024095635056529 0 0.0020644010658656567 0.00012885723981013704 0 0.0020032780261649407 6.4771770045193104e-05 0 0.0021130160315607758 8.5098150662642495e-05 0 0.0019054538259723854 -1.0756210350131324e-05 0 0.0016655289272742881 -0.00015338366341140024 0 0.0015947930885283753 9.0072424994744418e-06 0 0.0026049670767585688 3.1798279019504454e-06 0 0.0024232249927638384 0.00020982470521176515 0 0.0023368518112963331 0.00015880956265074811 0 0.0016655289272742881 -0.00015338366341140024 0 0.0016216441920325288 -0.00017959595922197413 0 0.0015947930885283753 9.0072424994744418e-06 0 0.0021130160315607758 8.5098150662642495e-05 0 0.0020644010658656567 0.00012885723981013704 0 0.0017070652188941014 -4.8350507357387476e-05 0 0.0015278864582594005 -8.7946237816132795e-05 0 0.0015552156156062088 3.2362609075133434e-05 0 0.0016216441920325288 -0.00017959595922197413 0 0.0015947930885283753 9.0072424994744418e-06 0 0.0012921221438718258 9.1790782798277591e-06 0 0.0020644010658656567 0.00012885723981013704 0 0.0013869010033154734 -3.0279011613451419e-06 0 0.0023497839545041253 0.00020312086060494386 0 0.0023493403218038706 0.0002628983910494532 0 0.002111980284369013 0.00016795827902481891 0 0.0020644010658656567 0.00012885723981013704 0 0.0018332873193956797 0.00012765982784111835 0 0.0031223137959312027 0.0008038725530524469 0 0.0031240492370112828 0.00048878646613362883 0 0.0028647797367884861 0.00076177143057549611 0 0.0024491877610451156 0.00032173442893967914 0 0.0023493403218038706 0.0002628983910494532 0 0.002053484522162633 0.00023283818834121328 0 0.002771995215294074 0.00050937211959326586 0 0.0023271024477924925 0.00036637069245612562 0 0.0024583285674474827 0.0003278144049919201 0 0.0023497839545041253 0.00020312086060494386 0 0.0023493403218038706 0.0002628983910494532 0 0.0020644010658656567 0.00012885723981013704 0 0.0023716916530897082 0.00029436178216041921 0 0.0027498324219183776 0.00029281217650605856 0 0.0023271024477924925 0.00036637069245612562 0 0.0031223137959312027 0.0008038725530524469 0 0.0031240492370112828 0.00048878646613362883 0 0.0032859508870228754 0.00066756209911500864 0 0.0031240492370112828 0.00048878646613362883 0 0.0032859508870228754 0.00066756209911500864 0 0.0034060810885489356 0.00052342684937931147 0 0.0034627202575800908 0.00066128563412265473 0 0.0032859508870228754 0.00066756209911500864 0 0.0034060810885489356 0.00052342684937931147 0 0.0023492109840290414 1.3675684885108096e-05 0 0.002303443215191844 8.652258497166053e-05 0 0.0022956440595840785 1.4955456511905435e-05 0 0.0028032665094600293 0.00014011917727396102 0 0.0027498324219183776 0.00029281217650605856 0 0.0033784027321065741 0.00023163307293157999 0 0.0031240492370112828 0.00048878646613362883 0 0.0034060810885489356 0.00052342684937931147 0 0.002303443215191844 8.652258497166053e-05 0 0.002254197596646986 3.0974518167980473e-05 0 0.0022051157345083687 6.9405090498309764e-05 0 0.002303443215191844 8.652258497166053e-05 0 0.0022956440595840785 1.4955456511905435e-05 0 0.002254197596646986 3.0974518167980473e-05 0 0.002254197596646986 3.0974518167980473e-05 0 0.0022051157345083687 6.9405090498309764e-05 0 0.0022091364364820588 1.0611759257238567e-05 0 0.0022529320836536483 -1.3732118637146316e-05 0 0.002254197596646986 3.0974518167980473e-05 0 0.0022091364364820588 1.0611759257238567e-05 0 0.0022051157345083687 6.9405090498309764e-05 0 0.0022091364364820588 1.0611759257238567e-05 0 0.0021296752893167027 1.4211347545133965e-05 0 0.0021185059410261282 -2.5214509729472325e-05 0 0.0021296752893167027 1.4211347545133965e-05 0 0.00198104729399788 5.8697680889449216e-06 0 0.0021296752893167027 1.4211347545133965e-05 0 0.002119038505467749 0.00010581745882613733 0 0.00198104729399788 5.8697680889449216e-06 0 0.0022051157345083687 6.9405090498309764e-05 0 0.0021296752893167027 1.4211347545133965e-05 0 0.002119038505467749 0.00010581745882613733 0 0.002119038505467749 0.00010581745882613733 0 0.0021723908823387092 0.0002018409217637803 0 0.0019943107108575933 0.00020279727625500385 0 0.002303443215191844 8.652258497166053e-05 0 0.0022051157345083687 6.9405090498309764e-05 0 0.0022093538311614208 0.0001326002602466849 0 0.002119038505467749 0.00010581745882613733 0 0.0022093538311614208 0.0001326002602466849 0 0.0021723908823387092 0.0002018409217637803 0 0.002303443215191844 8.652258497166053e-05 0 0.0022093538311614208 0.0001326002602466849 0 0.0022236265566193589 0.00020297895196195225 0 0.0022051157345083687 6.9405090498309764e-05 0 0.002119038505467749 0.00010581745882613733 0 0.0022093538311614208 0.0001326002602466849 0 0.0023493403218038706 0.0002628983910494532 0 0.002111980284369013 0.00016795827902481891 0 0.002053484522162633 0.00023283818834121328 0 0.0022358991702747925 0.00021237561367759333 0 0.0021723908823387092 0.0002018409217637803 0 0.0022038508741048569 0.00024801421744640654 0 0.0023271024477924925 0.00036637069245612562 0 0.0021824433363635551 0.00027581567380475028 0 0.0022093538311614208 0.0001326002602466849 0 0.0022236265566193589 0.00020297895196195225 0 0.0021723908823387092 0.0002018409217637803 0 0.0023271024477924925 0.00036637069245612562 0 0.0018332873193956797 0.00012765982784111835 0 0.0015278864582594005 -8.7946237816132795e-05 0 0.0015552156156062088 3.2362609075133434e-05 0 0.001431101302749244 1.9784188820252971e-05 0 0.0014431418375256131 -9.1744246715599201e-06 0 0.001431101302749244 1.9784188820252971e-05 0 0.0014130510044583976 -1.7522109984215529e-06 0 0.0018332873193956797 0.00012765982784111835 0 0.0013470366341938908 -5.2107449050451838e-06 0 0.0014431418375256131 -9.1744246715599201e-06 0 0.0014130510044583976 -1.7522109984215529e-06 0 0.0013981428702735967 2.5257522712946203e-06 0 0.0021723908823387092 0.0002018409217637803 0 0.0022038508741048569 0.00024801421744640654 0 0.0019943107108575933 0.00020279727625500385 0 0.0018332873193956797 0.00012765982784111835 0 0.0016976891880368106 9.4600819868612029e-05 0 0.0014130510044583976 -1.7522109984215529e-06 0 0.0013981428702735967 2.5257522712946203e-06 0 0.0013995798825758171 -1.9846502886937045e-05 0 0.0014130510044583976 -1.7522109984215529e-06 0 0.0013995798825758171 -1.9846502886937045e-05 0 0.0014035910372242181 1.0788764480258762e-05 0 0.0013995798825758171 -1.9846502886937045e-05 0 0.0014035910372242181 1.0788764480258762e-05 0 0.0013677647269285278 4.9992430023199293e-07 0 0.0014035910372242181 1.0788764480258762e-05 0 0.0013677647269285278 4.9992430023199293e-07 0 0.0013868863755543961 5.6159036089683808e-05 0 0.001431101302749244 1.9784188820252971e-05 0 0.0014130510044583976 -1.7522109984215529e-06 0 0.0014035910372242181 1.0788764480258762e-05 0 0.001431101302749244 1.9784188820252971e-05 0 0.0014035910372242181 1.0788764480258762e-05 0 0.0014128920502718759 4.3067233479429237e-05 0 0.00126930614248984 1.0910167043735525e-05 0 0.0013666114214761983 -1.5096223823924201e-08 0 0.0011395140209333938 -3.2770763089081029e-08 0 0.00126930614248984 1.0910167043735525e-05 0 0.0013677647269285278 4.9992430023199293e-07 0 0.0013931246238267022 -1.2167377236067293e-05 0 0.00126930614248984 1.0910167043735525e-05 0 0.0013677647269285278 4.9992430023199293e-07 0 0.0013868863755543961 5.6159036089683808e-05 0 0.0013995798825758171 -1.9846502886937045e-05 0 0.0013677647269285278 4.9992430023199293e-07 0 0.0013931246238267022 -1.2167377236067293e-05 0 0.00126930614248984 1.0910167043735525e-05 0 0.0013666114214761983 -1.5096223823924201e-08 0 0.0013931246238267022 -1.2167377236067293e-05 0 0.0016976891880368106 9.4600819868612029e-05 0 0.0015934341440771353 3.9429797732141095e-08 0 0.0013995798825758171 -1.9846502886937045e-05 0 0.0013931246238267022 -1.2167377236067293e-05 0 0.0015929949533937705 4.0261936400910984e-08 0 0.0013981428702735967 2.5257522712946203e-06 0 0.0013995798825758171 -1.9846502886937045e-05 0 0.0015929949533937705 4.0261936400910984e-08 0 0.0013666114214761983 -1.5096223823924201e-08 0 0.0013931246238267022 -1.2167377236067293e-05 0 0.0015929949533937705 4.0261936400910984e-08 0 0.0019943107108575933 0.00020279727625500385 0 0.0015939814932538678 4.7857680195517659e-07 0 0.00198104729399788 5.8697680889449216e-06 0 0.002119038505467749 0.00010581745882613733 0 0.0019943107108575933 0.00020279727625500385 0 0.00198104729399788 5.8697680889449216e-06 0 0.0015939814932538678 4.7857680195517659e-07 0 0.00198104729399788 5.8697680889449216e-06 0 0.0018374548610046743 -1.5825943296777934e-07 0 0.0020761332075775471 -3.2260931137930242e-05 0 0.00198104729399788 5.8697680889449216e-06 0 0.0018374548610046743 -1.5825943296777934e-07 0 -7.5395306877270644e-05 0.00038263123006363912 0 -0.00020160945303238973 0.00034059620095751092 0 -0.00010364696297324414 0.00023320230246317875 0 0.00065195877269486557 -6.8613050042168572e-08 0 0.0007006764620046302 -2.6109757939540897e-06 0 0.00056627534557279334 9.0989600210655067e-07 0 0.00065195877269486557 -6.8613050042168572e-08 0 0.0007006764620046302 -2.6109757939540897e-06 0 0.00091246295799887311 7.3506333392754328e-08 0 -7.5395306877270644e-05 0.00038263123006363912 0 -0.00020160945303238973 0.00034059620095751092 0 -0.00017064503091780952 0.00046770791237800885 0 -0.00020160945303238973 0.00034059620095751092 0 -0.00017064503091780952 0.00046770791237800885 0 -0.00029820978082117314 0.00045873526831267415 0 -0.00017064503091780952 0.00046770791237800885 0 -0.00026190734860872497 0.00052807270112053965 0 -0.00029820978082117314 0.00045873526831267415 0 -0.00017064503091780952 0.00046770791237800885 0 -0.00014690033354254218 0.00057297334341288976 0 -0.00026190734860872497 0.00052807270112053965 0 -0.00017064503091780952 0.00046770791237800885 0 -4.8031777685003676e-05 0.00052168881262566399 0 -0.00014690033354254218 0.00057297334341288976 0 -7.5395306877270644e-05 0.00038263123006363912 0 -0.00017064503091780952 0.00046770791237800885 0 -4.8031777685003676e-05 0.00052168881262566399 0 0.0007006764620046302 -2.6109757939540897e-06 0 0.00091246295799887311 7.3506333392754328e-08 0 0.00090295784475415662 6.5058595821995211e-06 0 0.00030544118891896185 0.00017691772043634742 0 0.00063889708983929793 0.00022497141409510266 0 0.00091287601133444268 7.4921671590012127e-08 0 0.0009711588851436324 7.7995809258897319e-06 0 0.00099046453350655115 1.7914975029787215e-06 0 0.00091240063350316904 2.9867868996279491e-07 0 0.00063889708983929793 0.00022497141409510266 0 0.00099046453350655115 1.7914975029787215e-06 0 0.0010931512756186489 -1.1023827939818385e-05 0 0.0011395140209333938 -3.2770763089081029e-08 0 0.00091287601133444268 7.4921671590012127e-08 0 0.00099046453350655115 1.7914975029787215e-06 0 0.0011395140209333938 -3.2770763089081029e-08 0 0.00063889708983929793 0.00022497141409510266 0 0.00066010317178707804 0.00017882853100656163 0 0.00063889708983929793 0.00022497141409510266 0 0.00043489527680012696 0.00030935932149589571 0 0.00099046453350655115 1.7914975029787215e-06 0 0.0010931512756186489 -1.1023827939818385e-05 0 0.0011148154640429587 -3.159166091128733e-06 0 0.00099404783589903301 2.2457068098196937e-05 0 0.00099046453350655115 1.7914975029787215e-06 0 0.0011148154640429587 -3.159166091128733e-06 0 0.0010931512756186489 -1.1023827939818385e-05 0 0.0011205118904676801 -1.5378163236277645e-05 0 0.0011148154640429587 -3.159166091128733e-06 0 0.0010931512756186489 -1.1023827939818385e-05 0 0.0011395140209333938 -3.2770763089081029e-08 0 0.0011729343582633329 -5.2491175269696068e-06 0 0.0010931512756186489 -1.1023827939818385e-05 0 0.0011205118904676801 -1.5378163236277645e-05 0 0.0011729343582633329 -5.2491175269696068e-06 0 0.0011205118904676801 -1.5378163236277645e-05 0 0.0011284735638935205 -4.8492034867909156e-06 0 0.0011729343582633329 -5.2491175269696068e-06 0 0.0012499937028534252 1.5449391079202368e-05 0 0.001258168170825062 4.1102686795326868e-05 0 0.0011284735638935205 -4.8492034867909156e-06 0 0.0011729343582633329 -5.2491175269696068e-06 0 0.0010967984855487349 1.9495980593639761e-05 0 0.00126930614248984 1.0910167043735525e-05 0 0.0011729343582633329 -5.2491175269696068e-06 0 0.0010967984855487349 1.9495980593639761e-05 0 0.00126930614248984 1.0910167043735525e-05 0 0.0011395140209333938 -3.2770763089081029e-08 0 0.0011729343582633329 -5.2491175269696068e-06 0 0.0014035910372242181 1.0788764480258762e-05 0 0.0014128920502718759 4.3067233479429237e-05 0 0.0013868863755543961 5.6159036089683808e-05 0 0.0014128920502718759 4.3067233479429237e-05 0 0.0013868863755543961 5.6159036089683808e-05 0 0.0014299310726691829 8.6923051726060414e-05 0 0.0011205118904676801 -1.5378163236277645e-05 0 0.0011284735638935205 -4.8492034867909156e-06 0 0.0011083064250488796 -4.1753541716255429e-06 0 0.0011284735638935205 -4.8492034867909156e-06 0 0.0010967984855487349 1.9495980593639761e-05 0 0.0011083064250488796 -4.1753541716255429e-06 0 0.0011205118904676801 -1.5378163236277645e-05 0 0.0011083064250488796 -4.1753541716255429e-06 0 0.0011110872495798591 -8.9046318103793812e-06 0 0.0011083064250488796 -4.1753541716255429e-06 0 0.0011110872495798591 -8.9046318103793812e-06 0 0.001104228826681119 -9.2340812052541401e-06 0 0.0010967984855487349 1.9495980593639761e-05 0 0.0011083064250488796 -4.1753541716255429e-06 0 0.00099468732052309695 -5.7487053241351839e-05 0 0.001258168170825062 4.1102686795326868e-05 0 0.001027197656400605 0.00010281881056789535 0 0.0010967984855487349 1.9495980593639761e-05 0 0.00099468732052309695 -5.7487053241351839e-05 0 0.00096279396609799531 -3.8530596327971891e-05 0 0.001145198042156715 7.9883629007862432e-05 0 0.00058533940632362746 0.00022733414038824916 0 -0.00014690033354254218 0.00057297334341288976 0 -0.00026190734860872497 0.00052807270112053965 0 -0.00023883976636524968 0.00061665031933733571 0 0.00043489527680012696 0.00030935932149589571 0 0.00058533940632362746 0.00022733414038824916 0 0.0011205118904676801 -1.5378163236277645e-05 0 0.0011110872495798591 -8.9046318103793812e-06 0 0.0011148154640429587 -3.159166091128733e-06 0 0.0011110872495798591 -8.9046318103793812e-06 0 0.0011148154640429587 -3.159166091128733e-06 0 0.001104228826681119 -9.2340812052541401e-06 0 0.001027197656400605 0.00010281881056789535 0 0.00089206771960531638 0.00029114443115196977 0 0.00066880585573218733 0.00030442507749239693 0 0.00065500096890903567 0.00031260359431765461 0 0.00060486851822162257 0.00027306795267408409 0 -0.00026190734860872497 0.00052807270112053965 0 -0.00023883976636524968 0.00061665031933733571 0 -0.00033420389201989137 0.00055694800159939903 0 0.00065500096890903567 0.00031260359431765461 0 0.00059196739233956914 0.00028300363746078174 0 0.00060486851822162257 0.00027306795267408409 0 0.00058533940632362746 0.00022733414038824916 0 6.9068975229355696e-05 0.00039255372192843882 0 -0.00026190734860872497 0.00052807270112053965 0 -0.00033420389201989137 0.00055694800159939903 0 -0.00034325869359022338 0.00049457904774810428 0 0.0013869010033154734 -3.0279011613451419e-06 0 0.001027197656400605 0.00010281881056789535 0 0.0015552156156062088 3.2362609075133434e-05 0 0.001431101302749244 1.9784188820252971e-05 0 0.0014299310726691829 8.6923051726060414e-05 0 0.00058533940632362746 0.00022733414038824916 0 0.001027197656400605 0.00010281881056789535 0 0.001431101302749244 1.9784188820252971e-05 0 0.0014128920502718759 4.3067233479429237e-05 0 0.0014299310726691829 8.6923051726060414e-05 0 0.0012921221438718258 9.1790782798277591e-06 0 0.00098284505726556207 0.00018850863528289548 0 0.0012112309323341788 0.00029561980296446635 0 0.0012921221438718258 9.1790782798277591e-06 0 0.0012112309323341788 0.00029561980296446635 0 0.001441766665691285 0.00018259209876734972 0 0.00059196739233956914 0.00028300363746078174 0 0.00060486851822162257 0.00027306795267408409 0 0.00054648817186347953 0.00024346036224500282 0 0.00059196739233956914 0.00028300363746078174 0 0.00054648817186347953 0.00024346036224500282 0 0.0005344350444696273 0.00025490049735234406 0 -0.00033420389201989137 0.00055694800159939903 0 -0.00034325869359022338 0.00049457904774810428 0 -0.00039444170182128613 0.00050134013737757792 0 0.00089206771960531638 0.00029114443115196977 0 0.00095113558470928542 0.00021567313162379543 0 6.9068975229355696e-05 0.00039255372192843882 0 0.0002728081790119733 0.00038053538720314454 0 -0.00037345081538567467 0.00047091582071650731 0 -0.00034325869359022338 0.00049457904774810428 0 -0.00039444170182128613 0.00050134013737757792 0 -0.00037345081538567467 0.00047091582071650731 0 -0.00036771516638758298 0.00044202326521819809 0 -0.00038750062414906136 0.00045232511114437875 0 -0.00037345081538567467 0.00047091582071650731 0 -0.00034715393347034974 0.00045926304338993521 0 -0.00034325869359022338 0.00049457904774810428 0 -0.00037345081538567467 0.00047091582071650731 0 -0.00034715393347034974 0.00045926304338993521 0 -0.00036771516638758298 0.00044202326521819809 0 -0.00026190734860872497 0.00052807270112053965 0 -0.00034325869359022338 0.00049457904774810428 0 -0.00029820978082117314 0.00045873526831267415 0 -0.00034715393347034974 0.00045926304338993521 0 -0.00034325869359022338 0.00049457904774810428 0 -0.00029820978082117314 0.00045873526831267415 0 -0.00034715393347034974 0.00045926304338993521 0 -0.00029820978082117314 0.00045873526831267415 0 -0.00034198111510919148 0.00043351232110729233 0 -0.00029820978082117314 0.00045873526831267415 0 -0.00034198111510919148 0.00043351232110729233 0 -0.00033457972188118254 0.00039737098736734156 0 -0.00021540467143144851 0.00040771000658510099 0 -0.00029820978082117314 0.00045873526831267415 0 -0.00033457972188118254 0.00039737098736734156 0 -0.0002421498760106681 0.0004047854308500798 0 -0.0002753932593749676 0.00043808907658147848 0 -0.00021540467143144851 0.00040771000658510099 0 -0.00033457972188118254 0.00039737098736734156 0 -0.00026752205369675794 0.00030565839179814259 0 -0.00034198111510919148 0.00043351232110729233 0 -0.00033457972188118254 0.00039737098736734156 0 -0.00036367652377049139 0.00041978305827021603 0 -0.00035014722004306231 0.00040139113219570536 0 -0.00054202029732331413 0.00038347677015831418 0 -0.00033457972188118254 0.00039737098736734156 0 -0.00036367652377049139 0.00041978305827021603 0 -0.00038612699187252745 0.00040616914432511919 0 -0.00036367652377049139 0.00041978305827021603 0 -0.00038968774526202407 0.00043105085606007698 0 -0.00038612699187252745 0.00040616914432511919 0 -0.00036367652377049139 0.00041978305827021603 0 -0.00036771516638758298 0.00044202326521819809 0 -0.00038968774526202407 0.00043105085606007698 0 -0.00036771516638758298 0.00044202326521819809 0 -0.00038968774526202407 0.00043105085606007698 0 -0.00038750062414906136 0.00045232511114437875 0 -0.00034198111510919148 0.00043351232110729233 0 -0.00036367652377049139 0.00041978305827021603 0 -0.00036771516638758298 0.00044202326521819809 0 -0.00034715393347034974 0.00045926304338993521 0 -0.00034198111510919148 0.00043351232110729233 0 -0.00036771516638758298 0.00044202326521819809 0 -0.00040841844092447273 0.00044644504273311421 0 -0.00038968774526202407 0.00043105085606007698 0 -0.00038750062414906136 0.00045232511114437875 0 -0.00040841844092447273 0.00044644504273311421 0 -0.00038968774526202407 0.00043105085606007698 0 -0.00041643587387752876 0.00042219380819200585 0 -0.00038968774526202407 0.00043105085606007698 0 -0.00041643587387752876 0.00042219380819200585 0 -0.00038612699187252745 0.00040616914432511919 0 -0.00044495753719230496 0.00045704384957216232 0 -0.00046875814401400867 0.000413220254715576 0 -0.00044252342857818271 0.00040073376485548885 0 -0.00041643587387752876 0.00042219380819200585 0 -0.00044495753719230496 0.00045704384957216232 0 -0.00044252342857818271 0.00040073376485548885 0 -0.00040841844092447273 0.00044644504273311421 0 -0.00041643587387752876 0.00042219380819200585 0 -0.00044495753719230496 0.00045704384957216232 0 0.00096943169328680913 0.00030814164660627135 0 0.00095113558470928542 0.00021567313162379543 0 0.00056920105944006255 0.00031683442796725484 0 0.00056718689119731182 0.00031919563830222258 0 0.00056118719723506215 0.00031531793834542091 0 -0.00044495753719230496 0.00045704384957216232 0 -0.00039892234583281373 0.00047356686104148304 0 -0.00039444170182128613 0.00050134013737757792 0 0.00056718689119731182 0.00031919563830222258 0 0.00055919788287197333 0.0003167195895931449 0 0.00056118719723506215 0.00031531793834542091 0 -0.00040841844092447273 0.00044644504273311421 0 -0.00044495753719230496 0.00045704384957216232 0 -0.00039892234583281373 0.00047356686104148304 0 -2.4482240325779717e-06 0.00038946350653011223 0 0.0002728081790119733 0.00038053538720314454 0 -0.00040841844092447273 0.00044644504273311421 0 -0.00039892234583281373 0.00047356686104148304 0 -0.00038750062414906136 0.00045232511114437875 0 -0.00037345081538567467 0.00047091582071650731 0 -0.00039892234583281373 0.00047356686104148304 0 -0.00038750062414906136 0.00045232511114437875 0 -0.00037345081538567467 0.00047091582071650731 0 -0.00039892234583281373 0.00047356686104148304 0 -0.00039444170182128613 0.00050134013737757792 0 0.0014390333882340447 0.00040236427888426529 0 0.001441766665691285 0.00018259209876734972 0 0.0016727181345797695 0.00019605732063127313 0 0.00095113558470928542 0.00021567313162379543 0 0.0015472552728760817 9.9480498984333565e-05 0 0.0012112309323341788 0.00029561980296446635 0 0.0014390333882340447 0.00040236427888426529 0 0.001441766665691285 0.00018259209876734972 0 0.0002728081790119733 0.00038053538720314454 0 0.00095113558470928542 0.00021567313162379543 0 0.0015947930885283753 9.0072424994744418e-06 0 0.001441766665691285 0.00018259209876734972 0 0.0016727181345797695 0.00019605732063127313 0 0.0015947930885283753 9.0072424994744418e-06 0 0.0012921221438718258 9.1790782798277591e-06 0 0.001441766665691285 0.00018259209876734972 0 0.0019054538259723854 -1.0756210350131324e-05 0 0.0015947930885283753 9.0072424994744418e-06 0 0.0016727181345797695 0.00019605732063127313 0 0.0020032780261649407 6.4771770045193104e-05 0 0.0015472552728760817 9.9480498984333565e-05 0 0.0014305137724251898 0.00026768639228537741 0 0.001385571767929028 2.951291074472941e-05 0 0.0015395409046609903 6.2715940297911255e-05 0 0.0014305137724251898 0.00026768639228537741 0 0.001222214526523875 0.00017310109086837619 0 0.001385571767929028 2.951291074472941e-05 0 0.0014305137724251898 0.00026768639228537741 0 0.0015395409046609903 6.2715940297911255e-05 0 0.0016543780793826113 0.00016287345948610163 0 0.0015491659018225976 -0.00011241145189888235 0 0.001385571767929028 2.951291074472941e-05 0 0.0015395409046609903 6.2715940297911255e-05 0 0.0015491659018225976 -0.00011241145189888235 0 0.0015395409046609903 6.2715940297911255e-05 0 0.001678250700172213 -3.5368088029299471e-05 0 0.0020032780261649407 6.4771770045193104e-05 0 0.0025999699459934179 8.6569614674910571e-05 0 0.0040818891617695049 0.00013472943612436212 0 0.0041432755880697406 6.5815707804528685e-05 0 0.0040019107683804929 4.6371803465289432e-05 0 0.0015395409046609903 6.2715940297911255e-05 0 0.001678250700172213 -3.5368088029299471e-05 0 0.0016543780793826113 0.00016287345948610163 0 0.0025999699459934179 8.6569614674910571e-05 0 0.0016625350027267049 6.1799092903429601e-05 0 0.0017454748381969124 -9.3183277225916152e-05 0 0.0017287502204450631 -1.6448367367228556e-05 0 0.0018294327992471216 -4.7307511481998438e-05 0 0.0016625350027267049 6.1799092903429601e-05 0 0.0012648210487740408 0.00014739754102003683 0 0.0017287502204450631 -1.6448367367228556e-05 0 0.0017154754533036324 6.172676638866657e-05 0 0.0017835694993536702 2.4829623085636159e-05 0 0.00056920105944006255 0.00031683442796725484 0 0.00056718689119731182 0.00031919563830222258 0 0.00058380660442037061 0.00032053623030926863 0 0.00096943169328680913 0.00030814164660627135 0 0.0012648210487740408 0.00014739754102003683 0 0.0014305137724251898 0.00026768639228537741 0 0.0016543780793826113 0.00016287345948610163 0 0.001632503502851096 0.00035920947503804095 0 0.00056718689119731182 0.00031919563830222258 0 0.00058235749856864289 0.00032442607838611986 0 0.00058380660442037061 0.00032053623030926863 0 -0.00044495753719230496 0.00045704384957216232 0 -0.00049100096081697959 0.00042840027964768641 0 -0.00046875814401400867 0.000413220254715576 0 -2.4482240325779717e-06 0.00038946350653011223 0 0.00021310063810919597 0.00029646379484316401 0 0.00021310063810919597 0.00029646379484316401 0 0.0003639769961490341 9.2457883295476e-05 0 0.0014300994180461539 3.4712417231471461e-05 0 0.0014396185922005186 -5.3039275175909631e-05 0 0.0017122005399137594 0.00016433539901347495 0 0.0012648210487740408 0.00014739754102003683 0 0.0019034323483805545 8.8323272216583098e-05 0 -0.00080246357197635235 0.00011109772570215596 0 -0.00084329569146138564 5.7764179226600308e-05 0 -0.00088068853181882728 5.2791902086007275e-05 0 0.00021310063810919597 0.00029646379484316401 0 0.0012648210487740408 0.00014739754102003683 0 -0.00080246357197635235 0.00011109772570215596 0 -0.00079889817792043981 3.5673754129715836e-05 0 -0.00084329569146138564 5.7764179226600308e-05 0 -0.00080034714706705642 0.00017520598529283498 0 -0.00091006400390014662 2.592365193777164e-05 0 0.00021310063810919597 0.00029646379484316401 0 -0.00080034714706705642 0.00017520598529283498 0 -0.00093591520892443044 2.9979534844281757e-05 0 -0.00091669520822050185 5.2694367635089459e-05 0 -0.00088341185928612431 3.8012261437166486e-05 0 -0.00079889817792043981 3.5673754129715836e-05 0 -0.00084329569146138564 5.7764179226600308e-05 0 -0.00088341185928612431 3.8012261437166486e-05 0 -0.0009832071458245968 0.00028456720353522817 0 -0.0009309727070579511 0.00024968051967711987 0 -0.00091045563302682238 0.00030776778722027001 0 -0.00049100096081697959 0.00042840027964768641 0 -0.00049141238852364033 0.00039276248918356074 0 -0.00046875814401400867 0.000413220254715576 0 -0.00049141238852364033 0.00039276248918356074 0 -0.00046875814401400867 0.000413220254715576 0 -0.00044252342857818271 0.00040073376485548885 0 -0.00080034714706705642 0.00017520598529283498 0 -0.00065762192581737345 0.00037307354785365683 0 -0.0009832071458245968 0.00028456720353522817 0 -0.0009309727070579511 0.00024968051967711987 0 -0.00097441647105855054 0.0001932417885149425 0 -0.0009309727070579511 0.00024968051967711987 0 -0.00097441647105855054 0.0001932417885149425 0 -0.00088977373675086415 0.00020448767697849629 0 -0.00080034714706705642 0.00017520598529283498 0 -0.00097969236701499316 0.00013490902473573509 0 -0.00093591520892443044 2.9979534844281757e-05 0 -0.00091669520822050185 5.2694367635089459e-05 0 -0.00094446743823753485 8.1965885962666165e-05 0 -0.00091669520822050185 5.2694367635089459e-05 0 -0.00091425515780967602 6.805032047383165e-05 0 -0.00094446743823753485 8.1965885962666165e-05 0 -0.00091669520822050185 5.2694367635089459e-05 0 -0.00091425515780967602 6.805032047383165e-05 0 -0.00089634343632036977 5.7111791752366322e-05 0 -0.00091425515780967602 6.805032047383165e-05 0 -0.00092331591569586795 8.5702844687392704e-05 0 -0.00094446743823753485 8.1965885962666165e-05 0 -0.00092331591569586795 8.5702844687392704e-05 0 -0.0009386888121822259 9.8633677889372974e-05 0 -0.00094446743823753485 8.1965885962666165e-05 0 -0.00092331591569586795 8.5702844687392704e-05 0 -0.0009386888121822259 9.8633677889372974e-05 0 -0.00092543051393786349 9.438143035658914e-05 0 -0.00096169707905428934 0.00010937413487660544 0 -0.0009386888121822259 9.8633677889372974e-05 0 -0.00094446743823753485 8.1965885962666165e-05 0 -0.00094326365143051398 0.00010143406500114385 0 -0.00096169707905428934 0.00010937413487660544 0 -0.0009386888121822259 9.8633677889372974e-05 0 -0.00096169707905428934 0.00010937413487660544 0 -0.00097441647105855054 0.0001932417885149425 0 -0.00092744326864361583 0.00015491014816169249 0 -0.00096169707905428934 0.00010937413487660544 0 -0.00092284527159210194 0.00011462956440406946 0 -0.00092744326864361583 0.00015491014816169249 0 -0.00095623640802839586 0.00011299934822409282 0 -0.00097969236701499316 0.00013490902473573509 0 -0.00097441647105855054 0.0001932417885149425 0 -0.00088977373675086415 0.00020448767697849629 0 -0.00092744326864361583 0.00015491014816169249 0 -0.00088977373675086415 0.00020448767697849629 0 -0.00092744326864361583 0.00015491014816169249 0 -0.00087624839682933528 0.0001516516363759931 0 -0.00092284527159210194 0.00011462956440406946 0 -0.00092744326864361583 0.00015491014816169249 0 -0.00087624839682933528 0.0001516516363759931 0 -0.0008647195641062808 0.00010816687721298971 0 -0.00087624839682933528 0.0001516516363759931 0 -0.00082918208155636044 0.00014028660122833057 0 -0.00087624839682933528 0.0001516516363759931 0 -0.00081963631280228841 0.00018670201855965922 0 -0.00082918208155636044 0.00014028660122833057 0 -0.00088977373675086415 0.00020448767697849629 0 -0.00087624839682933528 0.0001516516363759931 0 -0.00081963631280228841 0.00018670201855965922 0 -0.00088977373675086415 0.00020448767697849629 0 -0.00082875218024641934 0.00022907045028665375 0 -0.00081963631280228841 0.00018670201855965922 0 -0.00082875218024641934 0.00022907045028665375 0 -0.00079659524788644519 0.00028175945704320745 0 -0.00079525971986312938 0.00023292792350494639 0 -0.00082875218024641934 0.00022907045028665375 0 -0.00087193106137877635 0.00024885285491081747 0 -0.00079659524788644519 0.00028175945704320745 0 -0.00088977373675086415 0.00020448767697849629 0 -0.00082875218024641934 0.00022907045028665375 0 -0.00087193106137877635 0.00024885285491081747 0 -0.0009309727070579511 0.00024968051967711987 0 -0.00088977373675086415 0.00020448767697849629 0 -0.00087193106137877635 0.00024885285491081747 0 -0.00087193106137877635 0.00024885285491081747 0 -0.00091045563302682238 0.00030776778722027001 0 -0.00079659524788644519 0.00028175945704320745 0 -0.0009309727070579511 0.00024968051967711987 0 -0.00087193106137877635 0.00024885285491081747 0 -0.00091045563302682238 0.00030776778722027001 0 -0.00041643587387752876 0.00042219380819200585 0 -0.00044252342857818271 0.00040073376485548885 0 -0.00038612699187252745 0.00040616914432511919 0 -0.00091045563302682238 0.00030776778722027001 0 -0.00070277269943159657 0.00037241577720868897 0 -0.00079659524788644519 0.00028175945704320745 0 -0.00065762192581737345 0.00037307354785365683 0 -0.00054202029732331413 0.00038347677015831418 0 -0.00070277269943159657 0.00037241577720868897 0 -0.00079659524788644519 0.00028175945704320745 0 -0.00049785721157643041 0.00027031596638209265 0 -0.00033457972188118254 0.00039737098736734156 0 -0.00070277269943159657 0.00037241577720868897 0 -0.00049785721157643041 0.00027031596638209265 0 -0.00079659524788644519 0.00028175945704320745 0 -0.00049785721157643041 0.00027031596638209265 0 -0.00055225367756980869 8.9270707211341955e-05 0 -0.00049785721157643041 0.00027031596638209265 0 -0.00026752205369675794 0.00030565839179814259 0 -0.00029501710996098895 0.0001466620404896902 0 -0.00033457972188118254 0.00039737098736734156 0 -0.00049785721157643041 0.00027031596638209265 0 -0.00026752205369675794 0.00030565839179814259 0 -0.00049785721157643041 0.00027031596638209265 0 -0.00029501710996098895 0.0001466620404896902 0 -0.00055225367756980869 8.9270707211341955e-05 0 -0.00029501710996098895 0.0001466620404896902 0 -0.00055225367756980869 8.9270707211341955e-05 0 -0.00034328542357514244 -6.1415293327979508e-05 0 -0.00067199855052037238 0.00016457085508723602 0 -0.00057235785561938557 7.314993620379789e-05 0 -0.00082875218024641934 0.00022907045028665375 0 -0.00079525971986312938 0.00023292792350494639 0 -0.00081963631280228841 0.00018670201855965922 0 -0.0007917446234943661 0.00027182460214029042 0 -0.00067199855052037238 0.00016457085508723602 0 -0.00081963631280228841 0.00018670201855965922 0 -0.00078412137955400458 0.00015016756679903391 0 -0.00075565415144122547 0.00019835642184675952 0 -0.00079525971986312938 0.00023292792350494639 0 -0.00081963631280228841 0.00018670201855965922 0 -0.00075565415144122547 0.00019835642184675952 0 -0.00079850852573445507 0.00010146616755577124 0 -0.00082918208155636044 0.00014028660122833057 0 -0.00078412137955400458 0.00015016756679903391 0 -0.00081963631280228841 0.00018670201855965922 0 -0.00082918208155636044 0.00014028660122833057 0 -0.00078412137955400458 0.00015016756679903391 0 -0.00078412137955400458 0.00015016756679903391 0 -0.00074271183043093979 0.00015489314337555196 0 -0.00075565415144122547 0.00019835642184675952 0 -0.00075261786807121834 0.0001193814012963049 0 -0.00078412137955400458 0.00015016756679903391 0 -0.00074271183043093979 0.00015489314337555196 0 0.00026338136291440971 6.4886063659728014e-06 0 0.00024016906139074458 -1.5977865915951589e-05 0 0.00026477451168693957 -1.855098885925753e-05 0 -0.00074271183043093979 0.00015489314337555196 0 -0.00075565415144122547 0.00019835642184675952 0 -0.00070457236390963581 0.00016027376812385394 0 -0.00024761400071933372 2.8923843398299195e-05 0 9.6332658618050396e-05 -6.3158354846695941e-06 0 -0.00034328542357514244 -6.1415293327979508e-05 0 -0.00014868589126025965 -0.00021325963172193362 0 -9.8088235532534611e-05 1.7521426623868408e-05 0 -0.00057235785561938557 7.314993620379789e-05 0 -0.00024761400071933372 2.8923843398299195e-05 0 -0.00074271183043093979 0.00015489314337555196 0 -0.00070457236390963581 0.00016027376812385394 0 -0.00070936415210322854 0.00013880146021993194 0 -0.00024761400071933372 2.8923843398299195e-05 0 -5.7783415500819466e-05 5.2841255806478374e-05 0 -0.00028915946910294051 8.81141241740842e-05 0 -0.00029461852707301221 6.4268730576351587e-05 0 -0.00027263843817231735 7.5124161167480899e-05 0 -0.00024761400071933372 2.8923843398299195e-05 0 -0.00045686375995090077 8.8004881223792972e-05 0 -0.00022488564208886463 1.7527001491146433e-05 0 -0.00030066434426278936 0.00012056047945787875 0 -0.00024482742101195661 0.00016290312523484449 0 -0.00045686375995090077 8.8004881223792972e-05 0 -5.7783415500819466e-05 5.2841255806478374e-05 0 -0.00077716208127193587 0.00010182052697286535 0 -0.00045686375995090077 8.8004881223792972e-05 0 -0.00075261786807121834 0.0001193814012963049 0 -0.00074271183043093979 0.00015489314337555196 0 -0.00070936415210322854 0.00013880146021993194 0 -3.8060047871547985e-05 -1.847881390003823e-09 0 8.3673289619595975e-05 2.0820523811077761e-07 0 0.00016403422364018739 2.2004152140166452e-09 0 -3.853817285867675e-05 4.0585598205387564e-08 0 -5.7783415500819466e-05 5.2841255806478374e-05 0 0.00025330301738691078 2.6833343120489417e-05 0 0.00016499625517061079 -1.4743001834155051e-08 0 0.00024016906139074458 -1.5977865915951589e-05 0 0.00026338136291440971 6.4886063659728014e-06 0 0.00025330301738691078 2.6833343120489417e-05 0 0.00024016906139074458 -1.5977865915951589e-05 0 -5.7783415500819466e-05 5.2841255806478374e-05 0 0.00016462454743818611 7.2624911754095035e-08 0 0.00016499625517061079 -1.4743001834155051e-08 0 0.00024016906139074458 -1.5977865915951589e-05 0 0.00039084326381813426 1.5286161928520535e-08 0 0.00024016906139074458 -1.5977865915951589e-05 0 0.00039084326381813426 1.5286161928520535e-08 0 0.00026477451168693957 -1.855098885925753e-05 0 0.00039084326381813426 1.5286161928520535e-08 0 0.00026477451168693957 -1.855098885925753e-05 0 0.00030116747427506754 0.00010292476376441528 0 9.6332658618050396e-05 -6.3158354846695941e-06 0 0.00016228207545816468 0.00013087996035172352 0 0.00039154756079395664 -1.5333511092092153e-07 0 0.00016228207545816468 0.00013087996035172352 0 -0.00029501710996098895 0.0001466620404896902 0 -9.8088235532534611e-05 1.7521426623868408e-05 0 -5.2165267496124405e-05 0.0002521006177123092 0 -0.00029501710996098895 0.0001466620404896902 0 -0.00034328542357514244 -6.1415293327979508e-05 0 -9.8088235532534611e-05 1.7521426623868408e-05 0 -0.00021540467143144851 0.00040771000658510099 0 -0.00026752205369675794 0.00030565839179814259 0 -5.2165267496124405e-05 0.0002521006177123092 0 -0.00026752205369675794 0.00030565839179814259 0 -0.00029501710996098895 0.0001466620404896902 0 -5.2165267496124405e-05 0.0002521006177123092 0 -0.0002421498760106681 0.0004047854308500798 0 0.00016228207545816468 0.00013087996035172352 0 0.00065195877269486557 -6.8613050042168572e-08 0 0.00039158304909781949 6.9670022215424607e-08 0 0.00056627534557279334 9.0989600210655067e-07 0 0.00030544118891896185 0.00017691772043634742 0 0.00016228207545816468 0.00013087996035172352 0 0.0041787079175117934 0.00018533476154668023 0 0.0041710853808135965 0.00017090381613236392 0 0.0041804876617122068 0.00018001888408219135 0 0.0041710853808135965 0.00017090381613236392 0 0.0041528749013854498 0.00015507550638534735 0 0.0041804876617122068 0.00018001888408219135 0 0.0041787079175117934 0.00018533476154668023 0 0.0041786377456626703 0.00017880297434945392 0 0.0041710853808135965 0.00017090381613236392 0 0.0041787079175117934 0.00018533476154668023 0 0.0041793691582325569 0.00018579633823509296 0 0.0041771623839109723 0.00019166831107849817 0 0.0041815804541648427 0.00018066416510376646 0 0.0041875308666675217 0.00017054615313893213 0 0.0041761624178959667 0.00019450410111050538 0 0.0041787079175117934 0.00018533476154668023 0 0.0041793691582325569 0.00018579633823509296 0 0.0041786377456626703 0.00017880297434945392 0 0.0041793691582325569 0.00018579633823509296 0 0.0041815804541648427 0.00018066416510376646 0 0.0041761624178959667 0.00019450410111050538 0 0.0041793691582325569 0.00018579633823509296 0 0.0041771623839109723 0.00019166831107849817 0 0.0041761624178959667 0.00019450410111050538 0 0.0041786377456626703 0.00017880297434945392 0 0.0041794681208701025 0.0001717153745696545 0 0.0041710853808135965 0.00017090381613236392 0 0.0041793691582325569 0.00018579633823509296 0 0.0041815804541648427 0.00018066416510376646 0 0.0041786377456626703 0.00017880297434945392 0 0.0041815804541648427 0.00018066416510376646 0 0.0041786377456626703 0.00017880297434945392 0 0.0041794681208701025 0.0001717153745696545 0 0.0041794681208701025 0.0001717153745696545 0 0.0041875308666675217 0.00017054615313893213 0 0.0041732364328488127 0.00016082466388138197 0 0.0041713403432895434 0.00013780910658006294 0 0.0041705760992358752 0.00013688096129110724 0 0.0041612544512893103 0.00013589911903534054 0 0.0039501790985375781 0.00012214997073540154 0 0.0042457720910392049 0.00016634352159273935 0 0.0041815804541648427 0.00018066416510376646 0 0.0041794681208701025 0.0001717153745696545 0 0.0041875308666675217 0.00017054615313893213 0 0.0035157241905187289 -9.5462732295219677e-05 0 0.0036743257633683741 -4.3341721052129731e-05 0 0.0036507910392473168 -2.4637812437539029e-05 0 0.0037035808278773901 4.9742885746746001e-06 0 0.0037336798045326863 5.3237675245007667e-05 0 0.0039501790985375781 0.00012214997073540154 0 0.0036743257633683741 -4.3341721052129731e-05 0 0.0035157241905187289 -9.5462732295219677e-05 0 0.0039501790985375781 0.00012214997073540154 0 0.0024241707941643851 -0.00018189330984812332 0 0.0024663187071183976 -0.0001524728541373664 0 0.0023816182828869524 -0.00012205404966909771 0 0.0024663187071183976 -0.0001524728541373664 0 0.0023816182828869524 -0.00012205404966909771 0 0.0023984323178953934 -3.3061298809654816e-05 0 0.0036743257633683741 -4.3341721052129731e-05 0 0.0041833834237970579 0.00012639376528196251 0 0.0041732364328488127 0.00016082466388138197 0 0.0041646125320486975 0.0001556821613099668 0 0.0041612544512893103 0.00013589911903534054 0 0.0041875308666675217 0.00017054615313893213 0 0.0041732364328488127 0.00016082466388138197 0 0.0041612544512893103 0.00013589911903534054 0 0.0041710853808135965 0.00017090381613236392 0 0.0041732364328488127 0.00016082466388138197 0 0.0041646125320486975 0.0001556821613099668 0 0.0041794681208701025 0.0001717153745696545 0 0.0041710853808135965 0.00017090381613236392 0 0.0041732364328488127 0.00016082466388138197 0 0.0041710853808135965 0.00017090381613236392 0 0.0041646125320486975 0.0001556821613099668 0 0.0041528749013854498 0.00015507550638534735 0 0.0041646125320486975 0.0001556821613099668 0 0.0041528749013854498 0.00015507550638534735 0 0.0041612544512893103 0.00013589911903534054 0 0.0041478640930600798 0.0001228544918589907 0 0.0041804876617122068 0.00018001888408219135 0 0.0042119152144663918 4.0143242280147738e-05 0 0.0041528749013854498 0.00015507550638534735 0 0.0041804876617122068 0.00018001888408219135 0 0.004115264333816147 0.00013977461431600833 0 0.0041831733740846254 0.0001695189739378136 0 0.0041460611866368053 9.0492780384936577e-05 0 0.0041478640930600798 0.0001228544918589907 0 0.0042119152144663918 4.0143242280147738e-05 0 0.0040990727356432638 5.8690165800493359e-05 0 0.0041478640930600798 0.0001228544918589907 0 0.0041495264159267754 0.00017225012747348271 0 0.0041804876617122068 0.00018001888408219135 0 0.0041804876617122068 0.00018001888408219135 0 0.0041806024583546661 0.00019384201191683046 0 0.0041873847819304776 0.00019204926491918689 0 0.0041804876617122068 0.00018001888408219135 0 0.0041873847819304776 0.00019204926491918689 0 0.0041842498584435612 0.000188504979253614 0 0.0041495264159267754 0.00017225012747348271 0 0.0041804876617122068 0.00018001888408219135 0 0.0041806024583546661 0.00019384201191683046 0 0.0041495264159267754 0.00017225012747348271 0 0.0041806024583546661 0.00019384201191683046 0 0.004162956912032007 0.00019186553467879854 0 0.004162956912032007 0.00019186553467879854 0 0.0041871360124974286 0.00020118460647733754 0 0.0041744989516967184 0.00019967646301154919 0 0.0041806024583546661 0.00019384201191683046 0 0.004162956912032007 0.00019186553467879854 0 0.0041871360124974286 0.00020118460647733754 0 0.0042326457879873691 0.0001768281186866391 0 0.0042090025175016673 0.00020618260594400516 0 0.0041992324923784928 0.00017872222984013727 0 0.0041968309705192226 0.00020975189898617949 0 0.0041892828327955668 0.0001968181284531594 0 0.0041968309705192226 0.00020975189898617949 0 0.0041892828327955668 0.0001968181284531594 0 0.0041871360124974286 0.00020118460647733754 0 0.0041968309705192226 0.00020975189898617949 0 0.0041871360124974286 0.00020118460647733754 0 0.0041744989516967184 0.00019967646301154919 0 0.0041806024583546661 0.00019384201191683046 0 0.0041892828327955668 0.0001968181284531594 0 0.0041871360124974286 0.00020118460647733754 0 0.0042551983195625405 0.00017745979405126597 0 0.0041968309705192226 0.00020975189898617949 0 0.0042081999665159846 0.00021093759334581502 0 0.0041806024583546661 0.00019384201191683046 0 0.0041892828327955668 0.0001968181284531594 0 0.0041873847819304776 0.00019204926491918689 0 0.0041892828327955668 0.0001968181284531594 0 0.0041873847819304776 0.00019204926491918689 0 0.0041916779949431396 0.00018688135756861078 0 0.0041935265605199928 0.00017853492907870302 0 0.0041916779949431396 0.00018688135756861078 0 0.0041880002386113164 0.00018703614732287183 0 0.0041873847819304776 0.00019204926491918689 0 0.0041916779949431396 0.00018688135756861078 0 0.0041880002386113164 0.00018703614732287183 0 0.0041935265605199928 0.00017853492907870302 0 0.0041880002386113164 0.00018703614732287183 0 0.0041848202279887604 0.00018489205945261601 0 0.0041848202279887604 0.00018489205945261601 0 0.0041842498584435612 0.000188504979253614 0 0.0041802381574973088 0.00018977897133834305 0 0.0041880002386113164 0.00018703614732287183 0 0.0041848202279887604 0.00018489205945261601 0 0.0041842498584435612 0.000188504979253614 0 0.0041873847819304776 0.00019204926491918689 0 0.0041880002386113164 0.00018703614732287183 0 0.0041842498584435612 0.000188504979253614 0 0.0041787079175117934 0.00018533476154668023 0 0.0041804876617122068 0.00018001888408219135 0 0.0041842498584435612 0.000188504979253614 0 0.0041787079175117934 0.00018533476154668023 0 0.0041842498584435612 0.000188504979253614 0 0.0041802381574973088 0.00018977897133834305 0 0.0041787079175117934 0.00018533476154668023 0 0.0041771623839109723 0.00019166831107849817 0 0.0041802381574973088 0.00018977897133834305 0 0.0041771623839109723 0.00019166831107849817 0 0.0041802381574973088 0.00018977897133834305 0 0.0041723246615119041 0.0001901572704817861 0 0.0041848202279887604 0.00018489205945261601 0 0.0041802381574973088 0.00018977897133834305 0 0.0041723246615119041 0.0001901572704817861 0 0.0041735957501280591 0.00017748609085478496 0 0.0041848202279887604 0.00018489205945261601 0 0.0041723246615119041 0.0001901572704817861 0 0.0041515501812271526 0.00018185769185456854 0 0.0041735957501280591 0.00017748609085478496 0 0.0041723246615119041 0.0001901572704817861 0 0.0041723246615119041 0.0001901572704817861 0 0.0041397890246985805 0.0001975226254524716 0 0.0041680009724294953 0.00019442495348373574 0 0.0041515501812271526 0.00018185769185456854 0 0.0041723246615119041 0.0001901572704817861 0 0.0041397890246985805 0.0001975226254524716 0 0.0041515501812271526 0.00018185769185456854 0 0.0041249004873170105 0.0001896257712305586 0 0.0041397890246985805 0.0001975226254524716 0 0.0041249004873170105 0.0001896257712305586 0 0.0041177719341369233 0.00019834236293186875 0 0.0041082844141139387 0.00019634997446553302 0 0.0041249004873170105 0.0001896257712305586 0 0.0041177719341369233 0.00019834236293186875 0 0.0041397890246985805 0.0001975226254524716 0 0.0041177719341369233 0.00019834236293186875 0 0.0041296279797659093 0.00020698177094881419 0 0.0040904375440620486 0.00020339141961442164 0 0.0041177719341369233 0.00019834236293186875 0 0.0041397890246985805 0.0001975226254524716 0 0.0041296279797659093 0.00020698177094881419 0 0.0040610401618080359 0.0001820175921851843 0 0.0040591918517021231 0.00014274459882710578 0 0.0040904375440620486 0.00020339141961442164 0 0.0038626874668854366 1.3596434684005101e-05 0 0.003950874038159996 -2.364138823739103e-05 0 0.0041296279797659093 0.00020698177094881419 0 0.0040904375440620486 0.00020339141961442164 0 0.0041362304306851658 0.00021673322187495687 0 0.0041397890246985805 0.0001975226254524716 0 0.0041296279797659093 0.00020698177094881419 0 0.0041273415593106348 0.00021560894318301219 0 0.0041315571727578828 0.00018555696919137922 0 0.0041774592202491068 0.00022243833851385609 0 0.0041397890246985805 0.0001975226254524716 0 0.0041680009724294953 0.00019442495348373574 0 0.0041761624178959667 0.00019450410111050538 0 0.0041296279797659093 0.00020698177094881419 0 0.0041273415593106348 0.00021560894318301219 0 0.0041362304306851658 0.00021673322187495687 0 0.0041771623839109723 0.00019166831107849817 0 0.0041680009724294953 0.00019442495348373574 0 0.0041761624178959667 0.00019450410111050538 0 0.0041771623839109723 0.00019166831107849817 0 0.0041723246615119041 0.0001901572704817861 0 0.0041680009724294953 0.00019442495348373574 0 0.0040069138292484138 0.00015213291321732107 0 0.0040811748658803187 0.0001107796712538763 0 0.0041432755880697406 6.5815707804528685e-05 0 0.0040019107683804929 4.6371803465289432e-05 0 0.0039079139708030402 -0.00010014848788053906 0 0.0040497443099911995 0.00017683383665240395 0 0.0040019107683804929 4.6371803465289432e-05 0 0.0038247446035762057 -1.6069186398976567e-05 0 0.0040497443099911995 0.00017683383665240395 0 0.0041276993835533109 0.00020113978702474499 0 0.0041075928653048878 0.00019516526250308331 0 0.0025999699459934179 8.6569614674910571e-05 0 0.0028629610995582399 -9.5877401022348823e-05 0 0.0040019107683804929 4.6371803465289432e-05 0 0.0038247446035762057 -1.6069186398976567e-05 0 0.0039079139708030402 -0.00010014848788053906 0 0.0041276993835533109 0.00020113978702474499 0 0.0041075928653048878 0.00019516526250308331 0 0.0041068851220472449 0.00020186124838484376 0 0.0041116913459420205 0.00018954984565250739 0 0.0041249004873170105 0.0001896257712305586 0 0.0041082844141139387 0.00019634997446553302 0 0.0041075928653048878 0.00019516526250308331 0 0.0041082844141139387 0.00019634997446553302 0 0.0041068851220472449 0.00020186124838484376 0 0.0041116913459420205 0.00018954984565250739 0 0.0041075928653048878 0.00019516526250308331 0 0.0041082844141139387 0.00019634997446553302 0 0.0041177719341369233 0.00019834236293186875 0 0.0041082844141139387 0.00019634997446553302 0 0.0040904375440620486 0.00020339141961442164 0 0.0041082844141139387 0.00019634997446553302 0 0.0041068851220472449 0.00020186124838484376 0 0.0040904375440620486 0.00020339141961442164 0 0.0041276993835533109 0.00020113978702474499 0 0.0041068851220472449 0.00020186124838484376 0 0.0040904375440620486 0.00020339141961442164 0 0.0040811748658803187 0.0001107796712538763 0 0.0030968023294818845 -9.280941691888521e-05 0 0.0041276993835533109 0.00020113978702474499 0 0.0040904375440620486 0.00020339141961442164 0 0.003950874038159996 -2.364138823739103e-05 0 0.0038247446035762057 -1.6069186398976567e-05 0 0.0039079139708030402 -0.00010014848788053906 0 0.0035805526445917306 -0.00028890441344453516 0 0.0028629610995582399 -9.5877401022348823e-05 0 0.0030968023294818845 -9.280941691888521e-05 0 0.0017287502204450631 -1.6448367367228556e-05 0 0.0018294327992471216 -4.7307511481998438e-05 0 0.0017835694993536702 2.4829623085636159e-05 0 0.0017154754533036324 6.172676638866657e-05 0 0.0017835694993536702 2.4829623085636159e-05 0 0.0017946308718361135 6.7962439908995012e-05 0 0.0018294327992471216 -4.7307511481998438e-05 0 0.0017835694993536702 2.4829623085636159e-05 0 0.0018537263048843886 3.1763356047945698e-05 0 0.0017835694993536702 2.4829623085636159e-05 0 0.0018537263048843886 3.1763356047945698e-05 0 0.0017946308718361135 6.7962439908995012e-05 0 0.0018537263048843886 3.1763356047945698e-05 0 0.0019370810633867769 1.9069205875053193e-06 0 0.001909749678112492 5.2899892474924756e-05 0 0.0018294327992471216 -4.7307511481998438e-05 0 0.0018537263048843886 3.1763356047945698e-05 0 0.0019370810633867769 1.9069205875053193e-06 0 0.0018537263048843886 3.1763356047945698e-05 0 0.0018608579363545914 0.00010594694147095238 0 0.0017946308718361135 6.7962439908995012e-05 0 0.0018537263048843886 3.1763356047945698e-05 0 0.0018608579363545914 0.00010594694147095238 0 0.001909749678112492 5.2899892474924756e-05 0 0.0018608579363545914 0.00010594694147095238 0 0.001909749678112492 5.2899892474924756e-05 0 0.0019238033332055181 0.00011092978855312252 0 0.0014396185922005186 -5.3039275175909631e-05 0 0.0017936453225918911 0.00011716177722564348 0 0.0017122005399137594 0.00016433539901347495 0 0.0017154754533036324 6.172676638866657e-05 0 0.0017946308718361135 6.7962439908995012e-05 0 0.0017936453225918911 0.00011716177722564348 0 0.0018608579363545914 0.00010594694147095238 0 0.0017946308718361135 6.7962439908995012e-05 0 0.0017936453225918911 0.00011716177722564348 0 0.0035157241905187289 -9.5462732295219677e-05 0 0.0029274960582142883 -0.00018353405235268971 0 0.0039501790985375781 0.00012214997073540154 0 0.0041774592202491068 0.00022243833851385609 0 0.0041103800329398282 0.00018226945898519326 0 0.0041273415593106348 0.00021560894318301219 0 0.0041362304306851658 0.00021673322187495687 0 0.0024241707941643851 -0.00018189330984812332 0 0.0023248206657489651 -0.00023978809788747623 0 0.0023162815547635297 -0.00022551623228729201 0 0.0035796534141134002 -0.00024900698547393241 0 0.0038329772834907573 -3.7037206213801682e-05 0 0.0038606292135212332 -9.2354174986650811e-05 0 0.0035796534141134002 -0.00024900698547393241 0 0.0038329772834907573 -3.7037206213801682e-05 0 0.0038626874668854366 1.3596434684005101e-05 0 0.0041103800329398282 0.00018226945898519326 0 0.0041041037630082412 0.00017862089074024878 0 0.0041273415593106348 0.00021560894318301219 0 0.0035157241905187289 -9.5462732295219677e-05 0 0.0040591918517021231 0.00014274459882710578 0 0.0038626874668854366 1.3596434684005101e-05 0 0.0038584009501222141 -8.5608422519749193e-05 0 0.003950874038159996 -2.364138823739103e-05 0 0.0029274960582142883 -0.00018353405235268971 0 0.0030968023294818845 -9.280941691888521e-05 0 0.0030968023294818845 -9.280941691888521e-05 0 0.0025323603334566651 -0.00014696701015271343 0 0.0026946984328688746 -0.00015095403774104623 0 0.0029573365295691365 4.7057091339446201e-06 0 0.0027465484036782949 -0.00025017853112077951 0 0.0038329772834907573 -3.7037206213801682e-05 0 0.0038626874668854366 1.3596434684005101e-05 0 0.0038584009501222141 -8.5608422519749193e-05 0 0.0031255365523284234 -0.00025306961394753607 0 0.0029274960582142883 -0.00018353405235268971 0 0.0019370810633867769 1.9069205875053193e-06 0 0.001909749678112492 5.2899892474924756e-05 0 0.0019651854330730583 3.2558944953318368e-05 0 0.0029274960582142883 -0.00018353405235268971 0 0.0025323603334566651 -0.00014696701015271343 0 0.0025323603334566651 -0.00014696701015271343 0 0.0020600637831184728 -1.8972858165075972e-05 0 0.001909749678112492 5.2899892474924756e-05 0 0.0019651854330730583 3.2558944953318368e-05 0 0.0019238033332055181 0.00011092978855312252 0 0.0022375839198866968 -0.00029989570429585308 0 0.0021502553692890327 -0.00014020561890455826 0 0.0023816182828869524 -0.00012205404966909771 0 0.0025323603334566651 -0.00014696701015271343 0 0.0022950031740674916 -0.0001956306181844368 0 0.0024241707941643851 -0.00018189330984812332 0 0.0023162815547635297 -0.00022551623228729201 0 0.0023816182828869524 -0.00012205404966909771 0 0.0023984323178953934 -3.3061298809654816e-05 0 0.0022617263167079957 -3.0208106424959648e-05 0 0.0023098687080088938 0.00012663542409027835 0 0.0023816182828869524 -0.00012205404966909771 0 0.0023984323178953934 -3.3061298809654816e-05 0 0.0022617263167079957 -3.0208106424959648e-05 0 0.0021502553692890327 -0.00014020561890455826 0 0.0022617263167079957 -3.0208106424959648e-05 0 0.0020622823826928535 1.5033245113974721e-05 0 0.0022617263167079957 -3.0208106424959648e-05 0 0.0023098687080088938 0.00012663542409027835 0 0.0020622823826928535 1.5033245113974721e-05 0 0.0021502553692890327 -0.00014020561890455826 0 0.0023816182828869524 -0.00012205404966909771 0 0.0022617263167079957 -3.0208106424959648e-05 0 0.00089757757585421987 -0.00035712417413497326 0 0.00046178527563133778 -0.00056952006808827548 0 0.00066654828421437826 -0.00020305884049052209 0 0.0016869141768183242 -0.00012673074877115128 0 0.00091994245714337554 -9.4949512298501243e-05 0 -0.00088068853181882728 5.2791902086007275e-05 0 -0.00087946128940748582 4.557346492147488e-05 0 -0.00084777491937214474 3.9673721450251175e-05 0 0.0017936453225918911 0.00011716177722564348 0 0.0017122005399137594 0.00016433539901347495 0 0.0018806492787803515 0.00021767279705292564 0 -0.00088341185928612431 3.8012261437166486e-05 0 -0.00088068853181882728 5.2791902086007275e-05 0 -0.00087946128940748582 4.557346492147488e-05 0 -0.00084329569146138564 5.7764179226600308e-05 0 -0.00088341185928612431 3.8012261437166486e-05 0 -0.00088068853181882728 5.2791902086007275e-05 0 0.0018608579363545914 0.00010594694147095238 0 0.0017936453225918911 0.00011716177722564348 0 0.0018806492787803515 0.00021767279705292564 0 0.0020600637831184728 -1.8972858165075972e-05 0 0.00091994245714337554 -9.4949512298501243e-05 0 0.0003639769961490341 9.2457883295476e-05 0 0.00091994245714337554 -9.4949512298501243e-05 0 0.0018608579363545914 0.00010594694147095238 0 0.0019238033332055181 0.00011092978855312252 0 0.0018806492787803515 0.00021767279705292564 0 0.00046178527563133778 -0.00056952006808827548 0 0.000215657626913435 -0.00012213626455869506 0 0.00045747064138948148 -0.00016760326177360507 0 0.00091994245714337554 -9.4949512298501243e-05 0 -0.00066472406295611883 3.5240391555636955e-05 0 -0.00084777491937214474 3.9673721450251175e-05 0 -0.00088585565272068149 6.3376477571975277e-05 0 -0.00089433935079739186 8.4476143475700053e-05 0 -0.00087946128940748582 4.557346492147488e-05 0 -0.00084777491937214474 3.9673721450251175e-05 0 -0.00088585565272068149 6.3376477571975277e-05 0 0.00046178527563133778 -0.00056952006808827548 0 0.00045747064138948148 -0.00016760326177360507 0 0.00066654828421437826 -0.00020305884049052209 0 -0.00087946128940748582 4.557346492147488e-05 0 -0.00088585565272068149 6.3376477571975277e-05 0 -0.00089634343632036977 5.7111791752366322e-05 0 -0.00091425515780967602 6.805032047383165e-05 0 -0.00089634343632036977 5.7111791752366322e-05 0 -0.00090214801610829425 7.250938339290486e-05 0 -0.00088585565272068149 6.3376477571975277e-05 0 -0.00089634343632036977 5.7111791752366322e-05 0 -0.00090214801610829425 7.250938339290486e-05 0 -0.00088341185928612431 3.8012261437166486e-05 0 -0.00087946128940748582 4.557346492147488e-05 0 -0.00089634343632036977 5.7111791752366322e-05 0 -0.00091669520822050185 5.2694367635089459e-05 0 -0.00088341185928612431 3.8012261437166486e-05 0 -0.00089634343632036977 5.7111791752366322e-05 0 -0.00091440211209780188 8.8185017431599821e-05 0 -0.00091645365206989592 9.3000755135235819e-05 0 -0.00092543051393786349 9.438143035658914e-05 0 -0.00092331591569586795 8.5702844687392704e-05 0 -0.00091440211209780188 8.8185017431599821e-05 0 -0.00092543051393786349 9.438143035658914e-05 0 -0.00092331591569586795 8.5702844687392704e-05 0 -0.00091440211209780188 8.8185017431599821e-05 0 -0.00090214801610829425 7.250938339290486e-05 0 -0.00091425515780967602 6.805032047383165e-05 0 -0.00092331591569586795 8.5702844687392704e-05 0 -0.00090214801610829425 7.250938339290486e-05 0 -0.00091440211209780188 8.8185017431599821e-05 0 -0.00090214801610829425 7.250938339290486e-05 0 -0.00089433935079739186 8.4476143475700053e-05 0 -0.00088585565272068149 6.3376477571975277e-05 0 -0.00090214801610829425 7.250938339290486e-05 0 -0.00089433935079739186 8.4476143475700053e-05 0 -0.00066472406295611883 3.5240391555636955e-05 0 -0.00076563691832179294 0.00011258985969392124 0 -0.00091440211209780188 8.8185017431599821e-05 0 -0.00089433935079739186 8.4476143475700053e-05 0 -0.00091645365206989592 9.3000755135235819e-05 0 -0.00091614099093761351 9.4103353061370074e-05 0 -0.00091645365206989592 9.3000755135235819e-05 0 -0.0009233249878135573 9.6264694825605484e-05 0 0.000215657626913435 -0.00012213626455869506 0 0.00045747064138948148 -0.00016760326177360507 0 0.00047388084868668054 4.6362449562880359e-05 0 0.00045747064138948148 -0.00016760326177360507 0 0.00047388084868668054 4.6362449562880359e-05 0 0.00059939376846511558 -4.3209788735659365e-05 0 -0.00066472406295611883 3.5240391555636955e-05 0 -0.00029328845950942959 0.00023611373655202728 0 0.000215657626913435 -0.00012213626455869506 0 0.00047388084868668054 4.6362449562880359e-05 0 0.00048558709608844368 0.00015008983107461075 0 -0.00093264718157716237 0.00010035564773105255 0 -0.0009233249878135573 9.6264694825605484e-05 0 -0.00092985787979732351 9.7373771158243766e-05 0 0.00047388084868668054 4.6362449562880359e-05 0 0.00048715908415185988 0.00014908309819055665 0 0.0006371017606347525 0.00011681058055078973 0 -5.8432088827055743e-05 0.00016244478203679096 0 -0.00029328845950942959 0.00023611373655202728 0 -0.00091645365206989592 9.3000755135235819e-05 0 -0.0009233249878135573 9.6264694825605484e-05 0 -0.00092985787979732351 9.7373771158243766e-05 0 -0.00094326365143051398 0.00010143406500114385 0 -0.0009386888121822259 9.8633677889372974e-05 0 -0.00092985787979732351 9.7373771158243766e-05 0 -0.00091645365206989592 9.3000755135235819e-05 0 -0.00092985787979732351 9.7373771158243766e-05 0 -0.00092543051393786349 9.438143035658914e-05 0 -0.0009386888121822259 9.8633677889372974e-05 0 -0.00092985787979732351 9.7373771158243766e-05 0 -0.00092543051393786349 9.438143035658914e-05 0 0.00089757757585421987 -0.00035712417413497326 0 0.00097439792129817371 -5.9244759934951085e-05 0 0.00066654828421437826 -0.00020305884049052209 0 0.00089757757585421987 -0.00035712417413497326 0 0.00097439792129817371 -5.9244759934951085e-05 0 0.0013346347536034688 -0.00014636063635877557 0 0.00097439792129817371 -5.9244759934951085e-05 0 0.00066654828421437826 -0.00020305884049052209 0 0.00076077966425657027 2.5324546441902137e-05 0 0.00045747064138948148 -0.00016760326177360507 0 0.00066654828421437826 -0.00020305884049052209 0 0.00059939376846511558 -4.3209788735659365e-05 0 0.00066654828421437826 -0.00020305884049052209 0 0.00059939376846511558 -4.3209788735659365e-05 0 0.00076077966425657027 2.5324546441902137e-05 0 0.00076077966425657027 2.5324546441902137e-05 0 0.0006371017606347525 0.00011681058055078973 0 0.00076920386638941647 0.00019036698751590542 0 0.00059939376846511558 -4.3209788735659365e-05 0 0.00076077966425657027 2.5324546441902137e-05 0 0.0006371017606347525 0.00011681058055078973 0 0.00047388084868668054 4.6362449562880359e-05 0 0.00059939376846511558 -4.3209788735659365e-05 0 0.0006371017606347525 0.00011681058055078973 0 0.00073175181258018011 0.00033256439215436105 0 0.00048715908415185988 0.00014908309819055665 0 0.0006371017606347525 0.00011681058055078973 0 0.00073175181258018011 0.00033256439215436105 0 0.0006371017606347525 0.00011681058055078973 0 0.00076920386638941647 0.00019036698751590542 0 0.00076077966425657027 2.5324546441902137e-05 0 0.00076920386638941647 0.00019036698751590542 0 0.00091854954872731896 0.0001984062726619134 0 0.0008377578971075837 0.00031343385624387491 0 0.00076920386638941647 0.00019036698751590542 0 0.00091854954872731896 0.0001984062726619134 0 0.00097439792129817371 -5.9244759934951085e-05 0 0.00076077966425657027 2.5324546441902137e-05 0 0.00091854954872731896 0.0001984062726619134 0 0.00097439792129817371 -5.9244759934951085e-05 0 0.00091854954872731896 0.0001984062726619134 0 0.0011443132095312596 0.00018399288520067907 0 0.0011443132095312596 0.00018399288520067907 0 0.0013584077332189305 0.00023016306120874754 0 0.0013346347536034688 -0.00014636063635877557 0 0.0015867775888379983 0.00021607957107281779 0 0.0013584077332189305 0.00023016306120874754 0 0.0013346347536034688 -0.00014636063635877557 0 0.0015867775888379983 0.00021607957107281779 0 0.0013346347536034688 -0.00014636063635877557 0 0.001778512418099763 6.5723602183503021e-05 0 0.0018331859482712874 3.2150859706913605e-05 0 0.0026968961965386112 0.0001726233366290449 0 0.0026600185233516811 0.00017564972408148054 0 0.0025351050989847225 0.0002323006864030417 0 0.0027556952970099287 0.00033640725182503646 0 0.0016869141768183242 -0.00012673074877115128 0 0.0018331859482712874 3.2150859706913605e-05 0 0.00097439792129817371 -5.9244759934951085e-05 0 0.0011443132095312596 0.00018399288520067907 0 0.0013346347536034688 -0.00014636063635877557 0 0.0023098687080088938 0.00012663542409027835 0 0.0025351050989847225 0.0002323006864030417 0 0.0025656057188953394 9.5387027043203838e-06 0 0.0041130527766043831 6.9618706902484245e-05 0 0.0040749565656045435 5.8067425898268521e-05 0 0.004116548878082796 7.7027785263293118e-05 0 0.0034729369043055508 0.00016785548227385384 0 0.00325614908954368 -1.112980212448086e-05 0 0.0026600185233516811 0.00017564972408148054 0 0.0025351050989847225 0.0002323006864030417 0 0.0025656057188953394 9.5387027043203838e-06 0 0.0040749565656045435 5.8067425898268521e-05 0 0.0040841340374140733 3.9103413519760095e-05 0 0.004116548878082796 7.7027785263293118e-05 0 0.0041705760992358752 0.00013688096129110724 0 0.0041612544512893103 0.00013589911903534054 0 0.0041688970858895476 0.00012716282611877308 0 0.0041833834237970579 0.00012639376528196251 0 0.0040980803307619877 5.8980762833114209e-05 0 0.0041688970858895476 0.00012716282611877308 0 0.0041292807694334665 0.00011603534221713006 0 0.004116548878082796 7.7027785263293118e-05 0 0.0041528749013854498 0.00015507550638534735 0 0.0041612544512893103 0.00013589911903534054 0 0.0041292807694334665 0.00011603534221713006 0 0.0041612544512893103 0.00013589911903534054 0 0.0041688970858895476 0.00012716282611877308 0 0.0041292807694334665 0.00011603534221713006 0 0.0040051344267752467 -2.2522209133601054e-05 0 0.0040749565656045435 5.8067425898268521e-05 0 0.0040841340374140733 3.9103413519760095e-05 0 0.0036743257633683741 -4.3341721052129731e-05 0 0.00325614908954368 -1.112980212448086e-05 0 0.0023984323178953934 -3.3061298809654816e-05 0 0.0023098687080088938 0.00012663542409027835 0 0.0025656057188953394 9.5387027043203838e-06 0 0.0024663187071183976 -0.0001524728541373664 0 0.0023984323178953934 -3.3061298809654816e-05 0 0.0025656057188953394 9.5387027043203838e-06 0 0.0042119152144663918 4.0143242280147738e-05 0 0.0040844324081323238 -5.8255386546338439e-05 0 0.0040990727356432638 5.8690165800493359e-05 0 0.0042119152144663918 4.0143242280147738e-05 0 0.0041772088956189462 -0.00017806016580937365 0 0.0040844324081323238 -5.8255386546338439e-05 0 0.0041460611866368053 9.0492780384936577e-05 0 0.0042375084304520924 -8.2299742473198895e-05 0 0.004115264333816147 0.00013977461431600833 0 0.0041292807694334665 0.00011603534221713006 0 0.0040693064295420234 6.3341606242017228e-05 0 0.0041528749013854498 0.00015507550638534735 0 0.004115264333816147 0.00013977461431600833 0 0.0041292807694334665 0.00011603534221713006 0 0.0041292807694334665 0.00011603534221713006 0 0.004116548878082796 7.7027785263293118e-05 0 0.0040693064295420234 6.3341606242017228e-05 0 0.0041130527766043831 6.9618706902484245e-05 0 0.004116548878082796 7.7027785263293118e-05 0 0.0040982517583152524 6.3224014004812978e-05 0 0.004116548878082796 7.7027785263293118e-05 0 0.0040982517583152524 6.3224014004812978e-05 0 0.0040693064295420234 6.3341606242017228e-05 0 0.0041772088956189462 -0.00017806016580937365 0 0.0040634046277298408 -0.00017740537158012713 0 0.0040844324081323238 -5.8255386546338439e-05 0 0.0041772088956189462 -0.00017806016580937365 0 0.0040878058144758304 -0.00027632420523181575 0 0.0040634046277298408 -0.00017740537158012713 0 0.0040693064295420234 6.3341606242017228e-05 0 0.0040869475844686866 4.0740374327615162e-05 0 0.0040345510929980909 -1.8830377679108393e-05 0 0.0041772088956189462 -0.00017806016580937365 0 0.0040878058144758304 -0.00027632420523181575 0 0.0041265304360627924 -0.00036491875849338728 0 0.0042375084304520924 -8.2299742473198895e-05 0 0.0032440127544583102 -2.8674047929563625e-05 0 0.0041130527766043831 6.9618706902484245e-05 0 0.0040869475844686866 4.0740374327615162e-05 0 0.0040797238367468076 -3.1041945164583054e-08 0 0.0034729369043055508 0.00016785548227385384 0 0.0026968961965386112 0.0001726233366290449 0 0.0041130527766043831 6.9618706902484245e-05 0 0.0040982517583152524 6.3224014004812978e-05 0 0.0040869475844686866 4.0740374327615162e-05 0 0.0040982517583152524 6.3224014004812978e-05 0 0.0040693064295420234 6.3341606242017228e-05 0 0.0040869475844686866 4.0740374327615162e-05 0 0.0040869475844686866 4.0740374327615162e-05 0 0.0040797238367468076 -3.1041945164583054e-08 0 0.0040345510929980909 -1.8830377679108393e-05 0 0.0017972849127255055 9.6302657409764363e-05 0 0.0017791479449935732 6.5616341540761808e-05 0 0.0019991737067026976 0.00016972315978934605 0 0.0017972849127255055 9.6302657409764363e-05 0 0.001778512418099763 6.5723602183503021e-05 0 0.0017440179649326766 0.00020181088533785356 0 0.0026261105147753648 0.0001153607728580821 0 0.0026968961965386112 0.0001726233366290449 0 0.0017972849127255055 9.6302657409764363e-05 0 0.0018264087899579255 0.00019564501535389265 0 0.0019151686244424447 0.00022007455092900774 0 0.001829167407517134 0.00026891163719321138 0 0.0018264087899579255 0.00019564501535389265 0 0.0019151686244424447 0.00022007455092900774 0 0.001829167407517134 0.00026891163719321138 0 0.0018264087899579255 0.00019564501535389265 0 0.0017440179649326766 0.00020181088533785356 0 0.0017972849127255055 9.6302657409764363e-05 0 0.0018264087899579255 0.00019564501535389265 0 0.0017440179649326766 0.00020181088533785356 0 0.0015867775888379983 0.00021607957107281779 0 0.001778512418099763 6.5723602183503021e-05 0 0.0017440179649326766 0.00020181088533785356 0 0.0040878058144758304 -0.00027632420523181575 0 0.0041265304360627924 -0.00036491875849338728 0 0.0040689515510572653 -0.00039145921761415915 0 0.0026968961965386112 0.0001726233366290449 0 0.0032440127544583102 -2.8674047929563625e-05 0 0.0017972849127255055 9.6302657409764363e-05 0 0.0019991737067026976 0.00016972315978934605 0 0.0019151686244424447 0.00022007455092900774 0 0.0019991737067026976 0.00016972315978934605 0 0.0019151686244424447 0.00022007455092900774 0 0.0020101084015115341 0.00023835794548406151 0 0.0032440127544583102 -2.8674047929563625e-05 0 0.0030591569552396026 2.2151728001335527e-05 0 0.0032440127544583102 -2.8674047929563625e-05 0 0.0028069755698169096 -6.8226836966799205e-05 0 0.0020009129565609282 0.00016636791057755403 0 0.0020101084015115341 0.00023835794548406151 0 0.0021525836159514119 0.00024286077923247416 0 0.0028069755698169096 -6.8226836966799205e-05 0 0.0040021613744737486 -0.00024608109479061534 0 0.0040878058144758304 -0.00027632420523181575 0 0.0040689515510572653 -0.00039145921761415915 0 0.0040028500725432072 -0.00026725152682961355 0 0.003762969481734445 -0.00010996287491047433 0 0.0037042654260796412 -8.6135226180424651e-05 0 0.0037278924364850118 -3.6660456580768715e-05 0 0.003645501745575608 -0.0001255661022459998 0 0.0037042654260796412 -8.6135226180424651e-05 0 0.0036677181703678842 -1.8182783949444209e-05 0 0.0037042654260796412 -8.6135226180424651e-05 0 0.0037278924364850118 -3.6660456580768715e-05 0 0.0036677181703678842 -1.8182783949444209e-05 0 0.0037278924364850118 -3.6660456580768715e-05 0 0.0036677181703678842 -1.8182783949444209e-05 0 0.0037147142332075414 -9.4345468659584789e-06 0 0.0040021613744737486 -0.00024608109479061534 0 0.0037916660577666478 -4.6785456370036468e-05 0 0.0040878058144758304 -0.00027632420523181575 0 0.0040028500725432072 -0.00026725152682961355 0 0.0040634046277298408 -0.00017740537158012713 0 0.0032891152920451194 -4.8078819453532187e-05 0 0.0031980487017052675 -0.00011722659735893984 0 0.0031330624880863689 0.0001308619122753992 0 0.0034894628856484843 9.2023989866915055e-06 0 0.0036889268284011371 -2.0946309041793355e-05 0 0.003408328411495931 -4.5478129985061174e-05 0 0.0035615946121700724 -9.6085096984329692e-05 0 0.0036677181703678842 -1.8182783949444209e-05 0 0.0034869034703567787 -0.00014915908466104556 0 0.003408328411495931 -4.5478129985061174e-05 0 0.0035615946121700724 -9.6085096984329692e-05 0 0.0033800943999792265 -8.4689546713630695e-05 0 0.0034894628856484843 9.2023989866915055e-06 0 0.003645501745575608 -0.0001255661022459998 0 0.0035615946121700724 -9.6085096984329692e-05 0 0.0036677181703678842 -1.8182783949444209e-05 0 0.0035476617399542438 -0.00016292229561274161 0 0.0034869034703567787 -0.00014915908466104556 0 0.0035615946121700724 -9.6085096984329692e-05 0 0.003645501745575608 -0.0001255661022459998 0 0.0035476617399542438 -0.00016292229561274161 0 0.0035615946121700724 -9.6085096984329692e-05 0 0.0036677181703678842 -1.8182783949444209e-05 0 0.0037141274309766214 -2.335280943181564e-05 0 0.0037140559868294133 -1.8427926993602625e-05 0 0.0037150821580362353 4.648389075720164e-06 0 0.0036677181703678842 -1.8182783949444209e-05 0 0.0037141274309766214 -2.335280943181564e-05 0 0.0037141274309766214 -2.335280943181564e-05 0 0.0037081589978388389 -1.9098671125493553e-05 0 0.0037265890858548729 -2.6267976457955415e-05 0 0.0037141274309766214 -2.335280943181564e-05 0 0.0037140559868294133 -1.8427926993602625e-05 0 0.0037081589978388389 -1.9098671125493553e-05 0 0.0036677181703678842 -1.8182783949444209e-05 0 0.0037140559868294133 -1.8427926993602625e-05 0 0.0037147142332075414 -9.4345468659584789e-06 0 0.0038045520395149734 3.6931851724324129e-06 0 0.0039030435397138311 6.4329725837958978e-05 0 0.0037649629990586572 1.5336654957464606e-05 0 0.0037081589978388389 -1.9098671125493553e-05 0 0.0037647056404218702 3.8521670020238191e-05 0 0.0037140559868294133 -1.8427926993602625e-05 0 0.0037649629990586572 1.5336654957464606e-05 0 0.0037147142332075414 -9.4345468659584789e-06 0 0.0037140559868294133 -1.8427926993602625e-05 0 0.0037649629990586572 1.5336654957464606e-05 0 0.0037081589978388389 -1.9098671125493553e-05 0 0.0039009909781152919 1.9360177209996275e-05 0 0.0040331839785214081 9.4135425031491752e-05 0 0.0039537267924423429 9.4030302017468278e-05 0 0.0039009909781152919 1.9360177209996275e-05 0 0.0039537267924423429 9.4030302017468278e-05 0 0.0038540390214812318 0.00010309042011096489 0 0.0040634046277298408 -0.00017740537158012713 0 0.0039150807695839526 -0.00014509419299463773 0 0.0040844324081323238 -5.8255386546338439e-05 0 0.0040028500725432072 -0.00026725152682961355 0 0.0040634046277298408 -0.00017740537158012713 0 0.0039150807695839526 -0.00014509419299463773 0 0.0037721593298105198 3.1986822934606017e-06 0 0.0037916660577666478 -4.6785456370036468e-05 0 0.0037649629990586572 1.5336654957464606e-05 0 0.0039150807695839526 -0.00014509419299463773 0 0.0039452175396234978 2.9679605075324875e-05 0 0.0037649629990586572 1.5336654957464606e-05 0 0.0039452175396234978 2.9679605075324875e-05 0 0.0037647056404218702 3.8521670020238191e-05 0 0.0039150807695839526 -0.00014509419299463773 0 0.0039452175396234978 2.9679605075324875e-05 0 0.0040844324081323238 -5.8255386546338439e-05 0 0.0039452175396234978 2.9679605075324875e-05 0 0.0040844324081323238 -5.8255386546338439e-05 0 0.0040990727356432638 5.8690165800493359e-05 0 0.0039452175396234978 2.9679605075324875e-05 0 0.0040990727356432638 5.8690165800493359e-05 0 0.0040619421017596864 0.00013141408006952574 0 0.0041478640930600798 0.0001228544918589907 0 0.0040990727356432638 5.8690165800493359e-05 0 0.0040619421017596864 0.00013141408006952574 0 0.0041495264159267754 0.00017225012747348271 0 0.0040619421017596864 0.00013141408006952574 0 0.0041207957293563609 0.00018026278475019168 0 0.0040619421017596864 0.00013141408006952574 0 0.0040806249029173283 0.00017598478702887262 0 0.0041207957293563609 0.00018026278475019168 0 0.0041478640930600798 0.0001228544918589907 0 0.0041495264159267754 0.00017225012747348271 0 0.0040619421017596864 0.00013141408006952574 0 0.0040806249029173283 0.00017598478702887262 0 0.0040418511031559108 0.00014492202806301981 0 0.0040358977246206266 0.00020346602609156003 0 0.0040619421017596864 0.00013141408006952574 0 0.0040806249029173283 0.00017598478702887262 0 0.0040418511031559108 0.00014492202806301981 0 0.0040619421017596864 0.00013141408006952574 0 0.0040331839785214081 9.4135425031491752e-05 0 0.0040418511031559108 0.00014492202806301981 0 0.0039452175396234978 2.9679605075324875e-05 0 0.0040619421017596864 0.00013141408006952574 0 0.0037647056404218702 3.8521670020238191e-05 0 0.0040467967058648432 0.00012757756729056151 0 0.0039030435397138311 6.4329725837958978e-05 0 0.0040331839785214081 9.4135425031491752e-05 0 0.004004151802958919 0.00011844779386795136 0 0.0039537267924423429 9.4030302017468278e-05 0 0.004004151802958919 0.00011844779386795136 0 0.0039537267924423429 9.4030302017468278e-05 0 0.0039939602753330502 0.00014984902564698315 0 0.004004151802958919 0.00011844779386795136 0 0.0040418511031559108 0.00014492202806301981 0 0.0039939602753330502 0.00014984902564698315 0 0.0040331839785214081 9.4135425031491752e-05 0 0.004004151802958919 0.00011844779386795136 0 0.0040418511031559108 0.00014492202806301981 0 0.0039537267924423429 9.4030302017468278e-05 0 0.0038932851242689252 0.00019232650578798413 0 0.0038540390214812318 0.00010309042011096489 0 0.0039537267924423429 9.4030302017468278e-05 0 0.0038932851242689252 0.00019232650578798413 0 0.0039939602753330502 0.00014984902564698315 0 0.004091585039954407 0.00024590126963929649 0 0.0040358977246206266 0.00020346602609156003 0 0.0040926862195050763 0.00020633745384982368 0 0.0039914112467593051 0.00021488720482659577 0 0.0040288322664489848 0.00020839833003835845 0 0.0038932851242689252 0.00019232650578798413 0 0.0039939602753330502 0.00014984902564698315 0 0.0040358977246206266 0.00020346602609156003 0 0.0040418511031559108 0.00014492202806301981 0 0.0039939602753330502 0.00014984902564698315 0 0.0040358977246206266 0.00020346602609156003 0 0.0040358977246206266 0.00020346602609156003 0 0.0040538588176648616 0.00018779784863725326 0 0.004080524112700116 0.00020742543803050297 0 0.0040358977246206266 0.00020346602609156003 0 0.0040926862195050763 0.00020633745384982368 0 0.0040538588176648616 0.00018779784863725326 0 0.0040880392898649687 0.00020467710763296524 0 0.0041513013159678522 0.00018742086985198121 0 0.0040926862195050763 0.00020633745384982368 0 0.0040538588176648616 0.00018779784863725326 0 0.0041111571693263453 0.00016400533912575694 0 0.0041140770111438366 0.00022392978803572231 0 0.004192005553784758 0.00021131860135367386 0 0.0041264259178535687 0.00017826687034986101 0 0.0041140770111438366 0.00022392978803572231 0 0.0040784433249862074 0.00022148921491875234 0 0.0041264259178535687 0.00017826687034986101 0 0.0041140770111438366 0.00022392978803572231 0 0.0040784433249862074 0.00022148921491875234 0 0.004080524112700116 0.00020742543803050297 0 0.0040880392898649687 0.00020467710763296524 0 0.0040826532897149589 0.00020685452925257538 0 0.0041307231345088912 0.00020473504825934316 0 0.0041314312593032122 0.00019370390419077608 0 0.004080524112700116 0.00020742543803050297 0 0.0040784433249862074 0.00022148921491875234 0 0.0041307231345088912 0.00020473504825934316 0 0.004080524112700116 0.00020742543803050297 0 0.0040784433249862074 0.00022148921491875234 0 0.0042081999665159846 0.00021093759334581502 0 0.0041307231345088912 0.00020473504825934316 0 0.0042171305489204537 0.00020124835541815393 0 0.0042108623494923909 0.00021015004302449994 0 0.004354168979475651 0.00018782467406445875 0 0.0042081999665159846 0.00021093759334581502 0 0.0042909375317876589 0.00017282283163121199 0 0.0042081999665159846 0.00021093759334581502 0 0.0041679764716605981 0.00020222197368242797 0 0.0041307231345088912 0.00020473504825934316 0 0.0041968309705192226 0.00020975189898617949 0 0.0042081999665159846 0.00021093759334581502 0 0.0041679764716605981 0.00020222197368242797 0 0.0041968309705192226 0.00020975189898617949 0 0.0041679764716605981 0.00020222197368242797 0 0.0041744989516967184 0.00019967646301154919 0 0.0041679764716605981 0.00020222197368242797 0 0.0041307231345088912 0.00020473504825934316 0 0.0041314312593032122 0.00019370390419077608 0 0.0041679764716605981 0.00020222197368242797 0 0.0041744989516967184 0.00019967646301154919 0 0.0041314312593032122 0.00019370390419077608 0 0.004162956912032007 0.00019186553467879854 0 0.0041314312593032122 0.00019370390419077608 0 0.0041207957293563609 0.00018026278475019168 0 0.004162956912032007 0.00019186553467879854 0 0.0041744989516967184 0.00019967646301154919 0 0.0041314312593032122 0.00019370390419077608 0 0.0041495264159267754 0.00017225012747348271 0 0.004162956912032007 0.00019186553467879854 0 0.0041207957293563609 0.00018026278475019168 0 0.0040806249029173283 0.00017598478702887262 0 0.0041314312593032122 0.00019370390419077608 0 0.0041207957293563609 0.00018026278475019168 0 0.0040806249029173283 0.00017598478702887262 0 0.0040358977246206266 0.00020346602609156003 0 0.004080524112700116 0.00020742543803050297 0 0.0040806249029173283 0.00017598478702887262 0 0.0041314312593032122 0.00019370390419077608 0 0.004080524112700116 0.00020742543803050297 0 0.0041777812727277911 0.00019900338340475326 0 0.0041939741807696064 0.00023477660951998149 0 0.0042530828010142793 0.00020132007259400546 0 0.0042260409068082989 0.00025144700078400081 0 0.0042539748254651838 0.00025469213814882375 0 0.0042530828010142793 0.00020132007259400546 0 0.004175232533894414 0.00019371873653853297 0 0.0042260409068082989 0.00025144700078400081 0 0.0042530828010142793 0.00020132007259400546 0 0.0042751539342929688 0.00019919193533207382 0 0.0042692536711987812 0.00021164942465378621 0 0.0042537947220051553 0.00020475923594744124 0 0.0042571042842849917 0.00022569551033364515 0 0.0042751539342929688 0.00019919193533207382 0 0.0042692536711987812 0.00021164942465378621 0 0.0042829292575917981 0.0002010599877576495 0 0.0042530828010142793 0.00020132007259400546 0 0.0042751539342929688 0.00019919193533207382 0 0.0042761919136626815 0.0001814704902772508 0 0.0042530828010142793 0.00020132007259400546 0 0.0042761919136626815 0.0001814704902772508 0 0.0042385464197919644 0.00017448861221891436 0 0.0042751539342929688 0.00019919193533207382 0 0.0042761919136626815 0.0001814704902772508 0 0.0042897839060498533 0.00018859382735273285 0 0.0042761919136626815 0.0001814704902772508 0 0.0042913750507700662 0.0001687402323770643 0 0.004281904918528783 0.00015866214175050831 0 0.0042761919136626815 0.0001814704902772508 0 0.0042897839060498533 0.00018859382735273285 0 0.0042913750507700662 0.0001687402323770643 0 0.0042761919136626815 0.0001814704902772508 0 0.0042385464197919644 0.00017448861221891436 0 0.004281904918528783 0.00015866214175050831 0 0.0042385464197919644 0.00017448861221891436 0 0.0041881654562612308 0.00014819106539518782 0 0.004281904918528783 0.00015866214175050831 0 0.0042530828010142793 0.00020132007259400546 0 0.0042385464197919644 0.00017448861221891436 0 0.004175232533894414 0.00019371873653853297 0 0.0042385464197919644 0.00017448861221891436 0 0.0041881654562612308 0.00014819106539518782 0 0.004175232533894414 0.00019371873653853297 0 0.0042234454186747226 0.00016787318589122897 0 0.0041513013159678522 0.00018742086985198121 0 0.0041881654562612308 0.00014819106539518782 0 0.0041111571693263453 0.00016400533912575694 0 0.004175232533894414 0.00019371873653853297 0 0.0041111571693263453 0.00016400533912575694 0 0.0041312422105024716 0.00019974672079562278 0 0.004175232533894414 0.00019371873653853297 0 0.0040926862195050763 0.00020633745384982368 0 0.0041312422105024716 0.00019974672079562278 0 0.0041465150680411074 0.0002307151898170451 0 0.0040926862195050763 0.00020633745384982368 0 0.0041111571693263453 0.00016400533912575694 0 0.0041312422105024716 0.00019974672079562278 0 0.004175232533894414 0.00019371873653853297 0 0.0041465150680411074 0.0002307151898170451 0 0.0041767394319730256 0.00023660410290648836 0 0.0041312422105024716 0.00019974672079562278 0 0.004175232533894414 0.00019371873653853297 0 0.0041465150680411074 0.0002307151898170451 0 0.0041465150680411074 0.0002307151898170451 0 0.0041594541583803548 0.00024588149707176725 0 0.0041452990853843635 0.00026373676621198875 0 0.0041465150680411074 0.0002307151898170451 0 0.0041594541583803548 0.00024588149707176725 0 0.0041767394319730256 0.00023660410290648836 0 0.004091585039954407 0.00024590126963929649 0 0.0040926862195050763 0.00020633745384982368 0 0.0041465150680411074 0.0002307151898170451 0 0.0039914112467593051 0.00021488720482659577 0 0.0039465508878875604 0.00020375704664713889 0 0.004091585039954407 0.00024590126963929649 0 0.0041465150680411074 0.0002307151898170451 0 0.0041452990853843635 0.00026373676621198875 0 0.0038540390214812318 0.00010309042011096489 0 0.0037449572336875881 0.00014429378278736605 0 0.0037724850940320191 5.9960734176153779e-05 0 0.0038932851242689252 0.00019232650578798413 0 0.0038540390214812318 0.00010309042011096489 0 0.0037449572336875881 0.00014429378278736605 0 0.0039465508878875604 0.00020375704664713889 0 0.0038868440001417147 0.00016006876342244269 0 0.0041594541583803548 0.00024588149707176725 0 0.0041452990853843635 0.00026373676621198875 0 0.0041671778182808591 0.00025499978184919737 0 0.0037449572336875881 0.00014429378278736605 0 0.0036437313647268927 5.2984288314895354e-05 0 0.0037724850940320191 5.9960734176153779e-05 0 0.0041452990853843635 0.00026373676621198875 0 0.0041671778182808591 0.00025499978184919737 0 0.0041711861346399844 0.00026431221285893398 0 0.0037449572336875881 0.00014429378278736605 0 0.0036197120132603696 7.5259612025067364e-05 0 0.0036437313647268927 5.2984288314895354e-05 0 0.0041671778182808591 0.00025499978184919737 0 0.004175367804505164 0.00026107163129576337 0 0.0041711861346399844 0.00026431221285893398 0 0.0041671778182808591 0.00025499978184919737 0 0.0041767394319730256 0.00023660410290648836 0 0.004175367804505164 0.00026107163129576337 0 0.0041939741807696064 0.00023477660951998149 0 0.0042472848232519393 0.00028744192949375864 0 0.0041594541583803548 0.00024588149707176725 0 0.0041671778182808591 0.00025499978184919737 0 0.0041767394319730256 0.00023660410290648836 0 0.0042692536711987812 0.00021164942465378621 0 0.0042710495822828043 0.00022174687849636334 0 0.0042783448396202925 0.0002120819660670673 0 0.0042260409068082989 0.00025144700078400081 0 0.0042539748254651838 0.00025469213814882375 0 0.004246873361339519 0.00027144550840579499 0 0.0042571042842849917 0.00022569551033364515 0 0.0042886735048552494 0.00026627931633602206 0 0.0042471769643627989 0.00027132880102915413 0 0.004246873361339519 0.00027144550840579499 0 0.0042427561175592404 0.00026657600031770851 0 0.0042539748254651838 0.00025469213814882375 0 0.0042471769643627989 0.00027132880102915413 0 0.004246873361339519 0.00027144550840579499 0 0.0035832519156865994 4.9061752767920497e-05 0 0.0036057933387289884 5.0199595912094076e-05 0 0.0036197120132603696 7.5259612025067364e-05 0 0.004175367804505164 0.00026107163129576337 0 0.0041710069841737821 0.000262507083621946 0 0.0041711861346399844 0.00026431221285893398 0 0.0039084806608629865 0.00023236501427077776 0 0.0038868440001417147 0.00016006876342244269 0 0.0042472848232519393 0.00028744192949375864 0 0.0039084806608629865 0.00023236501427077776 0 0.0035941937952044156 4.4141828832011056e-05 0 0.0035832519156865994 4.9061752767920497e-05 0 0.0036057933387289884 5.0199595912094076e-05 0 0.0035941937952044156 4.4141828832011056e-05 0 0.0035832519156865994 4.9061752767920497e-05 0 0.0035869908362194673 4.2013863883482862e-05 0 0.0036057933387289884 5.0199595912094076e-05 0 0.0036090129714812171 3.9434370568125843e-05 0 0.0036007759606637726 4.0840492561946731e-05 0 0.0035941937952044156 4.4141828832011056e-05 0 0.0036057933387289884 5.0199595912094076e-05 0 0.0036007759606637726 4.0840492561946731e-05 0 0.0036057933387289884 5.0199595912094076e-05 0 0.0036197120132603696 7.5259612025067364e-05 0 0.0036231060387124903 4.9694493523941395e-05 0 0.0036197120132603696 7.5259612025067364e-05 0 0.0036437313647268927 5.2984288314895354e-05 0 0.0036231060387124903 4.9694493523941395e-05 0 0.0036437313647268927 5.2984288314895354e-05 0 0.0036231060387124903 4.9694493523941395e-05 0 0.003632906764331575 3.9834989963629455e-05 0 0.0036231060387124903 4.9694493523941395e-05 0 0.0036204579723608651 4.0882151908307432e-05 0 0.003632906764331575 3.9834989963629455e-05 0 0.0036057933387289884 5.0199595912094076e-05 0 0.0036231060387124903 4.9694493523941395e-05 0 0.0036147826780787611 4.4915826902151914e-05 0 0.0036231060387124903 4.9694493523941395e-05 0 0.0036147826780787611 4.4915826902151914e-05 0 0.0036204579723608651 4.0882151908307432e-05 0 0.0036057933387289884 5.0199595912094076e-05 0 0.0036147826780787611 4.4915826902151914e-05 0 0.0036090129714812171 3.9434370568125843e-05 0 0.0036090129714812171 3.9434370568125843e-05 0 0.0036204579723608651 4.0882151908307432e-05 0 0.0036137957954082566 3.5347222600009245e-05 0 0.0036147826780787611 4.4915826902151914e-05 0 0.0036090129714812171 3.9434370568125843e-05 0 0.0036204579723608651 4.0882151908307432e-05 0 0.0036204579723608651 4.0882151908307432e-05 0 0.0036190183377179663 3.2938672720713989e-05 0 0.0036137957954082566 3.5347222600009245e-05 0 0.0036190183377179663 3.2938672720713989e-05 0 0.0036137957954082566 3.5347222600009245e-05 0 0.0036140805942470305 2.936095716365706e-05 0 0.0036137957954082566 3.5347222600009245e-05 0 0.0036086292545565489 3.1497684571068147e-05 0 0.0036140805942470305 2.936095716365706e-05 0 0.0036090129714812171 3.9434370568125843e-05 0 0.0036137957954082566 3.5347222600009245e-05 0 0.0036086292545565489 3.1497684571068147e-05 0 0.003632906764331575 3.9834989963629455e-05 0 0.0036254640839269419 3.5335166979866579e-05 0 0.003629056249318629 3.5042278494570667e-05 0 0.0036204579723608651 4.0882151908307432e-05 0 0.003632906764331575 3.9834989963629455e-05 0 0.0036254640839269419 3.5335166979866579e-05 0 0.0036204579723608651 4.0882151908307432e-05 0 0.0036190183377179663 3.2938672720713989e-05 0 0.0036254640839269419 3.5335166979866579e-05 0 0.0036190183377179663 3.2938672720713989e-05 0 0.0036254640839269419 3.5335166979866579e-05 0 0.0036247828984395693 2.9658517797996012e-05 0 0.003629056249318629 3.5042278494570667e-05 0 0.0036247828984395693 2.9658517797996012e-05 0 0.0036289340669519144 3.0883722245368156e-05 0 0.003632906764331575 3.9834989963629455e-05 0 0.003629056249318629 3.5042278494570667e-05 0 0.0036289340669519144 3.0883722245368156e-05 0 0.0036254640839269419 3.5335166979866579e-05 0 0.003629056249318629 3.5042278494570667e-05 0 0.0036247828984395693 2.9658517797996012e-05 0 0.0036190183377179663 3.2938672720713989e-05 0 0.0036247828984395693 2.9658517797996012e-05 0 0.0036174768356304499 2.6902331278743781e-05 0 0.0036247828984395693 2.9658517797996012e-05 0 0.0036174768356304499 2.6902331278743781e-05 0 0.0036204491181206586 2.4508486102291455e-05 0 0.0036174768356304499 2.6902331278743781e-05 0 0.0036204491181206586 2.4508486102291455e-05 0 0.0036155072957292965 2.1258467755054974e-05 0 0.0036247828984395693 2.9658517797996012e-05 0 0.0036204491181206586 2.4508486102291455e-05 0 0.0036242743154847219 2.4387520787011157e-05 0 0.0036086292545565489 3.1497684571068147e-05 0 0.0036140805942470305 2.936095716365706e-05 0 0.0036100264917114373 2.5429809788455133e-05 0 0.0036086292545565489 3.1497684571068147e-05 0 0.0036100264917114373 2.5429809788455133e-05 0 0.0036017565196413675 2.79144467756573e-05 0 0.0036190183377179663 3.2938672720713989e-05 0 0.0036174768356304499 2.6902331278743781e-05 0 0.0036140805942470305 2.936095716365706e-05 0 0.0036174768356304499 2.6902331278743781e-05 0 0.0036140805942470305 2.936095716365706e-05 0 0.0036100264917114373 2.5429809788455133e-05 0 0.0036174768356304499 2.6902331278743781e-05 0 0.0036100264917114373 2.5429809788455133e-05 0 0.0036155072957292965 2.1258467755054974e-05 0 0.0035933977694472532 2.3947715277196677e-05 0 0.0035860418785122767 1.1143531224726766e-05 0 0.0035769259987032103 3.8130279131649709e-05 0 0.0036017565196413675 2.79144467756573e-05 0 0.0035933977694472532 2.3947715277196677e-05 0 0.0036028966260369549 2.2671870630065553e-05 0 0.0036100264917114373 2.5429809788455133e-05 0 0.0036017565196413675 2.79144467756573e-05 0 0.0036028966260369549 2.2671870630065553e-05 0 0.0024377380923696294 -0.00014184639519525382 0 0.0034253257269033347 9.1667011159770348e-05 0 0.0036086292545565489 3.1497684571068147e-05 0 0.0036017565196413675 2.79144467756573e-05 0 0.0036016114048048682 3.4445571437129094e-05 0 0.0036017565196413675 2.79144467756573e-05 0 0.0035938533952081788 3.1484186452120737e-05 0 0.0036016114048048682 3.4445571437129094e-05 0 0.0036017565196413675 2.79144467756573e-05 0 0.0035933977694472532 2.3947715277196677e-05 0 0.0035938533952081788 3.1484186452120737e-05 0 0.0035933977694472532 2.3947715277196677e-05 0 0.0035938533952081788 3.1484186452120737e-05 0 0.0035769259987032103 3.8130279131649709e-05 0 0.0035938533952081788 3.1484186452120737e-05 0 0.00359381602684068 3.7166434193941499e-05 0 0.0035769259987032103 3.8130279131649709e-05 0 0.00359381602684068 3.7166434193941499e-05 0 0.0035869908362194673 4.2013863883482862e-05 0 0.0035769259987032103 3.8130279131649709e-05 0 0.0035941937952044156 4.4141828832011056e-05 0 0.00359381602684068 3.7166434193941499e-05 0 0.0035869908362194673 4.2013863883482862e-05 0 0.0035941937952044156 4.4141828832011056e-05 0 0.00359381602684068 3.7166434193941499e-05 0 0.0036007759606637726 4.0840492561946731e-05 0 0.0036090129714812171 3.9434370568125843e-05 0 0.0036007759606637726 4.0840492561946731e-05 0 0.0036016114048048682 3.4445571437129094e-05 0 0.0036090129714812171 3.9434370568125843e-05 0 0.0036086292545565489 3.1497684571068147e-05 0 0.0036016114048048682 3.4445571437129094e-05 0 0.0035938533952081788 3.1484186452120737e-05 0 0.00359381602684068 3.7166434193941499e-05 0 0.0036016114048048682 3.4445571437129094e-05 0 0.00359381602684068 3.7166434193941499e-05 0 0.0036007759606637726 4.0840492561946731e-05 0 0.0036016114048048682 3.4445571437129094e-05 0 0.0039009909781152919 1.9360177209996275e-05 0 0.0037724850940320191 5.9960734176153779e-05 0 0.0037373157246521527 -2.2365530361327288e-05 0 0.0039009909781152919 1.9360177209996275e-05 0 0.0038540390214812318 0.00010309042011096489 0 0.0037724850940320191 5.9960734176153779e-05 0 0.0036437313647268927 5.2984288314895354e-05 0 0.0037724850940320191 5.9960734176153779e-05 0 0.0037373157246521527 -2.2365530361327288e-05 0 0.0036437313647268927 5.2984288314895354e-05 0 0.0037398159772280989 -4.0105561858868882e-05 0 0.0037373157246521527 -2.2365530361327288e-05 0 0.0036321391616976006 5.6639260482157509e-05 0 0.0037152232352146422 -1.3862944125553133e-05 0 0.003632906764331575 3.9834989963629455e-05 0 0.0036289340669519144 3.0883722245368156e-05 0 0.0036283360716100489 2.285499215504507e-05 0 0.0036437313647268927 5.2984288314895354e-05 0 0.003632906764331575 3.9834989963629455e-05 0 0.0036283360716100489 2.285499215504507e-05 0 0.0036289340669519144 3.0883722245368156e-05 0 0.0036274943467944215 2.6485061842201361e-05 0 0.0036283360716100489 2.285499215504507e-05 0 0.0036247828984395693 2.9658517797996012e-05 0 0.0036242743154847219 2.4387520787011157e-05 0 0.0036274943467944215 2.6485061842201361e-05 0 0.0036247828984395693 2.9658517797996012e-05 0 0.0036289340669519144 3.0883722245368156e-05 0 0.0036274943467944215 2.6485061842201361e-05 0 0.0036242743154847219 2.4387520787011157e-05 0 0.0036274943467944215 2.6485061842201361e-05 0 0.0036268165086266089 2.2853006909777098e-05 0 0.0036274943467944215 2.6485061842201361e-05 0 0.0036283360716100489 2.285499215504507e-05 0 0.0036268165086266089 2.2853006909777098e-05 0 0.0038045520395149734 3.6931851724324129e-06 0 0.0037443095569867964 -2.1656238466914134e-05 0 0.0037081589978388389 -1.9098671125493553e-05 0 0.0037373157246521527 -2.2365530361327288e-05 0 0.0037265890858548729 -2.6267976457955415e-05 0 0.0037141274309766214 -2.335280943181564e-05 0 0.0037398159772280989 -4.0105561858868882e-05 0 0.0037265890858548729 -2.6267976457955415e-05 0 0.0037398159772280989 -4.0105561858868882e-05 0 0.0037373157246521527 -2.2365530361327288e-05 0 0.0037265890858548729 -2.6267976457955415e-05 0 0.0037150821580362353 4.648389075720164e-06 0 0.0037141274309766214 -2.335280943181564e-05 0 0.0037398159772280989 -4.0105561858868882e-05 0 0.0034894628856484843 9.2023989866915055e-06 0 0.0037152232352146422 -1.3862944125553133e-05 0 0.003631642869579157 1.1257346708903611e-05 0 0.0036247885051271869 1.4216299402971566e-05 0 0.0036271110577729064 1.8036200210169178e-05 0 0.003631642869579157 1.1257346708903611e-05 0 0.0036283360716100489 2.285499215504507e-05 0 0.0036271110577729064 1.8036200210169178e-05 0 0.0036247885051271869 1.4216299402971566e-05 0 0.0036271110577729064 1.8036200210169178e-05 0 0.0036245950764575712 1.990915800878792e-05 0 0.0036268165086266089 2.2853006909777098e-05 0 0.0036271110577729064 1.8036200210169178e-05 0 0.0036245950764575712 1.990915800878792e-05 0 0.0036283360716100489 2.285499215504507e-05 0 0.0036268165086266089 2.2853006909777098e-05 0 0.0036271110577729064 1.8036200210169178e-05 0 0.0036242743154847219 2.4387520787011157e-05 0 0.0036268165086266089 2.2853006909777098e-05 0 0.0036245950764575712 1.990915800878792e-05 0 0.0036242743154847219 2.4387520787011157e-05 0 0.0036245950764575712 1.990915800878792e-05 0 0.003620219997514607 2.0269076878633293e-05 0 0.0036245950764575712 1.990915800878792e-05 0 0.003620251374734232 1.5411424070832654e-05 0 0.003620219997514607 2.0269076878633293e-05 0 0.0036247885051271869 1.4216299402971566e-05 0 0.003620251374734232 1.5411424070832654e-05 0 0.003619026535358295 1.1571330028841813e-05 0 0.0036247885051271869 1.4216299402971566e-05 0 0.0036245950764575712 1.990915800878792e-05 0 0.003620251374734232 1.5411424070832654e-05 0 0.003620251374734232 1.5411424070832654e-05 0 0.003619026535358295 1.1571330028841813e-05 0 0.003615010214588502 1.252592806896838e-05 0 0.00304686784767637 -0.00015487422104549893 0 0.0029713960978938738 -5.1200770692539441e-05 0 0.0028759383316013421 -8.2882485060725293e-05 0 0.0031435964777964511 1.9575854815588832e-06 0 0.0030961446761583718 -9.5396743682766972e-05 0 0.003619026535358295 1.1571330028841813e-05 0 0.0036226226765702293 7.5310972438847768e-06 0 0.0036088919599873543 8.262458111254626e-06 0 0.0028402313280248342 -4.555586549583187e-05 0 0.0028683649151601564 -5.9265795582945819e-05 0 0.0028549373075493667 -4.1809782985020603e-05 0 0.0031435964777964511 1.9575854815588832e-06 0 0.0022164113763953074 -0.00013650846961387437 0 0.0036247885051271869 1.4216299402971566e-05 0 0.003619026535358295 1.1571330028841813e-05 0 0.0036226226765702293 7.5310972438847768e-06 0 0.0031980487017052675 -0.00011722659735893984 0 0.0031330624880863689 0.0001308619122753992 0 0.0028326623682828223 4.146284287101119e-05 0 0.003631642869579157 1.1257346708903611e-05 0 0.0036247885051271869 1.4216299402971566e-05 0 0.0036226226765702293 7.5310972438847768e-06 0 0.0030887139280257954 -0.00010027536596158319 0 0.0031435964777964511 1.9575854815588832e-06 0 0.0034894628856484843 9.2023989866915055e-06 0 0.0031435964777964511 1.9575854815588832e-06 0 0.0024377380923696294 -0.00014184639519525382 0 0.0030961446761583718 -9.5396743682766972e-05 0 0.0035860418785122767 1.1143531224726766e-05 0 0.0036052748681473837 9.694171525420807e-06 0 0.0036078107471846517 6.2721067112836611e-06 0 0.0035860418785122767 1.1143531224726766e-05 0 0.0036000501963727597 1.6178954517114888e-05 0 0.0036052748681473837 9.694171525420807e-06 0 0.0035933977694472532 2.3947715277196677e-05 0 0.0035860418785122767 1.1143531224726766e-05 0 0.0036000501963727597 1.6178954517114888e-05 0 0.0035933977694472532 2.3947715277196677e-05 0 0.0036000501963727597 1.6178954517114888e-05 0 0.0036028966260369549 2.2671870630065553e-05 0 0.0036000501963727597 1.6178954517114888e-05 0 0.0036028966260369549 2.2671870630065553e-05 0 0.003608765258716545 2.0113647423856807e-05 0 0.0036100264917114373 2.5429809788455133e-05 0 0.0036028966260369549 2.2671870630065553e-05 0 0.003608765258716545 2.0113647423856807e-05 0 0.003608765258716545 2.0113647423856807e-05 0 0.0036119145016702357 1.8088680640891752e-05 0 0.0036155072957292965 2.1258467755054974e-05 0 0.0036100264917114373 2.5429809788455133e-05 0 0.003608765258716545 2.0113647423856807e-05 0 0.0036155072957292965 2.1258467755054974e-05 0 0.003608765258716545 2.0113647423856807e-05 0 0.0036119145016702357 1.8088680640891752e-05 0 0.003608313617227295 1.5230880420387118e-05 0 0.0036119145016702357 1.8088680640891752e-05 0 0.0036147721868189414 1.6136421478971867e-05 0 0.003608313617227295 1.5230880420387118e-05 0 0.0036000501963727597 1.6178954517114888e-05 0 0.003608765258716545 2.0113647423856807e-05 0 0.003608313617227295 1.5230880420387118e-05 0 0.0036204491181206586 2.4508486102291455e-05 0 0.0036242743154847219 2.4387520787011157e-05 0 0.003620219997514607 2.0269076878633293e-05 0 0.0036204491181206586 2.4508486102291455e-05 0 0.003620219997514607 2.0269076878633293e-05 0 0.0036155072957292965 2.1258467755054974e-05 0 0.003620219997514607 2.0269076878633293e-05 0 0.0036155072957292965 2.1258467755054974e-05 0 0.0036147721868189414 1.6136421478971867e-05 0 0.0036119145016702357 1.8088680640891752e-05 0 0.0036155072957292965 2.1258467755054974e-05 0 0.0036147721868189414 1.6136421478971867e-05 0 0.003620251374734232 1.5411424070832654e-05 0 0.003620219997514607 2.0269076878633293e-05 0 0.0036147721868189414 1.6136421478971867e-05 0 0.003619026535358295 1.1571330028841813e-05 0 0.003615010214588502 1.252592806896838e-05 0 0.0036088919599873543 8.262458111254626e-06 0 0.003620251374734232 1.5411424070832654e-05 0 0.0036147721868189414 1.6136421478971867e-05 0 0.003615010214588502 1.252592806896838e-05 0 0.0036147721868189414 1.6136421478971867e-05 0 0.003615010214588502 1.252592806896838e-05 0 0.0036104719048673075 1.2155085502824789e-05 0 0.003615010214588502 1.252592806896838e-05 0 0.0036104719048673075 1.2155085502824789e-05 0 0.0036088919599873543 8.262458111254626e-06 0 0.0036000501963727597 1.6178954517114888e-05 0 0.003608313617227295 1.5230880420387118e-05 0 0.0036052748681473837 9.694171525420807e-06 0 0.0036147721868189414 1.6136421478971867e-05 0 0.003608313617227295 1.5230880420387118e-05 0 0.0036104719048673075 1.2155085502824789e-05 0 0.003608313617227295 1.5230880420387118e-05 0 0.0036104719048673075 1.2155085502824789e-05 0 0.0036052748681473837 9.694171525420807e-06 0 0.0036104719048673075 1.2155085502824789e-05 0 0.0036052748681473837 9.694171525420807e-06 0 0.0036088919599873543 8.262458111254626e-06 0 0.0032193577999279134 -0.00013630385848219329 0 0.0030961446761583718 -9.5396743682766972e-05 0 0.0022576225607877222 -0.00024321300755703547 0 0.0022668566466020139 -0.00023156678515656755 0 0.0022710531886836736 -0.00023924723163877836 0 0.0030961446761583718 -9.5396743682766972e-05 0 0.0022164113763953074 -0.00013650846961387437 0 0.0012252075205822423 -0.00036652396152357739 0 0.0012429074881340151 -0.00037491647064855001 0 0.0012356495831250844 -0.00036893114817052069 0 0.0022576225607877222 -0.00024321300755703547 0 0.0022560838013715289 -0.00022703213718421844 0 0.0022668566466020139 -0.00023156678515656755 0 0.0014600735857864433 -0.0004067885415563976 0 0.0024377380923696294 -0.00014184639519525382 0 0.0012429074881340151 -0.00037491647064855001 0 0.0012356495831250844 -0.00036893114817052069 0 0.0012447940754532069 -0.0003719247153055601 0 0.001234631639159897 -0.00036555045198389814 0 0.0012245611414844126 -0.00036670376642257229 0 0.0012356495831250844 -0.00036893114817052069 0 0.001234631639159897 -0.00036555045198389814 0 0.0012356495831250844 -0.00036893114817052069 0 0.0012438816424892975 -0.00036715865588582669 0 0.0012394682153312052 -0.0003617556210648442 0 0.001234631639159897 -0.00036555045198389814 0 0.0012438816424892975 -0.00036715865588582669 0 0.0012438816424892975 -0.00036715865588582669 0 0.0012492005317433219 -0.00037053860409791824 0 0.0012447940754532069 -0.0003719247153055601 0 0.0012356495831250844 -0.00036893114817052069 0 0.0012438816424892975 -0.00036715865588582669 0 0.0012447940754532069 -0.0003719247153055601 0 0.0012429074881340151 -0.00037491647064855001 0 0.0012447940754532069 -0.0003719247153055601 0 0.0012514734252052164 -0.00037670857738384637 0 0.0027390177897540953 -2.9304266101982215e-05 0 0.0027276580077278726 -2.2831892778206508e-05 0 0.0027297366927399288 -1.9489626433664225e-05 0 0.0024377380923696294 -0.00014184639519525382 0 0.0021549523285924739 -0.00012235417815254662 0 0.0012492005317433219 -0.00037053860409791824 0 0.0012447940754532069 -0.0003719247153055601 0 0.0012514734252052164 -0.00037670857738384637 0 0.0021549523285924739 -0.00012235417815254662 0 0.0027575482221874059 -7.8916386085329263e-05 0 0.0012514734252052164 -0.00037670857738384637 0 0.0012533227521725348 -0.00037058228209838729 0 0.0012616687104082727 -0.00038308054632677597 0 0.0012492005317433219 -0.00037053860409791824 0 0.0012514734252052164 -0.00037670857738384637 0 0.0012533227521725348 -0.00037058228209838729 0 0.0012533227521725348 -0.00037058228209838729 0 0.0012518150739061974 -0.00036463976694956358 0 0.0012503048172311602 -0.00035844998433440158 0 0.0012540588409045202 -0.00036078017931845174 0 0.0012518150739061974 -0.00036463976694956358 0 0.0012503048172311602 -0.00035844998433440158 0 0.0012438816424892975 -0.00036715865588582669 0 0.0012492005317433219 -0.00037053860409791824 0 0.0012518150739061974 -0.00036463976694956358 0 0.0012492005317433219 -0.00037053860409791824 0 0.0012533227521725348 -0.00037058228209838729 0 0.0012518150739061974 -0.00036463976694956358 0 0.0012486117090958809 -0.00035983304313319135 0 0.0012438816424892975 -0.00036715865588582669 0 0.0012518150739061974 -0.00036463976694956358 0 0.0012324572381142011 -0.0003434842291464392 0 0.0012423369657345528 -0.00035172951346970903 0 0.0012690296756095278 -0.00030725141379608071 0 0.0012503048172311602 -0.00035844998433440158 0 0.001299506751873721 -0.00033903056594142446 0 0.0012503048172311602 -0.00035844998433440158 0 0.001299506751873721 -0.00033903056594142446 0 0.0012866324162887491 -0.00038361592479689512 0 0.0026228813344490432 -0.0001618263409763288 0 0.0026201616023484066 -0.00016195754335434978 0 0.0026251458971947423 -0.00017004822141059069 0 0.0026228813344490432 -0.0001618263409763288 0 0.0026251458971947423 -0.00017004822141059069 0 0.0025957281113420045 -0.00017131648212249549 0 0.0012533227521725348 -0.00037058228209838729 0 0.0012503048172311602 -0.00035844998433440158 0 0.0012866324162887491 -0.00038361592479689512 0 0.0012533227521725348 -0.00037058228209838729 0 0.0012866324162887491 -0.00038361592479689512 0 0.0012616687104082727 -0.00038308054632677597 0 0.0018310099616502908 -0.00031629429410631727 0 0.0025208801735079694 -0.00013956362558105852 0 0.0026251458971947423 -0.00017004822141059069 0 0.0026201203309345177 -0.00018216858359232946 0 0.0025957281113420045 -0.00017131648212249549 0 0.0032612323023407338 -6.090711075185859e-06 0 0.0025208801735079694 -0.00013956362558105852 0 0.0037440559941741506 0.00016708069763619223 0 0.0037459035751528516 0.00016770353874217072 0 0.0037393436944082635 0.00016602366583829816 0 0.0026201203309345177 -0.00018216858359232946 0 0.0026396476036574072 -0.00018236221856864781 0 0.0026733959982382636 -0.00020488827547491211 0 0.0026201616023484066 -0.00016195754335434978 0 0.0026251458971947423 -0.00017004822141059069 0 0.0026412141781314378 -0.00017562910254576263 0 0.0026251458971947423 -0.00017004822141059069 0 0.0026396476036574072 -0.00018236221856864781 0 0.0026412141781314378 -0.00017562910254576263 0 0.0026251458971947423 -0.00017004822141059069 0 0.0026201203309345177 -0.00018216858359232946 0 0.0026396476036574072 -0.00018236221856864781 0 0.0037440559941741506 0.00016708069763619223 0 0.0037501099382522048 0.00016873188785746789 0 0.0037497166771747461 0.00016848905771241053 0 0.0032612323023407338 -6.090711075185859e-06 0 0.0033864735503823721 -8.516316179751012e-05 0 0.0037440559941741506 0.00016708069763619223 0 0.0037469308216969326 0.00016709699007444771 0 0.0037497166771747461 0.00016848905771241053 0 0.0037440559941741506 0.00016708069763619223 0 0.0037459035751528516 0.00016770353874217072 0 0.0037501099382522048 0.00016873188785746789 0 0.0037459035751528516 0.00016770353874217072 0 0.0037451648597065196 0.00016697982461570611 0 0.0037516695079517198 0.00016916503624980775 0 0.0036829085744197075 0.00018494767095807602 0 0.0040602916848391209 0.00018583338614744556 0 0.0042710495822828043 0.00022174687849636334 0 0.0042699054875790258 0.00023340277285239388 0 0.004282073119981529 0.00021967214944049689 0 0.0042886735048552494 0.00026627931633602206 0 0.0038655254641670679 0.00023377926727340099 0 0.0042471769643627989 0.00027132880102915413 0 0.0042427561175592404 0.00026657600031770851 0 0.0042393322846137017 0.00026562903827086215 0 0.0042699054875790258 0.00023340277285239388 0 0.0042698058947471668 0.00023438492468901394 0 0.004282073119981529 0.00021967214944049689 0 0.0038655254641670679 0.00023377926727340099 0 0.0036829085744197075 0.00018494767095807602 0 0.0037639272433141221 0.00028810116557122586 0 0.003650335008741741 0.00022893846115074566 0 0.0036654337251361274 0.00012644498658843388 0 0.0039084806608629865 0.00023236501427077776 0 0.0038655254641670679 0.00023377926727340099 0 0.0027390177897540953 -2.9304266101982215e-05 0 0.0027373451526799169 -1.1102725997840958e-05 0 0.0027297366927399288 -1.9489626433664225e-05 0 0.0031327329752707457 0.00023618015404865714 0 0.0029932403595453977 -0.00014537717645880243 0 0.0024388221809226083 -8.6882992341621025e-05 0 0.0036829085744197075 0.00018494767095807602 0 0.0027575482221874059 -7.8916386085329263e-05 0 0.0033342241743589168 0.00014897409041925673 0 0.0032904389790375538 0.00025825719581184045 0 0.0031248994928058868 -0.0001891550927229643 0 0.0035832519156865994 4.9061752767920497e-05 0 0.0035869908362194673 4.2013863883482862e-05 0 0.0035769259987032103 3.8130279131649709e-05 0 0.0039084806608629865 0.00023236501427077776 0 0.0034253257269033347 9.1667011159770348e-05 0 0.003650335008741741 0.00022893846115074566 0 0.0036654337251361274 0.00012644498658843388 0 0.0036379555010024886 0.00019463001151265354 0 0.0034253257269033347 9.1667011159770348e-05 0 0.0036829085744197075 0.00018494767095807602 0 0.0034253257269033347 9.1667011159770348e-05 0 0.0027575482221874059 -7.8916386085329263e-05 0 0.0037459035751528516 0.00016770353874217072 0 0.0037451648597065196 0.00016697982461570611 0 0.0037393436944082635 0.00016602366583829816 0 0.0036829085744197075 0.00018494767095807602 0 0.0025208801735079694 -0.00013956362558105852 0 0.0021549523285924739 -0.00012235417815254662 0 0.0025208801735079694 -0.00013956362558105852 0 0.0029487198367921341 -0.00026696032207963874 0 0.0029932403595453977 -0.00014537717645880243 0 0.0024388221809226083 -8.6882992341621025e-05 0 0.0039131897527530978 5.3024718030114057e-05 0 0.0038411204351436645 -2.9022075166648375e-06 0 0.0038172001219635805 -0.000112980043675195 0 0.0039217525360525389 6.02555676752488e-05 0 0.0038927790502870535 -3.3272997932215867e-06 0 0.0038036881837070799 2.0269317330341984e-05 0 0.003679390166772799 -8.1556999352402307e-05 0 0.0038411204351436645 -2.9022075166648375e-06 0 0.0038805479480645026 6.5051185330216896e-05 0 0.0037519316856042964 -2.9884687740915301e-05 0 0.0036207417445071233 -8.0861859815684983e-05 0 0.0036222792885127562 -8.0513286010659593e-05 0 0.0036270735027289533 -0.00010000242048269448 0 0.0039131897527530978 5.3024718030114057e-05 0 0.0038411204351436645 -2.9022075166648375e-06 0 0.0038805479480645026 6.5051185330216896e-05 0 0.0025564417011360394 -0.00018387458062110149 0 0.0025420038683321038 -0.00018348944697502728 0 0.0025670283256274706 -0.00017010421594087615 0 0.0032203032617304241 -2.4208979715819484e-05 0 0.0030544817535622607 -0.00015117959421743189 0 0.0038903939010203766 4.3493849827840422e-05 0 0.0039131897527530978 5.3024718030114057e-05 0 0.0038805479480645026 6.5051185330216896e-05 0 0.0032203032617304241 -2.4208979715819484e-05 0 0.0038036881837070799 2.0269317330341984e-05 0 0.0036065100971553236 -9.2205793682800636e-05 0 0.0036207417445071233 -8.0861859815684983e-05 0 0.0036222792885127562 -8.0513286010659593e-05 0 0.0025713006057456497 -0.00018763122157106012 0 0.0025564417011360394 -0.00018387458062110149 0 0.0025670283256274706 -0.00017010421594087615 0 0.0025713006057456497 -0.00018763122157106012 0 0.0025670283256274706 -0.00017010421594087615 0 0.0025833061459660327 -0.00017231880579986691 0 0.0035943155034197294 -8.4815442278540282e-05 0 0.0036049002897992092 -0.00012033328256380225 0 0.0036270735027289533 -0.00010000242048269448 0 0.0036222792885127562 -8.0513286010659593e-05 0 0.0035943155034197294 -8.4815442278540282e-05 0 0.0036270735027289533 -0.00010000242048269448 0 0.0025670283256274706 -0.00017010421594087615 0 0.0025833061459660327 -0.00017231880579986691 0 0.0025930054868305188 -0.00015689051788632437 0 0.0030544817535622607 -0.00015117959421743189 0 0.0031344265474184058 -0.00010928350494718131 0 0.0025930054868305188 -0.00015689051788632437 0 0.0026072371506104192 -0.00016195422595977209 0 0.0026105514380732231 -0.00015543232389902842 0 0.0025930054868305188 -0.00015689051788632437 0 0.0026020572635524894 -0.00017499715220572887 0 0.0026072371506104192 -0.00016195422595977209 0 0.0025833061459660327 -0.00017231880579986691 0 0.0025930054868305188 -0.00015689051788632437 0 0.0026020572635524894 -0.00017499715220572887 0 0.0025713006057456497 -0.00018763122157106012 0 0.0025833061459660327 -0.00017231880579986691 0 0.0026020572635524894 -0.00017499715220572887 0 0.0020690467507688218 -0.00025385261466661361 0 0.0020100374352552096 -0.00025514140693285375 0 0.001299506751873721 -0.00033903056594142446 0 0.0012866324162887491 -0.00038361592479689512 0 0.0013795412164909963 -0.00035801515681806834 0 0.0013308928712731159 -0.00029856243326399135 0 0.001299506751873721 -0.00033903056594142446 0 0.0013795412164909963 -0.00035801515681806834 0 0.0026228813344490432 -0.0001618263409763288 0 0.0026201616023484066 -0.00016195754335434978 0 0.0026020572635524894 -0.00017499715220572887 0 0.0026201616023484066 -0.00016195754335434978 0 0.0026020572635524894 -0.00017499715220572887 0 0.0026072371506104192 -0.00016195422595977209 0 0.0018310099616502908 -0.00031629429410631727 0 0.0020100374352552096 -0.00025514140693285375 0 0.0025930054868305188 -0.00015689051788632437 0 0.0026105514380732231 -0.00015543232389902842 0 0.0026167359456525192 -0.00014343660637044844 0 0.0026201616023484066 -0.00016195754335434978 0 0.0026072371506104192 -0.00016195422595977209 0 0.0026105514380732231 -0.00015543232389902842 0 0.0026306671393658931 -0.00015028682708431609 0 0.0028463079935674871 -0.00011554334063080301 0 0.0026201616023484066 -0.00016195754335434978 0 0.0026105514380732231 -0.00015543232389902842 0 0.0026167359456525192 -0.00014343660637044844 0 0.0031344265474184058 -0.00010928350494718131 0 0.0028463079935674871 -0.00011554334063080301 0 0.0034856092737756516 -0.00012684593450358516 0 0.0035011333505697061 -0.00020044966600210056 0 0.0035651332736110646 -0.00013529429243185986 0 0.0028463079935674871 -0.00011554334063080301 0 0.0033864735503823721 -8.516316179751012e-05 0 0.0026396476036574072 -0.00018236221856864781 0 0.0026611088364362516 -0.00016862257786223332 0 0.0026733959982382636 -0.00020488827547491211 0 0.0026534795478250525 -0.00020473022489538376 0 0.0028463079935674871 -0.00011554334063080301 0 0.0033864735503823721 -8.516316179751012e-05 0 0.0037447777397670522 0.00013748234661701053 0 0.0035011333505697061 -0.00020044966600210056 0 0.0036233970527228079 -0.0001714257111987395 0 0.0035651332736110646 -0.00013529429243185986 0 0.0033864735503823721 -8.516316179751012e-05 0 0.0038925947833611959 2.091254925693518e-05 0 0.0037342965848098427 7.7355623076298923e-05 0 0.0037298918255665283 8.101564955800654e-05 0 0.0037350139249543463 8.3312323684676248e-05 0 0.0035011333505697061 -0.00020044966600210056 0 0.0036233970527228079 -0.0001714257111987395 0 0.0036826252528004227 -0.00028938933050291408 0 0.0036233970527228079 -0.0001714257111987395 0 0.0035651332736110646 -0.00013529429243185986 0 0.0036049002897992092 -0.00012033328256380225 0 0.0035943155034197294 -8.4815442278540282e-05 0 0.0034856092737756516 -0.00012684593450358516 0 0.0035651332736110646 -0.00013529429243185986 0 0.0035943155034197294 -8.4815442278540282e-05 0 0.0035651332736110646 -0.00013529429243185986 0 0.0036049002897992092 -0.00012033328256380225 0 0.0036283551135649936 -0.00015938789220098647 0 0.003679390166772799 -8.1556999352402307e-05 0 0.0036233970527228079 -0.0001714257111987395 0 0.0037519316856042964 -2.9884687740915301e-05 0 0.0038172001219635805 -0.000112980043675195 0 0.0036233970527228079 -0.0001714257111987395 0 0.0036049002897992092 -0.00012033328256380225 0 0.0036270735027289533 -0.00010000242048269448 0 0.0036233970527228079 -0.0001714257111987395 0 0.0038172001219635805 -0.000112980043675195 0 0.0036826252528004227 -0.00028938933050291408 0 0.0038927790502870535 -3.3272997932215867e-06 0 0.0038925947833611959 2.091254925693518e-05 0 0.00399596539315809 0.00015136305311968566 0 0.0040009667486904169 0.00014639773912180121 0 0.0039889741097204594 0.0001485502747884722 0 0.00399596539315809 0.00015136305311968566 0 0.0039867229332091513 0.00015815038832392645 0 0.0040009667486904169 0.00014639773912180121 0 0.0040148835296481685 0.00014761475028864026 0 0.00399596539315809 0.00015136305311968566 0 0.0039867229332091513 0.00015815038832392645 0 0.0039348346855214407 0.00011153538005518354 0 0.0039867229332091513 0.00015815038832392645 0 0.0040009667486904169 0.00014639773912180121 0 0.0039131897527530978 5.3024718030114057e-05 0 0.0039348346855214407 0.00011153538005518354 0 0.0040009667486904169 0.00014639773912180121 0 0.0038411204351436645 -2.9022075166648375e-06 0 0.0037519316856042964 -2.9884687740915301e-05 0 0.0038172001219635805 -0.000112980043675195 0 0.0040971504336692827 0.00012827070542750286 0 0.0041122906027094789 0.00015684202127872154 0 0.0041163620624274427 0.00013972951078823666 0 0.0040912762516329632 0.0001550875883656107 0 0.0040971504336692827 0.00012827070542750286 0 0.0041122906027094789 0.00015684202127872154 0 0.00399596539315809 0.00015136305311968566 0 0.0040045110804715137 0.00013654603970406079 0 0.0039889741097204594 0.0001485502747884722 0 0.0040148835296481685 0.00014761475028864026 0 0.00399596539315809 0.00015136305311968566 0 0.0040045110804715137 0.00013654603970406079 0 0.0040753105679527269 0.00013520184441389107 0 0.0038925947833611959 2.091254925693518e-05 0 0.0040971504336692827 0.00012827070542750286 0 0.0041190193003351212 0.0001213589280711648 0 0.0041163620624274427 0.00013972951078823666 0 0.0041190193003351212 0.0001213589280711648 0 0.0041163620624274427 0.00013972951078823666 0 0.0041346621487327994 0.0001518558113964178 0 0.0041122906027094789 0.00015684202127872154 0 0.0041163620624274427 0.00013972951078823666 0 0.0041346621487327994 0.0001518558113964178 0 0.0039016929763182827 0.0002133212579714373 0 0.0037447777397670522 0.00013748234661701053 0 0.0038925947833611959 2.091254925693518e-05 0 0.0039016929763182827 0.0002133212579714373 0 0.0037298918255665283 8.101564955800654e-05 0 0.0037348118948555865 8.9876706032320259e-05 0 0.0037350139249543463 8.3312323684676248e-05 0 0.0037495021276679357 0.0001689361791430119 0 0.0037520373089156883 0.00017051801076578321 0 0.0037497166771747461 0.00016848905771241053 0 0.0037469308216969326 0.00016709699007444771 0 0.0037495021276679357 0.0001689361791430119 0 0.0037497166771747461 0.00016848905771241053 0 0.0037504499153494888 0.00017275758148097416 0 0.0037551050710316705 0.00017359915629590163 0 0.0037520373089156883 0.00017051801076578321 0 0.0037504499153494888 0.00017275758148097416 0 0.0037495021276679357 0.0001689361791430119 0 0.0037520373089156883 0.00017051801076578321 0 0.0037551050710316705 0.00017359915629590163 0 0.0037563573700652732 0.00017826332109026702 0 0.0037627025693082574 0.00017731688306346882 0 0.0037504499153494888 0.00017275758148097416 0 0.0037551050710316705 0.00017359915629590163 0 0.0037563573700652732 0.00017826332109026702 0 0.0038467944940820441 0.00028489546169943998 0 0.0038192622873189116 0.00021745314698800474 0 0.0039344018812201773 0.0003600884893702417 0 0.0038695903758827004 0.00026502703449729639 0 0.0039682849536822667 0.00027622888897347339 0 0.0040240724014525978 0.00036168962779505558 0 0.0040618153814445095 0.00026846622286711471 0 0.0039682849536822667 0.00027622888897347339 0 0.0039344018812201773 0.0003600884893702417 0 0.0040240724014525978 0.00036168962779505558 0 0.0039682849536822667 0.00027622888897347339 0 0.0039016929763182827 0.0002133212579714373 0 0.0040830774897234901 0.00027563955006956129 0 0.0039016929763182827 0.0002133212579714373 0 0.0038467944940820441 0.00028489546169943998 0 0.0039910337094440787 0.00044934335979492752 0 0.0039344018812201773 0.0003600884893702417 0 0.0040240724014525978 0.00036168962779505558 0 0.0041122906027094789 0.00015684202127872154 0 0.0041267611595333159 0.00017248757516113739 0 0.0041156484674091881 0.00017853511620290693 0 0.0041122906027094789 0.00015684202127872154 0 0.0041346621487327994 0.0001518558113964178 0 0.0041267611595333159 0.00017248757516113739 0 0.0041267611595333159 0.00017248757516113739 0 0.0041156484674091881 0.00017853511620290693 0 0.0041173132189519556 0.00018405751744471972 0 0.0040830774897234901 0.00027563955006956129 0 0.0040894328683270453 0.00022203688819394371 0 0.0041156484674091881 0.00017853511620290693 0 0.004104578666652872 0.00017232003243876695 0 0.004118938426823494 0.00018151786399245198 0 0.0040912762516329632 0.0001550875883656107 0 0.0041122906027094789 0.00015684202127872154 0 0.004104578666652872 0.00017232003243876695 0 0.0041122906027094789 0.00015684202127872154 0 0.0041156484674091881 0.00017853511620290693 0 0.004104578666652872 0.00017232003243876695 0 0.0042783448396202925 0.0002120819660670673 0 0.004282073119981529 0.00021967214944049689 0 0.0042902168835515179 0.00020097105607355659 0 0.0037543170332122494 0.00017047506461706171 0 0.0037516695079517198 0.00016916503624980775 0 0.0037598471425565072 0.00017304725962087147 0 0.0040602916848391209 0.00018583338614744556 0 0.0040184140275515848 0.00019103201363055344 0 0.0042692536711987812 0.00021164942465378621 0 0.0042783448396202925 0.0002120819660670673 0 0.0042829292575917981 0.0002010599877576495 0 0.0042783448396202925 0.0002120819660670673 0 0.0042902168835515179 0.00020097105607355659 0 0.0042829292575917981 0.0002010599877576495 0 0.0042710495822828043 0.00022174687849636334 0 0.0042783448396202925 0.0002120819660670673 0 0.004282073119981529 0.00021967214944049689 0 0.0037459035751528516 0.00016770353874217072 0 0.0037516695079517198 0.00016916503624980775 0 0.0037501099382522048 0.00016873188785746789 0 0.0037543170332122494 0.00017047506461706171 0 0.0037516695079517198 0.00016916503624980775 0 0.0037501099382522048 0.00016873188785746789 0 0.0037543170332122494 0.00017047506461706171 0 0.0037501099382522048 0.00016873188785746789 0 0.0037550803503948304 0.000171306940437823 0 0.0037520373089156883 0.00017051801076578321 0 0.0037497166771747461 0.00016848905771241053 0 0.0037550803503948304 0.000171306940437823 0 0.0037501099382522048 0.00016873188785746789 0 0.0037497166771747461 0.00016848905771241053 0 0.0037550803503948304 0.000171306940437823 0 0.0037551050710316705 0.00017359915629590163 0 0.0037520373089156883 0.00017051801076578321 0 0.0037550803503948304 0.000171306940437823 0 0.0037543170332122494 0.00017047506461706171 0 0.0037550803503948304 0.000171306940437823 0 0.0037598471425565072 0.00017304725962087147 0 0.0037627025693082574 0.00017731688306346882 0 0.0037663130959786819 0.00017947723459828927 0 0.0037598471425565072 0.00017304725962087147 0 0.0037550803503948304 0.000171306940437823 0 0.0037627025693082574 0.00017731688306346882 0 0.0037598471425565072 0.00017304725962087147 0 0.0037551050710316705 0.00017359915629590163 0 0.0037550803503948304 0.000171306940437823 0 0.0037627025693082574 0.00017731688306346882 0 0.0037563573700652732 0.00017826332109026702 0 0.0037627025693082574 0.00017731688306346882 0 0.0037708562745282139 0.00018448929733898015 0 0.0037627025693082574 0.00017731688306346882 0 0.0037691582364659682 0.00018057202729105241 0 0.0037708562745282139 0.00018448929733898015 0 0.0037627025693082574 0.00017731688306346882 0 0.0037691582364659682 0.00018057202729105241 0 0.0037663130959786819 0.00017947723459828927 0 0.0042868793260095297 0.00019302163703844566 0 0.0042897839060498533 0.00018859382735273285 0 0.0042874138571602546 0.00019778240864376574 0 0.0042868793260095297 0.00019302163703844566 0 0.0042881491165581952 0.00019348677333453778 0 0.0042897839060498533 0.00018859382735273285 0 0.0042850057527854942 0.00019207042971708916 0 0.0042868793260095297 0.00019302163703844566 0 0.0042833446900599152 0.00019633476699263281 0 0.0042850057527854942 0.00019207042971708916 0 0.0042868793260095297 0.00019302163703844566 0 0.0042881491165581952 0.00019348677333453778 0 0.0042902168835515179 0.00020097105607355659 0 0.0042881491165581952 0.00019348677333453778 0 0.0042829292575917981 0.0002010599877576495 0 0.0042850057527854942 0.00019207042971708916 0 0.0042902168835515179 0.00020097105607355659 0 0.0042881491165581952 0.00019348677333453778 0 0.0040273532597348907 0.00018633125216107447 0 0.0040184140275515848 0.00019103201363055344 0 0.0042881491165581952 0.00019348677333453778 0 0.0042829292575917981 0.0002010599877576495 0 0.0042897839060498533 0.00018859382735273285 0 0.0042751539342929688 0.00019919193533207382 0 0.0042829292575917981 0.0002010599877576495 0 0.0042897839060498533 0.00018859382735273285 0 0.0042903935329872333 0.00018822581642115625 0 0.0042960554736554161 0.00018029115850477689 0 0.0042897839060498533 0.00018859382735273285 0 0.0043061451085602866 0.00016195922530029479 0 0.0042913750507700662 0.0001687402323770643 0 0.0043203231707507651 0.00013828914449975539 0 0.0042913750507700662 0.0001687402323770643 0 0.004299800575855074 0.00014717338165661195 0 0.0043036187614748037 0.00016064908765845272 0 0.0043061451085602866 0.00016195922530029479 0 0.0042913750507700662 0.0001687402323770643 0 0.0043101724074389369 0.00015003592225606906 0 0.0042942273474669123 0.00016761751594272968 0 0.0043203231707507651 0.00013828914449975539 0 0.004299800575855074 0.00014717338165661195 0 0.0043132358953802963 0.00013167030615012233 0 0.0043203231707507651 0.00013828914449975539 0 0.0043188113380020028 0.00012835420535010683 0 0.0043132358953802963 0.00013167030615012233 0 0.0043036187614748037 0.00016064908765845272 0 0.0043036301615062677 0.00016402712381990663 0 0.0043051699906073229 0.0001692838506545185 0 0.0042874138571602546 0.00019778240864376574 0 0.0042822985762948464 0.00020105730270012214 0 0.0042799515915692126 0.0002065631628647062 0 0.0043036301615062677 0.00016402712381990663 0 0.0043061451085602866 0.00016195922530029479 0 0.0042991590677855743 0.00016641712127034734 0 0.0043036187614748037 0.00016064908765845272 0 0.0043036301615062677 0.00016402712381990663 0 0.0043061451085602866 0.00016195922530029479 0 0.0042960554736554161 0.00018029115850477689 0 0.0042899552664404069 0.00018645284584612297 0 0.0042874138571602546 0.00019778240864376574 0 0.0042833446900599152 0.00019633476699263281 0 0.0042822985762948464 0.00020105730270012214 0 0.0042868793260095297 0.00019302163703844566 0 0.0042874138571602546 0.00019778240864376574 0 0.0042833446900599152 0.00019633476699263281 0 0.0037691582364659682 0.00018057202729105241 0 0.0037663130959786819 0.00017947723459828927 0 0.0037747733273741724 0.00017634576883024251 0 0.0042850057527854942 0.00019207042971708916 0 0.0042833446900599152 0.00019633476699263281 0 0.0042770586698281966 0.00019860066881343384 0 0.0040273532597348907 0.00018633125216107447 0 0.0040156852051441514 0.00018272571635274048 0 0.0042833446900599152 0.00019633476699263281 0 0.0042806525220068815 0.00019925916802269645 0 0.0042770586698281966 0.00019860066881343384 0 0.0042833446900599152 0.00019633476699263281 0 0.0042822985762948464 0.00020105730270012214 0 0.0042806525220068815 0.00019925916802269645 0 0.0038695903758827004 0.00026502703449729639 0 0.0038733827273497324 0.00018319819196083349 0 0.0037977209573319768 0.00015020369347731489 0 0.0038192622873189116 0.00021745314698800474 0 0.0037959878797076164 0.00015629044461158196 0 0.0037708562745282139 0.00018448929733898015 0 0.0037977209573319768 0.00015020369347731489 0 0.0037747733273741724 0.00017634576883024251 0 0.0037691582364659682 0.00018057202729105241 0 0.0037708562745282139 0.00018448929733898015 0 0.0037747733273741724 0.00017634576883024251 0 0.0037977209573319768 0.00015020369347731489 0 0.0037747733273741724 0.00017634576883024251 0 0.0038320160827099818 8.6451789798088193e-05 0 0.0040156852051441514 0.00018272571635274048 0 0.0041522340311288472 0.00019111327863634398 0 0.0037977209573319768 0.00015020369347731489 0 0.0038528476030491522 0.00013247609761966512 0 0.0038320160827099818 8.6451789798088193e-05 0 0.0038733827273497324 0.00018319819196083349 0 0.0037977209573319768 0.00015020369347731489 0 0.0038528476030491522 0.00013247609761966512 0 0.0042822985762948464 0.00020105730270012214 0 0.0042799515915692126 0.0002065631628647062 0 0.0042795903410921153 0.00020558177119261889 0 0.0042770586698281966 0.00019860066881343384 0 0.0042794186071037563 0.00020183438594947349 0 0.0042705530250120114 0.00020944332512109031 0 0.0042822985762948464 0.00020105730270012214 0 0.0042806525220068815 0.00019925916802269645 0 0.0042794186071037563 0.00020183438594947349 0 0.0042806525220068815 0.00019925916802269645 0 0.0042770586698281966 0.00019860066881343384 0 0.0042794186071037563 0.00020183438594947349 0 0.0042822985762948464 0.00020105730270012214 0 0.0042794186071037563 0.00020183438594947349 0 0.0042795903410921153 0.00020558177119261889 0 0.0042794186071037563 0.00020183438594947349 0 0.0042795903410921153 0.00020558177119261889 0 0.0042705530250120114 0.00020944332512109031 0 0.0042799515915692126 0.0002065631628647062 0 0.0042795903410921153 0.00020558177119261889 0 0.0042818893012178429 0.00020516298496394938 0 0.0043064648996716838 0.00018784397194675269 0 0.0041522340311288472 0.00019111327863634398 0 0.0042795903410921153 0.00020558177119261889 0 0.0042818893012178429 0.00020516298496394938 0 0.0042838417081982666 0.00020535832882670864 0 0.0042799515915692126 0.0002065631628647062 0 0.0042818893012178429 0.00020516298496394938 0 0.0042832848140643923 0.00020275109985624787 0 0.0042991590677855743 0.00016641712127034734 0 0.0042998832483639882 0.00017472660266631566 0 0.0043051699906073229 0.0001692838506545185 0 0.0038528476030491522 0.00013247609761966512 0 0.0038320160827099818 8.6451789798088193e-05 0 0.0038788566183385223 0.00010162006117796891 0 0.0042833239113881667 0.00020421032393395442 0 0.0042842718051019834 0.00020383368993760474 0 0.0042832848140643923 0.00020275109985624787 0 0.0042818893012178429 0.00020516298496394938 0 0.0042833239113881667 0.00020421032393395442 0 0.0042838417081982666 0.00020535832882670864 0 0.0042818893012178429 0.00020516298496394938 0 0.0042833239113881667 0.00020421032393395442 0 0.0042832848140643923 0.00020275109985624787 0 0.0042833239113881667 0.00020421032393395442 0 0.0042838417081982666 0.00020535832882670864 0 0.0042842718051019834 0.00020383368993760474 0 0.0041522340311288472 0.00019111327863634398 0 0.0041505724119522526 0.00016715314596852879 0 0.0038320160827099818 8.6451789798088193e-05 0 0.0038788566183385223 0.00010162006117796891 0 0.0038833311816681821 5.2657684478400162e-05 0 0.0041762770227686281 0.00017932025606211125 0 0.0041793128973050403 0.00017199798007533427 0 0.0041862306588259261 0.00017373670807487268 0 0.0041522340311288472 0.00019111327863634398 0 0.0042451927591865774 0.00019631012432765328 0 0.0042451927591865774 0.00019631012432765328 0 0.0041505724119522526 0.00016715314596852879 0 0.0042451927591865774 0.00019631012432765328 0 0.0042950057548273284 0.00019428290847285819 0 0.0042871240041174787 0.00020363544857843497 0 0.0042860040507335358 0.00020098643418298994 0 0.0042896028823950815 0.00019754943392919863 0 0.0042451927591865774 0.00019631012432765328 0 0.004289539258324193 0.00020555327344952987 0 0.0042871240041174787 0.00020363544857843497 0 0.0042860040507335358 0.00020098643418298994 0 0.0042832848140643923 0.00020275109985624787 0 0.0042860040507335358 0.00020098643418298994 0 0.0042832848140643923 0.00020275109985624787 0 0.0042859313501855522 0.00019816813512631593 0 0.0042860040507335358 0.00020098643418298994 0 0.0042896028823950815 0.00019754943392919863 0 0.0042859313501855522 0.00019816813512631593 0 0.0042998832483639882 0.00017472660266631566 0 0.0043051699906073229 0.0001692838506545185 0 0.0042995111664061378 0.00018354355911186132 0 0.0042799515915692126 0.0002065631628647062 0 0.0042832848140643923 0.00020275109985624787 0 0.0042859313501855522 0.00019816813512631593 0 0.0042899552664404069 0.00018645284584612297 0 0.0042889424144438425 0.00019091168875759031 0 0.0042991590677855743 0.00016641712127034734 0 0.0042998832483639882 0.00017472660266631566 0 0.0042974753949097458 0.00017703620188304234 0 0.0042974753949097458 0.00017703620188304234 0 0.0042995111664061378 0.00018354355911186132 0 0.0042913891346048104 0.00018346165469644354 0 0.0042991590677855743 0.00016641712127034734 0 0.0042974753949097458 0.00017703620188304234 0 0.0042913891346048104 0.00018346165469644354 0 0.0042998832483639882 0.00017472660266631566 0 0.0042974753949097458 0.00017703620188304234 0 0.0042995111664061378 0.00018354355911186132 0 0.0043106831230762619 0.0001470476018278212 0 0.0042996442263529208 0.00016305752723240618 0 0.0043221280449074213 0.00012361675167994125 0 0.0043171891748332598 0.00012248054348304544 0 0.0043197340306583695 0.00013612341545399674 0 0.0043171891748332598 0.00012248054348304544 0 0.0043197340306583695 0.00013612341545399674 0 0.0042991156214497849 0.00014223516183595539 0 0.0043221280449074213 0.00012361675167994125 0 0.0043197340306583695 0.00013612341545399674 0 0.0043289617516333503 0.00011595805647507222 0 0.0043221280449074213 0.00012361675167994125 0 0.0043188113380020028 0.00012835420535010683 0 0.0043132358953802963 0.00013167030615012233 0 0.0043221280449074213 0.00012361675167994125 0 0.0043132358953802963 0.00013167030615012233 0 0.0043289617516333503 0.00011595805647507222 0 0.0043101724074389369 0.00015003592225606906 0 0.0043106831230762619 0.0001470476018278212 0 0.0043203231707507651 0.00013828914449975539 0 0.0043188113380020028 0.00012835420535010683 0 0.0043171891748332598 0.00012248054348304544 0 0.0043036301615062677 0.00016402712381990663 0 0.0042991590677855743 0.00016641712127034734 0 0.0043051699906073229 0.0001692838506545185 0 0.0043221280449074213 0.00012361675167994125 0 0.0043188113380020028 0.00012835420535010683 0 0.0043171891748332598 0.00012248054348304544 0 0.0041664082673121931 0.0001681143251945559 0 0.0041345233735207189 0.00017770156510482895 0 0.0041061610427957258 0.00012534482971915688 0 0.0041672398637397469 0.00016301113050408154 0 0.0041775388176668732 0.00015307792735728994 0 0.0041345233735207189 0.00017770156510482895 0 0.004118670996407732 0.00018299737719791199 0 0.0041025951416258782 0.00016877598094138815 0 0.0041349609904399237 0.00017730549952488033 0 0.0041345233735207189 0.00017770156510482895 0 0.004118938426823494 0.00018151786399245198 0 0.0041345233735207189 0.00017770156510482895 0 0.004118938426823494 0.00018151786399245198 0 0.004118670996407732 0.00018299737719791199 0 0.0041156484674091881 0.00017853511620290693 0 0.004118938426823494 0.00018151786399245198 0 0.004118670996407732 0.00018299737719791199 0 0.0040894328683270453 0.00022203688819394371 0 0.0041029640768432364 0.00017325929092065111 0 0.0040618153814445095 0.00026846622286711471 0 0.0040513280038286144 0.00019009286807517662 0 0.0041025951416258782 0.00016877598094138815 0 0.004118670996407732 0.00018299737719791199 0 0.0041173132189519556 0.00018405751744471972 0 0.0041025951416258782 0.00016877598094138815 0 0.0041156484674091881 0.00017853511620290693 0 0.004118670996407732 0.00018299737719791199 0 0.0041173132189519556 0.00018405751744471972 0 0.0040513280038286144 0.00019009286807517662 0 0.0041025951416258782 0.00016877598094138815 0 0.0040505369803275652 0.00014491508174765483 0 0.0041025951416258782 0.00016877598094138815 0 0.0040505369803275652 0.00014491508174765483 0 0.0041061610427957258 0.00012534482971915688 0 0.0041345233735207189 0.00017770156510482895 0 0.0041025951416258782 0.00016877598094138815 0 0.0041061610427957258 0.00012534482971915688 0 0.0039909356623214175 0.00017991902562353455 0 0.0039332934362709734 0.00010891845922669151 0 0.0039983253067540098 8.2054064219305815e-05 0 0.0040505369803275652 0.00014491508174765483 0 0.0039909356623214175 0.00017991902562353455 0 0.0039983253067540098 8.2054064219305815e-05 0 0.0040513280038286144 0.00019009286807517662 0 0.0040505369803275652 0.00014491508174765483 0 0.0039909356623214175 0.00017991902562353455 0 0.0040618153814445095 0.00026846622286711471 0 0.0040513280038286144 0.00019009286807517662 0 0.0039909356623214175 0.00017991902562353455 0 0.0040618153814445095 0.00026846622286711471 0 0.0039909356623214175 0.00017991902562353455 0 0.0039682849536822667 0.00027622888897347339 0 0.0039909356623214175 0.00017991902562353455 0 0.0039682849536822667 0.00027622888897347339 0 0.0039250897380400645 0.00021473185441865604 0 0.0038695903758827004 0.00026502703449729639 0 0.0039682849536822667 0.00027622888897347339 0 0.0039250897380400645 0.00021473185441865604 0 0.0038695903758827004 0.00026502703449729639 0 0.0038733827273497324 0.00018319819196083349 0 0.0039250897380400645 0.00021473185441865604 0 0.0038733827273497324 0.00018319819196083349 0 0.0039250897380400645 0.00021473185441865604 0 0.0039087028606537349 0.00015107932901593926 0 0.0039909356623214175 0.00017991902562353455 0 0.0039250897380400645 0.00021473185441865604 0 0.0039087028606537349 0.00015107932901593926 0 0.0039909356623214175 0.00017991902562353455 0 0.0039087028606537349 0.00015107932901593926 0 0.0039332934362709734 0.00010891845922669151 0 0.0038528476030491522 0.00013247609761966512 0 0.0039087028606537349 0.00015107932901593926 0 0.0038788566183385223 0.00010162006117796891 0 0.0038733827273497324 0.00018319819196083349 0 0.0038528476030491522 0.00013247609761966512 0 0.0039087028606537349 0.00015107932901593926 0 0.0041505724119522526 0.00016715314596852879 0 0.0041157715015517071 0.00013065156086066829 0 0.0042708883720325198 0.00019321905195034884 0 0.0042644364557310526 0.0001985811042441498 0 0.0042661294277876963 0.00019107426146395314 0 0.0039332934362709734 0.00010891845922669151 0 0.0038833311816681821 5.2657684478400162e-05 0 0.0039983253067540098 8.2054064219305815e-05 0 0.0038788566183385223 0.00010162006117796891 0 0.0039332934362709734 0.00010891845922669151 0 0.0038833311816681821 5.2657684478400162e-05 0 0.0039087028606537349 0.00015107932901593926 0 0.0038788566183385223 0.00010162006117796891 0 0.0039332934362709734 0.00010891845922669151 0 0.0042895657231293129 0.00019406065273596448 0 0.0042892148624753988 0.00019538563409210292 0 0.0042863782121356948 0.0001934611948926783 0 0.0041505724119522526 0.00016715314596852879 0 0.0042995207003115382 0.00019348622949040155 0 0.0042892148624753988 0.00019538563409210292 0 0.0042863782121356948 0.0001934611948926783 0 0.0042897300951984987 0.00019699021787260998 0 0.0042904123843368232 0.00019416259297065563 0 0.0042895657231293129 0.00019406065273596448 0 0.0042892148624753988 0.00019538563409210292 0 0.0042904123843368232 0.00019416259297065563 0 0.0042892148624753988 0.00019538563409210292 0 0.0042896028823950815 0.00019754943392919863 0 0.0042892148624753988 0.00019538563409210292 0 0.0042897300951984987 0.00019699021787260998 0 0.0042896028823950815 0.00019754943392919863 0 0.0042644364557310526 0.0001985811042441498 0 0.0042661294277876963 0.00019107426146395314 0 0.0042591986098719148 0.00019706285846261696 0 0.0041157715015517071 0.00013065156086066829 0 0.0041775388176668732 0.00015307792735728994 0 0.0040505369803275652 0.00014491508174765483 0 0.0039983253067540098 8.2054064219305815e-05 0 0.0041061610427957258 0.00012534482971915688 0 0.0042661294277876963 0.00019107426146395314 0 0.0042503035406019091 0.00017574105750266532 0 0.0042591986098719148 0.00019706285846261696 0 0.0042503035406019091 0.00017574105750266532 0 0.0042591986098719148 0.00019706285846261696 0 0.0042425087946646664 0.00019997161990954184 0 0.0042591986098719148 0.00019706285846261696 0 0.0042425087946646664 0.00019997161990954184 0 0.0042695054634437155 0.00020275522285899414 0 0.0042644364557310526 0.0001985811042441498 0 0.0042591986098719148 0.00019706285846261696 0 0.0042695054634437155 0.00020275522285899414 0 0.0042995207003115382 0.00019348622949040155 0 0.0042602262789167827 0.00020493883170078934 0 0.0042499235072198252 0.00020482214075154766 0 0.0042425087946646664 0.00019997161990954184 0 0.0042695054634437155 0.00020275522285899414 0 0.0042091014296054465 0.00020367608223375639 0 0.0042499235072198252 0.00020482214075154766 0 0.0042425087946646664 0.00019997161990954184 0 0.0042091014296054465 0.00020367608223375639 0 0.0041664082673121931 0.0001681143251945559 0 0.0042425087946646664 0.00019997161990954184 0 0.0041664082673121931 0.0001681143251945559 0 0.0042503035406019091 0.00017574105750266532 0 0.0042425087946646664 0.00019997161990954184 0 0.0042881296016976768 0.00020577998850648661 0 0.0042872442558047489 0.00020255704715136375 0 0.0043002892689783852 0.00019957657472169043 0 0.0042881296016976768 0.00020577998850648661 0 0.0042872442558047489 0.00020255704715136375 0 0.0042722129867225666 0.00020200392473657968 0 0.0042872442558047489 0.00020255704715136375 0 0.0042722129867225666 0.00020200392473657968 0 0.0042695054634437155 0.00020275522285899414 0 0.0042499235072198252 0.00020482214075154766 0 0.0042722129867225666 0.00020200392473657968 0 0.0042695054634437155 0.00020275522285899414 0 0.0042695054634437155 0.00020275522285899414 0 0.0042889018843891664 0.00020169726352898141 0 0.0042903751899477822 0.00019942714883960745 0 0.0042872442558047489 0.00020255704715136375 0 0.0042889018843891664 0.00020169726352898141 0 0.004301559479675054 0.00019818191102802065 0 0.0042872442558047489 0.00020255704715136375 0 0.0042695054634437155 0.00020275522285899414 0 0.0042889018843891664 0.00020169726352898141 0 0.0042889018843891664 0.00020169726352898141 0 0.0042903751899477822 0.00019942714883960745 0 0.0042950032555005716 0.00019619289903141044 0 0.0042863782121356948 0.0001934611948926783 0 0.0042695054634437155 0.00020275522285899414 0 0.0042903751899477822 0.00019942714883960745 0 0.0042863782121356948 0.0001934611948926783 0 0.0042903751899477822 0.00019942714883960745 0 0.0042897300951984987 0.00019699021787260998 0 0.0042903751899477822 0.00019942714883960745 0 0.0042897300951984987 0.00019699021787260998 0 0.0042904680041839297 0.00019729213391828684 0 0.0042897300951984987 0.00019699021787260998 0 0.0042896028823950815 0.00019754943392919863 0 0.0042904680041839297 0.00019729213391828684 0 0.0042903751899477822 0.00019942714883960745 0 0.0042915057310519344 0.00019509424389683473 0 0.0042950032555005716 0.00019619289903141044 0 0.0042903751899477822 0.00019942714883960745 0 0.0042904680041839297 0.00019729213391828684 0 0.0042915057310519344 0.00019509424389683473 0 0.004300766776984215 0.00018962708055799424 0 0.0042950032555005716 0.00019619289903141044 0 0.0042928026183818241 0.00018868922771737466 0 0.0042915057310519344 0.00019509424389683473 0 0.0042950032555005716 0.00019619289903141044 0 0.0042928026183818241 0.00018868922771737466 0 0.0042968047035581644 0.00018402623619933142 0 0.004300766776984215 0.00018962708055799424 0 0.0042928026183818241 0.00018868922771737466 0 0.004300766776984215 0.00018962708055799424 0 0.0042950032555005716 0.00019619289903141044 0 0.004301559479675054 0.00019818191102802065 0 0.0042889018843891664 0.00020169726352898141 0 0.0042950032555005716 0.00019619289903141044 0 0.004301559479675054 0.00019818191102802065 0 0.0043185286529214134 0.00019024909196910743 0 0.004300766776984215 0.00018962708055799424 0 0.004301559479675054 0.00019818191102802065 0 0.0043312107950875403 0.00018717611034109837 0 0.0043591048442730221 0.00018274156892647379 0 0.0043183070514753079 0.00019337466141247184 0 0.0043185286529214134 0.00019024909196910743 0 0.0043591048442730221 0.00018274156892647379 0 0.0043183070514753079 0.00019337466141247184 0 0.0043185286529214134 0.00019024909196910743 0 0.004301559479675054 0.00019818191102802065 0 0.0043183070514753079 0.00019337466141247184 0 0.0042872442558047489 0.00020255704715136375 0 0.004301559479675054 0.00019818191102802065 0 0.0043002892689783852 0.00019957657472169043 0 0.004301559479675054 0.00019818191102802065 0 0.0043183070514753079 0.00019337466141247184 0 0.0043002892689783852 0.00019957657472169043 0 0.0043064443786800539 0.00015778672302849624 0 0.0043154226874305354 0.00016929403676915682 0 0.004328620476156537 0.00015296051251147456 0 0.0043064443786800539 0.00015778672302849624 0 0.0043154226874305354 0.00016929403676915682 0 0.0043019238295500892 0.00017339518041192654 0 0.0043154226874305354 0.00016929403676915682 0 0.0043019238295500892 0.00017339518041192654 0 0.0043075082960978093 0.00017781884251374597 0 0.004328620476156537 0.00015296051251147456 0 0.0043321999657930307 0.00018291117831880131 0 0.0043581709085661821 0.00016395151674588048 0 0.0043154226874305354 0.00016929403676915682 0 0.004328620476156537 0.00015296051251147456 0 0.0043321999657930307 0.00018291117831880131 0 0.0043197340306583695 0.00013612341545399674 0 0.004328620476156537 0.00015296051251147456 0 0.0043289617516333503 0.00011595805647507222 0 0.0043064443786800539 0.00015778672302849624 0 0.0043197340306583695 0.00013612341545399674 0 0.004328620476156537 0.00015296051251147456 0 0.0043064443786800539 0.00015778672302849624 0 0.0043197340306583695 0.00013612341545399674 0 0.0042991156214497849 0.00014223516183595539 0 0.0042995111664061378 0.00018354355911186132 0 0.0042913891346048104 0.00018346165469644354 0 0.0042931863115409676 0.00019336779293170826 0 0.0043064443786800539 0.00015778672302849624 0 0.0042991156214497849 0.00014223516183595539 0 0.0042899845527793034 0.00016897797945111167 0 0.0042996442263529208 0.00016305752723240618 0 0.0042923088538292685 0.00018052292835715481 0 0.0042904680041839297 0.00019729213391828684 0 0.0042915057310519344 0.00019509424389683473 0 0.0042859313501855522 0.00019816813512631593 0 0.0042896028823950815 0.00019754943392919863 0 0.0042904680041839297 0.00019729213391828684 0 0.0042859313501855522 0.00019816813512631593 0 0.0042909799049009193 0.00019450257651330486 0 0.0042889424144438425 0.00019091168875759031 0 0.0042915057310519344 0.00019509424389683473 0 0.0042913891346048104 0.00018346165469644354 0 0.0042931863115409676 0.00019336779293170826 0 0.0043064443786800539 0.00015778672302849624 0 0.0042899845527793034 0.00016897797945111167 0 0.0043019238295500892 0.00017339518041192654 0 0.0042899845527793034 0.00016897797945111167 0 0.0043019238295500892 0.00017339518041192654 0 0.0042958092966032179 0.00018158164183088656 0 0.0043019238295500892 0.00017339518041192654 0 0.0042958092966032179 0.00018158164183088656 0 0.0043001738815581425 0.0001840439486559662 0 0.0042899845527793034 0.00016897797945111167 0 0.0042958092966032179 0.00018158164183088656 0 0.0042928026183818241 0.00018868922771737466 0 0.0042958092966032179 0.00018158164183088656 0 0.0042928026183818241 0.00018868922771737466 0 0.004296196948686961 0.00018479025486279585 0 0.0042923088538292685 0.00018052292835715481 0 0.0042924318501325488 0.00018731110443121477 0 0.0042915057310519344 0.00019509424389683473 0 0.0042931863115409676 0.00019336779293170826 0 0.0042928026183818241 0.00018868922771737466 0 0.0042968047035581644 0.00018402623619933142 0 0.0042928026183818241 0.00018868922771737466 0 0.004296196948686961 0.00018479025486279585 0 0.0042974130819704278 0.0001814873262876644 0 0.004296196948686961 0.00018479025486279585 0 0.004298010715133512 0.00018252481084370264 0 0.0043001738815581425 0.0001840439486559662 0 0.004296196948686961 0.00018479025486279585 0 0.004298010715133512 0.00018252481084370264 0 0.0042958092966032179 0.00018158164183088656 0 0.0043001738815581425 0.0001840439486559662 0 0.004296196948686961 0.00018479025486279585 0 0.0043971754399890735 8.2077798925572786e-05 0 0.0043712951352565983 0.00012859202072977024 0 0.0042959942952917772 0.0001797486728529313 0 0.004298010715133512 0.00018252481084370264 0 0.0042978458857590024 0.00018366112732568027 0 0.0043001738815581425 0.0001840439486559662 0 0.004298010715133512 0.00018252481084370264 0 0.0042978458857590024 0.00018366112732568027 0 0.0043069650446966937 0.00019788645472491032 0 0.0043712951352565983 0.00012859202072977024 0 0.0042834481535545602 0.00017656348598810943 0 0.0043712951352565983 0.00012859202072977024 0 0.0043019238295500892 0.00017339518041192654 0 0.0043001738815581425 0.0001840439486559662 0 0.0043075082960978093 0.00017781884251374597 0 0.0043154226874305354 0.00016929403676915682 0 0.0043128404979536983 0.00018461913437712639 0 0.0043075082960978093 0.00017781884251374597 0 0.0043001738815581425 0.0001840439486559662 0 0.0043128404979536983 0.00018461913437712639 0 0.0043075082960978093 0.00017781884251374597 0 0.0043712951352565983 0.00012859202072977024 0 0.0044204221612791222 0.00010760811875007961 0 0.004313068640250369 0.0002085307274772748 0 0.0043321999657930307 0.00018291117831880131 0 0.004347687730626007 0.00020929112914010479 0 0.0043154226874305354 0.00016929403676915682 0 0.004313068640250369 0.0002085307274772748 0 0.0043321999657930307 0.00018291117831880131 0 0.0044922187182218796 9.9738027439868315e-07 0 0.0044932505118991965 3.4691748778497464e-06 0 0.0044931609723190382 1.7173845080954979e-06 0 0.0044942439403624895 -3.2535104246783383e-07 0 0.0044931609723190382 1.7173845080954979e-06 0 0.0044922608394131506 3.8800731240069853e-06 0 0.0044932505118991965 3.4691748778497464e-06 0 0.0044931609723190382 1.7173845080954979e-06 0 0.0044922608394131506 3.8800731240069853e-06 0 0.0044942439403624895 -3.2535104246783383e-07 0 0.0044886364157277715 4.5363644985049621e-06 0 0.0044922608394131506 3.8800731240069853e-06 0 0.0045074915976341312 -2.3564943669302449e-05 0 0.0044661498276386711 5.787873375875666e-05 0 0.0044942439403624895 -3.2535104246783383e-07 0 0.0045000110880487696 -1.9840389629121953e-06 0 0.0045001472101229177 5.2149836270935102e-07 0 0.0045000110880487696 -1.9840389629121953e-06 0 0.0045001472101229177 5.2149836270935102e-07 0 0.0045008230048831591 5.3632270818838137e-06 0 0.0044661498276386711 5.787873375875666e-05 0 0.0045090268131955397 1.0581957411727712e-05 0 0.0043845923180366583 0.0002107484974083816 0 0.0043853024921353592 0.00018273189277576783 0 0.0044174408419966693 0.00017202361188993246 0 0.0044661498276386711 5.787873375875666e-05 0 0.0044575890939170144 0.00012430486226940946 0 0.0043845923180366583 0.0002107484974083816 0 0.004347687730626007 0.00020929112914010479 0 0.0043853024921353592 0.00018273189277576783 0 0.0043321999657930307 0.00018291117831880131 0 0.004347687730626007 0.00020929112914010479 0 0.0043581709085661821 0.00016395151674588048 0 0.004347687730626007 0.00020929112914010479 0 0.0043581709085661821 0.00016395151674588048 0 0.0043853024921353592 0.00018273189277576783 0 0.0044661498276386711 5.787873375875666e-05 0 0.0044204221612791222 0.00010760811875007961 0 0.0043581709085661821 0.00016395151674588048 0 0.0043853024921353592 0.00018273189277576783 0 0.0043939106016782047 0.00013574643023471535 0 0.0043853024921353592 0.00018273189277576783 0 0.0043939106016782047 0.00013574643023471535 0 0.0044174408419966693 0.00017202361188993246 0 0.0043581709085661821 0.00016395151674588048 0 0.0043939106016782047 0.00013574643023471535 0 0.0043289617516333503 0.00011595805647507222 0 0.004328620476156537 0.00015296051251147456 0 0.0043581709085661821 0.00016395151674588048 0 0.0043289617516333503 0.00011595805647507222 0 0.004460417794566995 0.00010400840068826373 0 0.0044715137709422977 5.2282903409474953e-05 0 0.0044421393840449264 7.022272312800098e-05 0 0.0044640506269642711 0.00010009854232394013 0 0.0044575890939170144 0.00012430486226940946 0 0.0043939106016782047 0.00013574643023471535 0 0.004460417794566995 0.00010400840068826373 0 0.0044174408419966693 0.00017202361188993246 0 0.0045075778971666002 5.5226328099688771e-05 0 0.0044715137709422977 5.2282903409474953e-05 0 0.0044991173424992039 2.0589997355297283e-05 0 0.004460417794566995 0.00010400840068826373 0 0.0045075778971666002 5.5226328099688771e-05 0 0.0044715137709422977 5.2282903409474953e-05 0 0.0044773582164444482 1.7307237778545299e-05 0 0.0045090268131955397 1.0581957411727712e-05 0 0.0044715137709422977 5.2282903409474953e-05 0 0.0044805216825820398 1.81756531484447e-05 0 0.0044991173424992039 2.0589997355297283e-05 0 0.0045304343454101361 2.0469339159535248e-05 0 0.0045075778971666002 5.5226328099688771e-05 0 0.0044991173424992039 2.0589997355297283e-05 0 0.0045000110880487696 -1.9840389629121953e-06 0 0.0045008230048831591 5.3632270818838137e-06 0 0.0044977349077888612 -4.5891451011718527e-06 0 0.0044805216825820398 1.81756531484447e-05 0 0.0045008230048831591 5.3632270818838137e-06 0 0.0044977349077888612 -4.5891451011718527e-06 0 0.0044805216825820398 1.81756531484447e-05 0 0.0044808715130633895 2.4933337849239925e-07 0 0.0044555371955352528 2.0358136833066556e-05 0 0.0044805216825820398 1.81756531484447e-05 0 0.0044977349077888612 -4.5891451011718527e-06 0 0.0044808715130633895 2.4933337849239925e-07 0 0.0044808715130633895 2.4933337849239925e-07 0 0.0044555371955352528 2.0358136833066556e-05 0 0.0044570470604440079 -8.2148637408130187e-06 0 0.0044805216825820398 1.81756531484447e-05 0 0.0044555371955352528 2.0358136833066556e-05 0 0.0044557217670827699 4.2216195815640528e-05 0 0.0044715137709422977 5.2282903409474953e-05 0 0.0044805216825820398 1.81756531484447e-05 0 0.0044557217670827699 4.2216195815640528e-05 0 0.0044288107840134445 -1.2240903226446715e-05 0 0.0044570470604440079 -8.2148637408130187e-06 0 0.0044187356977972827 2.4801642552143781e-05 0 0.0044555371955352528 2.0358136833066556e-05 0 0.0044570470604440079 -8.2148637408130187e-06 0 0.0044187356977972827 2.4801642552143781e-05 0 0.0044555371955352528 2.0358136833066556e-05 0 0.0044187356977972827 2.4801642552143781e-05 0 0.0044269353283658891 5.2069559646468063e-05 0 0.0044288107840134445 -1.2240903226446715e-05 0 0.0043895184901055597 1.4837479090379655e-05 0 0.0044187356977972827 2.4801642552143781e-05 0 0.0043739884584053437 5.1626270881373915e-05 0 0.0044187356977972827 2.4801642552143781e-05 0 0.0043928129492625655 6.5501420480946132e-05 0 0.0044187356977972827 2.4801642552143781e-05 0 0.0043928129492625655 6.5501420480946132e-05 0 0.0044269353283658891 5.2069559646468063e-05 0 0.0043928129492625655 6.5501420480946132e-05 0 0.0043660994455122148 9.788866319500016e-05 0 0.0043926803360548085 9.8095164545152733e-05 0 0.0043928129492625655 6.5501420480946132e-05 0 0.0044269353283658891 5.2069559646468063e-05 0 0.0043926803360548085 9.8095164545152733e-05 0 0.0043739884584053437 5.1626270881373915e-05 0 0.0043542109815319042 8.600270372465004e-05 0 0.0043928129492625655 6.5501420480946132e-05 0 0.0043542109815319042 8.600270372465004e-05 0 0.0043928129492625655 6.5501420480946132e-05 0 0.0043660994455122148 9.788866319500016e-05 0 0.0044715137709422977 5.2282903409474953e-05 0 0.0044557217670827699 4.2216195815640528e-05 0 0.0044421393840449264 7.022272312800098e-05 0 0.0044557217670827699 4.2216195815640528e-05 0 0.0044269353283658891 5.2069559646468063e-05 0 0.0044421393840449264 7.022272312800098e-05 0 0.0044555371955352528 2.0358136833066556e-05 0 0.0044557217670827699 4.2216195815640528e-05 0 0.0044269353283658891 5.2069559646468063e-05 0 0.0044269353283658891 5.2069559646468063e-05 0 0.0044421393840449264 7.022272312800098e-05 0 0.0043926803360548085 9.8095164545152733e-05 0 0.004460417794566995 0.00010400840068826373 0 0.0044421393840449264 7.022272312800098e-05 0 0.0044337231249935508 9.828638374080427e-05 0 0.0044421393840449264 7.022272312800098e-05 0 0.0044337231249935508 9.828638374080427e-05 0 0.0043926803360548085 9.8095164545152733e-05 0 0.0044337231249935508 9.828638374080427e-05 0 0.0043926803360548085 9.8095164545152733e-05 0 0.0043812017624123567 0.00014184704918830435 0 0.0044337231249935508 9.828638374080427e-05 0 0.0043812017624123567 0.00014184704918830435 0 0.0044478074999416929 0.00011233245608126512 0 0.0043542109815319042 8.600270372465004e-05 0 0.0043333366626196633 0.00011596001915602263 0 0.0043660994455122148 9.788866319500016e-05 0 0.0043660994455122148 9.788866319500016e-05 0 0.0043926803360548085 9.8095164545152733e-05 0 0.0043450132470101224 0.0001301394864173016 0 0.0043926803360548085 9.8095164545152733e-05 0 0.0043450132470101224 0.0001301394864173016 0 0.0043812017624123567 0.00014184704918830435 0 0.0043333366626196633 0.00011596001915602263 0 0.0043660994455122148 9.788866319500016e-05 0 0.0043450132470101224 0.0001301394864173016 0 0.0042992158597501273 0.00014564714859641729 0 0.0043333366626196633 0.00011596001915602263 0 0.0043450132470101224 0.0001301394864173016 0 0.0043450132470101224 0.0001301394864173016 0 0.0043427351530190656 0.00015178994997240637 0 0.004303734983593769 0.00015522212441449628 0 0.0042992158597501273 0.00014564714859641729 0 0.0043450132470101224 0.0001301394864173016 0 0.004303734983593769 0.00015522212441449628 0 0.0043427351530190656 0.00015178994997240637 0 0.0043812017624123567 0.00014184704918830435 0 0.0043666590639104734 0.00015377311030674327 0 0.0043450132470101224 0.0001301394864173016 0 0.0043427351530190656 0.00015178994997240637 0 0.0043812017624123567 0.00014184704918830435 0 0.004354168979475651 0.00018782467406445875 0 0.0043427351530190656 0.00015178994997240637 0 0.0042909375317876589 0.00017282283163121199 0 0.004354168979475651 0.00018782467406445875 0 0.0043427351530190656 0.00015178994997240637 0 0.0043666590639104734 0.00015377311030674327 0 0.0042551983195625405 0.00017745979405126597 0 0.0042992158597501273 0.00014564714859641729 0 0.004303734983593769 0.00015522212441449628 0 0.0043427351530190656 0.00015178994997240637 0 0.004303734983593769 0.00015522212441449628 0 0.0042909375317876589 0.00017282283163121199 0 0.0042551983195625405 0.00017745979405126597 0 0.0042081999665159846 0.00021093759334581502 0 0.0042909375317876589 0.00017282283163121199 0 0.0042551983195625405 0.00017745979405126597 0 0.004303734983593769 0.00015522212441449628 0 0.0042909375317876589 0.00017282283163121199 0 0.0043576056723159395 0.00014248083725334411 0 0.0043812017624123567 0.00014184704918830435 0 0.0043688016851110081 0.00014131371306814688 0 0.0043816726136626186 0.00014201154688126853 0 0.0043929246721499072 0.00013377042568306558 0 0.0043576056723159395 0.00014248083725334411 0 0.0043812017624123567 0.00014184704918830435 0 0.0043426370600759181 0.00015856204200092282 0 0.0042171305489204537 0.00020124835541815393 0 0.0042464977618860223 0.00016208937699488019 0 0.004354168979475651 0.00018782467406445875 0 0.0043666590639104734 0.00015377311030674327 0 0.0043688016851110081 0.00014131371306814688 0 0.0043812017624123567 0.00014184704918830435 0 0.0043666590639104734 0.00015377311030674327 0 0.0043688016851110081 0.00014131371306814688 0 0.0042464977618860223 0.00016208937699488019 0 0.0042702436373538771 0.00013902104780916382 0 0.0043576056723159395 0.00014248083725334411 0 0.0043688016851110081 0.00014131371306814688 0 0.0043269768884726303 0.00012600638636700001 0 0.004192005553784758 0.00021131860135367386 0 0.0041264259178535687 0.00017826687034986101 0 0.0042143544775180668 0.00014814226024064951 0 0.0043576056723159395 0.00014248083725334411 0 0.0043269768884726303 0.00012600638636700001 0 0.0043426370600759181 0.00015856204200092282 0 0.0043269768884726303 0.00012600638636700001 0 0.0043105076569061171 0.00014263171118648587 0 0.0043426370600759181 0.00015856204200092282 0 0.0043269768884726303 0.00012600638636700001 0 0.0043105076569061171 0.00014263171118648587 0 0.0042839180127508224 0.00013779453745971974 0 0.0042702436373538771 0.00013902104780916382 0 0.0042826830068708405 0.00013690764634550703 0 0.0043105076569061171 0.00014263171118648587 0 0.0042839180127508224 0.00013779453745971974 0 0.004294400298541323 0.00014476086553155565 0 0.0042143544775180668 0.00014814226024064951 0 0.0042789800378593432 0.00016225372946132468 0 0.0042839180127508224 0.00013779453745971974 0 0.004261266251604225 0.00018447994277609258 0 0.0042143544775180668 0.00014814226024064951 0 0.0042789800378593432 0.00016225372946132468 0 0.004261266251604225 0.00018447994277609258 0 0.004192005553784758 0.00021131860135367386 0 0.0042143544775180668 0.00014814226024064951 0 0.0042789800378593432 0.00016225372946132468 0 0.004281904918528783 0.00015866214175050831 0 0.0042932327606445787 0.00014440079226388366 0 0.004261266251604225 0.00018447994277609258 0 0.0042789800378593432 0.00016225372946132468 0 0.004281904918528783 0.00015866214175050831 0 0.0042234454186747226 0.00016787318589122897 0 0.0042747339522841094 0.00015901330909977139 0 0.0042789800378593432 0.00016225372946132468 0 0.0042932327606445787 0.00014440079226388366 0 0.0042839180127508224 0.00013779453745971974 0 0.004281904918528783 0.00015866214175050831 0 0.004299800575855074 0.00014717338165661195 0 0.0042932327606445787 0.00014440079226388366 0 0.0042913750507700662 0.0001687402323770643 0 0.004281904918528783 0.00015866214175050831 0 0.004299800575855074 0.00014717338165661195 0 0.004299800575855074 0.00014717338165661195 0 0.0042932327606445787 0.00014440079226388366 0 0.0043132358953802963 0.00013167030615012233 0 0.0042932327606445787 0.00014440079226388366 0 0.0043132358953802963 0.00013167030615012233 0 0.0043007602163808141 0.00013642878920519156 0 0.0042932327606445787 0.00014440079226388366 0 0.0042839180127508224 0.00013779453745971974 0 0.0043007602163808141 0.00013642878920519156 0 0.0042839180127508224 0.00013779453745971974 0 0.0043007602163808141 0.00013642878920519156 0 0.004294400298541323 0.00014476086553155565 0 0.0043007602163808141 0.00013642878920519156 0 0.0043289617516333503 0.00011595805647507222 0 0.004294400298541323 0.00014476086553155565 0 0.0043132358953802963 0.00013167030615012233 0 0.0043007602163808141 0.00013642878920519156 0 0.0043289617516333503 0.00011595805647507222 0 0.0043939106016782047 0.00013574643023471535 0 0.0043289617516333503 0.00011595805647507222 0 0.0044225165713607855 8.6105035075594044e-05 0 0.0043313437762974956 0.00011587704365432644 0 0.0043593296048527481 0.00011706803122549434 0 0.0043939106016782047 0.00013574643023471535 0 0.004460417794566995 0.00010400840068826373 0 0.0044225165713607855 8.6105035075594044e-05 0 0.004460417794566995 0.00010400840068826373 0 0.0044337231249935508 9.828638374080427e-05 0 0.0044478074999416929 0.00011233245608126512 0 0.004460417794566995 0.00010400840068826373 0 0.0044478074999416929 0.00011233245608126512 0 0.0044225165713607855 8.6105035075594044e-05 0 0.0043105076569061171 0.00014263171118648587 0 0.0043426370600759181 0.00015856204200092282 0 0.004294400298541323 0.00014476086553155565 0 0.0043929246721499072 0.00013377042568306558 0 0.0043593296048527481 0.00011706803122549434 0 
</DataArray>
</PointData>
<CellData Scalars="region_id,cross_section_updated," Vectors="" Tensors="stress,">
<DataArray type="Float64" Name="region_id" format="ascii">
5 5 5 5 5 5 5 5 5 5 5 5 5 5 5 5 5 5 5 5 5 5 5 5 5 5 5 5 5 5 5 5 5 5 5 5 5 5 5 5 6 5 5 5 5 5 6 6 5 5 5 6 5 6 5 5 5 5 6 5 6 5 5 6 5 5 5 6 5 5 6 5 5 5 5 5 5 6 6 5 6 5 5 5 5 6 5 5 5 6 5 5 6 5 5 5 5 5 5 5 5 5 5 5 5 6 5 6 5 6 5 5 5 5 5 5 6 6 5 5 5 6 5 5 5 5 5 5 5 5 5 5 6 5 5 5 5 5 5 5 6 5 5 5 5 5 5 5 6 5 5 6 5 5 5 5 5 5 5 5 5 5 5 5 6 5 5 5 5 5 5 5 5 5 5 6 5 6 5 5 5 5 5 5 5 5 5 5 6 5 5 5 5 5 5 5 5 5 5 5 6 5 5 6 5 5 5 5 5 5 5 5 5 5 6 6 5 5 5 5 5 6 5 5 6 5 6 5 5 5 5 5 6 5 5 5 5 5 5 5 5 5 5 5 5 5 5 5 5 5 5 5 5 5 5 5 5 5 5 5 5 6 5 5 5 5 5 6 5 5 5 5 5 6 5 5 5 5 5 5 6 5 5 5 5 5 5 6 5 5 5 5 5 5 5 5 5 6 5 6 5 5 5 5 5 5 5 5 5 5 6 5 5 6 5 5 6 5 5 6 5 5 5 5 5 5 5 6 5 5 5 5 5 5 6 5 5 5 5 5 6 5 5 6 5 5 5 5 5 5 5 5 5 5 5 5 5 5 5 6 5 6 5 5 5 5 5 5 5 6 5 5 6 6 5 5 5 5 5 5 5 5 5 5 5 5 5 5 5 5 5 5 5 6 5 5 6 5 5 5 5 5 5 5 5 5 5 5 5 5 5 5 5 6 5 5 5 5 5 5 5 5 5 5 5 5 5 5 5 5 6 5 5 5 5 6 5 5 5 5 5 5 5 5 5 5 5 5 5 5 5 6 5 5 5 6 5 5 5 5 5 6 6 6 5 5 5 6 5 5 5 5 5 6 5 5 5 5 5 6 6 5 5 5 5 5 5 5 5 5 5 5 5 6 5 5 5 5 5 5 5 5 5 5 5 5 5 5 5 5 5 5 5 5 5 5 5 5 5 5 5 5 5 5 5 5 6 5 5 5 6 5 5 5 5 5 5 5 5 6 5 5 6 5 5 5 6 5 5 5 5 5 5 6 5 5 5 5 6 5 5 5 5 5 5 5 5 5 6 5 5 5 5 5 5 5 5 5 5 5 5 5 5 5 5 5 5 5 5 5 5 5 5 5 6 5 5 5 6 5 5 5 5 5 5 5 5 5 5 5 5 5 5 5 5 5 5 5 5 6 5 5 5 5 6 5 5 5 5 5 5 5 5 5 5 5 5 6 5 5 5 5 5 5 5 5 5 5 5 6 5 5 5 5 5 5 5 5 6 5 5 5 5 5 5 5 5 5 5 5 5 5 5 5 5 5 5 5 5 5 5 6 5 5 5 5 5 5 6 5 5 5 6 6 5 5 5 5 5 5 5 5 6 6 5 5 5 5 5 5 5 5 5 5 5 5 6 5 6 6 5 5 6 6 5 5 5 6 5 5 5 5 6 5 5 5 5 5 5 5 5 5 6 5 5 5 6 5 5 5 5 5 5 5 5 5 5 5 6 6 5 5 5 5 5 5 5 5 5 5 5 6 5 5 5 5 5 5 5 5 5 5 5 5 5 5 5 5 5 5 5 5 5 5 5 5 5 5 5 5 5 5 5 5 5 5 5 5 5 5 5 6 6 6 5 5 5 6 5 5 5 5 5 5 5 5 5 5 6 5 5 5 5 5 5 5 5 6 5 5 5 5 5 6 5 5 6 5 6 5 5 5 5 6 5 5 5 5 5 5 5 5 5 5 5 5 6 5 5 5 5 5 5 5 5 5 6 5 5 5 5 5 5 5 5 5 5 6 5 5 5 5 5 6 5 5 5 5 5 5 6 5 5 5 5 5 5 5 5 5 5 5 5 5 6 5 5 5 5 6 5 5 6 5 5 5 5 5 5 5 5 5 6 5 5 5 5 5 5 5 5 5 5 5 6 5 5 5 5 5 5 6 5 5 5 5 5 5 6 5 5 5 5 6 5 6 5 5 6 5 5 5 5 5 6 5 5 5 5 5 5 5 5 5 5 5 5 6 5 6 6 5 5 5 5 6 5 6 6 5 5 5 5 5 5 5 5 5 5 5 5 6 5 5 5 5 5 5 5 5 6 5 5 5 5 5 5 5 5 5 6 5 5 5 6 5 5 5 5 5 5 5 5 5 5 6 5 5 6 5 5 5 5 5 5 6 5 5 5 6 6 5 5 5 5 5 6 5 5 5 5 6 6 5 5 5 5 5 5 5 5 5 5 5 5 5 6 5 5 5 5 5 5 6 5 5 5 5 6 5 5 6 5 5 5 5 5 5 5 5 5 5 6 5 5 5 6 5 5 5 5 5 5 5 6 5 5 5 5 6 5 5 5 5 5 6 5 5 6 5 5 5 5 6 5 5 6 6 5 5 5 5 5 6 5 5 5 6 5 5 5 6 5 5 5 5 5 5 5 5 5 5 5 5 6 5 5 5 6 5 5 5 5 5 5 5 5 5 5 5 6 5 5 5 5 6 5 5 5 6 5 5 5 5 6 5 5 5 6 5 5 5 5 5 6 5 5 5 5 5 5 5 5 5 6 5 5 5 6 5 5 5 6 5 5 5 5 5 5 5 5 5 6 6 5 5 5 5 6 5 5 5 5 5 5 5 5 6 6 6 6 5 6 5 5 6 5 5 6 6 5 5 5 5 5 5 6 6 5 5 6 5 5 6 5 6 5 5 5 5 5 5 5 5 5 5 5 5 6 5 5 5 5 5 5 5 6 5 5 5 5 5 5 5 5 5 5 5 5 5 5 5 5 6 5 5 5 5 5 5 5 5 5 6 5 5 5 5 5 5 5 5 5 5 5 5 5 5 5 5 5 5 5 5 6 5 6 5 5 5 5 5 5 5 6 6 5 5 5 5 5 5 5 5 5 5 6 5 6 5 6 5 5 5 5 5 5 5 6 5 5 5 5 5 5 5 5 5 5 5 5 5 5 5 5 5 5 5 5 5 5 5 5 5 5 5 5 5 5 5 5 5 5 5 5 5 5 5 6 5 5 5 5 5 5 5 5 5 5 5 5 5 5 5 5 5 5 5 5 5 5 5 6 6 5 5 5 5 5 6 5 6 5 5 5 5 5 5 5 5 5 5 5 5 6 5 5 5 5 5 5 5 5 5 5 5 5 6 5 6 5 6 5 5 5 5 5 5 5 5 5 5 5 5 6 5 5 5 5 5 6 5 5 5 5 5 5 5 6 5 5 6 6 5 5 5 5 6 5 5 5 5 6 5 5 6 5 5 6 5 5 5 5 6 5 5 6 5 5 5 5 6 5 6 5 5 5 6 5 5 6 5 5 5 6 5 5 6 5 5 5 5 5 5 6 5 5 5 5 5 5 5 5 5 5 5 5 6 5 5 5 6 5 6 5 5 6 5 6 5 5 6 5 5 6 6 5 5 6 5 5 6 6 5 6 5 5 5 5 5 5 5 5 5 5 5 6 5 5 6 6 5 5 6 5 5 5 5 5 5 5 5 6 5 5 5 5 6 6 5 5 5 6 5 6 5 5 6 5 5 5 5 5 5 5 5 5 5 6 5 5 5 5 5 6 5 6 5 5 5 5 6 5 5 5 6 5 5 5 5 5 5 5 5 5 5 5 5 5 5 5 5 5 5 5 5 5 6 5 5 5 5 5 5 5 5 5 5 5 5 5 5 5 5 5 5 5 5 5 5 5 5 5 5 5 5 5 5 6 5 5 5 6 5 6 5 5 6 5 5 5 5 5 6 5 5 5 5 5 6 5 5 5 6 6 5 5 5 5 5 5 5 5 5 6 5 5 5 5 5 5 5 5 5 5 5 5 5 5 5 5 5 5 5 5 5 5 5 5 5 5 5 6 6 5 6 5 5 5 5 5 6 5 5 5 5 5 5 5 5 5 5 5 5 5 5 5 5 5 6 5 5 5 5 5 5 6 6 5 5 6 5 5 6 6 5 5 5 5 5 6 5 5 5 5 5 5 5 5 5 5 5 5 5 5 5 5 6 5 5 5 5 6 5 5 5 5 5 5 5 5 5 5 6 5 5 5 5 5 5 5 5 5 5 5 5 5 6 5 5 5 5 5 6 5 5 5 5 5 5 5 6 5 6 5 5 5 5 5 5 5 5 5 5 5 5 5 5 6 6 6 5 5 5 5 5 5 5 5 5 5 5 5 6 5 6 5 5 5 6 5 5 5 5 6 5 5 5 5 6 5 6 5 5 5 5 5 5 5 5 5 5 5 5 5 5 5 5 5 5 5 6 5 5 6 5 6 5 6 6 5 5 5 6 5 5 5 6 5 5 5 5 5 5 5 6 5 6 5 5 5 5 5 6 5 5 5 6 5 5 5 5 5 6 5 5 6 5 6 5 5 6 5 5 5 5 5 5 5 6 5 6 5 5 5 5 5 5 5 5 5 5 6 5 6 6 5 5 5 6 5 5 5 5 6 5 5 5 5 6 5 5 5 6 5 6 5 5 6 5 6 5 6 5 5 5 5 5 5 6 5 6 5 6 5 5 5 5 6 5 5 5 6 5 5 5 5 5 5 5 5 5 5 5 5 5 5 5 6 5 5 5 6 6 6 5 5 6 5 5 5 5 6 5 5 5 6 5 5 6 5 6 5 5 5 6 5 6 6 5 5 5 5 5 5 6 6 5 6 5 5 5 5 5 5 5 6 5 5 5 6 5 6 5 5 6 5 5 5 5 6 5 5 6 5 5 5 6 5 5 5 6 5 5 5 6 5 6 5 5 5 5 5 5 5 5 5 5 5 5 5 5 5 5 5 5 5 5 5 5 6 5 5 5 5 5 5 5 5 5 5 5 5 5 5 5 5 5 5 6 5 5 5 5 6 5 6 5 5 5 6 5 6 5 5 5 6 5 5 5 6 5 5 5 5 5 6 5 6 5 5 6 5 6 5 5 5 6 6 5 5 5 6 5 5 6 6 6 5 5 5 5 6 5 6 5 5 5 6 5 5 5 5 6 5 5 5 6 5 5 5 5 5 5 5 5 5 5 6 5 5 5 5 5 5 5 5 5 5 5 6 6 5 5 5 5 6 6 5 6 5 5 5 5 6 5 5 5 5 5 5 5 5 5 5 5 5 6 5 5 5 6 5 5 6 5 5 5 5 5 5 5 5 5 6 5 5 5 5 5 5 5 5 5 5 5 5 5 5 5 5 5 5 5 5 5 5 5 5 5 5 5 5 5 5 5 5 5 5 5 5 5 5 5 5 5 5 6 5 6 5 5 5 5 5 5 5 5 5 6 5 5 5 5 5 5 5 5 6 5 5 5 5 5 5 5 6 6 5 5 5 6 6 5 5 5 5 5 5 5 5 5 5 5 5 6 5 5 5 5 5 5 5 6 5 5 6 5 5 5 5 5 5 5 6 6 5 5 5 5 5 5 6 5 6 5 5 5 5 5 6 5 6 6 5 5 5 6 5 5 6 5 6 5 6 5 6 5 5 5 5 6 6 5 6 5 5 5 5 5 5 6 5 5 6 5 5 5 5 5 5 5 5 5 5 5 6 5 6 6 5 5 5 5 5 5 6 5 5 6 5 5 5 5 5 5 6 5 6 5 6 5 6 6 5 5 5 5 5 5 5 5 5 5 5 6 5 5 5 5 5 6 6 5 6 5 5 5 5 6 5 6 5 6 5 5 5 5 5 5 5 6 5 5 5 5 5 5 5 5 5 5 5 5 5 5 5 5 5 5 5 5 5 6 5 5 5 6 5 5 5 6 5 6 5 5 6 5 5 5 6 5 6 5 5 5 5 5 5 5 5 5 6 5 5 5 5 5 6 5 5 5 5 5 6 5 5 5 5 5 5 5 5 5 5 5 5 6 5 5 5 5 5 6 6 5 5 5 6 5 6 5 5 5 6 5 5 5 5 5 5 5 5 5 6 6 5 5 5 5 6 5 5 5 6 5 5 5 6 5 5 5 5 5 5 5 5 5 5 5 5 6 5 5 5 5 5 5 6 5 5 5 5 5 5 5 5 5 5 5 5 5 5 6 5 5 5 6 5 5 5 5 6 5 5 5 5 5 5 5 5 5 5 5 5 5 5 5 5 5 5 6 5 5 5 5 5 5 5 5 5 5 5 5 6 6 5 5 5 5 5 5 5 5 5 6 5 5 5 5 5 5 5 5 5 5 5 6 5 6 5 5 5 5 5 5 5 5 6 5 5 5 5 5 5 6 5 5 5 5 5 5 5 5 5 6 6 5 5 5 5 6 5 5 6 6 5 5 6 6 5 5 5 5 5 6 6 5 5 6 5 5 5 5 5 5 5 5 6 5 5 5 5 5 5 5 5 5 5 6 5 5 5 5 5 5 5 5 5 5 5 6 5 5 5 5 6 5 5 5 5 5 6 5 5 5 5 6 5 5 6 6 5 5 5 5 5 5 5 5 5 5 5 5 5 5 5 5 5 5 5 5 5 5 5 6 6 5 5 5 5 6 6 5 5 5 6 5 5 5 5 5 5 5 5 5 5 5 5 5 5 5 5 6 5 5 5 5 5 5 5 6 5 5 5 5 5 6 5 5 5 5 5 5 5 6 5 5 5 5 5 5 5 5 6 5 5 5 5 5 5 5 5 5 5 6 5 5 5 5 5 5 5 6 5 6 5 5 5 5 5 5 5 6 5 5 6 5 6 5 5 5 5 5 5 5 6 5 5 5 5 5 5 5 5 5 5 5 5 6 5 5 5 5 5 5 6 5 5 5 5 5 5 5 5 5 5 5 5 5 5 5 5 6 5 5 5 6 5 6 5 5 6 5 6 6 5 5 6 5 5 6 5 5 5 5 5 5 5 5 5 5 5 5 5 5 5 5 5 6 5 6 5 5 6 5 6 5 5 6 5 6 5 5 5 5 5 5 5 5 6 5 5 5 5 5 6 5 5 5 5 5 5 5 5 5 5 5 5 5 5 5 5 5 5 5 5 6 5 5 5 6 5 5 5 6 6 5 5 5 5 5 5 5 5 5 5 5 6 5 5 5 5 5 5 5 5 5 5 5 5 6 5 5 5 5 5 5 5 5 5 6 5 5 5 6 5 5 5 5 5 5 5 5 5 5 6 5 5 5 5 5 5 5 5 5 5 5 5 5 5 5 6 5 5 5 5 6 5 5 5 6 5 5 5 5 5 5 6 5 5 6 5 5 5 6 5 5 5 6 5 5 5 6 5 5 5 5 5 5 5 5 6 5 6 5 5 5 5 5 5 5 6 5 6 5 6 6 5 5 5 5 5 6 5 5 5 5 5 5 6 5 5 6 5 5 5 5 5 6 5 5 5 5 5 5 5 6 5 5 5 5 5 5 6 5 5 5 5 5 5 5 5 5 5 5 5 5 6 5 5 5 5 5 5 5 5 5 5 5 6 5 5 5 6 6 5 5 6 5 6 5 5 5 5 5 5 5 5 5 5 5 5 5 5 5 5 5 5 5 5 5 5 5 5 6 5 5 5 5 5 5 6 5 5 5 6 5 5 6 6 5 5 5 5 5 5 6 5 5 5 5 5 5 5 5 5 5 5 5 6 5 5 5 5 5 5 6 5 5 5 5 6 5 5 5 6 5 5 5 6 5 5 5 5 5 5 5 5 5 5 5 5 5 5 5 5 5 5 5 5 5 6 5 5 6 5 5 5 5 5 5 5 5 6 6 5 5 5 5 5 5 6 5 5 5 5 5 5 5 5 5 5 5 5 6 5 6 5 5 5 5 5 5 5 5 5 5 5 5 5 5 6 5 5 5 5 5 5 6 5 5 5 5 5 5 5 6 6 5 5 5 5 5 5 5 5 5 5 5 5 5 5 5 5 5 5 5 5 5 5 5 5 5 5 5 5 5 5 5 5 5 5 5 5 5 5 5 5 5 6 5 5 5 5 6 5 5 5 5 5 5 5 5 5 5 5 5 5 5 5 5 5 5 5 5 5 5 5 5 5 6 5 5 5 5 5 5 5 5 5 6 5 5 5 5 5 6 5 5 6 5 5 5 5 5 5 5 5 5 5 5 5 5 5 5 5 5 5 5 5 5 5 5 5 5 5 5 6 6 5 5 5 6 5 5 6 5 5 6 5 5 6 5 5 5 5 5 5 5 5 6 5 5 6 5 5 5 5 6 6 5 5 5 5 5 5 5 5 5 5 5 5 6 5 5 5 6 5 5 5 5 5 5 5 6 5 6 5 5 5 5 5 6 5 5 5 5 5 6 5 5 5 5 5 5 5 5 5 5 5 5 5 6 5 5 6 5 5 5 5 5 6 5 5 5 5 5 5 5 5 5 5 6 5 5 5 5 5 5 5 5 5 6 5 5 5 5 5 5 5 5 6 5 5 6 5 5 5 5 5 5 5 5 5 5 5 6 5 6 5 5 5 5 5 5 5 5 5 5 5 6 5 5 5 5 5 5 5 5 5 5 5 5 6 5 5 5 5 5 5 6 5 5 5 5 5 5 5 5 5 5 5 5 5 5 5 5 5 6 5 5 5 5 5 5 5 5 5 6 5 5 6 5 5 5 6 5 5 6 6 5 5 5 5 6 5 5 5 5 5 5 5 5 5 5 6 5 5 5 5 5 6 5 6 5 5 6 5 6 5 5 6 5 5 5 5 6 5 5 5 5 6 5 5 5 5 5 5 6 5 6 5 5 5 5 5 5 5 5 5 5 5 5 5 6 5 5 5 5 6 5 5 5 5 5 6 5 5 6 5 5 5 6 5 5 5 5 5 5 5 6 5 5 6 5 5 5 5 6 5 6 5 6 6 5 5 6 6 6 5 5 5 5 5 5 5 6 5 5 6 5 5 6 5 6 6 5 5 6 6 6 5 6 5 5 5 5 6 5 6 5 5 6 5 5 5 6 5 5 5 5 6 5 6 5 5 5 5 5 6 6 6 5 5 5 5 5 5 5 5 5 5 5 6 5 5 5 5 5 5 5 6 5 6 5 5 5 5 5 6 5 5 5 5 5 5 5 6 5 5 5 5 5 5 6 5 5 5 5 6 5 5 5 5 6 5 6 5 5 5 5 5 6 5 6 6 5 5 5 5 6 5 5 5 5 5 5 5 5 5 5 6 6 5 5 6 5 5 5 6 6 5 6 6 6 5 5 5 5 5 5 6 5 5 6 5 6 5 5 6 6 6 5 6 6 5 5 5 6 5 6 6 5 5 5 5 5 6 5 5 5 5 5 5 6 5 5 6 5 5 6 5 5 5 5 5 5 5 5 5 5 5 5 5 5 5 5 5 5 5 5 5 6 5 5 5 5 6 5 5 5 5 5 5 6 5 5 5 5 5 5 5 6 5 5 5 5 5 5 5 5 5 5 5 5 5 5 5 5 5 5 5 5 5 5 5 5 5 5 5 5 5 5 6 5 5 5 5 5 5 5 5 5 5 6 5 5 5 5 5 5 5 5 5 5 5 5 5 5 5 5 5 5 5 5 6 5 6 5 5 5 5 5 5 5 5 5 5 5 5 5 5 6 5 5 5 5 5 5 5 5 5 5 5 5 5 5 5 5 6 5 5 5 5 5 5 5 6 5 5 5 5 6 5 5 5 5 5 5 5 5 5 5 5 5 5 6 5 5 5 6 5 5 6 5 5 5 5 5 5 5 5 5 5 5 6 5 5 5 6 5 5 6 6 5 5 5 5 6 5 5 5 6 5 5 6 5 5 6 5 5 5 5 5 5 5 5 5 5 5 5 5 5 5 5 5 5 5 5 5 5 5 5 5 5 5 5 5 5 5 5 5 5 5 5 5 5 5 5 5 5 5 5 5 5 5 5 5 5 5 5 5 5 5 5 5 5 5 5 5 5 5 5 5 5 5 5 5 5 5 5 5 5 5 5 5 5 5 5 5 5 6 5 5 5 5 5 6 5 5 5 5 5 5 5 5 5 5 6 5 5 5 6 5 5 5 5 5 5 5 5 5 5 5 6 5 5 5 5 6 5 5 5 6 5 5 5 5 5 5 6 5 5 5 6 5 5 6 5 5 6 5 5 5 5 5 5 6 5 5 5 5 5 5 5 6 5 5 5 5 6 5 5 5 5 5 5 5 5 5 5 6 5 5 5 5 5 5 5 5 5 5 5 6 6 5 5 5 5 5 5 5 5 5 5 5 5 6 5 5 5 5 5 6 5 5 5 5 5 5 6 5 5 5 5 5 5 5 5 5 5 6 5 5 5 5 5 5 5 5 5 6 5 5 5 5 5 5 6 5 5 5 6 6 6 5 5 6 5 5 5 5 6 5 5 5 5 5 6 5 5 5 5 5 5 5 5 5 5 5 5 5 5 5 5 5 5 5 5 6 5 5 5 5 5 6 5 5 5 6 6 5 6 5 5 6 5 5 5 5 5 5 5 6 5 5 5 5 6 6 5 5 5 6 5 5 6 5 6 5 5 5 5 5 5 5 5 5 5 5 5 5 6 5 5 5 5 5 5 6 6 5 5 5 5 6 5 5 5 5 5 5 5 5 5 6 5 5 6 6 5 5 5 5 5 5 5 5 5 6 5 5 6 5 5 6 6 6 5 5 5 6 5 5 6 6 6 5 5 6 6 5 5 5 6 6 5 6 6 5 5 5 5 6 6 5 6 5 5 5 5 5 5 5 6 5 5 6 5 5 5 5 5 6 5 5 5 5 6 5 5 5 5 6 6 5 5 5 5 5 5 5 6 5 5 5 5 5 5 5 5 5 5 5 6 5 5 5 5 5 5 5 6 5 5 5 5 5 5 5 5 5 5 6 5 6 5 5 5 5 5 5 5 5 5 5 5 5 6 5 5 6 5 5 5 5 6 5 5 6 5 6 5 5 6 5 5 5 5 5 5 5 5 6 6 5 5 6 5 5 5 5 5 6 6 6 6 5 5 5 6 5 6 5 6 5 5 5 6 5 6 5 6 5 5 5 5 6 5 6 5 5 5 5 5 6 5 5 5 5 5 5 5 5 5 5 5 6 5 5 5 5 5 5 5 5 5 5 5 5 6 5 6 5 5 5 5 5 5 6 5 5 5 5 5 5 5 5 5 5 5 5 5 5 5 5 5 5 5 5 5 5 5 5 5 5 5 5 5 5 5 5 5 5 5 5 5 5 5 5 5 5 5 5 5 5 6 5 5 6 5 5 5 5 5 6 5 5 6 5 5 5 5 5 5 5 5 6 5 5 5 5 5 6 5 5 5 5 5 5 5 5 5 5 6 5 5 6 5 5 6 5 6 5 5 6 5 6 5 5 5 5 5 5 5 5 5 5 5 5 5 5 5 5 5 5 5 5 5 5 5 5 5 5 5 6 5 5 5 5 5 5 5 5 5 5 5 5 5 5 5 5 5 5 5 5 5 5 5 5 5 5 5 5 5 5 5 5 5 5 6 5 6 5 6 5 5 5 5 5 5 5 5 5 5 5 5 5 5 5 5 5 5 5 5 5 5 5 5 5 5 5 5 6 5 6 6 5 5 5 5 6 5 5 5 5 5 5 5 5 5 5 5 5 5 6 5 6 5 5 5 5 5 5 5 5 5 5 5 5 5 5 5 5 5 5 5 5 5 5 6 5 5 5 5 5 5 5 5 5 5 5 5 6 5 5 5 5 5 5 5 5 5 5 6 5 5 5 5 6 6 5 6 5 5 5 5 5 5 5 5 5 5 5 5 5 5 6 5 5 5 5 5 5 6 5 5 5 5 6 5 5 6 5 6 5 5 5 6 5 5 6 5 5 5 6 5 5 5 5 6 5 5 5 5 5 5 6 5 6 5 6 6 6 5 5 5 5 5 6 5 5 6 5 5 5 5 5 5 5 5 5 5 6 6 5 5 5 5 5 5 5 5 5 5 6 5 5 6 5 6 5 5 5 5 5 5 5 5 5 5 5 5 5 5 5 5 5 5 5 5 5 5 5 5 5 6 5 5 6 5 5 5 5 5 5 5 5 5 5 5 5 5 5 5 5 5 5 5 5 5 6 6 5 5 5 6 5 6 6 5 5 5 6 5 6 5 6 5 5 6 6 5 5 6 6 5 6 5 6 5 5 5 6 6 5 6 5 5 5 6 5 5 5 5 5 5 6 5 5 6 5 5 5 5 5 6 5 5 6 5 6 5 6 5 5 5 5 5 5 5 6 5 5 6 5 5 5 5 6 6 5 5 5 6 5 6 5 5 5 5 5 5 5 5 5 5 5 5 5 5 5 5 5 5 5 5 5 5 5 5 5 5 5 6 5 5 5 6 5 5 5 5 6 5 6 5 6 6 5 5 5 6 5 5 5 5 6 5 5 5 5 5 5 5 6 5 5 6 5 6 6 5 5 5 5 6 6 5 5 6 5 6 5 6 6 5 5 6 5 5 5 5 5 5 5 5 5 6 5 5 5 5 5 6 5 5 5 6 5 5 6 5 5 5 6 5 5 5 5 5 5 5 5 5 5 6 5 5 5 5 5 5 6 5 5 5 5 5 5 5 5 5 5 5 5 5 5 5 5 5 5 5 5 5 5 5 6 5 5 5 5 5 5 5 5 5 5 5 5 5 5 5 5 5 5 5 5 5 5 5 5 5 5 5 5 5 5 5 5 5 5 5 6 5 5 5 5 6 6 5 5 6 5 5 6 5 5 5 6 5 5 5 5 5 5 5 5 5 5 5 5 5 5 6 5 6 5 5 5 5 5 6 5 5 6 5 5 5 6 5 5 5 5 6 5 5 5 6 5 5 6 5 5 5 5 5 5 5 5 5 5 5 5 5 5 5 5 5 5 5 5 5 5 5 5 5 5 5 5 5 5 5 5 5 5 6 5 6 5 5 5 5 5 5 5 5 5 5 5 5 5 5 5 5 6 5 5 5 5 5 5 5 5 5 5 5 5 5 5 5 5 5 5 5 5 5 5 5 5 5 5 5 5 5 5 5 5 5 6 5 5 5 5 6 6 5 5 6 5 5 5 6 5 5 6 5 5 5 5 6 5 5 5 5 5 5 5 5 5 6 5 5 5 5 5 5 5 6 5 5 5 5 5 6 5 5 5 6 5 5 5 5 6 5 6 5 6 5 6 5 5 5 5 6 5 5 5 6 5 5 6 5 5 6 5 5 5 6 6 5 5 6 5 6 5 6 5 6 5 6 5 5 6 5 5 6 5 6 6 5 5 5 6 5 5 6 5 5 6 5 5 5 5 5 5 5 6 5 6 6 5 5 6 5 5 6 5 6 5 6 5 5 5 5 6 5 5 5 5 5 5 5 5 5 6 6 5 6 5 6 5 6 5 6 5 5 5 5 5 5 5 6 5 5 5 5 5 6 5 5 6 6 5 6 5 5 5 6 5 6 6 5 5 5 5 6 5 5 6 5 6 5 5 5 6 5 6 5 5 5 5 5 5 5 5 5 5 5 5 5 5 5 5 5 5 5 5 5 5 6 5 5 5 5 5 6 5 6 5 5 5 6 5 6 5 6 5 5 5 5 6 5 5 5 6 5 5 6 5 6 5 5 5 6 5 6 6 5 5 5 5 6 6 5 5 6 5 5 5 5 6 5 5 5 5 5 5 6 5 6 5 5 5 5 5 5 6 5 6 6 5 6 5 5 5 6 5 5 6 5 5 6 5 6 5 5 5 5 5 5 5 5 5 5 5 5 5 5 5 6 5 5 5 5 5 5 5 5 5 5 5 5 6 5 5 5 5 5 5 5 5 5 5 6 5 5 5 5 5 5 5 5 5 5 5 5 5 5 5 5 5 5 5 5 5 5 5 5 5 5 5 5 5 5 5 5 5 5 5 5 5 5 5 5 5 5 5 5 5 5 5 6 5 5 5 5 5 6 5 5 5 6 5 5 5 5 5 5 6 5 5 5 5 5 5 6 5 5 5 5 5 5 5 5 5 6 5 5 5 5 5 5 6 5 5 5 5 5 5 5 5 5 5 5 5 5 6 6 5 5 5 5 5 6 5 6 5 5 5 5 5 5 5 5 5 5 5 5 5 5 6 5 6 5 5 5 5 5 5 6 5 6 5 6 5 5 5 5 5 5 6 5 5 5 6 5 5 5 6 5 5 5 5 5 5 5 5 5 6 5 5 5 5 5 5 5 5 5 5 5 5 6 5 5 5 5 5 5 5 5 5 5 6 5 5 5 6 6 5 5 5 6 6 5 5 6 5 5 5 5 6 5 5 5 5 5 5 6 5 6 5 5 5 5 6 5 5 6 5 6 5 5 5 5 6 5 5 5 5 5 5 5 5 5 6 5 5 5 5 6 5 6 6 5 5 5 5 5 5 5 5 5 6 6 5 5 5 6 5 6 5 5 5 5 5 5 5 5 5 5 5 5 5 5 5 5 5 6 5 5 6 5 5 5 5 5 6 5 6 5 5 5 5 5 5 5 6 5 5 5 6 5 5 6 5 6 5 5 5 5 5 5 5 5 5 5 5 5 5 5 5 5 5 5 5 5 5 5 5 6 5 5 5 5 5 5 5 5 5 5 5 5 5 5 5 5 5 5 5 5 5 5 5 5 5 5 5 5 5 5 5 5 5 5 5 5 5 5 5 5 5 5 5 6 5 5 5 5 5 5 5 5 5 5 5 5 5 5 5 5 5 5 6 5 5 5 5 5 5 5 5 5 5 5 6 5 5 5 5 5 5 5 5 5 5 5 5 6 5 5 5 6 5 5 5 6 6 5 6 6 5 5 5 5 5 5 6 5 5 5 5 5 6 5 5 5 5 6 5 5 5 6 5 5 5 6 6 5 6 5 6 5 5 5 5 5 6 5 5 5 5 5 5 6 5 5 6 6 5 5 5 5 5 5 5 5 5 5 5 5 5 5 6 5 5 5 5 5 5 5 6 5 5 5 5 5 5 6 5 5 5 5 5 5 5 5 5 5 5 5 5 5 5 5 5 5 5 5 6 5 5 5 5 5 5 5 6 5 5 5 5 5 5 5 5 5 5 5 5 5 5 5 5 5 5 5 5 5 5 5 5 5 5 5 5 5 5 5 5 5 6 5 5 5 6 5 5 5 5 5 5 5 5 5 5 5 5 6 5 5 5 5 5 5 5 5 5 5 5 6 5 5 6 6 6 5 5 5 6 5 5 5 5 5 5 5 5 5 6 5 5 5 5 5 6 5 5 5 5 6 5 5 5 5 5 5 5 5 5 5 5 5 5 5 5 5 5 5 5 5 5 5 5 5 5 5 5 5 5 5 5 5 5 5 5 5 5 5 5 5 5 5 5 5 5 5 5 6 5 5 6 5 5 5 5 6 6 6 5 5 5 5 5 5 5 5 5 5 5 5 5 5 5 5 5 5 5 5 5 6 6 5 5 5 5 5 5 5 5 5 5 5 5 5 5 5 5 5 5 5 5 5 5 5 5 5 5 5 5 5 5 5 5 5 6 5 5 5 5 5 5 5 5 5 5 5 5 5 5 5 5 5 5 5 6 5 5 6 5 5 5 5 5 5 5 5 5 5 5 5 5 5 5 6 5 5 5 5 5 5 5 6 5 5 6 5 6 5 5 5 6 6 5 5 5 5 5 5 5 5 5 5 5 5 5 5 6 5 6 5 5 5 5 5 6 5 5 5 5 5 5 5 5 5 5 5 5 5 5 5 5 5 5 5 5 5 5 5 5 5 5 5 5 5 5 5 5 5 5 5 5 5 5 5 5 5 5 5 5 5 5 5 5 5 5 5 5 5 5 5 5 5 5 6 5 5 5 6 5 5 5 5 5 5 5 5 5 5 5 5 5 5 5 5 5 5 5 5 5 5 5 5 5 6 5 5 5 5 6 5 5 5 5 5 6 5 5 6 5 5 5 5 6 5 5 5 5 5 5 5 5 5 5 5 5 5 5 5 5 5 5 5 5 5 5 5 6 5 5 5 5 5 5 5 5 5 5 6 5 6 5 5 6 5 5 5 6 5 6 5 5 5 5 5 5 6 5 5 5 6 5 5 5 6 5 5 5 5 5 6 5 6 6 5 5 5 5 5 5 5 6 5 5 6 5 5 5 5 5 6 5 5 5 5 6 5 5 5 5 5 6 6 5 5 6 5 5 5 5 6 6 5 5 6 5 6 5 6 6 5 5 5 5 5 6 5 5 5 6 5 6 5 5 5 5 5 5 5 5 5 5 6 5 5 5 5 5 6 5 5 5 5 5 5 6 5 6 6 5 5 5 5 5 5 6 5 5 6 5 5 6 5 5 5 5 5 6 5 5 5 5 5 5 5 5 5 5 5 5 6 5 5 5 5 5 5 5 5 5 6 5 5 6 5 5 6 5 5 5 5 5 5 5 5 5 5 6 5 6 5 5 5 5 6 5 5 5 6 5 5 5 5 6 5 6 5 5 5 5 5 5 5 5 5 5 5 5 5 5 5 5 5 5 5 5 5 5 5 5 5 5 5 5 5 5 5 5 5 5 5 5 5 5 5 5 5 5 5 5 5 5 5 5 5 5 5 5 5 5 5 5 5 5 5 5 5 5 5 5 5 5 5 5 5 5 5 5 5 5 5 5 5 6 5 5 5 5 6 5 5 5 5 5 5 6 5 5 5 5 5 5 5 5 5 5 5 5 5 5 5 5 5 5 5 5 5 5 5 5 5 5 6 6 5 5 5 5 5 5 5 5 5 5 5 5 5 5 6 5 5 5 5 5 5 5 5 6 5 6 5 5 5 6 5 5 5 5 5 5 5 5 6 5 5 6 5 5 5 5 5 6 5 5 5 5 5 5 6 5 5 5 5 5 5 5 5 6 5 6 5 5 5 5 5 5 5 5 6 5 5 5 6 5 6 5 6 5 5 5 5 6 5 5 5 5 5 5 5 5 5 5 6 5 5 5 5 5 6 5 5 5 5 5 5 6 5 5 5 5 5 5 5 5 5 5 5 5 6 5 5 6 5 5 5 5 5 5 5 5 6 5 6 5 6 5 5 5 5 5 5 5 5 5 5 5 5 5 5 5 5 5 5 5 5 5 5 5 5 5 5 5 6 5 5 5 6 5 5 5 5 5 5 5 5 5 5 5 5 6 5 5 5 5 5 5 5 5 5 5 5 5 5 5 5 5 5 5 5 5 5 5 5 5 5 5 5 5 6 5 5 5 5 5 5 5 5 5 5 5 5 6 5 6 6 5 6 6 5 5 5 5 5 6 6 5 5 5 5 5 6 5 5 5 5 6 5 5 6 6 6 5 5 5 6 5 6 6 5 6 5 5 5 6 5 6 6 5 5 6 5 6 5 5 5 5 5 5 5 5 5 5 5 5 5 5 5 5 5 5 5 5 5 5 5 5 5 5 5 5 5 5 5 6 5 5 5 5 5 5 6 5 5 5 5 5 5 5 5 5 5 5 5 5 5 5 5 5 5 5 5 6 5 5 5 5 5 5 5 5 5 5 5 5 5 6 5 5 6 5 6 5 5 5 6 5 5 5 6 5 5 5 5 5 5 5 5 6 5 5 5 6 6 5 5 5 5 6 6 6 5 6 5 5 6 5 5 5 6 5 5 5 6 5 6 5 5 6 5 5 5 5 5 6 5 6 5 5 5 5 5 5 5 5 5 5 5 5 5 5 5 5 5 6 5 5 5 5 5 6 6 5 5 5 5 5 6 6 5 5 5 5 5 5 5 6 5 5 5 5 5 5 5 5 5 5 5 5 5 5 5 5 5 6 5 5 5 5 5 5 5 5 6 5 5 6 5 5 5 5 6 5 5 5 6 5 6 5 5 5 6 6 6 6 5 5 5 5 5 6 5 5 5 5 5 5 5 5 5 5 6 5 5 5 5 5 5 5 5 5 5 5 5 5 5 5 6 5 5 5 5 5 5 5 5 5 5 6 5 5 5 5 6 5 6 5 5 5 5 6 5 5 5 6 6 5 6 5 5 5 5 5 5 5 5 5 5 6 5 5 6 5 6 5 5 5 6 5 6 5 6 5 5 5 5 5 5 6 5 5 5 5 5 5 6 6 6 5 5 5 5 5 6 5 5 5 6 5 5 6 5 5 5 5 5 5 5 6 5 5 5 5 5 5 5 5 5 5 5 5 6 6 5 5 5 5 5 5 5 5 5 6 6 5 5 5 5 5 5 5 6 5 5 6 5 5 5 6 5 5 6 5 5 5 5 5 5 5 5 5 5 5 5 5 6 5 6 5 5 5 5 5 5 5 6 5 5 6 5 5 5 5 5 6 5 5 5 6 5 5 6 5 5 5 5 5 5 5 5 5 5 6 5 5 5 5 5 5 6 5 5 5 5 5 5 5 5 5 5 5 5 5 5 5 5 5 5 5 5 5 5 5 5 5 5 5 5 5 5 5 5 5 5 5 5 5 6 5 5 5 5 6 5 6 5 5 6 6 5 5 5 5 5 5 5 5 5 5 5 5 5 5 5 5 6 5 5 5 5 5 5 6 5 5 5 5 5 5 5 5 6 5 5 5 5 5 5 5 5 6 5 5 5 5 5 5 6 5 5 6 5 5 5 5 5 5 5 5 5 5 5 5 5 5 5 5 5 5 5 5 5 5 5 6 5 5 6 5 5 5 5 6 5 5 6 5 6 5 5 5 5 6 5 5 5 6 5 5 5 5 5 5 6 6 5 6 5 5 5 5 5 5 6 6 5 5 5 5 5 6 5 5 6 5 5 5 5 6 5 5 5 5 5 5 5 5 6 5 5 6 5 6 5 5 5 6 5 6 5 5 6 5 5 5 5 5 5 5 5 5 5 5 5 5 5 5 5 5 5 5 6 5 5 5 6 5 6 5 5 6 5 6 5 5 6 5 5 5 6 5 5 6 6 5 5 5 5 5 5 5 5 5 5 5 5 5 5 5 5 6 5 5 5 5 5 5 5 5 5 5 5 5 5 5 6 5 5 5 6 5 5 5 5 5 5 5 5 5 6 5 5 6 5 6 5 5 5 5 5 5 5 5 5 5 5 5 5 5 6 5 6 5 5 5 5 6 5 5 6 6 5 6 5 5 5 5 5 5 5 5 5 5 5 6 5 5 5 5 5 5 5 5 5 5 5 5 5 5 5 5 5 5 5 5 6 5 5 5 5 5 5 5 5 5 5 5 5 5 5 5 5 5 6 6 6 5 5 5 5 5 5 5 5 6 5 5 5 5 5 6 5 5 6 6 5 5 5 5 5 5 5 5 5 5 6 5 6 5 5 5 6 5 6 5 6 5 5 5 5 5 5 5 6 5 5 5 6 5 5 5 5 6 5 5 5 5 5 5 6 5 5 5 5 5 5 5 5 5 5 5 5 5 5 5 5 5 5 5 5 5 5 5 5 5 5 5 5 5 5 6 5 5 5 5 5 5 5 5 5 5 5 6 5 5 5 6 5 5 5 5 5 5 5 5 5 5 5 5 5 6 5 5 5 5 5 5 5 5 5 5 5 5 5 5 6 5 5 5 5 5 5 5 6 5 5 5 6 5 5 6 5 5 5 5 6 6 6 5 5 5 5 5 6 5 5 5 5 5 6 5 5 6 5 5 5 5 5 5 5 5 6 5 5 5 5 5 5 5 6 5 5 5 6 5 6 5 5 5 5 5 5 5 5 5 6 5 6 5 5 5 5 5 5 6 5 5 6 6 6 6 5 5 5 6 5 6 5 5 5 5 5 5 6 5 5 5 5 5 5 5 5 5 6 5 5 5 6 5 5 6 6 5 5 5 5 6 5 5 5 6 5 5 5 5 5 5 5 5 5 5 5 5 5 5 5 5 6 5 5 5 5 5 5 5 6 5 5 5 5 5 5 6 5 6 5 5 6 5 5 5 5 6 5 5 6 5 5 5 5 5 5 5 5 5 5 5 5 5 5 5 5 5 5 5 5 5 5 5 5 5 5 5 5 5 5 5 5 5 6 5 5 6 5 5 5 6 5 5 6 5 6 5 5 5 5 6 5 5 5 5 5 5 6 5 5 5 5 5 5 5 5 5 5 5 5 5 5 5 5 5 5 5 5 6 5 5 5 6 5 5 5 6 5 5 6 5 5 5 5 5 5 6 6 5 5 5 5 5 5 5 6 6 5 5 6 5 5 6 5 5 5 5 5 5 6 5 5 5 5 5 5 5 5 5 5 5 5 5 5 5 5 5 5 5 5 5 6 5 5 5 5 6 5 5 5 5 5 5 5 5 5 5 5 5 5 6 5 5 5 6 5 5 5 5 5 5 5 5 6 5 5 5 6 5 5 5 5 5 5 5 5 6 5 5 5 5 5 5 6 5 5 5 5 5 5 5 6 5 5 5 5 5 5 5 5 5 5 5 5 5 5 5 5 5 5 5 5 5 5 5 5 6 5 5 5 5 5 6 5 5 5 6 5 5 5 5 6 5 6 5 5 6 5 6 5 5 5 5 5 5 5 5 5 5 5 5 5 6 5 5 5 5 5 5 5 5 5 5 5 5 5 5 5 5 5 5 5 5 5 5 5 5 5 6 5 5 6 5 5 5 5 6 5 5 5 6 6 5 5 5 5 5 5 5 6 5 5 5 5 6 6 5 6 5 5 5 5 6 6 5 5 5 5 5 5 5 5 5 5 5 5 6 5 5 5 5 5 5 6 5 5 5 5 5 5 6 6 6 6 5 5 5 5 6 5 6 6 5 5 5 5 5 5 6 5 6 5 5 5 6 6 6 6 6 5 5 6 6 5 5 5 5 5 6 6 5 6 6 5 5 6 5 5 5 5 6 5 5 5 5 5 5 6 6 5 6 5 5 6 5 6 6 5 5 5 5 5 5 5 5 5 5 6 5 6 5 5 5 6 6 5 5 5 5 5 5 6 5 5 5 6 5 5 5 5 5 6 5 6 5 6 6 5 5 5 5 5 5 5 6 5 5 5 5 5 5 5 5 5 5 5 6 5 6 5 5 6 5 5 5 5 5 5 5 5 5 5 5 5 5 5 5 5 6 5 5 5 5 5 6 5 5 5 5 5 5 5 5 5 5 5 6 6 5 5 6 5 5 6 5 5 5 5 5 6 5 5 5 5 5 5 5 5 5 6 5 5 5 5 5 5 5 6 5 5 6 6 5 5 6 5 5 5 5 5 5 6 5 5 5 5 5 5 5 5 5 5 5 5 5 5 5 5 6 5 6 5 5 6 5 5 5 5 5 5 5 5 5 5 5 5 5 5 5 5 6 5 5 5 6 6 5 5 5 5 5 5 5 5 5 5 5 5 5 5 5 5 5 5 5 5 5 5 5 5 5 5 5 5 5 5 5 5 5 5 5 5 5 5 5 5 5 5 5 5 5 5 5 5 5 6 5 5 5 5 5 5 5 5 5 5 5 6 5 5 5 5 5 5 5 5 5 5 5 5 6 5 5 5 5 5 5 5 5 5 5 5 6 5 5 5 5 5 5 5 5 5 5 5 5 6 5 5 5 5 5 5 5 5 5 5 5 5 5 5 5 6 5 6 5 5 5 6 5 6 5 5 5 5 5 5 5 5 5 5 6 6 5 5 5 5 6 5 5 5 5 6 5 5 5 5 5 5 5 5 5 5 5 5 5 5 5 5 5 5 5 5 5 5 5 5 5 5 5 5 5 5 5 5 5 5 5 5 5 5 5 5 5 5 6 5 5 5 5 5 5 5 5 6 5 5 5 5 5 6 5 5 5 5 5 5 5 5 5 5 5 5 5 5 5 5 5 5 5 5 5 5 5 5 5 5 5 5 5 5 5 5 5 5 5 5 5 5 5 5 5 5 5 5 5 5 5 5 5 5 5 5 5 6 6 5 5 5 5 5 5 6 5 5 5 5 5 5 5 5 5 5 6 5 5 6 6 5 5 5 5 5 6 5 5 5 5 5 5 5 5 5 5 5 5 5 5 6 6 5 5 6 5 6 5 5 5 6 5 6 5 6 5 6 5 6 5 5 5 6 6 5 5 5 6 5 5 6 5 6 5 5 6 5 6 6 5 5 5 5 6 5 5 5 5 5 5 5 5 5 5 5 5 5 5 5 5 6 5 6 5 5 6 5 5 6 5 5 5 5 5 5 5 5 5 5 5 6 5 5 5 5 5 5 5 5 5 5 5 5 5 5 5 5 5 6 5 6 5 5 6 6 5 5 5 5 5 5 6 5 5 5 5 5 5 5 5 5 5 6 5 6 5 6 5 5 6 5 5 5 6 5 6 5 6 5 5 5 5 5 5 6 6 5 5 5 5 5 5 5 5 5 6 5 5 6 5 5 5 5 5 5 5 5 5 5 5 5 6 5 5 5 5 6 5 5 5 5 6 5 6 5 5 5 6 5 5 5 5 5 6 5 5 6 5 6 5 5 6 5 5 5 6 6 5 6 5 6 5 6 6 5 5 5 5 5 6 5 5 6 5 5 5 5 5 5 5 5 5 5 6 5 5 5 5 5 5 5 5 5 5 5 5 5 5 5 6 5 5 5 5 5 5 5 6 5 6 5 5 5 5 5 5 5 5 6 5 6 5 6 5 6 5 6 6 5 5 6 5 5 6 5 5 5 6 6 5 5 5 5 6 5 6 5 5 5 5 5 5 5 5 5 5 5 5 5 6 5 6 5 6 6 5 5 6 5 5 5 5 5 5 5 5 6 5 5 5 5 5 5 5 5 6 5 5 5 5 5 5 5 5 5 5 5 5 5 5 5 5 5 5 5 5 5 5 5 5 5 5 5 6 5 5 5 6 5 5 5 5 6 5 5 5 6 5 5 5 5 5 5 5 5 6 5 5 6 5 5 5 5 5 5 5 5 5 5 5 5 6 6 5 5 5 5 5 6 5 6 6 5 5 6 5 6 6 5 5 6 5 5 5 5 5 5 5 6 5 5 5 5 5 6 6 5 5 6 5 5 5 5 5 5 5 5 5 5 5 5 5 5 6 5 5 5 5 6 5 5 5 6 5 5 5 5 5 5 5 5 5 5 5 5 5 5 5 5 5 5 5 5 5 6 5 6 5 5 5 6 5 5 5 6 5 5 5 5 6 5 5 5 5 6 5 5 5 5 5 5 5 5 5 6 5 6 5 5 5 5 5 6 5 5 5 5 5 5 6 5 5 6 6 5 6 5 5 5 5 5 6 5 5 6 5 5 6 5 5 5 5 5 5 5 5 6 5 5 5 5 5 5 5 6 5 5 5 5 5 5 5 5 5 5 5 5 5 6 5 5 5 5 5 5 5 6 5 5 5 5 6 5 5 5 5 6 5 5 5 6 5 5 5 5 5 5 5 5 5 5 5 5 6 5 5 5 6 5 5 5 5 5 5 5 5 5 5 6 5 5 5 5 5 5 5 5 5 6 5 5 5 6 5 5 5 5 5 5 6 5 5 5 6 5 5 5 5 6 6 5 5 5 5 5 5 5 5 5 5 5 5 5 5 5 5 5 5 5 5 5 5 5 5 5 5 5 5 5 5 5 5 5 5 5 5 6 5 5 5 5 5 5 5 5 5 5 5 5 5 5 5 5 6 5 5 5 5 5 5 5 6 5 5 5 5 6 5 5 5 5 5 5 5 5 5 5 5 5 6 5 5 6 5 5 5 6 6 6 5 5 5 5 5 5 5 5 5 5 5 5 5 5 5 5 5 5 5 5 5 5 5 5 6 5 6 5 5 6 5 5 5 5 5 5 5 5 6 5 6 5 5 5 5 5 5 5 6 5 5 5 5 5 5 6 5 6 5 5 5 5 5 5 6 5 5 5 6 5 6 5 5 6 5 6 5 5 6 5 5 6 5 6 6 5 6 6 5 5 6 6 5 5 5 5 6 5 6 5 5 5 5 5 5 6 5 5 5 5 6 5 5 5 5 6 5 5 6 5 6 5 6 5 6 6 5 6 5 5 5 5 5 6 5 5 5 6 5 5 5 5 5 5 5 5 5 5 6 5 5 5 6 6 5 5 5 5 5 5 5 6 5 5 5 6 6 5 5 5 5 6 5 5 5 5 5 6 5 5 5 5 5 5 5 5 5 5 5 5 5 5 5 5 5 5 5 5 5 5 6 5 5 6 5 5 5 6 5 5 5 5 5 5 6 5 5 5 5 6 5 5 5 6 5 5 5 6 5 5 5 5 5 5 5 5 5 6 5 5 5 5 5 5 5 5 6 5 5 6 6 6 5 6 5 5 5 5 5 6 5 5 5 5 6 5 5 5 5 5 6 5 5 5 5 6 5 5 5 5 6 5 5 5 5 5 5 5 5 5 5 5 5 5 5 5 5 5 5 5 6 5 5 5 5 5 6 5 5 5 5 5 6 5 5 5 5 5 6 5 5 5 5 5 5 5 5 5 5 5 5 5 5 5 5 5 5 5 5 5 5 5 5 5 5 5 5 5 5 5 5 5 5 5 5 5 5 5 6 5 5 6 5 5 5 5 5 5 6 5 5 5 5 5 6 5 5 6 6 5 5 5 6 5 5 5 5 5 5 6 5 5 6 5 6 5 5 5 6 5 5 5 5 5 6 5 5 5 6 5 5 5 5 5 5 5 5 5 5 5 5 5 5 5 5 5 5 5 5 5 5 5 5 5 5 5 5 5 5 5 5 5 5 5 5 5 5 5 5 5 5 5 6 5 6 5 5 6 5 5 5 5 5 6 5 5 5 5 5 5 6 5 5 5 5 5 5 5 5 5 5 6 5 5 5 5 6 
</DataArray>
<DataArray type="Float64" Name="stress" NumberOfComponents="9" format="ascii">
499.53632453809905 -93.550823133538316 0 -93.550823133538316 -44.194567159432381 0 0 0 0 409.66893102553149 -38.326376702707599 0 -38.326376702707599 -8.9904183181705122 0 0 0 0 313.48095693876985 -19.960506986743219 0 -19.960506986743219 0.0056589630478179054 0 0 0 0 257.51836939134409 -64.821188278761468 0 -64.821188278761468 34.842915136286109 0 0 0 0 217.97919274492324 -29.922935554489676 0 -29.922935554489676 -8.6275235167218813 0 0 0 0 243.28920478329519 -64.882201770987479 0 -64.882201770987479 26.058709923509664 0 0 0 0 224.82081844893401 -21.635058150285417 0 -21.635058150285417 23.559710923032345 0 0 0 0 211.45516448559283 -15.782823694855418 0 -15.782823694855418 69.018737161053224 0 0 0 0 253.47344851529033 -64.488998921255842 0 -64.488998921255842 -11.809976398144414 0 0 0 0 255.56640645622133 -49.17614561282911 0 -49.17614561282911 48.216329754145207 0 0 0 0 189.83167958635204 -45.167178744339701 0 -45.167178744339701 51.90575617047439 0 0 0 0 243.31890090752586 -83.01068304679491 0 -83.01068304679491 65.959346590053499 0 0 0 0 243.06788146057261 -39.005236840215844 0 -39.005236840215844 46.781453291530696 0 0 0 0 209.43706448933335 -37.029866458941896 0 -37.029866458941896 70.983937441235739 0 0 0 0 198.72423675508617 -28.854925797348727 0 -28.854925797348727 64.83369481171276 0 0 0 0 200.0750613314176 -30.492101587779196 0 -30.492101587779196 65.118528171473557 0 0 0 0 169.78860894405079 -25.411878718322612 0 -25.411878718322612 71.871889675361061 0 0 0 0 190.95409282173205 8.646397917636321 0 8.646397917636321 96.916281460663271 0 0 0 0 196.38101014930726 24.305232878652447 0 24.305232878652447 29.833056257228264 0 0 0 0 224.86837245933748 -22.595702445643276 0 -22.595702445643276 31.994328721329367 0 0 0 0 221.51735338398157 69.906047532262264 0 69.906047532262264 111.91039090004244 0 0 0 0 141.76929562386067 -34.018782212934248 0 -34.018782212934248 188.2168714488792 0 0 0 0 152.83857270703811 -45.993189351041565 0 -45.993189351041565 50.766265401868253 0 0 0 0 153.01155961981385 -29.809458940671817 0 -29.809458940671817 81.558873049489193 0 0 0 0 144.9256585963667 -28.339877301834761 0 -28.339877301834761 104.3798256763065 0 0 0 0 163.86321857776784 -36.019312044023437 0 -36.019312044023437 49.17155599264899 0 0 0 0 135.99395797328998 -38.52675798389749 0 -38.52675798389749 49.043815008681605 0 0 0 0 158.47138195016578 -22.561919143810449 0 -22.561919143810449 16.364674284749839 0 0 0 0 147.67690538509851 -59.554130802429583 0 -59.554130802429583 -14.147636524565996 0 0 0 0 224.50759721426584 -83.608833224518548 0 -83.608833224518548 36.37333775449391 0 0 0 0 155.12744906665921 -75.136870416834071 0 -75.136870416834071 70.775818141431074 0 0 0 0 169.25056410644902 -66.04757551851624 0 -66.04757551851624 61.05572930604734 0 0 0 0 98.446965988707234 -49.500214682795544 0 -49.500214682795544 60.101989023861591 0 0 0 0 142.82968262329177 -36.430013522743131 0 -36.430013522743131 -7.9433484250257038 0 0 0 0 137.63104186053988 -120.8779363879807 0 -120.8779363879807 30.148126606610219 0 0 0 0 225.23637580354443 -174.49735015261297 0 -174.49735015261297 61.969092361193063 0 0 0 0 401.95187965983314 -115.94964274029526 0 -115.94964274029526 -11.89165766368712 0 0 0 0 264.13038915734433 -69.113209823503539 0 -69.113209823503539 36.55355943639951 0 0 0 0 381.20430620229513 -154.28617088673477 0 -154.28617088673477 12.277289702548988 0 0 0 0 14.552371265620422 3.3170810146706078 0 3.3170810146706078 0.008324315080309428 0 0 0 0 1.4382838299675242 0.76567816205534722 0 0.76567816205534722 -0.07524566140427838 0 0 0 0 -4.7426096829876769 2.7772004815417404 0 2.7772004815417404 29.595344591027242 0 0 0 0 -6.5984429936561355 14.692019766200474 0 14.692019766200474 17.441870273951508 0 0 0 0 5.2052921360536857 -2.9110628143756365 0 -2.9110628143756365 -1.9434023276773473 0 0 0 0 6.6977764228577144 25.423809410736226 0 25.423809410736226 -4.2211424287858108 0 0 0 0 9.8246869766380769 3.5204474567103716 0 3.5204474567103716 7.5988581005431115 0 0 0 0 6.8895394797499847 5.427755855778245 0 5.427755855778245 3.4537753734367445 0 0 0 0 1.4658929740869695 1.5597031263215033 0 1.5597031263215033 1.3712603480126928 0 0 0 0 2.7407236397903034 1.218989125247073 0 1.218989125247073 -0.21494540426883441 0 0 0 0 2.3823089779889415 5.1041173748409534 0 5.1041173748409534 1.6718146665583049 0 0 0 0 8.5819781964946742 -0.17307690171736567 0 -0.17307690171736567 -3.6511067210499277 0 0 0 0 3.7756544862624608 1.4418481989354293 0 1.4418481989354293 0.27896433170058138 0 0 0 0 3.4961113064127858 1.4570776114253974 0 1.4570776114253974 -0.38589475226091924 0 0 0 0 3.056112886814276 1.4426749861577832 0 1.4426749861577832 0.55207361551680223 0 0 0 0 0.91891615577333141 13.583982805040193 0 13.583982805040193 8.9481501788503692 0 0 0 0 1.6471779576040717 0.78116200523068369 0 0.78116200523068369 -0.38412038072692911 0 0 0 0 2.938794591682381 5.96108537652308 0 5.96108537652308 -1.4188972384996923 0 0 0 0 -13.1214551074263 1.9595550226453042 0 1.9595550226453042 38.068152047749734 0 0 0 0 2.2474887589450745 1.0099344561017691 0 1.0099344561017691 0.47495590441173363 0 0 0 0 -3.5915534436935559 5.9419593443246121 0 5.9419593443246121 13.012427982279871 0 0 0 0 0.17925061568723066 0.55572025994751861 0 0.55572025994751861 0.44629756160110368 0 0 0 0 11.029544924635047 -0.84912576368631054 0 -0.84912576368631054 -0.29958291816460303 0 0 0 0 51.518206345455837 0.14232441069064805 0 0.14232441069064805 -6.3457495335733221 0 0 0 0 -0.047265636742203299 -0.05228963356423133 0 -0.05228963356423133 0.062311789744712062 0 0 0 0 8.9208026153373794 41.492093154809012 0 41.492093154809012 59.827303271846283 0 0 0 0 -8.1654866600447349 -17.364900536076146 0 -17.364900536076146 85.871498013383231 0 0 0 0 17.015554234230876 0.51834338025840054 0 0.51834338025840054 -20.871610064162041 0 0 0 0 0.67346301412771936 0.42259047758820323 0 0.42259047758820323 0.25059629398579214 0 0 0 0 18.47887775154777 5.308266127626915 0 5.308266127626915 14.961557036269994 0 0 0 0 -3.9799983855082246 34.121591080105006 0 34.121591080105006 -8.8970426409555365 0 0 0 0 5.8667525821855691 5.3931536358932188 0 5.3931536358932188 4.1571854948351561 0 0 0 0 5.38364364674635 18.973603521547489 0 18.973603521547489 -4.8394839877591949 0 0 0 0 -32.499238569020235 12.886858118865987 0 12.886858118865987 19.437598329002533 0 0 0 0 -0.71590692064000905 7.9954254173712229 0 7.9954254173712229 9.5744088162125536 0 0 0 0 10.062225770449004 2.6041342982075548 0 2.6041342982075548 -3.5244640132759883 0 0 0 0 18.643289466937858 50.69443011833836 0 50.69443011833836 -35.073707890775388 0 0 0 0 15.560828484038211 12.019823411078733 0 12.019823411078733 -16.690270821306822 0 0 0 0 2.1030471128804393 1.4623348926300417 0 1.4623348926300417 0.69703907256211917 0 0 0 0 5.8613679157728598 4.3574562073863792 0 4.3574562073863792 2.5822772238547929 0 0 0 0 123.88186318631415 -11.063579279433283 0 -11.063579279433283 0.041607130645117445 0 0 0 0 7.4056715920449605 4.1071287710148052 0 4.1071287710148052 0.7571895513139526 0 0 0 0 38.280540660214683 -3.3006810738188932 0 -3.3006810738188932 -56.822421220743735 0 0 0 0 23.425821796234231 6.117571300693271 0 6.117571300693271 -8.7931385185836568 0 0 0 0 -1.6826841654401505 -5.5420808859794519 0 -5.5420808859794519 -8.8856052110365056 0 0 0 0 -8.9400018577953233 2.3219282588437409 0 2.3219282588437409 -11.472531070535041 0 0 0 0 1.1088447363344187 -0.58623640659405041 0 -0.58623640659405041 -1.2828732858885523 0 0 0 0 -5.9672089773666812 -8.829750876241107 0 -8.829750876241107 -8.5945432853714152 0 0 0 0 3.6382895832321083 7.3039072252470305 0 7.3039072252470305 4.9781561345274881 0 0 0 0 -0.075156605063057214 -11.904821402419937 0 -11.904821402419937 -14.48601692968964 0 0 0 0 5.872730588899806 3.7447778820028694 0 3.7447778820028694 0.74976991166497087 0 0 0 0 4.7205792821987416 -16.383082673783424 0 -16.383082673783424 -3.2710472422775094 0 0 0 0 -24.822811623405869 22.30139662483532 0 22.30139662483532 29.666448403308117 0 0 0 0 -0.22023755744826445 -0.20450793219869468 0 -0.20450793219869468 0.049075091755800021 0 0 0 0 -19.478307518736983 6.147444879301494 0 6.147444879301494 68.234236486965486 0 0 0 0 42.851298333092927 -42.548070998991882 0 -42.548070998991882 35.109670149401083 0 0 0 0 11.036459456310695 -4.9897328180285303 0 -4.9897328180285303 -8.8762756558216029 0 0 0 0 80.468211590741703 30.200069827629839 0 30.200069827629839 -4.3639285696277952 0 0 0 0 49.993519643221248 22.328464940674802 0 22.328464940674802 17.177228265915211 0 0 0 0 42.355188293431638 1.9308482763905062 0 1.9308482763905062 2.2356470970627669 0 0 0 0 52.045954307288412 -0.95568986637800757 0 -0.95568986637800757 -5.9996366633047504 0 0 0 0 50.655215827017628 -34.674216837680461 0 -34.674216837680461 31.351933692318518 0 0 0 0 37.525749492855539 -22.845171514179974 0 -22.845171514179974 30.86902659425559 0 0 0 0 94.887955300246176 -37.616996311877919 0 -37.616996311877919 24.610813116498043 0 0 0 0 94.919896458190124 -39.513831438540038 0 -39.513831438540038 13.512206182930235 0 0 0 0 81.571907726389327 -63.137787540313063 0 -63.137787540313063 44.547001522773655 0 0 0 0 0.6279179225181899 -0.20608069858136702 0 -0.20608069858136702 -0.931039989131627 0 0 0 0 17.440277233052257 -7.1454070055280567 0 -7.1454070055280567 20.356332853872527 0 0 0 0 -0.1710927818897332 0.24651481912585027 0 0.24651481912585027 0.70595298180583854 0 0 0 0 138.35247354248713 -19.831169315823409 0 -19.831169315823409 18.880645538095177 0 0 0 0 1.2826400306712316 0.29355744690555241 0 0.29355744690555241 1.273002330809025 0 0 0 0 245.82187248924447 -5.1508314498861401 0 -5.1508314498861401 -17.853743777225645 0 0 0 0 60.296794486879662 -63.124559702103596 0 -63.124559702103596 85.514859546311925 0 0 0 0 125.07126576906012 54.023449001312372 0 54.023449001312372 28.228213718989934 0 0 0 0 6.8363584095313854 54.312157556564685 0 54.312157556564685 51.866084623837807 0 0 0 0 4.8084579767109972 3.1460786172780217 0 3.1460786172780217 9.4428723647922652 0 0 0 0 -1.2921533618537069 5.5916617085933922 0 5.5916617085933922 10.102033707727973 0 0 0 0 2.9490617134316004 3.0864373565268863 0 3.0864373565268863 3.8552690711576569 0 0 0 0 1.1737774256762457 1.544870232116363 0 1.544870232116363 3.5572977323460515 0 0 0 0 -11.644322351474329 -4.976049006024823 0 -4.976049006024823 40.01802206859437 0 0 0 0 3.7391069448285634 -4.5719059733119707 0 -4.5719059733119707 39.890903785681985 0 0 0 0 262.61153964915138 22.910391898891589 0 22.910391898891589 -25.886000385358273 0 0 0 0 0.39547913648702604 0.58292702977898969 0 0.58292702977898969 1.4237389677944847 0 0 0 0 105.03417317732237 -38.177576171738792 0 -38.177576171738792 9.5780358150080076 0 0 0 0 59.393571600688119 113.99675034051324 0 113.99675034051324 149.84882230845511 0 0 0 0 16.201707955374332 -63.228455900519748 0 -63.228455900519748 158.42297609648415 0 0 0 0 222.20334401051423 -31.392136180067112 0 -31.392136180067112 -1.5641139271678526 0 0 0 0 93.017819483502535 25.489659861303693 0 25.489659861303693 -14.644751416686216 0 0 0 0 -59.154260244526085 130.70375975166877 0 130.70375975166877 -25.231831861475222 0 0 0 0 3.1054644368532536 15.063829052100211 0 15.063829052100211 -23.081712174983366 0 0 0 0 -18.357358530805868 -0.67590536693279546 0 -0.67590536693279546 92.28372619585457 0 0 0 0 -93.67626066700177 19.959451085088716 0 19.959451085088716 100.56832734249048 0 0 0 0 -82.652580397808379 66.777015498091814 0 66.777015498091814 65.889106335139672 0 0 0 0 0.42663682408910475 0.62149138723321506 0 0.62149138723321506 0.73834855577203173 0 0 0 0 60.8624025149511 60.156289218231151 0 60.156289218231151 -7.7512070741839239 0 0 0 0 78.187450479320432 -19.837978331987813 0 -19.837978331987813 -6.2754710793404342 0 0 0 0 42.285489973829044 -22.282625639161317 0 -22.282625639161317 4.0029893979791495 0 0 0 0 9.8421779135078395 65.52842817085093 0 65.52842817085093 65.288935679738415 0 0 0 0 0.29919536860779772 5.3030714127162071 0 5.3030714127162071 13.269514524304441 0 0 0 0 -25.172968491123356 24.377138244213597 0 24.377138244213597 37.242796964875538 0 0 0 0 0.94293822298641317 7.4067522894797548 0 7.4067522894797548 11.770298520636231 0 0 0 0 1.709431232520835 0.74195685696906821 0 0.74195685696906821 0.53687069601686543 0 0 0 0 -2.8661714919344377 4.79445509778418 0 4.79445509778418 7.6253212991582586 0 0 0 0 5.3021801382601552 6.6420713646264176 0 6.6420713646264176 7.9047240584585268 0 0 0 0 5.2177584316123102 9.7006810417503004 0 9.7006810417503004 26.261629360861662 0 0 0 0 9.544926053045856 19.494176623435692 0 19.494176623435692 7.5948649848349419 0 0 0 0 -7.4250058734833146 4.6845661574571977 0 4.6845661574571977 12.550940722120004 0 0 0 0 -5.8882909978674434 18.522106193314698 0 18.522106193314698 0.85174347971735642 0 0 0 0 15.271247943494018 -0.27933247702344488 0 -0.27933247702344488 11.988578669716276 0 0 0 0 0.5139120931587442 0.35550898802625408 0 0.35550898802625408 -0.11653930195177742 0 0 0 0 -10.567129987908629 19.362976574995741 0 19.362976574995741 56.881491494027898 0 0 0 0 -11.695826763688729 -0.78898958458478319 0 -0.78898958458478319 15.621085355896867 0 0 0 0 1.1952682521763194 0.32134024172080533 0 0.32134024172080533 -0.32027100550105547 0 0 0 0 -11.534655574610952 9.1154567795026651 0 9.1154567795026651 74.400520522228248 0 0 0 0 -14.287912412918558 -0.59979246525588792 0 -0.59979246525588792 42.591847136532124 0 0 0 0 2.0114515874629433 51.771850489074694 0 51.771850489074694 72.266600177445568 0 0 0 0 0.81775562507891664 44.135394173210415 0 44.135394173210415 26.189870334157035 0 0 0 0 10.230565874828244 29.033100163119059 0 29.033100163119059 -8.9888546121233617 0 0 0 0 11.343194793465955 79.360192808300042 0 79.360192808300042 -61.938510478462319 0 0 0 0 7.4329834376655981 30.773822078810952 0 30.773822078810952 -21.994058498423669 0 0 0 0 9.0693340023617566 15.37409791413857 0 15.37409791413857 -15.605482718609892 0 0 0 0 -5.8295765776865665 6.0727574215109712 0 6.0727574215109712 21.587030222805595 0 0 0 0 49.91622598723734 -13.203146022714918 0 -13.203146022714918 -3.2128959252659115 0 0 0 0 -6.2666891864728314 -0.46885086057477565 0 -0.46885086057477565 -4.0732358733625347 0 0 0 0 2.5477796979266714 48.215481083432167 0 48.215481083432167 -34.204207614488148 0 0 0 0 0.17079457369175088 0.35668437607225378 0 0.35668437607225378 0.44620119162422589 0 0 0 0 -19.130951871263278 37.319283343530302 0 37.319283343530302 28.192505503299458 0 0 0 0 11.444538473973239 5.4365718067271729 0 5.4365718067271729 4.4126679905025412 0 0 0 0 24.891191732896914 26.841649547872237 0 26.841649547872237 28.574207058155309 0 0 0 0 7.8859358517529472 28.775426297516447 0 28.775426297516447 12.266031511199117 0 0 0 0 13.461278653121553 10.47470713252892 0 10.47470713252892 -40.299048296416132 0 0 0 0 -1.6013400924889538 -6.4618636401944229 0 -6.4618636401944229 1.0090354100825607 0 0 0 0 -7.9568678221357914 13.408311666832219 0 13.408311666832219 1.4832246401847442 0 0 0 0 8.7948418577398115 0.39696138993221552 0 0.39696138993221552 -2.6150227368932519 0 0 0 0 10.504542088403014 1.7550195877353616 0 1.7550195877353616 1.8648561192438819 0 0 0 0 9.0906094775036763 -1.0031392056991137 0 -1.0031392056991137 2.5883169171690668 0 0 0 0 3.8383191810297532 0.91328644931274638 0 0.91328644931274638 0.41823018384424182 0 0 0 0 -22.697258544932993 43.134483331856707 0 43.134483331856707 58.004716785377724 0 0 0 0 18.393430885604026 0.309329243890474 0 0.309329243890474 -2.7925260506961163 0 0 0 0 43.438494500260276 13.776901982377865 0 13.776901982377865 -20.044285847161518 0 0 0 0 -115.67480778447361 -47.406828672978349 0 -47.406828672978349 239.21345075586896 0 0 0 0 4.4569126776389112 -6.5568643927024146 0 -6.5568643927024146 12.764170117135166 0 0 0 0 2.8075409592570395 2.3665868735569937 0 2.3665868735569937 4.1432166298873199 0 0 0 0 7.0043616157745419 -2.0809193930968206 0 -2.0809193930968206 8.5790806382038483 0 0 0 0 11.863860126259169 -1.8642314404147324 0 -1.8642314404147324 -0.38943058302042033 0 0 0 0 8.0060457531253633 1.177613670418971 0 1.177613670418971 2.3715980862766521 0 0 0 0 13.954678994667802 -6.964877191185785 0 -6.964877191185785 -3.968680080553554 0 0 0 0 25.400597434933843 0.21791565239977118 0 0.21791565239977118 -2.3837334536770314 0 0 0 0 8.2702457192749534 1.7376430181084839 0 1.7376430181084839 -1.9244482577199165 0 0 0 0 0.78241661902086079 0.72067741022433474 0 0.72067741022433474 0.55341785106886232 0 0 0 0 8.4647373813106412 7.0213780070807434 0 7.0213780070807434 -17.871100732337709 0 0 0 0 9.3308450710574107 -8.6072350556644608 0 -8.6072350556644608 -18.31149936942461 0 0 0 0 11.273646310363347 -0.78974294376919829 0 -0.78974294376919829 -5.3189184067811084 0 0 0 0 4.7953132560469385 -7.4254246233129351 0 -7.4254246233129351 2.9779706766348113 0 0 0 0 4.7106039242681561 -2.0455213170708166 0 -2.0455213170708166 8.2101645315147493 0 0 0 0 6.8293925868028964 38.569850543743726 0 38.569850543743726 2.4341331868072018 0 0 0 0 -15.375030821624023 13.594783002553527 0 13.594783002553527 3.6857648787637913 0 0 0 0 -2.100892824908442 -12.280161418768529 0 -12.280161418768529 -5.5767751656792939 0 0 0 0 114.29094609342428 -63.387557257514729 0 -63.387557257514729 -28.681542079239108 0 0 0 0 -2.7459107657705317 46.492641455765281 0 46.492641455765281 39.096355958238973 0 0 0 0 -64.788585361789046 31.192735331563185 0 31.192735331563185 -19.705496898023512 0 0 0 0 -0.072720473079321835 0.2402851358186382 0 0.2402851358186382 0.22459749837434595 0 0 0 0 -50.18123139092495 89.575421559702221 0 89.575421559702221 -35.133355795697042 0 0 0 0 63.161993917889049 -65.338100208121105 0 -65.338100208121105 -20.2448760692577 0 0 0 0 0.43476897414259952 0.37632128503538986 0 0.37632128503538986 0.35576304704558742 0 0 0 0 29.422811380085477 44.069584284673269 0 44.069584284673269 3.707237915989845 0 0 0 0 51.464093861173751 17.897553132150094 0 17.897553132150094 -1.4986751128897424 0 0 0 0 -10.984470570188932 -20.725773584248742 0 -20.725773584248742 -19.840232996403159 0 0 0 0 -9.5547005898752104 23.924756354624293 0 23.924756354624293 33.407868750927321 0 0 0 0 26.111089175821689 48.087509172694155 0 48.087509172694155 19.947090150694038 0 0 0 0 20.04791557282806 39.642360108940572 0 39.642360108940572 8.6353895114170527 0 0 0 0 34.489488034989336 49.451040832933394 0 49.451040832933394 9.4085583421547483 0 0 0 0 21.775880497558319 -9.7194949116030713 0 -9.7194949116030713 7.432547416195419 0 0 0 0 49.283235231258004 13.109797267107453 0 13.109797267107453 0.88840097978182797 0 0 0 0 86.209859795359989 0.14044174466810944 0 0.14044174466810944 -52.281609557806291 0 0 0 0 0.56327074218787487 -0.23161973986580264 0 -0.23161973986580264 0.014745348264492308 0 0 0 0 19.330376563770066 1.8082987583081276 0 1.8082987583081276 -2.1889869077053117 0 0 0 0 -4.2512442864854165 24.984843501998625 0 24.984843501998625 5.2785121217331152 0 0 0 0 158.56708020534893 111.71096923573231 0 111.71096923573231 -124.48695038694791 0 0 0 0 4.0200489124517844 6.5715459943473888 0 6.5715459943473888 5.1854789020976568 0 0 0 0 21.496408602021347 -0.62722491611515352 0 -0.62722491611515352 5.8656041053066019 0 0 0 0 10.040268742716762 12.676738690040793 0 12.676738690040793 11.376682401463228 0 0 0 0 17.298908300723255 3.0892652577979334 0 3.0892652577979334 -1.4670283834882722 0 0 0 0 6.8163932431489229 7.0531401225915387 0 7.0531401225915387 7.5076505646265161 0 0 0 0 8.8688175537863572 12.748898268111745 0 12.748898268111745 2.9778934734321467 0 0 0 0 10.278129369130594 8.2309109283342288 0 8.2309109283342288 4.3407876323382428 0 0 0 0 7.7234130727920274 2.8341680169660144 0 2.8341680169660144 4.8165921345464291 0 0 0 0 1.6539091662860486 3.1876841046626438 0 3.1876841046626438 -0.10879156519058544 0 0 0 0 2.85997456854966 3.9342553055350677 0 3.9342553055350677 4.7286034619735631 0 0 0 0 19.552425844223762 2.7484613310973032 0 2.7484613310973032 -39.39136922395187 0 0 0 0 17.707527375419886 15.607094354876409 0 15.607094354876409 -11.316335140693894 0 0 0 0 19.705552322133371 10.563719096227189 0 10.563719096227189 -29.961852640244899 0 0 0 0 -5.2273202898868476 19.565081334438077 0 19.565081334438077 -19.956844926599274 0 0 0 0 2.4426079539507306 0.10299020937520709 0 0.10299020937520709 -0.83637788220399334 0 0 0 0 -3.3995371035198332 21.689799794116738 0 21.689799794116738 -32.746320957163675 0 0 0 0 27.167959529271684 -32.041390935998365 0 -32.041390935998365 -43.737573075237975 0 0 0 0 39.002560379088209 -15.911902975733351 0 -15.911902975733351 -36.124197225507714 0 0 0 0 40.935784541525209 39.760953823782316 0 39.760953823782316 66.906352697443452 0 0 0 0 -0.38928373742237454 14.674226097391852 0 14.674226097391852 -43.707602435321576 0 0 0 0 13.158736030523869 13.381975763705924 0 13.381975763705924 -35.379133438668646 0 0 0 0 3.3223516864145495 20.324338847091511 0 20.324338847091511 -40.219261457214202 0 0 0 0 11.764805862450885 12.387199706424326 0 12.387199706424326 -46.086648415049126 0 0 0 0 -4.8362038712803042 26.165092246808229 0 26.165092246808229 -43.241933813971855 0 0 0 0 -29.005153315687494 4.756515739481074 0 4.756515739481074 -44.048718714325616 0 0 0 0 22.074725046493768 17.662292741387091 0 17.662292741387091 -49.574413263003322 0 0 0 0 16.840959592513173 6.4238403384435117 0 6.4238403384435117 -32.019692485303835 0 0 0 0 -11.924417984037063 53.199294963569741 0 53.199294963569741 -37.556456419837502 0 0 0 0 15.148318181665672 13.83174030522872 0 13.83174030522872 -23.112329221601271 0 0 0 0 19.703248774503663 13.366133405667824 0 13.366133405667824 -32.56648179316494 0 0 0 0 18.429340501486877 11.033202496194463 0 11.033202496194463 -33.226574987699038 0 0 0 0 20.31707961545726 10.809595882261704 0 10.809595882261704 -45.133666061894587 0 0 0 0 18.375652982076645 15.182520788268818 0 15.182520788268818 -42.774423175673974 0 0 0 0 21.416759911722693 13.631020531332268 0 13.631020531332268 -43.081854136418428 0 0 0 0 20.066023811221385 12.550944233463127 0 12.550944233463127 -42.761755758206107 0 0 0 0 15.850871785925847 16.110192598985037 0 16.110192598985037 -44.184122390786932 0 0 0 0 13.212482132894365 14.067581395968006 0 14.067581395968006 -31.851504432220537 0 0 0 0 22.059105402047862 13.232397566794418 0 13.232397566794418 -42.867457695972405 0 0 0 0 20.977652313955332 13.799900675444746 0 13.799900675444746 -41.084570555107916 0 0 0 0 19.747475136207868 22.040727934078319 0 22.040727934078319 -59.105104037295973 0 0 0 0 21.409456718080037 13.284972461986371 0 13.284972461986371 -42.508524539346183 0 0 0 0 0.91109536112344358 19.560490386953575 0 19.560490386953575 -33.605694859540961 0 0 0 0 -10.121126755599107 47.392615282979506 0 47.392615282979506 -68.601411064575586 0 0 0 0 1.6564273679882007 1.4694248276695916 0 1.4694248276695916 0.96605597247061181 0 0 0 0 9.2235734285550279 12.457648366811469 0 12.457648366811469 -27.609294521117818 0 0 0 0 18.29480338586086 6.4281909145234266 0 6.4281909145234266 -28.549717182452639 0 0 0 0 54.142826189035986 62.109599694752234 0 62.109599694752234 -103.82552048590107 0 0 0 0 49.779212077823104 -24.475467056071608 0 -24.475467056071608 -61.379643917567137 0 0 0 0 -20.702603758731129 36.018864226454596 0 36.018864226454596 -59.368420716755509 0 0 0 0 1.9950894739147138 1.4007880081672202 0 1.4007880081672202 0.55181008416403987 0 0 0 0 -9.9837730628023564 19.248038657916425 0 19.248038657916425 -69.876597800701688 0 0 0 0 -7.5500351056671207 33.836879904731909 0 33.836879904731909 -19.99982245747745 0 0 0 0 19.387655805800023 3.2979475008131196 0 3.2979475008131196 -44.565858203568716 0 0 0 0 14.935912788295354 -0.60777687230283739 0 -0.60777687230283739 -6.1994534283926939 0 0 0 0 18.572320018845858 -2.9560779067556204 0 -2.9560779067556204 -30.165252247552935 0 0 0 0 -0.058662334855400289 -0.1212988650887894 0 -0.1212988650887894 -0.30600041570417313 0 0 0 0 18.360663169658437 -6.8787214820451386 0 -6.8787214820451386 -12.305658806557602 0 0 0 0 30.741728963645073 3.2438984047113504 0 3.2438984047113504 -5.3068748487642026 0 0 0 0 12.496872878690738 38.22998098237872 0 38.22998098237872 -11.207856430625384 0 0 0 0 70.406597107443304 26.674849586370986 0 26.674849586370986 -16.252874734227447 0 0 0 0 91.334676148788276 -9.4028767185211279 0 -9.4028767185211279 -27.962810952699769 0 0 0 0 13.341186848327197 9.4783979365541882 0 9.4783979365541882 2.5710002794661477 0 0 0 0 1.0805209283561776 0.38983828893922734 0 0.38983828893922734 -0.26383792477114498 0 0 0 0 16.104865471598714 -20.346169811302534 0 -20.346169811302534 -3.0433868292128921 0 0 0 0 -68.247805876068014 -3.3335981441292688 0 -3.3335981441292688 10.299104946741352 0 0 0 0 31.759009103268909 -56.411468548532547 0 -56.411468548532547 -45.347090072367436 0 0 0 0 46.22576441705678 29.368997286177262 0 29.368997286177262 -51.400559994134184 0 0 0 0 -84.168179308850995 -67.702220651815878 0 -67.702220651815878 42.901380798478002 0 0 0 0 -99.114534300668311 -37.159125372786228 0 -37.159125372786228 -19.417441545354112 0 0 0 0 -1.9220753161431432 -0.27787841985542272 0 -0.27787841985542272 1.1154919046139287 0 0 0 0 162.98016868260856 40.508449406783413 0 40.508449406783413 -32.574441200428907 0 0 0 0 88.103072045731096 -41.780681582624261 0 -41.780681582624261 69.435040821406716 0 0 0 0 7.3088608610955816 149.29616167655794 0 149.29616167655794 2.9815889909828996 0 0 0 0 197.44187618463002 -22.781792918217104 0 -22.781792918217104 10.884884870096881 0 0 0 0 88.358456635280163 145.33717666130502 0 145.33717666130502 117.49614602095774 0 0 0 0 31.41553133065463 11.164105464043432 0 11.164105464043432 4.2937504088350273 0 0 0 0 -58.783642007198068 -30.009079968180174 0 -30.009079968180174 -3.4517381937725418 0 0 0 0 147.00793039243035 38.916221286231462 0 38.916221286231462 35.902717145692321 0 0 0 0 -121.24061621330657 -173.7884818751709 0 -173.7884818751709 24.68108635836456 0 0 0 0 1.4928406088415684 0.46104322902417927 0 0.46104322902417927 -0.31138937711722581 0 0 0 0 68.925956055458755 39.267926572026184 0 39.267926572026184 -14.0373786160809 0 0 0 0 22.619351064856971 8.9636878905218857 0 8.9636878905218857 -1.0515100317693999 0 0 0 0 25.311800548688552 -34.360528344452888 0 -34.360528344452888 -3.5722884381596884 0 0 0 0 134.28535097185522 -45.289161425598579 0 -45.289161425598579 -61.013047004742049 0 0 0 0 241.54562222667482 137.64109934453222 0 137.64109934453222 -34.672859237989364 0 0 0 0 42.70891635044245 67.433239448120929 0 67.433239448120929 -4.254643272327705 0 0 0 0 29.916964597910919 19.075366459182504 0 19.075366459182504 7.9496212200490328 0 0 0 0 16.960427212414288 3.5689870687178882 0 3.5689870687178882 -2.8301995610235906 0 0 0 0 16.914578437017553 4.5489942491769852 0 4.5489942491769852 16.340260449154584 0 0 0 0 24.59052326910296 9.5144106498339625 0 9.5144106498339625 -2.2417619044947514 0 0 0 0 16.945450724538205 20.237229546697392 0 20.237229546697392 5.2175000162537799 0 0 0 0 63.357590941588569 9.1196872323178013 0 9.1196872323178013 -2.2835287516529661 0 0 0 0 0.053400545768816698 0.076057491483339845 0 0.076057491483339845 -0.22276907148831593 0 0 0 0 -0.090435155496379593 -13.445005538235534 0 -13.445005538235534 1.3303199663580472 0 0 0 0 -4.7259424506773939 -2.7400743228529336 0 -2.7400743228529336 -0.57465181004229748 0 0 0 0 7.0870593133804007 -4.3017260888887101 0 -4.3017260888887101 -4.8192918112038106 0 0 0 0 13.559590317607217 14.30687811043174 0 14.30687811043174 -3.7050320372327405 0 0 0 0 -0.48896520869675442 -3.0989928106155276 0 -3.0989928106155276 4.2844345420762693 0 0 0 0 2.7872996725808816 -2.1681126618902233 0 -2.1681126618902233 -5.4224102019391989 0 0 0 0 8.870531160700466 2.7144922856335825 0 2.7144922856335825 5.3487546959610484 0 0 0 0 8.7237682332105351 2.1504851765069191 0 2.1504851765069191 7.0278143805151103 0 0 0 0 4.7101891101558149 5.1496099290783377 0 5.1496099290783377 5.5997751859647567 0 0 0 0 10.796330291608001 21.49091697409834 0 21.49091697409834 -6.0102772206998907 0 0 0 0 13.648723543655251 1.7787775272278168 0 1.7787775272278168 4.2678116545374678 0 0 0 0 16.964996615675773 16.148887544534546 0 16.148887544534546 -12.178557619265348 0 0 0 0 16.94175607379475 5.4323018111512624 0 5.4323018111512624 -10.62060626863714 0 0 0 0 -10.986574937267505 21.70134083644675 0 21.70134083644675 -7.7487554364854532 0 0 0 0 1.7686115133224121 1.9387288511629066 0 1.9387288511629066 0.023311036387326567 0 0 0 0 27.787976243573212 11.570614854247379 0 11.570614854247379 -2.9428403548182338 0 0 0 0 0.13959707859020121 7.6358599140832357 0 7.6358599140832357 -0.39570222816074602 0 0 0 0 30.71533138335144 5.1090145409584151 0 5.1090145409584151 -5.8724319100082099 0 0 0 0 18.796609229166279 10.20648423512381 0 10.20648423512381 -4.0355635685041626 0 0 0 0 22.622562327195737 10.660469471679789 0 10.660469471679789 4.2399462355332389 0 0 0 0 20.098895165574504 4.9484028624059988 0 4.9484028624059988 -6.6529891908460002 0 0 0 0 17.717803200085655 7.68333216665593 0 7.68333216665593 1.6796770556292131 0 0 0 0 20.463826550849262 2.1028366405436145 0 2.1028366405436145 2.1661392373511035 0 0 0 0 5.7040197899493883 7.4625247778319714 0 7.4625247778319714 3.556193408962705 0 0 0 0 5.9597636740290909 5.5546524347507784 0 5.5546524347507784 2.9179670206780202 0 0 0 0 7.6701627028714938 6.3608086744070746 0 6.3608086744070746 -9.9760992293494439 0 0 0 0 -16.49616457220327 8.2024017232309347 0 8.2024017232309347 5.4806216763614621 0 0 0 0 -17.223051793976083 25.984106224864306 0 25.984106224864306 6.1950720078773358 0 0 0 0 127.70042710798225 -9.081419538567161 0 -9.081419538567161 13.201326070520736 0 0 0 0 0.69821818795774604 1.0686002821532181 0 1.0686002821532181 1.6565046319702796 0 0 0 0 24.78041355208552 -14.465706676624222 0 -14.465706676624222 9.2751991891756234 0 0 0 0 113.53503159094146 -19.804235274073633 0 -19.804235274073633 6.6639829785328857 0 0 0 0 2.4271548392839044 3.1922443788093107 0 3.1922443788093107 4.1445041073458313 0 0 0 0 16.140200143383936 -1.1077573046656539 0 -1.1077573046656539 9.0086898843603649 0 0 0 0 24.183924328529429 -5.0511137222416664 0 -5.0511137222416664 6.6424771323050891 0 0 0 0 12.653056207699137 -1.2033892354733098 0 -1.2033892354733098 5.4459752479058352 0 0 0 0 21.708169692066804 0.14043226166432987 0 0.14043226166432987 2.8148399944317362 0 0 0 0 22.980987638867646 6.7809562136678778 0 6.7809562136678778 2.0723254859650524 0 0 0 0 27.081613324628506 5.6432982213119089 0 5.6432982213119089 -1.8939547378486168 0 0 0 0 30.552767262670386 3.2234897358475507 0 3.2234897358475507 -2.0770974502335093 0 0 0 0 54.885807862793172 -6.0167789283416369 0 -6.0167789283416369 -2.4341813735627511 0 0 0 0 43.548423865863015 27.503762979007433 0 27.503762979007433 13.520892563428106 0 0 0 0 24.356101594115444 8.3376495496294183 0 8.3376495496294183 -1.5221073993389211 0 0 0 0 32.983706508552586 10.308495630354741 0 10.308495630354741 -1.0924502473764051 0 0 0 0 31.311936459356275 15.372456353772179 0 15.372456353772179 -2.7509873520542101 0 0 0 0 24.858331386720238 15.101127864839896 0 15.101127864839896 0.37138338803799797 0 0 0 0 25.471955810200029 14.890522546299451 0 14.890522546299451 -9.3083655640368761 0 0 0 0 24.714292513163286 7.5186972435307098 0 7.5186972435307098 -7.4642962758913427 0 0 0 0 0.58487402301098435 -0.076154417394167062 0 -0.076154417394167062 -0.33407865070177012 0 0 0 0 93.766951631594907 36.775625353132256 0 36.775625353132256 10.377755735759138 0 0 0 0 0.3963134958556207 -0.0088982177350009906 0 -0.0088982177350009906 -0.23623056304723189 0 0 0 0 -4.6502531815644943 -60.218499126673237 0 -60.218499126673237 -48.219749048100994 0 0 0 0 9.5640685171947553 -6.0930567540018501 0 -6.0930567540018501 -5.0523969402586317 0 0 0 0 153.30979566450696 5.2763046606758053 0 5.2763046606758053 -9.441296611233156 0 0 0 0 6.3436725858671252 -2.5415482146271131 0 -2.5415482146271131 -4.1137505099984537 0 0 0 0 7.221774571561923 -1.5573881164226862 0 -1.5573881164226862 -7.5533249084722911 0 0 0 0 500.06449141693838 -172.80298932020818 0 -172.80298932020818 17.40640146672116 0 0 0 0 411.43665193330708 -176.14890330073865 0 -176.14890330073865 81.346471312330323 0 0 0 0 2.8395888386047101 0.85244297367390764 0 0.85244297367390764 -0.33419217952379482 0 0 0 0 607.5257306453459 -182.48121181073481 0 -182.48121181073481 5.6591422771128634 0 0 0 0 443.50667062430512 -223.34649165894871 0 -223.34649165894871 141.48217474852308 0 0 0 0 0.051447228501078968 -0.12720890850903999 0 -0.12720890850903999 0.12904163573769545 0 0 0 0 6.5371363543208396 -4.3875051255650295 0 -4.3875051255650295 0.35895625199053682 0 0 0 0 -31.492395687648241 -28.106430966656355 0 -28.106430966656355 -0.41912824063422249 0 0 0 0 9.4954391457376914 -0.8493951301444298 0 -0.8493951301444298 10.322912153694261 0 0 0 0 2.441562961505042 3.9206827542233924 0 3.9206827542233924 9.3692156373403641 0 0 0 0 11.200036095664018 -5.3967012803103671 0 -5.3967012803103671 11.851887651540693 0 0 0 0 4.3645950470054231 -1.5834231968861161 0 -1.5834231968861161 12.837498706567114 0 0 0 0 502.5777666619415 -272.7035203801729 0 -272.7035203801729 75.53208126718296 0 0 0 0 430.44002628507042 -226.91977679443264 0 -226.91977679443264 89.894565915493075 0 0 0 0 375.86434526558332 -216.33063293740952 0 -216.33063293740952 93.799424565627447 0 0 0 0 450.044902501877 -223.48248489503763 0 -223.48248489503763 83.332000900634014 0 0 0 0 444.34023497451017 -219.31845327092299 0 -219.31845327092299 82.505603808901412 0 0 0 0 443.67076293363425 -201.56624682346984 0 -201.56624682346984 94.972827975169125 0 0 0 0 439.94040631421649 -204.49437723608131 0 -204.49437723608131 92.702037336120952 0 0 0 0 453.45688375425743 -210.19869165674163 0 -210.19869165674163 66.463935548787035 0 0 0 0 443.26051628955133 -214.65997711865953 0 -214.65997711865953 84.30927747239204 0 0 0 0 456.86543974668712 -210.20731958128999 0 -210.20731958128999 83.192608084704929 0 0 0 0 442.59011466917264 -205.86759527472503 0 -205.86759527472503 94.539322546863389 0 0 0 0 398.72544938034662 -206.3051373802025 0 -206.3051373802025 114.23365035344744 0 0 0 0 479.10309746619168 -356.81078930988571 0 -356.81078930988571 168.43818490910485 0 0 0 0 459.03630596226867 -179.8139449596685 0 -179.8139449596685 117.67459214652968 0 0 0 0 -0.06838111492834642 -2.5375629186668256 0 -2.5375629186668256 0.098560851554740703 0 0 0 0 -49.129577289197186 -7.4602045196391629 0 -7.4602045196391629 8.5231586362548342 0 0 0 0 -26.960352927517306 -13.033850738593358 0 -13.033850738593358 -8.8843308607299463 0 0 0 0 -0.49915346942412597 -0.76550470718114028 0 -0.76550470718114028 0.1149690781763848 0 0 0 0 -178.66538975135973 19.284218599401228 0 19.284218599401228 29.520368528581912 0 0 0 0 -87.957497355864689 -93.413835870245123 0 -93.413835870245123 28.16922055024682 0 0 0 0 101.70957539857591 -54.21375557750676 0 -54.21375557750676 -18.532427352672755 0 0 0 0 98.672648681549617 -37.379169855322317 0 -37.379169855322317 -7.9054426669487059 0 0 0 0 74.488684676718549 -27.76473912601557 0 -27.76473912601557 -26.573777086948283 0 0 0 0 70.222086328009027 -14.665755312253722 0 -14.665755312253722 -3.8613990597231123 0 0 0 0 -34.667080112749318 -56.593088606338881 0 -56.593088606338881 -0.338926715106183 0 0 0 0 158.4841295353126 -26.680275948742491 0 -26.680275948742491 -68.872471389930638 0 0 0 0 131.8153534128578 13.398062551109319 0 13.398062551109319 -73.527070828184534 0 0 0 0 128.52895387522949 -33.346428206532266 0 -33.346428206532266 -54.147535530142079 0 0 0 0 147.33827722908427 -18.619955197381628 0 -18.619955197381628 -43.562483780680552 0 0 0 0 148.40173090088683 -22.75026271122637 0 -22.75026271122637 -33.546753146795425 0 0 0 0 206.76044718113553 -47.885448693000825 0 -47.885448693000825 -33.813719389644291 0 0 0 0 27.784836033310512 -11.743181227611991 0 -11.743181227611991 -18.883843278053689 0 0 0 0 156.09490760279368 -19.566104454097484 0 -19.566104454097484 -49.111890837262678 0 0 0 0 104.68561726753614 -69.576107484891281 0 -69.576107484891281 -2.0158111013841991 0 0 0 0 0.91329353140898917 0.53956676571102236 0 0.53956676571102236 0.1954685737693318 0 0 0 0 -28.8202149529086 97.822838066044795 0 97.822838066044795 -37.027972454994909 0 0 0 0 176.80070185421027 -85.042827106211945 0 -85.042827106211945 -2.6413075049667585 0 0 0 0 180.46313391296667 26.462212066929904 0 26.462212066929904 -14.272895481213283 0 0 0 0 59.617799907411609 4.8191114834748987 0 4.8191114834748987 29.19683861429786 0 0 0 0 148.92034653725113 36.901325952765134 0 36.901325952765134 -44.283591117699558 0 0 0 0 105.48258341189648 -27.380561472098947 0 -27.380561472098947 -5.5609130093573071 0 0 0 0 85.164257266669665 77.542677576695581 0 77.542677576695581 -36.575703356716161 0 0 0 0 1.8409154746022978 -37.637739444216265 0 -37.637739444216265 6.4695304913164833 0 0 0 0 -24.316724298781082 -13.68314684600481 0 -13.68314684600481 2.0843623766916721 0 0 0 0 61.540469540833101 -20.493780049587478 0 -20.493780049587478 -12.460109617177295 0 0 0 0 3.7020089738598472 -24.696941870716216 0 -24.696941870716216 2.9482149826080217 0 0 0 0 42.747257781375083 0.74531203675586255 0 0.74531203675586255 -15.578467461786765 0 0 0 0 38.804034462411437 -31.049770860362734 0 -31.049770860362734 -20.263546017129514 0 0 0 0 6.5102908474291326 -30.119922354255152 0 -30.119922354255152 -29.8721391221045 0 0 0 0 15.162316807371099 4.6326874749524904 0 4.6326874749524904 14.584893446807769 0 0 0 0 -18.212914771724172 -51.465869563827255 0 -51.465869563827255 -19.469103309988405 0 0 0 0 6.210398616362621 -3.9924225433963301 0 -3.9924225433963301 -0.1350940428773858 0 0 0 0 -16.400899481809461 -12.914097240291557 0 -12.914097240291557 -15.011012649102568 0 0 0 0 26.26811669306835 -7.5628306170890118 0 -7.5628306170890118 -22.685492715001054 0 0 0 0 26.43732527737302 -7.2922479852960578 0 -7.2922479852960578 -34.07055236386779 0 0 0 0 19.4016748527647 -21.657890165459406 0 -21.657890165459406 -25.276230698567531 0 0 0 0 9.5239491682276238 -1.844956501534698 0 -1.844956501534698 -1.0795264020368935 0 0 0 0 20.873955183180442 9.688093354160884 0 9.688093354160884 -6.0127570420312964 0 0 0 0 27.513771862184512 -15.817817245393982 0 -15.817817245393982 -34.295150201799338 0 0 0 0 27.038169230127096 -17.411258142091786 0 -17.411258142091786 -23.623916273628542 0 0 0 0 14.968939863640117 11.639052729957996 0 11.639052729957996 -9.4426349764467545 0 0 0 0 23.791219268101486 7.0464011602706478 0 7.0464011602706478 -14.234826630493217 0 0 0 0 34.817589863541798 13.933040919735106 0 13.933040919735106 7.0011742321972861 0 0 0 0 23.603538533390747 2.7461744660673659 0 2.7461744660673659 -4.1362478238015683 0 0 0 0 87.576344646491634 30.206757235889899 0 30.206757235889899 -18.527928883599124 0 0 0 0 87.320438041655507 43.75074012954093 0 43.75074012954093 -36.214970698529598 0 0 0 0 77.630561164216488 33.885388489642224 0 33.885388489642224 -15.287157017653556 0 0 0 0 45.823926736931753 -12.73636251602996 0 -12.73636251602996 -25.752228703614584 0 0 0 0 20.338004335320875 2.4089937888748807 0 2.4089937888748807 -7.5478126536240211 0 0 0 0 25.046530911738955 16.999041197060663 0 16.999041197060663 -17.407722422491137 0 0 0 0 44.859146575679915 -3.5907402081188593 0 -3.5907402081188593 -23.31852998802043 0 0 0 0 14.66340792808478 -6.9267173318550874 0 -6.9267173318550874 -20.749992626306096 0 0 0 0 2.9040128886588032 -0.44436320122264661 0 -0.44436320122264661 0.17850115983382353 0 0 0 0 3.6753028275088582 11.751829522271919 0 11.751829522271919 -11.381403963360214 0 0 0 0 100.11813066313789 59.698768017472872 0 59.698768017472872 42.826204869457399 0 0 0 0 56.296535082579794 -73.325591571213138 0 -73.325591571213138 87.232004094440981 0 0 0 0 1.7262994609398277 -1.4814495600990853 0 -1.4814495600990853 0.26467008481362181 0 0 0 0 23.701611322204371 -16.524365539525604 0 -16.524365539525604 -6.560680924502492 0 0 0 0 36.983869293191674 -46.606128039765068 0 -46.606128039765068 61.322684243716481 0 0 0 0 53.636624497321463 -72.169449852431981 0 -72.169449852431981 6.9707082310643855 0 0 0 0 120.37253117210275 37.194729953352677 0 37.194729953352677 -58.788391986580066 0 0 0 0 40.960466857113715 -28.398899588893237 0 -28.398899588893237 -10.412608936478165 0 0 0 0 1.2802425973245803 2.825911543470176 0 2.825911543470176 -0.63996851351210038 0 0 0 0 -1.0638807738916753 -8.2175545949742084 0 -8.2175545949742084 -0.076665927636094477 0 0 0 0 21.018568754575305 -0.80843036800768342 0 -0.80843036800768342 -1.0492782900158657 0 0 0 0 60.945340501682949 39.614582833231317 0 39.614582833231317 23.43070427315709 0 0 0 0 19.700259218463543 -5.1942240603573921 0 -5.1942240603573921 13.660567104138803 0 0 0 0 5.1151265585958754 -24.576528251015205 0 -24.576528251015205 -29.362304410831683 0 0 0 0 4.9874388481818812 0.96527056324467519 0 0.96527056324467519 -2.0209024454558553 0 0 0 0 29.717113963541124 -24.744892604621821 0 -24.744892604621821 -29.735083840974511 0 0 0 0 24.205537277643089 -32.116215100013619 0 -32.116215100013619 -4.0322821959154425 0 0 0 0 21.03063931898123 -31.974874418086493 0 -31.974874418086493 18.196373668976506 0 0 0 0 20.924328905848597 46.934502510007519 0 46.934502510007519 -67.259066532913522 0 0 0 0 68.378653653857327 -75.984516215652434 0 -75.984516215652434 12.482153571178173 0 0 0 0 5.1825655011577112 -2.113456835631057 0 -2.113456835631057 -0.63152582304331917 0 0 0 0 5.8892911863840709 3.0383143289025156 0 3.0383143289025156 14.350578153390686 0 0 0 0 49.613731286624898 -40.766221857038943 0 -40.766221857038943 -90.252431400366845 0 0 0 0 59.838064593117451 -15.115922270949113 0 -15.115922270949113 -43.904904266060328 0 0 0 0 23.037624890984034 -44.690424008130378 0 -44.690424008130378 -21.304282402894017 0 0 0 0 15.766780895804914 -13.607367220499327 0 -13.607367220499327 -66.655175873865488 0 0 0 0 2.6175876219474183 -1.4890602775684771 0 -1.4890602775684771 0.068163479568009833 0 0 0 0 9.9531605559663845 -0.43693518188775604 0 -0.43693518188775604 0.030918087329071739 0 0 0 0 3.3035074569852441 -14.694408223211383 0 -14.694408223211383 -30.18191702805774 0 0 0 0 10.541806240031292 -16.548194256185269 0 -16.548194256185269 -50.702160202400307 0 0 0 0 12.660774853273779 -11.11935696689855 0 -11.11935696689855 -41.672655555606639 0 0 0 0 0.11517704423749819 -21.528773342826042 0 -21.528773342826042 -40.024663834682599 0 0 0 0 -4.4489688042085618 -4.4396028106380641 0 -4.4396028106380641 -34.850178860559076 0 0 0 0 8.8050070192621206 -1.3882644902344055 0 -1.3882644902344055 -50.008843759106867 0 0 0 0 -8.3386652020817564 0.64022426811106925 0 0.64022426811106925 -47.35647566073294 0 0 0 0 -29.053989815667592 10.523278278283499 0 10.523278278283499 -50.506530976226671 0 0 0 0 -2.2181185198405728 21.374357262719258 0 21.374357262719258 -69.431761555190576 0 0 0 0 -13.470585069047956 -19.647892213255972 0 -19.647892213255972 -51.069923244787894 0 0 0 0 13.361983470247651 -0.38082193029700306 0 -0.38082193029700306 -52.034368823082986 0 0 0 0 1.2619400582188973 0.42646992463483002 0 0.42646992463483002 7.4569594360145857 0 0 0 0 12.725404211999603 -2.8031745595615867 0 -2.8031745595615867 -0.014644818156674833 0 0 0 0 0.04541606799375586 -7.8479826506451502 0 -7.8479826506451502 -30.959483685435288 0 0 0 0 8.8260393076288892 -16.717923852875742 0 -16.717923852875742 -33.134785898699391 0 0 0 0 13.510950100415357 -17.066774312257863 0 -17.066774312257863 -13.85486902622489 0 0 0 0 19.503479659500954 -18.163061236562442 0 -18.163061236562442 -34.853803280004769 0 0 0 0 8.1510665420391888 -13.753181957204504 0 -13.753181957204504 -24.878154614494196 0 0 0 0 15.803784163144883 -22.147982786180901 0 -22.147982786180901 -43.568146308361975 0 0 0 0 22.438282738890848 -20.200156425127915 0 -20.200156425127915 -25.682936086920485 0 0 0 0 13.930647401924944 -27.763015923024909 0 -27.763015923024909 -8.2674953833163158 0 0 0 0 15.187987566680022 -31.672341318148312 0 -31.672341318148312 -9.8284762598931508 0 0 0 0 27.489710978717994 -27.259230483531795 0 -27.259230483531795 -8.9971835197211902 0 0 0 0 18.265724109897747 -31.770157235099752 0 -31.770157235099752 10.414812239573294 0 0 0 0 25.656837251988691 -24.712371279603076 0 -24.712371279603076 -7.5077799666676626 0 0 0 0 16.963021717569973 -19.200599190946178 0 -19.200599190946178 9.6724090202574189 0 0 0 0 16.422633745958592 -25.130880179809878 0 -25.130880179809878 -6.7672606070961194 0 0 0 0 10.254414958003508 -17.871721471204587 0 -17.871721471204587 2.3877561456720571 0 0 0 0 11.232732154257519 -15.478756782184789 0 -15.478756782184789 -13.852342382670713 0 0 0 0 14.947578097158839 -20.598888428756453 0 -20.598888428756453 -29.946904376801257 0 0 0 0 19.631222757288924 -19.911340270499991 0 -19.911340270499991 -17.10828798317845 0 0 0 0 5.1073457623297145 -9.5961144640877052 0 -9.5961144640877052 -20.368976141107737 0 0 0 0 12.069983220160793 -14.761710899295508 0 -14.761710899295508 -34.12780455624565 0 0 0 0 10.91773912982535 -9.5011748241251723 0 -9.5011748241251723 -15.969335123798714 0 0 0 0 26.202465766165915 -13.747727688129359 0 -13.747727688129359 -25.143863525310447 0 0 0 0 23.331560295515374 -26.067840680218694 0 -26.067840680218694 -2.6964341999341315 0 0 0 0 43.762587882549269 -21.248356205460958 0 -21.248356205460958 -39.355783671444797 0 0 0 0 26.234280250687334 -25.218200343522255 0 -25.218200343522255 5.2831587293590161 0 0 0 0 36.926470535199769 -8.7872885528659879 0 -8.7872885528659879 -49.482953265530796 0 0 0 0 35.604113222821979 -0.26215462364513087 0 -0.26215462364513087 -55.233708964053704 0 0 0 0 14.570122953489545 -1.6210608586988116 0 -1.6210608586988116 -40.080661560653709 0 0 0 0 23.717065799704869 -14.261299649228221 0 -14.261299649228221 -28.429927457125018 0 0 0 0 21.779158874733184 -8.5368311656273193 0 -8.5368311656273193 -24.768441934181347 0 0 0 0 51.799784360534431 -28.961350572313034 0 -28.961350572313034 -74.620505928968285 0 0 0 0 34.633138545474139 -17.461563100574487 0 -17.461563100574487 5.8000411898023714 0 0 0 0 5.2692672196381523 1.2785164982952812 0 1.2785164982952812 0.66182962142042201 0 0 0 0 51.745607325292895 13.480911421833596 0 13.480911421833596 -100.22446998516617 0 0 0 0 -51.631019758191997 90.76377439307791 0 90.76377439307791 -25.284061999117142 0 0 0 0 37.051783102021545 -4.1833042315472397 0 -4.1833042315472397 -60.177977937019193 0 0 0 0 0.77253606000931185 0.083477629683582411 0 0.083477629683582411 -0.063671923121645532 0 0 0 0 -37.513422612884824 40.079034459548843 0 40.079034459548843 25.267807856916193 0 0 0 0 30.63656005125813 11.731088905304091 0 11.731088905304091 -88.55566546145343 0 0 0 0 68.429331155812179 -90.208159139369172 0 -90.208159139369172 -38.939064207362037 0 0 0 0 14.699789855003473 15.087768048915223 0 15.087768048915223 -71.004983551055389 0 0 0 0 4.8162935884538456 -1.0150223404589269 0 -1.0150223404589269 -39.507730301654618 0 0 0 0 26.807518355876709 1.6308238529872057 0 1.6308238529872057 -61.918942345862547 0 0 0 0 26.250955080701033 3.9054801139063855 0 3.9054801139063855 -55.116910236398212 0 0 0 0 38.325143560621655 -1.9779270275970191 0 -1.9779270275970191 -77.955798777790932 0 0 0 0 1.5225090725919728 -0.83771433731938849 0 -0.83771433731938849 -0.11851573182248892 0 0 0 0 24.96996478417941 -17.528797801195651 0 -17.528797801195651 -0.27315465266582351 0 0 0 0 12.221862446063881 -17.084685394622536 0 -17.084685394622536 1.087287126308297 0 0 0 0 10.975059396467024 -0.78419420692673314 0 -0.78419420692673314 0.074529058618786947 0 0 0 0 -2.2982821684490773 22.591891101252813 0 22.591891101252813 -7.0590980076837013 0 0 0 0 24.562870525112885 12.057370563421657 0 12.057370563421657 -95.683345754971072 0 0 0 0 -9.3808040712710863 7.6080722601853665 0 7.6080722601853665 16.729244107609304 0 0 0 0 5.7924359950866027 -0.5299056259769197 0 -0.5299056259769197 0.21521928538623186 0 0 0 0 -0.46427513125809128 4.6027422505638 0 4.6027422505638 5.5819605470890679 0 0 0 0 9.1520610714928807 -26.459586056938981 0 -26.459586056938981 53.924441960620698 0 0 0 0 15.876591221304807 8.5805197666655317 0 8.5805197666655317 -2.6594156240930147 0 0 0 0 500.25450823486881 -233.49144780562364 0 -233.49144780562364 286.37892246987093 0 0 0 0 469.30394345836567 -316.15635453285682 0 -316.15635453285682 126.40837790438994 0 0 0 0 357.95775524044802 -201.77680399982563 0 -201.77680399982563 130.54988003575923 0 0 0 0 0.73621204348544822 0.39895641478450017 0 0.39895641478450017 -0.13461451865901308 0 0 0 0 319.97122406738708 -178.94245488696538 0 -178.94245488696538 116.82990113504243 0 0 0 0 -22.611929198852522 -137.91001164110997 0 -137.91001164110997 243.94944682357686 0 0 0 0 32.761381361229724 84.609111495937867 0 84.609111495937867 -6.3257267826995189 0 0 0 0 318.24139315622421 -355.8855333842273 0 -355.8855333842273 216.54248061596229 0 0 0 0 2.5583238730665414 -0.79180071856262435 0 -0.79180071856262435 0.29342338763954601 0 0 0 0 177.91937509411855 -283.84126959297208 0 -283.84126959297208 303.55519105667804 0 0 0 0 256.02338640050584 69.758563995020126 0 69.758563995020126 35.88346938863576 0 0 0 0 754.11005705786192 -93.193226306084199 0 -93.193226306084199 10.692022383904259 0 0 0 0 499.61838466994959 42.987657232211504 0 42.987657232211504 -60.202984013319693 0 0 0 0 364.35536708376185 -121.76110608659218 0 -121.76110608659218 3.5044327115371812 0 0 0 0 -18.492597317605032 81.582237462497048 0 81.582237462497048 97.837039394436417 0 0 0 0 -24.190727430791412 -2.3588020513527201 0 -2.3588020513527201 1.558258698063629 0 0 0 0 -23.377376089760219 10.682013353719288 0 10.682013353719288 33.694089774479451 0 0 0 0 68.013223928511252 215.44778567331002 0 215.44778567331002 80.126105825124995 0 0 0 0 1.9040827263044768 1.0916288546083504 0 1.0916288546083504 0.52667958576289486 0 0 0 0 498.79754378642338 230.95144465955741 0 230.95144465955741 -43.139795570612407 0 0 0 0 124.68280045120446 100.43168012922337 0 100.43168012922337 71.658860692850212 0 0 0 0 180.9949208907974 12.788392875779529 0 12.788392875779529 -1.7496426644989924 0 0 0 0 283.06689589943198 82.555994116731753 0 82.555994116731753 -9.467057015066672 0 0 0 0 278.43036508995829 99.707882781563441 0 99.707882781563441 -57.309823253675738 0 0 0 0 23.443615046164268 -21.305789302871847 0 -21.305789302871847 29.343454677092836 0 0 0 0 21.956581456519416 -28.304211420224544 0 -28.304211420224544 25.336091544575453 0 0 0 0 35.085440694670979 -16.453369893759589 0 -16.453369893759589 6.4145403119951823 0 0 0 0 41.233061914517748 -28.296523787754808 0 -28.296523787754808 27.088725643346944 0 0 0 0 64.905978771436821 1.7505415857481932 0 1.7505415857481932 8.6191375364376341 0 0 0 0 71.736477088373249 -10.861704368738845 0 -10.861704368738845 29.241266860892431 0 0 0 0 111.06140838876854 28.403884163505339 0 28.403884163505339 48.893862742469089 0 0 0 0 75.397058319060307 -8.5128673385895368 0 -8.5128673385895368 42.602710183763755 0 0 0 0 76.048791698231071 -26.336616179567109 0 -26.336616179567109 31.17869298906303 0 0 0 0 45.625533506234206 -11.11200449761356 0 -11.11200449761356 36.223812320453291 0 0 0 0 54.616555152295405 -33.384728594645651 0 -33.384728594645651 36.927819914662265 0 0 0 0 27.547745512693837 -14.681870863167017 0 -14.681870863167017 37.942885346084395 0 0 0 0 23.205043269270391 -27.500868725898506 0 -27.500868725898506 40.787875706957109 0 0 0 0 36.399524098847451 -29.095672161644497 0 -29.095672161644497 33.206798731494118 0 0 0 0 15.66644872701454 -2.0039498920931136 0 -2.0039498920931136 31.24775130758621 0 0 0 0 5.9076330387219969 -26.740978892907357 0 -26.740978892907357 47.915962584975816 0 0 0 0 89.610645944899261 -55.655213385789779 0 -55.655213385789779 12.822289649287143 0 0 0 0 142.32435045122202 -39.687013095254294 0 -39.687013095254294 13.149801607261566 0 0 0 0 124.98551419902469 -19.916765050843793 0 -19.916765050843793 24.554019097523692 0 0 0 0 99.188410797531105 -3.3338143739791022 0 -3.3338143739791022 24.078165430946939 0 0 0 0 3.4800263485037135 2.209788830912875 0 2.209788830912875 1.1782247384508624 0 0 0 0 239.2430658862495 -75.01645202432924 0 -75.01645202432924 20.832607442004836 0 0 0 0 87.468211449207956 -57.593356765309615 0 -57.593356765309615 60.909825059522319 0 0 0 0 -7.181358664265872 -108.6615113615614 0 -108.6615113615614 -15.215204161827501 0 0 0 0 1.3624426974262818 0.6621646419967222 0 0.6621646419967222 0.30362808317142109 0 0 0 0 67.404606530292313 72.394876344405233 0 72.394876344405233 111.69768025584608 0 0 0 0 3.1700904408348833 0.26042918632342094 0 0.26042918632342094 -20.256421978473895 0 0 0 0 406.63194281019514 83.461272830287839 0 83.461272830287839 -55.835792110214257 0 0 0 0 500.22062606977988 37.17716274253317 0 37.17716274253317 -81.516676280992982 0 0 0 0 210.08133283159623 14.224424004742303 0 14.224424004742303 -2.0379210097915212 0 0 0 0 283.85423577482243 -13.225950637357492 0 -13.225950637357492 -19.883079156029908 0 0 0 0 296.09925786287931 0.66525291792987673 0 0.66525291792987673 -15.794113346587148 0 0 0 0 297.89764283065642 -155.30680233358282 0 -155.30680233358282 55.411845154798883 0 0 0 0 421.9277278536465 -35.684155964323438 0 -35.684155964323438 -41.271229631412169 0 0 0 0 430.3556096211978 -8.8399404764672909 0 -8.8399404764672909 -27.103417653792537 0 0 0 0 491.8517907514979 20.475434630688433 0 20.475434630688433 -36.358064346440287 0 0 0 0 413.99453544480303 31.421421068215551 0 31.421421068215551 -37.597041860403635 0 0 0 0 481.92885813660996 10.225156141938019 0 10.225156141938019 101.51504539506981 0 0 0 0 499.79699105864438 -9.6416801546427156 0 -9.6416801546427156 27.516481103664912 0 0 0 0 448.40792739018116 -39.868154718519989 0 -39.868154718519989 22.406258209277041 0 0 0 0 442.23235810047845 -70.668751575450244 0 -70.668751575450244 101.69101904771104 0 0 0 0 349.22072902985929 101.49339848769034 0 101.49339848769034 0.47598768610395403 0 0 0 0 202.01871483878767 -44.182198341783291 0 -44.182198341783291 16.041099618745172 0 0 0 0 478.54386298423151 -78.306272951447625 0 -78.306272951447625 -33.957297356600087 0 0 0 0 114.35154763320315 70.307019832408344 0 70.307019832408344 22.010058638212371 0 0 0 0 1.7385630867134054 0.83388739786613808 0 0.83388739786613808 0.52378128591572892 0 0 0 0 512.60058600799493 -159.95330367054234 0 -159.95330367054234 52.313301419379599 0 0 0 0 540.27315575072134 -9.4108305886518178 0 -9.4108305886518178 31.49986152389349 0 0 0 0 212.98170746560936 141.59402562931666 0 141.59402562931666 72.747454187129279 0 0 0 0 0.61978571949657635 30.919428836172216 0 30.919428836172216 10.617805283464065 0 0 0 0 0.1425764437921746 0.19061446152905326 0 0.19061446152905326 0.25580232727606855 0 0 0 0 48.186026002172184 28.166770226684136 0 28.166770226684136 10.757812764134828 0 0 0 0 -124.94327804892782 -142.10261088451909 0 -142.10261088451909 -48.26350155367237 0 0 0 0 -13.23536312887245 -2.5475709631442385 0 -2.5475709631442385 11.538535613838178 0 0 0 0 -8.7440685311057678 21.937512076106927 0 21.937512076106927 22.208499580190242 0 0 0 0 -5.3527187445952222 9.3355019549188114 0 9.3355019549188114 51.600956858366288 0 0 0 0 -16.520356444861136 38.945524211166763 0 38.945524211166763 41.659989568882501 0 0 0 0 55.243089844054339 31.871743756882893 0 31.871743756882893 47.420175513422251 0 0 0 0 99.17576587458484 -9.627868900588572 0 -9.627868900588572 34.230905314324815 0 0 0 0 19.343461966603172 -0.072389119149081083 0 -0.072389119149081083 65.381543874435124 0 0 0 0 29.660984134816772 -48.378233060499504 0 -48.378233060499504 34.231111105008537 0 0 0 0 -38.08841269548202 44.350042696393331 0 44.350042696393331 39.848344945267527 0 0 0 0 -8.5088796758448098 60.431705735524247 0 60.431705735524247 -12.738924956555145 0 0 0 0 1.2123465841985865 0.44775827123241507 0 0.44775827123241507 -0.0012053965407755542 0 0 0 0 -6.1658631519392202 36.329764332816168 0 36.329764332816168 14.783309200570756 0 0 0 0 -56.683154213489956 38.366393101561471 0 38.366393101561471 -11.13411874713735 0 0 0 0 -0.92324068428979444 7.9176663914030065 0 7.9176663914030065 2.8392070179318076 0 0 0 0 -32.506149721857582 -16.518589426732003 0 -16.518589426732003 44.063323911658152 0 0 0 0 418.76207224820064 -58.260214470208886 0 -58.260214470208886 -9.4835083655073351 0 0 0 0 85.22566933555936 -34.036343725619815 0 -34.036343725619815 10.808111593760277 0 0 0 0 125.48803507071761 34.801077456683416 0 34.801077456683416 32.947018546858295 0 0 0 0 391.47074786018948 -110.21418208632872 0 -110.21418208632872 -11.497282453577062 0 0 0 0 498.8507368841756 -136.76398428959743 0 -136.76398428959743 -65.003548822290682 0 0 0 0 500.24341801673819 -53.662956417914657 0 -53.662956417914657 -12.556954846350298 0 0 0 0 448.75625956177373 -81.224836566873279 0 -81.224836566873279 -9.449541438442246 0 0 0 0 0.83367865910896199 0.14243788900476786 0 0.14243788900476786 -0.017329864367375623 0 0 0 0 277.94591346011293 -68.701417485506212 0 -68.701417485506212 -56.20195638331915 0 0 0 0 386.27845656044701 18.032368015081332 0 18.032368015081332 -38.138596562489013 0 0 0 0 47.676253206523711 -15.017513433012226 0 -15.017513433012226 25.686211382610864 0 0 0 0 46.442094834232194 0.96916177489424626 0 0.96916177489424626 21.745005283028213 0 0 0 0 62.5732042350337 12.323597446994654 0 12.323597446994654 9.1013158870063222 0 0 0 0 30.566204263914642 13.621923388388701 0 13.621923388388701 -28.834054751602764 0 0 0 0 47.158736255614258 40.231814022755444 0 40.231814022755444 8.1710791540462395 0 0 0 0 0.94852538143686616 9.8578650463797217 0 9.8578650463797217 -23.05153971523923 0 0 0 0 0.37860536189804961 0.3162921996709282 0 0.3162921996709282 0.040861495904181894 0 0 0 0 -7.9160630964315715 31.911296601138986 0 31.911296601138986 81.510003096100576 0 0 0 0 47.160315471430977 35.030931382824036 0 35.030931382824036 10.137325883413581 0 0 0 0 -4.965711054609983 33.593256670604433 0 33.593256670604433 20.812038221066928 0 0 0 0 -5.8963645381049901 26.130223634456236 0 26.130223634456236 20.18688795873004 0 0 0 0 16.71889705155445 23.282646136820404 0 23.282646136820404 -3.93897548936269 0 0 0 0 3.9081348787121897 3.342202562083969 0 3.342202562083969 -10.875011133651185 0 0 0 0 16.730718420041235 22.957847595537327 0 22.957847595537327 -34.476350042049035 0 0 0 0 -33.566705065076803 14.382285494684112 0 14.382285494684112 6.9565910148971852 0 0 0 0 23.716643706035029 0.58532790266065149 0 0.58532790266065149 -23.642050848384571 0 0 0 0 19.940427182678377 5.3462480565586077 0 5.3462480565586077 -6.4582521970447146 0 0 0 0 30.445651316973454 28.28850203075352 0 28.28850203075352 -49.400400405363314 0 0 0 0 30.590452786927699 -8.21897619991379 0 -8.21897619991379 16.483635411743307 0 0 0 0 43.212498244748701 -10.764481968299306 0 -10.764481968299306 4.3632121122606122 0 0 0 0 44.798891707721396 5.5259113304841208 0 5.5259113304841208 -11.520958307821758 0 0 0 0 34.650532126411917 -1.2572462037028345 0 -1.2572462037028345 -9.9893028390987979 0 0 0 0 37.175451841866902 3.3471812705017712 0 3.3471812705017712 -26.331665944829126 0 0 0 0 20.214870728312235 16.643164896384377 0 16.643164896384377 -21.087182996141152 0 0 0 0 -42.388761271727617 32.172064334069916 0 32.172064334069916 -11.50847472212763 0 0 0 0 10.470550379688575 11.555414557211591 0 11.555414557211591 -11.838635701697058 0 0 0 0 3.9092809940461848 14.664589236814606 0 14.664589236814606 -8.7443249710459838 0 0 0 0 10.241133049386463 13.193932336877815 0 13.193932336877815 -14.576722856652566 0 0 0 0 29.272471266281343 -14.934300086909293 0 -14.934300086909293 -2.5790175531183195 0 0 0 0 4.466214830793108 -0.98246601809105094 0 -0.98246601809105094 -1.1685728904737558 0 0 0 0 17.643006237144618 12.033727516579489 0 12.033727516579489 -12.383021770361353 0 0 0 0 17.379307080698865 6.962073249129511 0 6.962073249129511 -8.6103586918761721 0 0 0 0 0.18931488999896828 14.106148590304485 0 14.106148590304485 -20.756447233775123 0 0 0 0 15.481039364785374 -5.7305372815728219 0 -5.7305372815728219 -11.507777352152289 0 0 0 0 -5.7599860046411777 5.3874339300116389 0 5.3874339300116389 -5.9838725600058353 0 0 0 0 37.094102499931296 -16.153040482183314 0 -16.153040482183314 -14.951612571435021 0 0 0 0 -0.62796557947264864 -0.04980897893300007 0 -0.04980897893300007 -0.42962166370726074 0 0 0 0 9.1118059938416991 -9.9393744982615999 0 -9.9393744982615999 3.9920021489829765 0 0 0 0 29.192958373675992 -12.199679218835229 0 -12.199679218835229 -12.297937555947101 0 0 0 0 19.499820070510395 11.743603119850718 0 11.743603119850718 -5.7477618837084492 0 0 0 0 3.2242173119226472 1.2983786761874345 0 1.2983786761874345 0.9318343571203469 0 0 0 0 3.6982328929762858 2.2721336385413808 0 2.2721336385413808 0.9540773622175609 0 0 0 0 23.236576442461512 -60.932266619032369 0 -60.932266619032369 9.8670444210755477 0 0 0 0 11.189535341974988 34.813105073713245 0 34.813105073713245 55.441654158509365 0 0 0 0 21.47298659305801 -33.84567289906677 0 -33.84567289906677 37.617357238563464 0 0 0 0 22.280253688729772 -24.823561462012069 0 -24.823561462012069 35.23586316252473 0 0 0 0 27.081093244708427 -20.886218561888324 0 -20.886218561888324 22.848164533457542 0 0 0 0 20.529869498217522 -27.63746103649504 0 -27.63746103649504 31.169402533452356 0 0 0 0 42.368755436902575 -6.3271931587430572 0 -6.3271931587430572 8.2527013738130286 0 0 0 0 11.512449099413971 7.0444257939896531 0 7.0444257939896531 10.981697012804725 0 0 0 0 2.6131609619155327 1.6012610189748271 0 1.6012610189748271 0.11900611351143353 0 0 0 0 4.9638781346603089 1.0856857793391441 0 1.0856857793391441 2.1111865420465419 0 0 0 0 25.639543739096098 -21.906948863440086 0 -21.906948863440086 18.38305421508295 0 0 0 0 43.01102433278038 -28.089097751125632 0 -28.089097751125632 8.9774132283473307 0 0 0 0 24.116005270190726 -16.750146464409944 0 -16.750146464409944 30.348850008899007 0 0 0 0 14.35632615745817 -28.937326959394582 0 -28.937326959394582 40.412549720154679 0 0 0 0 18.722840094318599 -23.778049616588092 0 -23.778049616588092 4.7943862762217506 0 0 0 0 15.93879533953077 -29.854531399212277 0 -29.854531399212277 16.823341654018186 0 0 0 0 14.18562211977769 -26.032608868837652 0 -26.032608868837652 23.72056587846663 0 0 0 0 19.970647689622638 -18.698631361331437 0 -18.698631361331437 5.1848546671262667 0 0 0 0 17.751170447892946 -28.1991302124394 0 -28.1991302124394 34.826722396869833 0 0 0 0 18.948286383745653 -24.847689096369752 0 -24.847689096369752 23.97544491648614 0 0 0 0 13.664910312379561 10.278020881272255 0 10.278020881272255 -8.0657865209541342 0 0 0 0 7.448096079446259 9.491547732730595 0 9.491547732730595 -7.4867715267591279 0 0 0 0 9.0221589139506442 -0.38815463476730905 0 -0.38815463476730905 1.9786696381699456 0 0 0 0 34.836732615130131 -46.076192919933796 0 -46.076192919933796 13.636297134570491 0 0 0 0 8.4716501885867892 -0.018286340995333106 0 -0.018286340995333106 1.4197467497118992 0 0 0 0 -2.5294528179829872 -7.9055928263698867 0 -7.9055928263698867 3.7245855446791465 0 0 0 0 34.837950322282268 -24.564706359213346 0 -24.564706359213346 -14.650203708478102 0 0 0 0 28.808632246472371 -11.957231097807593 0 -11.957231097807593 -2.5464197270189004 0 0 0 0 4.8840784437982769 -1.0957492037627006 0 -1.0957492037627006 -0.93002228836614775 0 0 0 0 16.867696570985643 3.5376129654570256 0 3.5376129654570256 -3.0126581115414846 0 0 0 0 53.652773046662332 -8.6612033784398079 0 -8.6612033784398079 -12.921360063626025 0 0 0 0 -5.5199834302911768 0.3416187491965843 0 0.3416187491965843 19.461428287670969 0 0 0 0 89.007665805576835 -6.4395117678800489 0 -6.4395117678800489 28.295669866906792 0 0 0 0 3.0447292410980182 1.6191897181479966 0 1.6191897181479966 -0.020171838102402528 0 0 0 0 12.782659598827536 7.390238634209723 0 7.390238634209723 -4.5469379487743709 0 0 0 0 -41.636120253075205 -71.411919649556694 0 -71.411919649556694 45.837802712742814 0 0 0 0 11.233405502959613 17.158076880503302 0 17.158076880503302 -12.714382485222586 0 0 0 0 0.48446309022347123 6.4181277254226075 0 6.4181277254226075 9.0050275342730401 0 0 0 0 21.093873676481326 6.2925718767293155 0 6.2925718767293155 -1.6703421586845821 0 0 0 0 28.316314373456407 2.3109882599856064 0 2.3109882599856064 -7.9732660038376935 0 0 0 0 21.042039524219035 7.4123524901219753 0 7.4123524901219753 -9.22173189813509 0 0 0 0 19.792066650508104 1.4192867970331804 0 1.4192867970331804 -4.6320343315394439 0 0 0 0 30.855697174240959 1.6450192042204037 0 1.6450192042204037 -10.908161244314613 0 0 0 0 35.867600379557871 0.76477520225289908 0 0.76477520225289908 -8.8630193622476554 0 0 0 0 31.590959919132729 -0.41498129382296156 0 -0.41498129382296156 -6.5959669732554573 0 0 0 0 43.258150162890161 1.7613818236374641 0 1.7613818236374641 -8.2936462494639045 0 0 0 0 69.802111241287776 1.2047433885331813 0 1.2047433885331813 -12.088668090526198 0 0 0 0 28.256297928867752 -1.2945307242918886 0 -1.2945307242918886 -0.21330032137313992 0 0 0 0 0.19252695667928954 -0.43363757191347396 0 -0.43363757191347396 0.32521828442257994 0 0 0 0 34.746623138622454 13.635682631258817 0 13.635682631258817 9.4714218402154842 0 0 0 0 -2.0882145905725338 -2.1044516944931502 0 -2.1044516944931502 -1.1653063281709706 0 0 0 0 62.967057874208479 30.613379615435555 0 30.613379615435555 6.3585902437023947 0 0 0 0 4.1457760650890076 -0.29058333522106317 0 -0.29058333522106317 1.0420737695686082 0 0 0 0 4.4716375682119178 1.6719473368716535 0 1.6719473368716535 5.9293103215236442 0 0 0 0 10.05689975640621 3.1793690718736372 0 3.1793690718736372 4.8020804784059692 0 0 0 0 6.218595249196369 1.25373648566665 0 1.25373648566665 5.5195872842549818 0 0 0 0 9.7379656400614749 1.785477248927748 0 1.785477248927748 4.5136276841888048 0 0 0 0 5.899639946712341 3.0814323693576853 0 3.0814323693576853 4.360298114834336 0 0 0 0 9.3590342323450386 2.4669317361464209 0 2.4669317361464209 3.0688974530792166 0 0 0 0 10.103226833779445 1.5413822001575568 0 1.5413822001575568 4.1439557220974166 0 0 0 0 7.5336667579213099 -3.6748704421485741 0 -3.6748704421485741 -4.3164406480451873 0 0 0 0 5.933356010416901 -1.0745977927786541 0 -1.0745977927786541 -8.507693982849716 0 0 0 0 7.7924331071280903 0.38579473876706061 0 0.38579473876706061 4.3404104354785886 0 0 0 0 25.652818168160934 3.9077394206546785 0 3.9077394206546785 -0.4122820932209379 0 0 0 0 0.60744640316036147 -0.092581753527444022 0 -0.092581753527444022 -0.74712519789615106 0 0 0 0 2.4829863435256403 -1.7412465729551876 0 -1.7412465729551876 0.78030506459670224 0 0 0 0 25.773521012932179 4.3324356664816435 0 4.3324356664816435 0.65402876402356469 0 0 0 0 32.540815949057105 6.2896684252092427 0 6.2896684252092427 -1.2077286208378268 0 0 0 0 26.400712820053755 5.0468436028825661 0 5.0468436028825661 -3.3708287683240314 0 0 0 0 23.332643619469309 1.3962516767609259 0 1.3962516767609259 -3.7877028810478208 0 0 0 0 24.191771317606481 4.4564259697347879 0 4.4564259697347879 -3.1432745837653329 0 0 0 0 26.363884405534009 2.0885429404119122 0 2.0885429404119122 -3.9023525942880042 0 0 0 0 31.729962221178539 -1.4609586446506739 0 -1.4609586446506739 -6.6246290666534264 0 0 0 0 -1.2216223681812153 1.7302983154317531 0 1.7302983154317531 4.7909912001320833 0 0 0 0 14.966496993072724 2.9305656673087128 0 2.9305656673087128 -2.1432613368475302 0 0 0 0 3.5542488994160522 1.5799574636687765 0 1.5799574636687765 -0.87928230924364925 0 0 0 0 11.689195043654991 -2.3211502937622228 0 -2.3211502937622228 1.1224371065293894 0 0 0 0 0.34603478386673325 0.17636337712972594 0 0.17636337712972594 -1.0743435543577964 0 0 0 0 16.003125723562931 -2.7573779929481637 0 -2.7573779929481637 -1.1063805115448986 0 0 0 0 23.498589194815395 -3.6458858650649333 0 -3.6458858650649333 -7.1907394784427083 0 0 0 0 23.675935365494752 -2.6898560085195413 0 -2.6898560085195413 -2.0399498625170622 0 0 0 0 15.982760690024151 -3.0121516685665934 0 -3.0121516685665934 0.10853118769921366 0 0 0 0 36.323137391544606 -5.3202994395500838 0 -5.3202994395500838 -11.91225545644736 0 0 0 0 33.113982279850006 -9.5513934117763739 0 -9.5513934117763739 -4.1274472491694212 0 0 0 0 36.315292424503923 -5.5801966449516769 0 -5.5801966449516769 -10.907267985807152 0 0 0 0 40.781083084022612 0.97792249381132024 0 0.97792249381132024 -20.943436136737745 0 0 0 0 30.279507274208527 4.0950469793432234 0 4.0950469793432234 -13.916217912737125 0 0 0 0 26.765328282160681 6.1453936707196988 0 6.1453936707196988 -14.77677350569823 0 0 0 0 31.611731295486379 -0.82881001056742321 0 -0.82881001056742321 -9.9264305185465673 0 0 0 0 32.455530641605947 -1.0265608401676474 0 -1.0265608401676474 -11.998671473424224 0 0 0 0 32.106736879853997 -1.5494792970768003 0 -1.5494792970768003 -8.5140160073641376 0 0 0 0 34.757702410470301 9.9719122284012656 0 9.9719122284012656 7.4555544437948242 0 0 0 0 25.931249919557558 11.42019030380601 0 11.42019030380601 9.7979609451896863 0 0 0 0 36.444187409227879 12.622427719032444 0 12.622427719032444 11.025897747048134 0 0 0 0 24.82313721733999 18.184873751439241 0 18.184873751439241 4.0476967377077244 0 0 0 0 24.160490180429179 14.923203764409308 0 14.923203764409308 7.200380180668617 0 0 0 0 21.16178855463022 9.2248848046630201 0 9.2248848046630201 8.0907465074719624 0 0 0 0 13.455353007568192 6.8633563589711457 0 6.8633563589711457 6.4494661146253236 0 0 0 0 21.350603814843225 9.7733663075747756 0 9.7733663075747756 3.9634526311347145 0 0 0 0 14.644232252765505 9.1104619709757344 0 9.1104619709757344 7.149487848117019 0 0 0 0 20.91260378379684 10.880690243401034 0 10.880690243401034 2.2852973091897866 0 0 0 0 24.416381644187823 11.518409742599488 0 11.518409742599488 2.3462951657065787 0 0 0 0 23.710505667806785 6.5305722639439949 0 6.5305722639439949 1.7387287380618091 0 0 0 0 16.871160642584982 7.3672069527174244 0 7.3672069527174244 3.150309551577152 0 0 0 0 17.337958651971803 6.0024296759468143 0 6.0024296759468143 3.7923120611303602 0 0 0 0 14.54035197108351 4.3048710278697513 0 4.3048710278697513 4.3608715851260058 0 0 0 0 14.068316826344017 3.1440204846793449 0 3.1440204846793449 3.7966576693500542 0 0 0 0 11.555720795082834 4.0782998678687647 0 4.0782998678687647 5.4014308231414816 0 0 0 0 12.958730685650153 7.4283465651757297 0 7.4283465651757297 5.8071286248566025 0 0 0 0 11.741190570148319 3.3589492589685506 0 3.3589492589685506 4.792047523480619 0 0 0 0 5.4805387390142641 3.2161473672100556 0 3.2161473672100556 6.7374765445547382 0 0 0 0 11.365696948286654 6.2905956878293452 0 6.2905956878293452 5.4069122273315315 0 0 0 0 14.335176029980175 6.2476667201133296 0 6.2476667201133296 4.6040511046559232 0 0 0 0 8.8836099840309544 7.3779387300316444 0 7.3779387300316444 6.3574230723313576 0 0 0 0 -6.520834759603531 8.0406671063927 0 8.0406671063927 -5.025201325980702 0 0 0 0 22.212717460428394 -27.497196757476321 0 -27.497196757476321 -16.441405379027074 0 0 0 0 -3.648882879180178 -5.6524302245723632 0 -5.6524302245723632 0.78903962687014229 0 0 0 0 0.27842817795787766 -0.04200816804257812 0 -0.04200816804257812 -0.081656578696464907 0 0 0 0 2.4948876013369841 -1.5519704359997073 0 -1.5519704359997073 0.74353324365073759 0 0 0 0 1.1954131073294523 0.64906206388245824 0 0.64906206388245824 -0.38549201283530982 0 0 0 0 1.2732889056378554 1.3027665075688923 0 1.3027665075688923 -0.27489930608709567 0 0 0 0 21.68610020109827 7.1385530082655109 0 7.1385530082655109 8.6938505167176974 0 0 0 0 53.510838110109034 -22.01359457090161 0 -22.01359457090161 14.516177395362558 0 0 0 0 0.21816767221252142 -0.038903273061751786 0 -0.038903273061751786 -0.0014781070930178358 0 0 0 0 34.552218948099835 11.132390965068982 0 11.132390965068982 -26.553564380501655 0 0 0 0 -19.000257191521769 -1.0684235530068467 0 -1.0684235530068467 -1.4273746780652203 0 0 0 0 10.025980309084616 27.280096078417056 0 27.280096078417056 -5.1386424823393781 0 0 0 0 11.033822552486527 4.1345038410924531 0 4.1345038410924531 7.1807455584900026 0 0 0 0 9.1791828980574337 8.7151739915682995 0 8.7151739915682995 11.848185266732685 0 0 0 0 18.486444071048481 11.439480235879756 0 11.439480235879756 8.7183943712176415 0 0 0 0 29.40417072805576 8.6133727769645532 0 8.6133727769645532 9.4225402270332097 0 0 0 0 25.304621982066237 13.855981759982427 0 13.855981759982427 11.014679281389476 0 0 0 0 20.273489124033404 12.745233697889489 0 12.745233697889489 10.565424909003383 0 0 0 0 -4.3308074676442629 -26.703085454819089 0 -26.703085454819089 -23.816509024102679 0 0 0 0 1.8301733366141146 -1.1808896546546692 0 -1.1808896546546692 0.5936593296005801 0 0 0 0 27.079111136234133 7.6896738387431043 0 7.6896738387431043 11.008389735518984 0 0 0 0 27.736707632291655 10.100519642075511 0 10.100519642075511 11.977528238027844 0 0 0 0 37.764681382765957 6.4024355171135028 0 6.4024355171135028 12.103960462951932 0 0 0 0 41.652168227843049 8.0235919763860295 0 8.0235919763860295 10.140026544362001 0 0 0 0 31.829167577314365 12.511571079318401 0 12.511571079318401 14.858425381706837 0 0 0 0 44.45479301362866 -29.269135916985583 0 -29.269135916985583 -0.50333899628476075 0 0 0 0 -9.3214408707679581 -35.446507099955937 0 -35.446507099955937 -1.163994853090756 0 0 0 0 50.147353536593982 21.248073067330836 0 21.248073067330836 17.200184153249545 0 0 0 0 0.71911813892980625 -0.41973080517370409 0 -0.41973080517370409 0.22358858404548232 0 0 0 0 100.38418189511594 45.186563905381433 0 45.186563905381433 1.5562431783100621 0 0 0 0 4.5520131830820674 10.678991847242308 0 10.678991847242308 -15.759186614012066 0 0 0 0 0.62891914776810154 5.056291112651885 0 5.056291112651885 12.532748225352268 0 0 0 0 31.362865147241337 8.9248542236289907 0 8.9248542236289907 1.6980452688502936 0 0 0 0 -4.9195754208042217 -6.9196348569775328 0 -6.9196348569775328 -4.1972839929888437 0 0 0 0 0.21551976366469017 -0.21548829054277707 0 -0.21548829054277707 -0.055887006854580257 0 0 0 0 31.454155629166053 -6.6865889476557978 0 -6.6865889476557978 -13.424875613077051 0 0 0 0 5.8937663944807355 -0.12805352212564358 0 -0.12805352212564358 -1.8259665932024021 0 0 0 0 0.36582354336349354 0.19091061772530704 0 0.19091061772530704 -0.94089568774431609 0 0 0 0 5.0698751511790761 -3.1581743423406934 0 -3.1581743423406934 -1.7896791403397572 0 0 0 0 0.51253842502475866 -0.35851139762574125 0 -0.35851139762574125 -0.016573119200507351 0 0 0 0 32.849827222492877 15.371526414534264 0 15.371526414534264 -13.408224356087434 0 0 0 0 1.3999476956696526 -2.3205655089836079 0 -2.3205655089836079 -0.35081689447643782 0 0 0 0 12.332533407217852 3.7964827719863479 0 3.7964827719863479 -8.3424508003747633 0 0 0 0 -31.939872076757183 -32.313945528725597 0 -32.313945528725597 8.7243121872107281 0 0 0 0 -0.054229206515994832 0.039549286032610986 0 0.039549286032610986 -0.29724447195182269 0 0 0 0 -2.2096858582508503 3.5892251720000701 0 3.5892251720000701 3.6689989169855437 0 0 0 0 16.251719831758237 -5.645127242776411 0 -5.645127242776411 -29.047248780751815 0 0 0 0 -7.4113465456969152 -2.7838552613831595 0 -2.7838552613831595 1.0622227718035333 0 0 0 0 11.345685596756539 31.052298342337622 0 31.052298342337622 15.17702899845608 0 0 0 0 -20.75225191015852 -25.956261748782268 0 -25.956261748782268 0.99022012461733766 0 0 0 0 6.8929357336239718 -5.7002575610354391 0 -5.7002575610354391 -14.73331142662181 0 0 0 0 -0.53937864387830814 -3.7766880737469606 0 -3.7766880737469606 -14.276235650324367 0 0 0 0 23.039446881796266 9.4345912624937469 0 9.4345912624937469 10.121485766060644 0 0 0 0 22.337538435518567 -16.376668216650405 0 -16.376668216650405 1.6137174102407243 0 0 0 0 39.887684902801084 -5.7144430585098291 0 -5.7144430585098291 7.6471043765073148 0 0 0 0 63.053193804721104 -8.2173899918767574 0 -8.2173899918767574 -6.9893998916545854 0 0 0 0 68.915708259925395 15.918734433851824 0 15.918734433851824 -1.1574489384171613 0 0 0 0 0.060864991698917237 -0.03892188246353534 0 -0.03892188246353534 0.028847668713604113 0 0 0 0 46.775798151373692 -15.302006129451769 0 -15.302006129451769 2.0704481544611326 0 0 0 0 26.036695278334264 -5.0849563717571868 0 -5.0849563717571868 0.71076725302339128 0 0 0 0 9.508011760154659 4.7725898766495334 0 4.7725898766495334 3.3152694298104279 0 0 0 0 27.888480580489386 -0.75320716170994473 0 -0.75320716170994473 -6.331321655124043 0 0 0 0 39.462323066170939 -20.058791919857484 0 -20.058791919857484 -3.8107372154792643 0 0 0 0 40.119114948142013 -5.6592709950649631 0 -5.6592709950649631 -27.671227541876391 0 0 0 0 30.548690302948216 -22.342010871275832 0 -22.342010871275832 -3.9535210069428643 0 0 0 0 38.876159905699751 -15.300800140016563 0 -15.300800140016563 -9.3178753654776472 0 0 0 0 74.836543371854532 -42.034570138288885 0 -42.034570138288885 20.481353696861319 0 0 0 0 0.2629190780611097 0.15991333351338488 0 0.15991333351338488 0.14676763456712055 0 0 0 0 64.139432881993798 1.9649022396811375 0 1.9649022396811375 11.488102132555113 0 0 0 0 47.641203941759613 2.9013501266130959 0 2.9013501266130959 -10.437391616758589 0 0 0 0 51.998287584843524 -13.535286928738572 0 -13.535286928738572 -9.4573261541458464 0 0 0 0 33.162312255632969 -16.832130574291739 0 -16.832130574291739 8.4408372413953003 0 0 0 0 15.818716004782345 -2.1905328672463327 0 -2.1905328672463327 -0.56031898912395661 0 0 0 0 19.070299912699738 -8.7973952924077139 0 -8.7973952924077139 1.158311990800712 0 0 0 0 33.253803067576541 -16.572701631626845 0 -16.572701631626845 4.9573979514431983 0 0 0 0 2.2398135580979215 1.1124130579035523 0 1.1124130579035523 -16.706157951779517 0 0 0 0 15.977245085979121 -2.0423053793719248 0 -2.0423053793719248 -1.1372347273029684 0 0 0 0 -2.893701484498024 -7.6654315720847706 0 -7.6654315720847706 -13.032804434044465 0 0 0 0 1.0431801498934572 0.63873970389469026 0 0.63873970389469026 -0.053911292336831229 0 0 0 0 17.634130499644925 1.5232537971302236 0 1.5232537971302236 -17.313973598643109 0 0 0 0 8.2593520707468997 -9.0445261762592111 0 -9.0445261762592111 -14.973515948901962 0 0 0 0 -2.0514444557929892 -4.2013962596138583 0 -4.2013962596138583 -11.294108521245235 0 0 0 0 -4.0868883957355138 19.8579232725221 0 19.8579232725221 -17.50088507475985 0 0 0 0 38.596102439330025 16.282843745110668 0 16.282843745110668 -17.868974366727542 0 0 0 0 0.75458530315491501 0.4081083321671537 0 0.4081083321671537 0.19678542169620566 0 0 0 0 -12.857525759267901 5.5155112833155897 0 5.5155112833155897 24.642793703855588 0 0 0 0 17.769211758621168 -24.836315515791711 0 -24.836315515791711 9.1591733248480693 0 0 0 0 15.791127943143692 25.603652264808346 0 25.603652264808346 50.035269885926297 0 0 0 0 37.666364908611058 6.6835989854382305 0 6.6835989854382305 9.3184658426825706 0 0 0 0 93.918391603855071 28.976240677392312 0 28.976240677392312 -2.8359357987831402 0 0 0 0 -48.884478839782332 -5.6283487544598323 0 -5.6283487544598323 23.385170103659913 0 0 0 0 0.07144278559959516 0.21289971318749412 0 0.21289971318749412 0.59566501123051174 0 0 0 0 26.887079636830094 7.2696425997634364 0 7.2696425997634364 4.8965151658791441 0 0 0 0 4.5513231616255325 -10.646847534427334 0 -10.646847534427334 -1.3852142411920525 0 0 0 0 58.004953710913014 -2.043160890205812 0 -2.043160890205812 0.95978159850340372 0 0 0 0 -12.367931526400703 20.252517994896795 0 20.252517994896795 9.0847151628337599 0 0 0 0 41.537927603199023 -12.258847039078475 0 -12.258847039078475 12.652152627679756 0 0 0 0 51.429282244799651 -21.221451610045854 0 -21.221451610045854 10.507517883476071 0 0 0 0 59.314511254679473 -6.7876514393370542 0 -6.7876514393370542 -0.099850951723723824 0 0 0 0 24.147160415108374 -22.438145148339899 0 -22.438145148339899 22.44895011511781 0 0 0 0 45.912460337520315 -9.3653575892515732 0 -9.3653575892515732 14.821908897174239 0 0 0 0 17.023798109567906 17.486499720160481 0 17.486499720160481 16.099275633091978 0 0 0 0 -4.3833406572830427 -0.45332491773579875 0 -0.45332491773579875 11.60111795815402 0 0 0 0 -12.120892019023245 13.073338899688506 0 13.073338899688506 5.2157852413456709 0 0 0 0 -52.899333885288343 -1.9796124936103041 0 -1.9796124936103041 14.56956743335175 0 0 0 0 0.10384521902611432 0.63964412921201674 0 0.63964412921201674 1.6047954901764365 0 0 0 0 36.676865541059215 3.5712529231094834 0 3.5712529231094834 4.656476599755365 0 0 0 0 18.142908435226218 10.425801489313727 0 10.425801489313727 10.003722292783817 0 0 0 0 21.906711119632746 -4.1912756047926223 0 -4.1912756047926223 0.88943510746767629 0 0 0 0 -13.66610465708527 22.038226090515394 0 22.038226090515394 -3.3471343258034807 0 0 0 0 0.41442482975430583 1.0545454528278588 0 1.0545454528278588 2.1930610907963359 0 0 0 0 22.595515731369915 9.7765879312613606 0 9.7765879312613606 6.6719678345297098 0 0 0 0 -47.569524738084965 18.859465977991192 0 18.859465977991192 13.142782333174068 0 0 0 0 -0.15122259654417558 -0.010319003428628015 0 -0.010319003428628015 0.5030736490547244 0 0 0 0 34.855660218851426 -6.0740410781647824 0 -6.0740410781647824 -0.18576948780037128 0 0 0 0 16.89975637590851 -5.9394759139620419 0 -5.9394759139620419 17.164545337207869 0 0 0 0 19.697121692076507 2.9448098415409731 0 2.9448098415409731 5.6248582144212378 0 0 0 0 17.158901469895682 -4.0011179353406021 0 -4.0011179353406021 -8.5854402028639925 0 0 0 0 39.722363400013819 7.5381827396400922 0 7.5381827396400922 2.2824879956467612 0 0 0 0 33.319567829538755 1.2918842385885796 0 1.2918842385885796 -6.8674113976433091 0 0 0 0 49.601898099997243 -17.557935680817309 0 -17.557935680817309 7.4865535026233374 0 0 0 0 29.221763594735421 -5.1230387171877396 0 -5.1230387171877396 2.603900215492331 0 0 0 0 -19.547987131373247 14.079041669284035 0 14.079041669284035 6.770860884969288 0 0 0 0 1.4614379312215 1.3453386790917308 0 1.3453386790917308 1.363638031750152 0 0 0 0 -15.846936813761658 34.003693291089398 0 34.003693291089398 -13.636647340464492 0 0 0 0 28.573708435926051 24.632039789379398 0 24.632039789379398 20.893861192399555 0 0 0 0 20.695738860992151 7.8877915750512813 0 7.8877915750512813 -7.2255572000502895 0 0 0 0 -19.218319999976302 8.2948707625810272 0 8.2948707625810272 -10.300893341782542 0 0 0 0 -7.5458950549559631 25.723577091436709 0 25.723577091436709 12.278106370723776 0 0 0 0 14.754893563091628 1.6869798799075966 0 1.6869798799075966 6.0300567774923479 0 0 0 0 22.313657172237129 -5.2226563956044387 0 -5.2226563956044387 9.3612904894575877 0 0 0 0 18.717651177697007 6.471775126954121 0 6.471775126954121 -1.349534402213294 0 0 0 0 19.013014091206514 1.9337683618589381 0 1.9337683618589381 3.4077050625772642 0 0 0 0 20.469996305593554 -6.2537749715592703 0 -6.2537749715592703 30.975927683040084 0 0 0 0 67.977381732280719 4.3609473461948767 0 4.3609473461948767 4.1764451994160936 0 0 0 0 0.24738746648064946 0.29147913580905538 0 0.29147913580905538 0.18599576102412474 0 0 0 0 29.917254328451236 -25.666432995702536 0 -25.666432995702536 -6.8159103178358862 0 0 0 0 26.256040872151971 20.666974526314362 0 20.666974526314362 13.559300362562254 0 0 0 0 20.18975349026482 16.313266807570955 0 16.313266807570955 26.110927091513418 0 0 0 0 19.935828291076291 -7.8963453021984265 0 -7.8963453021984265 -1.0305736110007047 0 0 0 0 -5.7051592201751191 0.58186609193546701 0 0.58186609193546701 21.162226739003202 0 0 0 0 -8.671933860694935 6.9523426673223412 0 6.9523426673223412 9.8447674571141306 0 0 0 0 0.30157388342607305 0.59360672791379354 0 0.59360672791379354 0.71267383795675898 0 0 0 0 15.086649471888165 3.9615892651093887 0 3.9615892651093887 -4.837273658779111 0 0 0 0 19.753220871271878 -3.23129894706301 0 -3.23129894706301 0.47565381625389591 0 0 0 0 20.377274524864333 -3.2630000848554346 0 -3.2630000848554346 5.6236218575995167 0 0 0 0 43.496506296500456 0.87224287012077184 0 0.87224287012077184 -2.0660096572954672 0 0 0 0 28.223647981251133 1.1077531812712493 0 1.1077531812712493 -5.9200816981850721 0 0 0 0 16.375008537635495 16.299063631578406 0 16.299063631578406 -7.84458218452761 0 0 0 0 12.857933783210186 6.482629794758406 0 6.482629794758406 -0.21065538229027858 0 0 0 0 58.023319593008637 111.84124828983931 0 111.84124828983931 -51.472396129472145 0 0 0 0 45.447812314856947 -77.901742551809605 0 -77.901742551809605 11.253174345739581 0 0 0 0 17.182778307078252 -24.065341770637957 0 -24.065341770637957 60.246016083972108 0 0 0 0 48.457855361273346 128.16192174795805 0 128.16192174795805 66.94951237962141 0 0 0 0 0.17196340033803637 0.060663793138388655 0 0.060663793138388655 0.1426869307860632 0 0 0 0 25.530424008190494 -95.057925399733676 0 -95.057925399733676 57.158783337652949 0 0 0 0 12.552353875750189 7.7183910453734708 0 7.7183910453734708 -0.3440304146018367 0 0 0 0 62.665720073938473 -22.687903579964086 0 -22.687903579964086 -85.093227262385881 0 0 0 0 6.1175226491986905 18.433550972444223 0 18.433550972444223 5.1442214554892871 0 0 0 0 3.7937194996107078 -1.0725346675036234 0 -1.0725346675036234 -0.99643873296066876 0 0 0 0 62.27068424554318 8.7789848121656462 0 8.7789848121656462 -51.420329425092987 0 0 0 0 106.65904543166516 21.72494239767434 0 21.72494239767434 -40.605098646438591 0 0 0 0 23.960535743816763 6.0062523819971148 0 6.0062523819971148 -41.399602914474123 0 0 0 0 32.823734250681355 11.618056007318373 0 11.618056007318373 -22.105484759060467 0 0 0 0 35.794932979631994 60.523476886595063 0 60.523476886595063 103.25694152735571 0 0 0 0 1.1921735310375752 0.41386389353702446 0 0.41386389353702446 0.1496817995955958 0 0 0 0 50.518545983394233 -37.722521820960651 0 -37.722521820960651 25.502219149990424 0 0 0 0 71.870547790226738 35.405518323461195 0 35.405518323461195 -16.080215256347174 0 0 0 0 180.17398745004374 -93.100896312254662 0 -93.100896312254662 46.962326555045138 0 0 0 0 148.62519316201815 79.471049121171177 0 79.471049121171177 6.732970272172679 0 0 0 0 75.69638882480649 44.202152037546227 0 44.202152037546227 3.7338619780728095 0 0 0 0 36.131853186201624 -32.705660512041732 0 -32.705660512041732 13.21347509802581 0 0 0 0 28.027228735421886 -12.762823501657522 0 -12.762823501657522 23.304256486688246 0 0 0 0 -19.012517954362465 -44.393271444928189 0 -44.393271444928189 24.681874641613035 0 0 0 0 38.716300723849088 -69.924949456437318 0 -69.924949456437318 15.935219170300797 0 0 0 0 6.8964332370784405 3.1030376566293967 0 3.1030376566293967 -9.7164556317009669 0 0 0 0 17.128424127161907 -0.90850900891135211 0 -0.90850900891135211 -27.150850653123314 0 0 0 0 -52.205678104891376 -70.520711466415065 0 -70.520711466415065 -84.584658972141767 0 0 0 0 2.1506221689297105 0.45970796204740649 0 0.45970796204740649 -0.24696942610851036 0 0 0 0 13.794394279100743 9.2408318223351671 0 9.2408318223351671 2.2330858139562793 0 0 0 0 9.6566021979730223 4.7909186012127893 0 4.7909186012127893 -2.5217527875441297 0 0 0 0 12.845396978551893 4.3935411536515705 0 4.3935411536515705 -2.1256816250330584 0 0 0 0 -40.201323474059336 -5.1036945424050266 0 -5.1036945424050266 -8.1294046939807743 0 0 0 0 19.111672708573224 5.2430112420314572 0 5.2430112420314572 -1.7743681789833659 0 0 0 0 22.675441613853081 0.95064431435969254 0 0.95064431435969254 -0.036417121295244215 0 0 0 0 23.536082371688735 3.9608030043701774 0 3.9608030043701774 -2.9183731458425655 0 0 0 0 1.5306891559749145 0.91570061558602278 0 0.91570061558602278 0.82455443903897097 0 0 0 0 25.502301843436271 0.31089748517140947 0 0.31089748517140947 -2.2977827065203655 0 0 0 0 9.0748976627492741 5.0642765614270768 0 5.0642765614270768 1.6184108181449677 0 0 0 0 10.415668732070497 2.1036876495370156 0 2.1036876495370156 -0.25021990969044205 0 0 0 0 7.4805369595580267 6.4749786289353324 0 6.4749786289353324 -0.57537678581923046 0 0 0 0 16.630762817955997 6.2770846139936225 0 6.2770846139936225 -0.53480860316403778 0 0 0 0 9.2826384309144032 5.6262648009800387 0 5.6262648009800387 -0.38736395838100179 0 0 0 0 8.8725915770974098 6.1045008821180318 0 6.1045008821180318 -2.5921352485774776 0 0 0 0 10.015461273251731 7.5139501140967582 0 7.5139501140967582 -5.1573056870017808 0 0 0 0 7.5496731914881821 7.3412813052991055 0 7.3412813052991055 -1.946780266946007 0 0 0 0 10.18647604133821 6.757614147935044 0 6.757614147935044 -2.9848767438018697 0 0 0 0 12.941086220551369 9.2785173532347471 0 9.2785173532347471 -4.9014707858511883 0 0 0 0 13.851039924812312 8.3556128130078946 0 8.3556128130078946 -6.5337350300810613 0 0 0 0 14.310345259951646 7.2404409943330847 0 7.2404409943330847 -3.0473857189001592 0 0 0 0 12.983721167885506 8.6601050831205839 0 8.6601050831205839 0.48824281951465309 0 0 0 0 16.979789482338674 8.4272251974006167 0 8.4272251974006167 0.21390297680864023 0 0 0 0 4.0992177797904841 -0.030320148774683808 0 -0.030320148774683808 -6.6630480226831947 0 0 0 0 18.87363000569303 12.045973996151304 0 12.045973996151304 0.85643145458152503 0 0 0 0 16.663706523448127 7.0529721763836051 0 7.0529721763836051 -3.6848968618612616 0 0 0 0 15.730716299246524 9.3015243593559944 0 9.3015243593559944 -8.3468043919112915 0 0 0 0 15.113296687104594 10.80435017058528 0 10.80435017058528 -8.0217154809778322 0 0 0 0 16.517751893126842 8.1807883125562739 0 8.1807883125562739 -4.9587680010206441 0 0 0 0 16.314787059497462 10.432341642823815 0 10.432341642823815 -4.3488520045120822 0 0 0 0 20.18565159461923 5.2928960404990448 0 5.2928960404990448 1.9388392836247021 0 0 0 0 25.153112643926988 13.33924527710117 0 13.33924527710117 -8.2910996293441031 0 0 0 0 9.0480657912955706 -1.2667322196650019 0 -1.2667322196650019 -5.5117088238497089 0 0 0 0 27.164805201956369 -2.5755538832939067 0 -2.5755538832939067 -9.0662451991058219 0 0 0 0 21.021127680733116 8.934641268116593 0 8.934641268116593 -10.752331424851718 0 0 0 0 21.101717694417744 14.459239602547518 0 14.459239602547518 -14.515907687780782 0 0 0 0 20.636060240291044 11.594458254758933 0 11.594458254758933 -4.7243997104069422 0 0 0 0 7.7400087204130159 -4.4300435541581038 0 -4.4300435541581038 -7.8282497717219712 0 0 0 0 11.717007923874007 -2.448593961585587 0 -2.448593961585587 -7.7875813480106757 0 0 0 0 2.0854839669377725 -1.1082269975578782 0 -1.1082269975578782 2.5898363665609736 0 0 0 0 0.14929979260432447 -3.237152652036599 0 -3.237152652036599 5.1772296617530742 0 0 0 0 3.6438905980696745 5.0519462110285929 0 5.0519462110285929 -2.9663914040661155 0 0 0 0 1.3520558933344091 1.0238358732983963 0 1.0238358732983963 0.70646302279370865 0 0 0 0 27.238959986993564 15.520856551792725 0 15.520856551792725 -31.303434348884423 0 0 0 0 25.125884459900135 13.14330174539575 0 13.14330174539575 -10.483701951915606 0 0 0 0 2.7364649428764665 -1.1820982619182292 0 -1.1820982619182292 2.1399535959979517 0 0 0 0 0.36641413357896302 0.25162430245319811 0 0.25162430245319811 1.068712053651238 0 0 0 0 3.5309432819844915 0.84293977748572502 0 0.84293977748572502 -1.4815639352865446 0 0 0 0 29.582268971388885 -4.2343165375646095 0 -4.2343165375646095 -1.8691307033928979 0 0 0 0 25.460697435289887 -4.2602114978973447 0 -4.2602114978973447 2.766410821870295 0 0 0 0 8.923074778699629 4.8710173833673025 0 4.8710173833673025 1.8117102019971298 0 0 0 0 20.642082707990994 7.7053578340810418 0 7.7053578340810418 -5.1904979461085645 0 0 0 0 19.024136818667102 0.97693974847584286 0 0.97693974847584286 -1.6084922781332125 0 0 0 0 25.989874296869402 -1.299852472679504 0 -1.299852472679504 -2.0113139478362427 0 0 0 0 17.962042766416744 -1.1740085264266327 0 -1.1740085264266327 2.4939209403200948 0 0 0 0 19.483656698215782 0.069097866035235711 0 0.069097866035235711 1.8341335261684435 0 0 0 0 20.238048460276332 -6.5658837298676644 0 -6.5658837298676644 -3.4251521261676316 0 0 0 0 4.5677406353002699 4.4978506866544974 0 4.4978506866544974 1.6055687488578845 0 0 0 0 21.337143162362281 -0.33617373898073311 0 -0.33617373898073311 3.3659348353589849 0 0 0 0 8.4317272420493001 1.9959710288651991 0 1.9959710288651991 1.1340170969965584 0 0 0 0 0.40561602215008818 1.0029701045380139 0 1.0029701045380139 0.091767476756955957 0 0 0 0 21.455147159515036 -1.3043749451350095 0 -1.3043749451350095 1.7036355443303819 0 0 0 0 22.914385177155054 0.70922022177137478 0 0.70922022177137478 1.5399769479660677 0 0 0 0 21.730395421834146 -0.077953199591433986 0 -0.077953199591433986 3.5335992939141079 0 0 0 0 22.483386200913628 -2.0407219868784523 0 -2.0407219868784523 3.0241242447802961 0 0 0 0 24.935415864139031 -0.031148797111200111 0 -0.031148797111200111 2.4002919231555779 0 0 0 0 26.328202465860045 -1.7232512685084487 0 -1.7232512685084487 1.8659285241797079 0 0 0 0 -0.26696858630049625 0.36315733699237374 0 0.36315733699237374 2.3298048434200656 0 0 0 0 23.417957058666616 -0.680618979778842 0 -0.680618979778842 3.8804883286391032 0 0 0 0 23.794631427055265 -1.897683303674512 0 -1.897683303674512 3.2604230496145874 0 0 0 0 23.630919598569562 -1.2985656943392314 0 -1.2985656943392314 2.8082357331250307 0 0 0 0 4.6995984541783589 3.997765913405706 0 3.997765913405706 1.4680960530016747 0 0 0 0 6.3491753185133373 3.9105591956867523 0 3.9105591956867523 0.55013986350133415 0 0 0 0 6.5199393442297051 5.0769436257855887 0 5.0769436257855887 -0.037985428063024074 0 0 0 0 7.4702759569657928 7.0320238155588726 0 7.0320238155588726 -2.4068238476547776 0 0 0 0 8.2843540251651575 7.5572766187027014 0 7.5572766187027014 -2.4398535038358204 0 0 0 0 5.5513727799338994 6.8579746917516786 0 6.8579746917516786 -2.3205180429420125 0 0 0 0 8.2525484693460385 7.1602526469306156 0 7.1602526469306156 -4.3621571821136058 0 0 0 0 9.529014236846832 5.0691809480313044 0 5.0691809480313044 -0.79698306386056572 0 0 0 0 12.013050690484988 8.7044935804354111 0 8.7044935804354111 -2.2658042118591766 0 0 0 0 21.187614143561859 -2.2110376807500529 0 -2.2110376807500529 5.2225242661080529 0 0 0 0 10.808989698288315 11.614217128977543 0 11.614217128977543 -1.5858110208115761 0 0 0 0 0.82993973981956515 10.928131516982376 0 10.928131516982376 -0.99540583693260487 0 0 0 0 3.4798054146767399 -0.23339499042536271 0 -0.23339499042536271 -0.32259453823644746 0 0 0 0 2.5601967624003565 0.28681825380987114 0 0.28681825380987114 3.5583465478836134 0 0 0 0 10.45934330587761 5.5834287185176521 0 5.5834287185176521 4.7340302341989116 0 0 0 0 20.291941139003029 11.040351126368819 0 11.040351126368819 6.3403359598470388 0 0 0 0 3.7486866197909876 -3.3767936984151561 0 -3.3767936984151561 5.6375079372848518 0 0 0 0 8.1265148136460539 9.2003516745682532 0 9.2003516745682532 18.912951206600042 0 0 0 0 35.883036942513172 27.686820845760565 0 27.686820845760565 11.437724099497458 0 0 0 0 20.299419495255904 11.699949669129975 0 11.699949669129975 -4.8550639992257629 0 0 0 0 44.800122572031796 11.776592359668143 0 11.776592359668143 -4.9604091837986317 0 0 0 0 36.930915832928576 26.45315806224982 0 26.45315806224982 -16.571439179748211 0 0 0 0 37.674727947011206 -29.505676717295362 0 -29.505676717295362 29.386783484163459 0 0 0 0 49.81247724323066 -21.367422133272868 0 -21.367422133272868 -23.809441898429611 0 0 0 0 37.164575665164648 -6.7766737953446921 0 -6.7766737953446921 58.777072091797521 0 0 0 0 3.2143375647947892 16.502810877987734 0 16.502810877987734 37.983362073535261 0 0 0 0 61.06802775728238 53.038685878812174 0 53.038685878812174 12.709602121274685 0 0 0 0 0.59294555711376162 0.36858348840234889 0 0.36858348840234889 0.25937681003330987 0 0 0 0 102.40119289057066 -19.123691092697591 0 -19.123691092697591 -13.342615799718793 0 0 0 0 97.599684167804128 19.962878872497711 0 19.962878872497711 17.581318684952237 0 0 0 0 78.950959899189002 -7.2863295614702039 0 -7.2863295614702039 -7.7827876726294036 0 0 0 0 66.283763496968277 -4.9196511732987247 0 -4.9196511732987247 -0.71330327546408512 0 0 0 0 60.850715692486574 -28.846237144500829 0 -28.846237144500829 -8.7837378895624472 0 0 0 0 22.723249216748172 7.1350385487660155 0 7.1350385487660155 6.2094164766989914 0 0 0 0 3.0598410704037313 2.2181533392923987 0 2.2181533392923987 1.5785436987225718 0 0 0 0 67.425649675877594 -2.0817543686419953 0 -2.0817543686419953 -2.6082510310490363 0 0 0 0 26.746446961383754 -11.489539813996917 0 -11.489539813996917 2.5363461731244392 0 0 0 0 28.084642299827465 7.1743544646642761 0 7.1743544646642761 11.289823543806918 0 0 0 0 12.981061424379959 -7.7264282312868922 0 -7.7264282312868922 2.8033314991292286 0 0 0 0 0.89439998568276291 0.10405630074514161 0 0.10405630074514161 0.73763592274295209 0 0 0 0 -5.0513015996325521 -0.684536327025981 0 -0.684536327025981 30.0090497183499 0 0 0 0 27.644916931224998 -32.233624970155049 0 -32.233624970155049 26.690943910204112 0 0 0 0 0.010753116643144267 -0.10145443427570378 0 -0.10145443427570378 0.31927439763095844 0 0 0 0 68.629171294386651 -17.768088564368867 0 -17.768088564368867 2.8623147558867714 0 0 0 0 43.765834533755196 -22.205766245191555 0 -22.205766245191555 36.40834470711917 0 0 0 0 41.158876251025049 -14.382423047600952 0 -14.382423047600952 33.20346404921122 0 0 0 0 57.798689712980831 -26.292202811963023 0 -26.292202811963023 -4.4795555840362908 0 0 0 0 35.788357135850219 -16.172779097712777 0 -16.172779097712777 -7.5450783554362175 0 0 0 0 8.0287571175663288 -10.532404850015311 0 -10.532404850015311 4.8576063070773721 0 0 0 0 26.484583540326639 -18.922102769307969 0 -18.922102769307969 6.124176697399335 0 0 0 0 9.6522001734213063 -8.8744195411816591 0 -8.8744195411816591 6.5278220574597583 0 0 0 0 2.4134303964540322 1.1185058088849047 0 1.1185058088849047 1.5159761772388265 0 0 0 0 12.289299593016949 -9.202580663088952 0 -9.202580663088952 8.1239333942615986 0 0 0 0 0.025006885294867054 -0.038508886121893404 0 -0.038508886121893404 0.020424110086404879 0 0 0 0 3.3075633697967532 0.15152417532542017 0 0.15152417532542017 -5.805499880635324 0 0 0 0 -0.33812445240027955 2.2434127678109519 0 2.2434127678109519 1.8759504908008253 0 0 0 0 16.0953131247079 -4.9600386190726908 0 -4.9600386190726908 -4.1724140409694428 0 0 0 0 0.10414533415704064 0.049955742345298315 0 0.049955742345298315 -0.058298358139596607 0 0 0 0 10.444380550700316 -1.7034161734911208 0 -1.7034161734911208 -0.1613314393549139 0 0 0 0 -1.5892673522118343 -2.4968700639830637 0 -2.4968700639830637 8.6047656815482583 0 0 0 0 498.99810617908258 -313.24476672477158 0 -313.24476672477158 66.838248852031214 0 0 0 0 53.811512346074778 -122.96920173853857 0 -122.96920173853857 153.56836490361283 0 0 0 0 46.899182887966958 -88.163688912134546 0 -88.163688912134546 176.49012019566493 0 0 0 0 1.6744103152789194 -5.341213174673257 0 -5.341213174673257 6.2507120567241827 0 0 0 0 5.0816685266406694 -3.6295867057284141 0 -3.6295867057284141 -2.4371103675168797 0 0 0 0 -0.36689611938649302 -1.7252065453646197 0 -1.7252065453646197 0.48899169439974255 0 0 0 0 302.43238537329233 -88.371502123455997 0 -88.371502123455997 -58.8059431072802 0 0 0 0 500.09744935325182 -42.43056111753755 0 -42.43056111753755 -97.03887646410071 0 0 0 0 328.43568181139278 -103.08062151587112 0 -103.08062151587112 -50.947113266665895 0 0 0 0 234.48002459242429 -18.640094122017075 0 -18.640094122017075 -27.782825043353583 0 0 0 0 -0.5508049028602181 -1.2987508521912199 0 -1.2987508521912199 0.35693474831429495 0 0 0 0 325.24458299042294 -43.176324887638032 0 -43.176324887638032 -27.232647801824786 0 0 0 0 170.12823517741873 53.083165740364507 0 53.083165740364507 19.79942249487825 0 0 0 0 340.06436819470343 29.469865049750261 0 29.469865049750261 -78.698558241283507 0 0 0 0 2.9588881940594547 0.065359766408647602 0 0.065359766408647602 0.28076005051243413 0 0 0 0 5.0112224032095583 -2.2076528331841487 0 -2.2076528331841487 -0.088559510931503382 0 0 0 0 1.005355273983831 -0.15111886839302802 0 -0.15111886839302802 -0.27401103384191278 0 0 0 0 7.0441501047707789 -2.8026351077388654 0 -2.8026351077388654 1.8371311023259906 0 0 0 0 5.1027827560519654 -1.2103427199938608 0 -1.2103427199938608 0.70534839888961187 0 0 0 0 1.2718489629136234 -1.3567000863226197 0 -1.3567000863226197 -0.5532408177776531 0 0 0 0 7.9654070703259094 -2.0016057312540454 0 -2.0016057312540454 -1.5860690747188642 0 0 0 0 4.1430724179126628 -2.1606185779129987 0 -2.1606185779129987 0.71575446010491972 0 0 0 0 5.6773657029209517 4.2426578287958563 0 4.2426578287958563 -1.4295969117643494 0 0 0 0 3.7751822822315262 -3.2528998701897933 0 -3.2528998701897933 -0.18398674026975392 0 0 0 0 3.7382670953085295 -1.0569029337581579 0 -1.0569029337581579 -0.97264304524828715 0 0 0 0 7.9827093888993659 0.62046758068061081 0 0.62046758068061081 -1.9726795955971284 0 0 0 0 8.2308370709586143 0.46240299983821842 0 0.46240299983821842 -3.4557073977559298 0 0 0 0 3.65283513033219 -2.3495596720067287 0 -2.3495596720067287 -1.207861764251384 0 0 0 0 1.5074464397311598 -0.54582171588961792 0 -0.54582171588961792 -2.67032803832931 0 0 0 0 13.401799235658473 -1.5692787106459605 0 -1.5692787106459605 -4.0045045741573091 0 0 0 0 9.1676416655473076 -1.9443628531023975 0 -1.9443628531023975 -45.614595009909976 0 0 0 0 9.096018214367632 -0.25358961197827057 0 -0.25358961197827057 -0.58763024229949679 0 0 0 0 499.85192673016854 83.748172351389542 0 83.748172351389542 -68.33749459337254 0 0 0 0 249.4004265484316 24.76676831098117 0 24.76676831098117 14.796372473722958 0 0 0 0 4.4528904121280171 -3.2818368561177844 0 -3.2818368561177844 0.79315897679818426 0 0 0 0 278.16616839504479 158.49608003825935 0 158.49608003825935 51.601108773930115 0 0 0 0 499.6180196952771 242.54422201280616 0 242.54422201280616 81.654629111051392 0 0 0 0 0.19307136550116866 -113.25010733073738 0 -113.25010733073738 29.395207168104413 0 0 0 0 2.2044827346638014 -1.0076412286076972 0 -1.0076412286076972 0.4997042624397342 0 0 0 0 62.008284708933274 24.904759249655243 0 24.904759249655243 -39.290893825028292 0 0 0 0 378.09154904908382 -174.27352965710384 0 -174.27352965710384 5.5583303013120826 0 0 0 0 16.433360144086691 -4.882021762605941 0 -4.882021762605941 -4.492111227574064 0 0 0 0 -0.22284960370479689 -0.049252057984528363 0 -0.049252057984528363 -0.92479609448398015 0 0 0 0 -41.039512436097084 74.10473736333158 0 74.10473736333158 -10.356655107964226 0 0 0 0 117.85745346692329 7.6077846210265472 0 7.6077846210265472 -31.169957738059395 0 0 0 0 11.242370610557373 6.8974750278104082 0 6.8974750278104082 -27.314519908668053 0 0 0 0 9.332181643821059 4.2805294057153986 0 4.2805294057153986 5.7475169464732971 0 0 0 0 9.9547329347892628 -3.577846995736877 0 -3.577846995736877 -1.3024593930481956 0 0 0 0 14.330180132196688 1.9331638199502805 0 1.9331638199502805 -8.8356726678949826 0 0 0 0 80.408401283473268 37.201496697990166 0 37.201496697990166 -6.3629317428964924 0 0 0 0 75.920786310778794 -32.590901230337316 0 -32.590901230337316 26.337600147278891 0 0 0 0 103.10632559327087 12.497380439857992 0 12.497380439857992 -6.4418256414465844 0 0 0 0 75.454711336860328 28.841710928349514 0 28.841710928349514 47.05159264894202 0 0 0 0 -5.1213857563807323 20.615145685920226 0 20.615145685920226 8.1340947693561105 0 0 0 0 190.0622610416815 -53.42135072290165 0 -53.42135072290165 6.5436699802904457 0 0 0 0 0.73776792606100372 0.45822914322155839 0 0.45822914322155839 0.34554168580299327 0 0 0 0 78.988523283407005 -28.864739742628863 0 -28.864739742628863 13.770030735766127 0 0 0 0 89.700209816721326 -4.0136245660496321 0 -4.0136245660496321 -16.282047345343898 0 0 0 0 73.217553499056976 -10.354661278315334 0 -10.354661278315334 -9.2959122553867246 0 0 0 0 1.8278903104602531 1.4453691052486528 0 1.4453691052486528 1.0542926966760227 0 0 0 0 74.430167991738017 -21.001911470159399 0 -21.001911470159399 3.9711596946463104 0 0 0 0 3.691529013563013 1.0115922865121831 0 1.0115922865121831 -2.0894467703181476 0 0 0 0 9.1001916378221495 -0.73483343069803908 0 -0.73483343069803908 -6.8397643650640134 0 0 0 0 2.3622334236047209 10.565815903089542 0 10.565815903089542 -11.753058750977743 0 0 0 0 11.262624971215814 9.3310873609276115 0 9.3310873609276115 5.9171866274708123 0 0 0 0 11.726214435536122 11.145510318747924 0 11.145510318747924 12.454471057235025 0 0 0 0 11.707790044954663 13.940448518162825 0 13.940448518162825 1.4291798693262479 0 0 0 0 31.146741921642388 28.787017850406571 0 28.787017850406571 -7.040425781066892 0 0 0 0 11.105959717297083 22.002554524096382 0 22.002554524096382 23.668941723552251 0 0 0 0 11.857162632641575 18.531332741602114 0 18.531332741602114 15.806790959189641 0 0 0 0 -3.8928625081910013 -50.561976735743443 0 -50.561976735743443 12.864919776840509 0 0 0 0 1.3281275679857956 -0.020092352983621109 0 -0.020092352983621109 0.012334862683616278 0 0 0 0 7.4309916140518908 9.1807616730780524 0 9.1807616730780524 14.772334729174482 0 0 0 0 15.657427848437692 -59.173387017912859 0 -59.173387017912859 11.604357179228773 0 0 0 0 17.281701149256151 36.915698632255328 0 36.915698632255328 67.565390483727356 0 0 0 0 7.5597141132507204 13.023207123337613 0 13.023207123337613 21.735355256294241 0 0 0 0 3.5371049336942093 1.1913247124323425 0 1.1913247124323425 0.54189218212223689 0 0 0 0 95.800410668495715 40.632137035259547 0 40.632137035259547 -53.620643464713396 0 0 0 0 9.1208497876200454 9.2872660397904241 0 9.2872660397904241 11.211060465835715 0 0 0 0 2.2685466019847809 20.800341643186357 0 20.800341643186357 -56.68397236020337 0 0 0 0 2.2960203302111371 0.79797706938794644 0 0.79797706938794644 -0.0046400756882072347 0 0 0 0 13.904078403827953 22.863464501762451 0 22.863464501762451 -58.513772841992306 0 0 0 0 9.0125973859630903 17.254526600556801 0 17.254526600556801 -19.120511423679918 0 0 0 0 9.2907517440507945 -6.1503051476357484 0 -6.1503051476357484 -17.774158063395589 0 0 0 0 6.8332138199511974 4.7395257421571415 0 4.7395257421571415 -8.9096637898176141 0 0 0 0 10.595123006047515 1.5950064786803393 0 1.5950064786803393 -0.21856794401405186 0 0 0 0 306.48835631268452 -73.003529409512794 0 -73.003529409512794 -181.66336489721544 0 0 0 0 23.631634471717007 -8.1870006598669107 0 -8.1870006598669107 -48.073880057393012 0 0 0 0 -220.69458066048105 -31.557024874824947 0 -31.557024874824947 104.7697267676557 0 0 0 0 3.2826084375665876 0.22543964848305897 0 0.22543964848305897 0.13463923632017105 0 0 0 0 9.4149777514958259 2.7113186969875471 0 2.7113186969875471 -0.28830051220450059 0 0 0 0 8.1674487686714201 6.2599531755381861 0 6.2599531755381861 -10.287032580214174 0 0 0 0 1.9946644425493787 45.225220768568306 0 45.225220768568306 93.195541641948921 0 0 0 0 41.669185899736249 85.20292561572569 0 85.20292561572569 34.991137677020561 0 0 0 0 33.161429547263936 47.580535631935874 0 47.580535631935874 14.903731812022897 0 0 0 0 0.16362661236326628 3.3321610761823863 0 3.3321610761823863 3.1496634145030233 0 0 0 0 69.009072836509276 71.089918266647942 0 71.089918266647942 -56.264574683056253 0 0 0 0 -131.33503286107145 -124.47452650613383 0 -124.47452650613383 209.17571187394117 0 0 0 0 40.362412205877149 -11.220468553801766 0 -11.220468553801766 -90.6819355492988 0 0 0 0 38.268183362162731 38.146591564434914 0 38.146591564434914 -31.99810020506834 0 0 0 0 40.759984698810683 23.334466421071568 0 23.334466421071568 -19.89687805888974 0 0 0 0 29.363871822069541 11.010759136927561 0 11.010759136927561 -32.615295711369072 0 0 0 0 8.3001415142990709 -10.888529767684105 0 -10.888529767684105 -13.561460310386224 0 0 0 0 19.431404920559316 2.1066467031872094 0 2.1066467031872094 1.4606113892731969 0 0 0 0 20.790375151604735 5.0798559702459158 0 5.0798559702459158 -0.59338812122553009 0 0 0 0 0.0015255169984329294 2.6011217848142172 0 2.6011217848142172 3.718096543649879 0 0 0 0 -21.469668819073014 -26.528916287547787 0 -26.528916287547787 -23.242489302102982 0 0 0 0 5.3171273608236902 3.871560540018665 0 3.871560540018665 1.3512396010495706 0 0 0 0 8.3021729601939569 -0.10219158738567558 0 -0.10219158738567558 6.6696951087456853 0 0 0 0 -0.45634359599053664 0.57394284177781252 0 0.57394284177781252 1.5316053711675475 0 0 0 0 15.990975862259006 4.0645780116475123 0 4.0645780116475123 5.9161417962257019 0 0 0 0 14.477293432425313 3.9723573788693614 0 3.9723573788693614 0.66350583423167109 0 0 0 0 16.352720232630872 3.179373301527562 0 3.179373301527562 -0.11385472459988932 0 0 0 0 10.252687548265762 0.98898613837398663 0 0.98898613837398663 -0.13397554552106894 0 0 0 0 15.305662450934506 10.275272901470828 0 10.275272901470828 3.121681818230968 0 0 0 0 19.093718524772385 2.7569873763597172 0 2.7569873763597172 -2.4776838072751275 0 0 0 0 17.262270994933715 12.086120872811534 0 12.086120872811534 0.88127390392169502 0 0 0 0 9.792972404824539 -5.810870920065784 0 -5.810870920065784 -20.26442917707908 0 0 0 0 9.9303022117496766 -2.0590134129156468 0 -2.0590134129156468 -7.3144593308073311 0 0 0 0 14.746048227841129 7.5751855243741488 0 7.5751855243741488 -11.592755798579546 0 0 0 0 20.111586717519003 12.348853851282314 0 12.348853851282314 -9.6556161981459354 0 0 0 0 9.0725243395437474 -1.036964926163364 0 -1.036964926163364 1.9305863588892862 0 0 0 0 17.795374267762782 7.8035672344574323 0 7.8035672344574323 -12.961782404643543 0 0 0 0 9.5150968236514952 -1.1765700487796904 0 -1.1765700487796904 -0.20037796331582991 0 0 0 0 2.1592145236795224 -0.53967197582139104 0 -0.53967197582139104 0.27858256717055863 0 0 0 0 8.7353555366792648 0.74557455152358898 0 0.74557455152358898 1.7629799579190149 0 0 0 0 8.7691669061834965 -0.76314617638502558 0 -0.76314617638502558 1.6921243671470165 0 0 0 0 8.9839942741814411 -16.373916256052723 0 -16.373916256052723 22.645731981087351 0 0 0 0 -3.4009989918081374 -4.6893836403722844 0 -4.6893836403722844 -7.3100702310787256 0 0 0 0 0.35738324817327261 -0.12434033147531509 0 -0.12434033147531509 0.23963022284672908 0 0 0 0 64.978345086363561 -18.451275422522883 0 -18.451275422522883 -4.9045659692977779 0 0 0 0 42.660652209948239 -3.1616734783688116 0 -3.1616734783688116 -6.5981269119164381 0 0 0 0 54.9305039801975 -24.74370386724047 0 -24.74370386724047 11.380345959038635 0 0 0 0 -9.2414284180795221 11.054065899604893 0 11.054065899604893 -3.6037730926160521 0 0 0 0 25.57003661648946 31.802662925394799 0 31.802662925394799 -5.4007337851431885 0 0 0 0 14.460080782887871 12.636453259023071 0 12.636453259023071 -30.647511547823228 0 0 0 0 4.9468221479326644 -1.2158063519351003 0 -1.2158063519351003 -0.69596277818959607 0 0 0 0 4.955738836765903 -1.132094396798152 0 -1.132094396798152 -0.018472422111017295 0 0 0 0 3.5333298483124294 -0.8196571341328498 0 -0.8196571341328498 0.43009630059519066 0 0 0 0 4.4320070688649382 -0.20789063125148188 0 -0.20789063125148188 0.14581752413476323 0 0 0 0 3.7578152402976186 -0.89385892324778116 0 -0.89385892324778116 0.10292033125926076 0 0 0 0 5.0491628164207683 0.25695911036969932 0 0.25695911036969932 0.10604499054464878 0 0 0 0 2.7049836423047964 -0.67303019462110569 0 -0.67303019462110569 -1.0888549521610003 0 0 0 0 4.7478535879760084 0.36956955209217046 0 0.36956955209217046 -0.30098362291111602 0 0 0 0 4.2569900487146697 -0.92738373258694651 0 -0.92738373258694651 -0.1142991249505485 0 0 0 0 3.9116916964349002 -1.4128075587200897 0 -1.4128075587200897 0.16456101681001201 0 0 0 0 3.8856745183709145 -2.7405491001303752 0 -2.7405491001303752 1.0563041595838683 0 0 0 0 -1.4091032532003283 1.458681626278576 0 1.458681626278576 4.6780649175964868 0 0 0 0 0.32207127125494139 -1.1545553966693092 0 -1.1545553966693092 5.854590096405218 0 0 0 0 5.101975320376666 -2.350714743790093 0 -2.350714743790093 0.56261362331931131 0 0 0 0 7.17322785330275 -0.99838581472300025 0 -0.99838581472300025 0.45529074393919977 0 0 0 0 5.3601484216486597 -0.84185170576279234 0 -0.84185170576279234 -0.36560200053915537 0 0 0 0 11.834445025211437 2.8474986485002205 0 2.8474986485002205 2.3939940927730419 0 0 0 0 18.425365724746371 -2.0489138123957673 0 -2.0489138123957673 3.2158397474966591 0 0 0 0 9.7839083508200133 -5.8311603912153487 0 -5.8311603912153487 2.9729480316396462 0 0 0 0 14.196483340652691 1.1829292695193203 0 1.1829292695193203 0.39714731925255364 0 0 0 0 23.006658625163709 -17.156884542559936 0 -17.156884542559936 -12.531278127827477 0 0 0 0 10.297146854937086 -0.92046552345245436 0 -0.92046552345245436 -0.21510842297671295 0 0 0 0 0.047886985003883886 -0.042640851922041367 0 -0.042640851922041367 0.29487468227428559 0 0 0 0 -0.96013140656486939 0.78041024512700119 0 0.78041024512700119 -3.0822967061997133 0 0 0 0 4.1312688619104847 -2.997270404834353 0 -2.997270404834353 -0.42186378772430544 0 0 0 0 1.2344060993020181 -2.0549905266950463 0 -2.0549905266950463 -0.20877776176805574 0 0 0 0 6.1478474035677664 -1.0925824712733743 0 -1.0925824712733743 -2.1082647724188064 0 0 0 0 5.5207712621895553 -0.24606203335201826 0 -0.24606203335201826 -1.0255907198336445 0 0 0 0 4.7749407531423529 -1.1416795388670131 0 -1.1416795388670131 0.041686037374876472 0 0 0 0 5.3127618808398438 -0.86313564601834969 0 -0.86313564601834969 0.76966281468855868 0 0 0 0 4.5839959295552646 -0.75991386365958924 0 -0.75991386365958924 -0.18793629244719157 0 0 0 0 1.7502160770518458 -5.197743546021286 0 -5.197743546021286 -4.6868637148253924 0 0 0 0 1.4872673557028975 -1.5756287719599129 0 -1.5756287719599129 1.738011601302702 0 0 0 0 1.3163845480301575 -2.7912885759757948 0 -2.7912885759757948 -0.021665081011974507 0 0 0 0 -7.3678474252010346 -6.1207567134108558 0 -6.1207567134108558 0.68619878216605912 0 0 0 0 -3.0372871575982572 -4.7968739731236383 0 -4.7968739731236383 -0.0071372234232853771 0 0 0 0 -5.5025839537497632 1.344396952045912 0 1.344396952045912 5.1383750799939207 0 0 0 0 -0.74013682113582036 2.6742084814613349 0 2.6742084814613349 5.6925994765882137 0 0 0 0 -18.382866524349083 -0.73672384286237502 0 -0.73672384286237502 -5.1953141322104557 0 0 0 0 10.679438919151835 6.417457220336928 0 6.417457220336928 -4.4820757211932687 0 0 0 0 -2.4117219242343708 0.59980812369440173 0 0.59980812369440173 4.8398135095914654 0 0 0 0 -0.16958621535445673 6.9787848611517092 0 6.9787848611517092 4.6978289708906686 0 0 0 0 -13.99963443328852 -1.3130513556308188 0 -1.3130513556308188 4.8879420764358201 0 0 0 0 3.7721717119737139 -0.72880850525415997 0 -0.72880850525415997 -0.42702278449144915 0 0 0 0 -7.5577152560349532 8.1866386816747649 0 8.1866386816747649 1.8316606121775294 0 0 0 0 6.0390052209204441 0.88404037849181805 0 0.88404037849181805 5.5026933839262711 0 0 0 0 37.680297615908785 -6.1857367785257793 0 -6.1857367785257793 2.2919009013376126 0 0 0 0 17.237886287668061 5.7690997213335606 0 5.7690997213335606 -4.5791892347867815 0 0 0 0 22.149544359102947 -7.3040532046568387 0 -7.3040532046568387 12.127951735871875 0 0 0 0 5.8445180493636144 3.6999042280579033 0 3.6999042280579033 4.496236360238413 0 0 0 0 5.5955269236407332 8.1049327915778626 0 8.1049327915778626 2.8446515516616273 0 0 0 0 0.51439483670818387 -0.31259489269989338 0 -0.31259489269989338 -0.020373803952117797 0 0 0 0 5.7444276309074667 4.9648188943344138 0 4.9648188943344138 3.1123714134446345 0 0 0 0 6.0792309611597375 4.0176360875207067 0 4.0176360875207067 4.8498671114689103 0 0 0 0 4.0616672846035726 2.6189123396747647 0 2.6189123396747647 2.759451449223377 0 0 0 0 1.0094884065883889 5.5777353482268381 0 5.5777353482268381 6.416612579986122 0 0 0 0 1.9989781312490322 2.7749496245977099 0 2.7749496245977099 4.0343121006338833 0 0 0 0 1.7803027768782158 0.81210780505938374 0 0.81210780505938374 3.5064258510127502 0 0 0 0 0.91919784768924728 2.6218481019996887 0 2.6218481019996887 4.4709241151146841 0 0 0 0 -2.0736457904620238 -0.87065964597936585 0 -0.87065964597936585 3.5617254173893116 0 0 0 0 2.8898664148459829 -0.54629161136078608 0 -0.54629161136078608 1.7117229239983658 0 0 0 0 2.126745278749695 0.88215369122761444 0 0.88215369122761444 3.0003020446788327 0 0 0 0 -13.178896715747328 -80.056352978510219 0 -80.056352978510219 -0.093046356990043932 0 0 0 0 111.31306311241178 9.9652442088232931 0 9.9652442088232931 3.3906590160234593 0 0 0 0 -10.336877945162996 -7.1780543251268796 0 -7.1780543251268796 1.5362040608446996 0 0 0 0 -17.326869729098689 20.138383682628231 0 20.138383682628231 -15.43225846819881 0 0 0 0 26.232290713267844 4.3004847432530884 0 4.3004847432530884 -15.057185500275807 0 0 0 0 -41.087099573154319 3.2529972582350126 0 3.2529972582350126 5.0384349556462951 0 0 0 0 0.98046807560817584 -1.311002033803593 0 -1.311002033803593 0.90720712803566239 0 0 0 0 26.332440924049479 -22.794884526871641 0 -22.794884526871641 24.823502245855877 0 0 0 0 47.874027943516012 -6.4417058979027502 0 -6.4417058979027502 -4.5853331908879227 0 0 0 0 46.582110161207311 4.8613026789610103 0 4.8613026789610103 6.8778133652479596 0 0 0 0 42.327824034051901 -9.1752278395303506 0 -9.1752278395303506 -3.7173774940114299 0 0 0 0 20.123669593161594 -5.0335550015267359 0 -5.0335550015267359 65.295810707756232 0 0 0 0 -11.845471070355416 21.173100333320633 0 21.173100333320633 -33.386246463807367 0 0 0 0 61.614478634470061 38.480239973222375 0 38.480239973222375 -10.089691208158712 0 0 0 0 47.855106208835423 -72.341993451461633 0 -72.341993451461633 -43.512347617699561 0 0 0 0 -58.543849750907157 18.985448140123424 0 18.985448140123424 36.095130765241038 0 0 0 0 0.62265533980729515 -0.60409873421380222 0 -0.60409873421380222 0.50915704453660704 0 0 0 0 -39.842319540189237 54.516063527131479 0 54.516063527131479 51.147343240542853 0 0 0 0 -35.492252906467911 40.434945834902919 0 40.434945834902919 96.569194589913181 0 0 0 0 4.3742116194644041 -28.695065815440159 0 -28.695065815440159 119.60220498320751 0 0 0 0 55.742643740831227 -95.514142275220266 0 -95.514142275220266 23.754222810910278 0 0 0 0 39.808781584877806 52.811069069729839 0 52.811069069729839 14.017313541417707 0 0 0 0 91.564846277649167 -34.867485203472256 0 -34.867485203472256 -11.040333665110552 0 0 0 0 -25.231666488821702 6.0267078390766073 0 6.0267078390766073 -21.728357957414488 0 0 0 0 -57.004139477302601 14.689482113143228 0 14.689482113143228 22.997856452749602 0 0 0 0 -8.1553574363342705 10.681273060525484 0 10.681273060525484 -20.388077753477546 0 0 0 0 -24.02651282325678 31.791517335809033 0 31.791517335809033 18.201972576035814 0 0 0 0 -55.693784115285325 17.245139078384376 0 17.245139078384376 20.006990825172295 0 0 0 0 -54.258934692652474 6.6135020832380462 0 6.6135020832380462 -1.3591997977864878 0 0 0 0 -25.880122005281009 -3.5526077780622813 0 -3.5526077780622813 -24.130763053467049 0 0 0 0 -4.048890262207351 -11.017040244111342 0 -11.017040244111342 -21.831211746433127 0 0 0 0 2.9941276529207244 2.1880626952564626 0 2.1880626952564626 8.8082055911613679 0 0 0 0 3.0596106032262469 3.0531051474603714 0 3.0531051474603714 9.5980611931731232 0 0 0 0 7.5254233446719354 1.5146556982506354 0 1.5146556982506354 12.381465743215017 0 0 0 0 7.3108193032894633 1.3546081693059477 0 1.3546081693059477 7.106488210783823 0 0 0 0 8.6261570956194191 -0.064825111055426987 0 -0.064825111055426987 8.6381926504233206 0 0 0 0 22.48972655194757 -13.150490782151834 0 -13.150490782151834 -53.380141412617988 0 0 0 0 2.6435154439875532 -0.68670983437637823 0 -0.68670983437637823 0.11196256790647874 0 0 0 0 3.4336396664421045 1.3449516202643963 0 1.3449516202643963 2.5324205530787935 0 0 0 0 0.52633829646734398 -0.61677551739762038 0 -0.61677551739762038 0.32224474608615716 0 0 0 0 4.0808466979869991 0.93622178866317185 0 0.93622178866317185 2.6976480831483869 0 0 0 0 3.4318096977553978 1.3605756267729703 0 1.3605756267729703 2.4657816383183047 0 0 0 0 3.4033256901684581 1.2437116994862514 0 1.2437116994862514 2.9330283688432495 0 0 0 0 3.4385606327173264 1.2231222401299213 0 1.2231222401299213 2.7942353262773594 0 0 0 0 3.2524915118023046 1.7188433905464215 0 1.7188433905464215 2.1859251079825412 0 0 0 0 24.392690794144869 -25.231046593107287 0 -25.231046593107287 63.692946827942137 0 0 0 0 63.455064826300259 44.914232475746473 0 44.914232475746473 -21.394399393081898 0 0 0 0 0.21676961448138243 0.36134392986719499 0 0.36134392986719499 -0.4919625915888497 0 0 0 0 3.4405095450782266 -1.2758862899131995 0 -1.2758862899131995 0.19220590361965895 0 0 0 0 12.625348893187493 24.946101477996905 0 24.946101477996905 -0.59001364716732496 0 0 0 0 3.0888584651365818 2.3599906584013297 0 2.3599906584013297 8.1753907633029712 0 0 0 0 10.568986602570476 -43.336229462952815 0 -43.336229462952815 -29.864739206374111 0 0 0 0 7.2690278999208431 10.020352563177415 0 10.020352563177415 -10.614046487311612 0 0 0 0 101.07203503141773 -37.124797822492212 0 -37.124797822492212 -42.525935710665152 0 0 0 0 -15.886372778787518 16.203160532657364 0 16.203160532657364 3.6250203216249872 0 0 0 0 16.909697411449656 13.078556296550957 0 13.078556296550957 -37.16294345526012 0 0 0 0 4.1101266763957938 1.714212068571797 0 1.714212068571797 1.7637755940992861 0 0 0 0 15.646433695685744 10.373418898069339 0 10.373418898069339 -5.611795869824391 0 0 0 0 6.9463496097280313 4.2619723084797982 0 4.2619723084797982 1.1760902912111533 0 0 0 0 4.6072951147666501 -0.20330664905289364 0 -0.20330664905289364 0.0898857983941872 0 0 0 0 13.3653349133956 3.1475468781691234 0 3.1475468781691234 2.2386092188115754 0 0 0 0 1.816622102867437 -0.36144934070314516 0 -0.36144934070314516 0.44413064710174066 0 0 0 0 10.512294001926421 2.8386553425768852 0 2.8386553425768852 6.4423915658492206 0 0 0 0 -0.14734743610618573 -0.21857188937565031 0 -0.21857188937565031 -0.066337644589811173 0 0 0 0 7.6510126781531653 2.3761304587519589 0 2.3761304587519589 3.7398075276617533 0 0 0 0 5.2113826368404261 1.4164058831131285 0 1.4164058831131285 7.7864041760736882 0 0 0 0 3.7657711386746087 3.6942132241853756 0 3.6942132241853756 4.4649361656670408 0 0 0 0 4.610728376294901 5.3283729198354877 0 5.3283729198354877 2.4011364859644289 0 0 0 0 4.5846391371043325 3.6608066198965306 0 3.6608066198965306 4.4606061182303165 0 0 0 0 11.51618183813207 0.52822342683901979 0 0.52822342683901979 5.3317879801640373 0 0 0 0 6.1165139485601685 6.0732509362417204 0 6.0732509362417204 0.61980156327581426 0 0 0 0 9.331844940374701 2.2620349503489443 0 2.2620349503489443 0.76397157344281164 0 0 0 0 12.809622225215207 1.0506782832162287 0 1.0506782832162287 4.1758254727727717 0 0 0 0 4.3527241043257163 2.7218008522587525 0 2.7218008522587525 10.116368243447596 0 0 0 0 14.909214093451737 8.0557083925763493 0 8.0557083925763493 11.356438431130073 0 0 0 0 11.89663268843492 2.5038069313177402 0 2.5038069313177402 8.4729033787164099 0 0 0 0 4.9674986405625532 3.0924506293609397 0 3.0924506293609397 11.578841884857695 0 0 0 0 5.0208593134641433 3.08039800520406 0 3.08039800520406 8.7909795622708771 0 0 0 0 3.2500808283002698 3.0765360709306151 0 3.0765360709306151 9.3886753003496324 0 0 0 0 2.9670418395598972 3.5918765625929154 0 3.5918765625929154 8.4599824701220996 0 0 0 0 3.526804472803633 6.4508364675351118 0 6.4508364675351118 6.4342425696339092 0 0 0 0 1.9119547512150348 13.748260751460634 0 13.748260751460634 -5.3120601100705471 0 0 0 0 5.2628924389814529 4.1843038900700549 0 4.1843038900700549 1.0758474523518089 0 0 0 0 -0.94125169401559106 5.0320746286349731 0 5.0320746286349731 6.3497173707054344 0 0 0 0 12.197646249391255 4.7406276030977779 0 4.7406276030977779 4.5785024970874701 0 0 0 0 30.107346063712612 -8.3282369471419315 0 -8.3282369471419315 10.054654285514331 0 0 0 0 5.6430961571095395 5.867021801805663 0 5.867021801805663 12.446518604541978 0 0 0 0 34.655052581594646 -2.580273513698728 0 -2.580273513698728 2.1417802128169114 0 0 0 0 12.154035513909015 -1.1144061301142898 0 -1.1144061301142898 9.2721375562072126 0 0 0 0 78.850851520355263 -4.5900992542927952 0 -4.5900992542927952 -0.23128545297265646 0 0 0 0 79.092196047612561 -2.3518024666594783 0 -2.3518024666594783 5.1380765687789562 0 0 0 0 45.41695310673731 -14.068018945866356 0 -14.068018945866356 9.9467469250050726 0 0 0 0 57.718028097884599 -3.6941384143405003 0 -3.6941384143405003 -3.9503315748899013 0 0 0 0 46.300884095047877 -0.13865766978938154 0 -0.13865766978938154 -4.4596469445604612 0 0 0 0 37.627315135805475 -0.98011141511057076 0 -0.98011141511057076 -2.4600029275358111 0 0 0 0 32.781457059882086 -2.2227344679573662 0 -2.2227344679573662 6.0642360713802645 0 0 0 0 44.603402653736339 -7.0143605261912398 0 -7.0143605261912398 1.8372605534937669 0 0 0 0 35.262922392030305 0.53346076769287265 0 0.53346076769287265 -0.24645640628409637 0 0 0 0 46.104387595837579 0.60358315023245268 0 0.60358315023245268 -0.94551200953293346 0 0 0 0 22.130129276990374 0.14454532988150959 0 0.14454532988150959 6.2904221486350593 0 0 0 0 37.325337504846175 13.799439797807764 0 13.799439797807764 5.0887385835059149 0 0 0 0 15.028316017258931 13.553336167470206 0 13.553336167470206 14.154164590024948 0 0 0 0 48.314373215904197 -3.0599913564267354 0 -3.0599913564267354 -2.4268901772978211 0 0 0 0 46.087145105057061 -0.098736718744277141 0 -0.098736718744277141 -3.1550896231141792 0 0 0 0 90.481581370948788 -2.5959415707364286 0 -2.5959415707364286 -4.4812484564270747 0 0 0 0 32.715230514883388 -12.850940321448348 0 -12.850940321448348 12.376388165037838 0 0 0 0 19.640518150160005 -3.7260072705995668 0 -3.7260072705995668 10.843121919135683 0 0 0 0 53.383892702183402 -51.709868673927744 0 -51.709868673927744 30.790940264970232 0 0 0 0 -18.594190187191316 -17.151582321960021 0 -17.151582321960021 53.282430300205874 0 0 0 0 56.851936700960778 33.138789469956549 0 33.138789469956549 21.140030279326638 0 0 0 0 18.386303732248052 -54.976343321731747 0 -54.976343321731747 9.2337975444499705 0 0 0 0 1.0155601748739453 -0.28116340875893497 0 -0.28116340875893497 0.067118737368650427 0 0 0 0 3.6880834315870743 8.5440342030383647 0 8.5440342030383647 3.6639340142573147 0 0 0 0 0.45355787776134093 7.8276904796712188 0 7.8276904796712188 3.866372152243116 0 0 0 0 3.3792451577278371 7.0192204363300732 0 7.0192204363300732 -1.044046741520674 0 0 0 0 2.5533904386602444 10.939511015381498 0 10.939511015381498 -1.3786058078206906 0 0 0 0 5.7631748561634595 12.164413149181087 0 12.164413149181087 -2.7002215007096879 0 0 0 0 5.7846404953992376 14.747629623729697 0 14.747629623729697 -13.769811092098735 0 0 0 0 -9.9164781635863619 27.132447779124959 0 27.132447779124959 0.37193979698207613 0 0 0 0 -15.691416562691302 10.422574971664631 0 10.422574971664631 28.650605933613292 0 0 0 0 -46.457115462344973 42.217208699372122 0 42.217208699372122 0.72800444534300368 0 0 0 0 8.074567221055986 -9.3238634497822659 0 -9.3238634497822659 25.775292552835303 0 0 0 0 -0.31268988732654179 8.2140499711590849 0 8.2140499711590849 11.292056805594029 0 0 0 0 -0.79923835192312254 11.790762986070291 0 11.790762986070291 6.6709798865656467 0 0 0 0 0.072687743035203312 9.2828667448671922 0 9.2828667448671922 13.786461629299993 0 0 0 0 1.4667766874454173 6.1973814317157689 0 6.1973814317157689 10.210805660596236 0 0 0 0 -0.28542454054104383 6.1289914338004223 0 6.1289914338004223 14.136519230616727 0 0 0 0 15.816306619261013 4.8038292499307431 0 4.8038292499307431 4.1586417276708971 0 0 0 0 8.3791865880375553 -2.0706496341398974 0 -2.0706496341398974 10.089491461725913 0 0 0 0 4.3331999504225678 3.3908721433480196 0 3.3908721433480196 2.8427937271756036 0 0 0 0 0.144942069479157 5.3055324706862663 0 5.3055324706862663 3.8928042846822564 0 0 0 0 -0.3700865157370572 7.6866482878740499 0 7.6866482878740499 6.9089235576662986 0 0 0 0 0.47766750451546613 8.4571103230575204 0 8.4571103230575204 5.6943822355003704 0 0 0 0 -0.22130788002459667 7.531828319248973 0 7.531828319248973 5.658722037556231 0 0 0 0 5.5464670047244908 -17.079939235312793 0 -17.079939235312793 -12.314228440210201 0 0 0 0 -0.41978308642890472 0.58167280362564622 0 0.58167280362564622 -0.052846950270828641 0 0 0 0 2.6671717026576722 -1.1392038158239117 0 -1.1392038158239117 0.51547364477973545 0 0 0 0 13.258042395087614 -0.85709630319314556 0 -0.85709630319314556 -10.67058283524625 0 0 0 0 -4.6409932159931486 -4.8821201966832746 0 -4.8821201966832746 8.3262421998159653 0 0 0 0 37.644110075108813 -0.66783775526619493 0 -0.66783775526619493 3.3207593175554848 0 0 0 0 8.6915082748159875 12.88054351554149 0 12.88054351554149 4.0875362277323575 0 0 0 0 43.237513120054246 11.571985386907784 0 11.571985386907784 3.220932927753438 0 0 0 0 0.42271091780048664 0.08733547740237313 0 0.08733547740237313 -0.039124618347764706 0 0 0 0 0.96052791345573496 0.2009512940270497 0 0.2009512940270497 2.0207801668841512 0 0 0 0 1.0114772648165431 -0.48218892520607692 0 -0.48218892520607692 0.3243450108003989 0 0 0 0 -12.96741103166687 -13.581702778721748 0 -13.581702778721748 -1.9450000726981216 0 0 0 0 0.59046900050907425 1.9686945827579621 0 1.9686945827579621 -3.1281809734481314 0 0 0 0 4.0492355457845406 0.2004903831646061 0 0.2004903831646061 -7.2250254706333976 0 0 0 0 8.2997638038295918 -8.8710171357358831 0 -8.8710171357358831 3.9520130584028266 0 0 0 0 10.113038408961984 5.0114210615319053 0 5.0114210615319053 9.181532699677291 0 0 0 0 -8.4986470527826441 0.5062547666084356 0 0.5062547666084356 2.6082148824598335 0 0 0 0 8.6813552857702234 6.2265966001912147 0 6.2265966001912147 6.1458256959262769 0 0 0 0 0.34666978122731962 -4.344731865541803 0 -4.344731865541803 4.3377373963230639 0 0 0 0 17.936722248409751 3.1902003212278487 0 3.1902003212278487 7.7518651171101283 0 0 0 0 17.459356298085368 4.4462198664446078 0 4.4462198664446078 26.99941725419194 0 0 0 0 37.450687331256631 28.845751426503739 0 28.845751426503739 25.401822710796296 0 0 0 0 50.643991272582753 0.11813520635155328 0 0.11813520635155328 -4.1049244025649614 0 0 0 0 0.82169685768172585 -1.2392019206419778 0 -1.2392019206419778 -0.23640145798627454 0 0 0 0 32.202504929632596 22.007375657544912 0 22.007375657544912 17.845530604012993 0 0 0 0 37.158453900110651 -2.0782625641632242 0 -2.0782625641632242 9.8428159955492447 0 0 0 0 19.840082933871599 3.8911406601077942 0 3.8911406601077942 9.0816643542591464 0 0 0 0 13.037621617879267 -8.1840646448292773 0 -8.1840646448292773 2.8252039357016656 0 0 0 0 -5.3321055771739339 -6.5868194489950156 0 -6.5868194489950156 7.3546619309804555 0 0 0 0 25.505820306873829 8.6864386338959889 0 8.6864386338959889 0.75092428530342659 0 0 0 0 20.677635409856975 9.116742968459846 0 9.116742968459846 21.008242905420957 0 0 0 0 21.527802421728666 11.124523394583548 0 11.124523394583548 -7.6300737567287342 0 0 0 0 1.0536716587885167 8.1287688670348643 0 8.1287688670348643 2.9116341771862722 0 0 0 0 27.124156340905742 13.475940192312336 0 13.475940192312336 -0.56397997928888799 0 0 0 0 26.733101361235185 5.1692018396184949 0 5.1692018396184949 -0.82657175575354813 0 0 0 0 21.868262268328635 7.9102553622773257 0 7.9102553622773257 11.096642194449259 0 0 0 0 11.594692070896505 0.32327042928019978 0 0.32327042928019978 -1.0989494318573543 0 0 0 0 17.187841989097933 0.36444083157169871 0 0.36444083157169871 -0.95802395764530957 0 0 0 0 1.6529505028576326 -0.0010367289043022865 0 -0.0010367289043022865 -0.18445981519767285 0 0 0 0 -93.914241912052148 -17.375747844561864 0 -17.375747844561864 21.559903641828498 0 0 0 0 11.60041505932546 -6.2359771625318681 0 -6.2359771625318681 -1.322397121602727 0 0 0 0 22.291609032932683 0.059525933458473901 0 0.059525933458473901 -8.9335046243879788 0 0 0 0 241.47454294284762 117.14217466473781 0 117.14217466473781 -17.849299692516468 0 0 0 0 20.20615538929269 -7.6908806772876517 0 -7.6908806772876517 -49.704835764337858 0 0 0 0 -57.568223618531192 61.160728624030014 0 61.160728624030014 25.315932105129377 0 0 0 0 202.58188873356085 -78.263316644059728 0 -78.263316644059728 -20.053378459185865 0 0 0 0 25.109234734818529 -28.119923032342115 0 -28.119923032342115 82.756568650756208 0 0 0 0 92.237802892113905 34.554626415213534 0 34.554626415213534 -107.01392016092802 0 0 0 0 161.63305742622651 -82.228581297274786 0 -82.228581297274786 -103.15171989139409 0 0 0 0 39.803951588196924 14.174586527127929 0 14.174586527127929 -4.4894185581818249 0 0 0 0 60.259132628086718 45.943128396003971 0 45.943128396003971 24.321372076851731 0 0 0 0 24.208432605246799 18.197048808582593 0 18.197048808582593 10.782878777749147 0 0 0 0 14.116319447698061 -30.255808255476211 0 -30.255808255476211 -5.5029626038900687 0 0 0 0 11.133809332008896 -7.707464026599399 0 -7.707464026599399 -1.0260853336924947 0 0 0 0 90.135640716189187 -18.221942270510056 0 -18.221942270510056 -15.005287281047231 0 0 0 0 70.093041592786903 -140.12282132854966 0 -140.12282132854966 74.579958803390582 0 0 0 0 -23.49744646642921 -2.1271013103134351 0 -2.1271013103134351 62.044402683810631 0 0 0 0 104.11779990105197 -48.709579281954291 0 -48.709579281954291 -27.736956308526203 0 0 0 0 32.801969069577808 -43.832053038525544 0 -43.832053038525544 -14.746900178345328 0 0 0 0 0.7826313242709535 -0.31472268812340953 0 -0.31472268812340953 0.1292062578065627 0 0 0 0 -3.3208791157803716 20.055019360705444 0 20.055019360705444 8.3902907612551303 0 0 0 0 51.736088053010462 -19.882204295526208 0 -19.882204295526208 -1.104369270669963 0 0 0 0 -6.6409263863902197 -22.372628587990789 0 -22.372628587990789 3.8540247415295994 0 0 0 0 10.09090242025286 6.8171259051253514 0 6.8171259051253514 21.062201659764469 0 0 0 0 -13.750542127632798 10.015746057133356 0 10.015746057133356 11.346388555331067 0 0 0 0 14.946874722012581 10.524660333137263 0 10.524660333137263 11.20207936347461 0 0 0 0 5.3813201433849827 2.3889853448517471 0 2.3889853448517471 1.7581611515944786 0 0 0 0 0.22513804772622059 -0.31249785269953723 0 -0.31249785269953723 1.6834062728518144 0 0 0 0 2.9552397125726202 14.736068667325071 0 14.736068667325071 11.583385475738282 0 0 0 0 5.6515912617260256 3.5033032460256379 0 3.5033032460256379 4.3636286293329931 0 0 0 0 -0.58692319120807479 0.065580409940610984 0 0.065580409940610984 0.83802876463501574 0 0 0 0 2.0213999098604472 -0.8538143094911681 0 -0.8538143094911681 0.28129511802300722 0 0 0 0 3.8885087927619679 15.741293104957776 0 15.741293104957776 8.2974523578798198 0 0 0 0 12.059960426302496 -5.3571669035551039 0 -5.3571669035551039 -20.909508076053612 0 0 0 0 19.80644705151235 8.7974350890417554 0 8.7974350890417554 -3.3985796705244979 0 0 0 0 22.807337141979588 6.5774848163097204 0 6.5774848163097204 -8.4519849096161295 0 0 0 0 1.5449608074592263 0.27051459984989257 0 0.27051459984989257 0.056566641089400876 0 0 0 0 12.165640284571964 -13.202722455678341 0 -13.202722455678341 -1.0938115380729272 0 0 0 0 -1.0672242467899196 -36.286825816451895 0 -36.286825816451895 58.927279900970348 0 0 0 0 22.403495416532678 24.788049995973211 0 24.788049995973211 -5.2524474926884466 0 0 0 0 26.032029686874012 -6.8535529293988873 0 -6.8535529293988873 -25.09131126329612 0 0 0 0 22.470596649214617 4.7435739823385159 0 4.7435739823385159 -0.46490903197719469 0 0 0 0 33.084439445877251 -21.563868407543282 0 -21.563868407543282 -10.842118700640242 0 0 0 0 23.345125584248308 -1.7442144049079786 0 -1.7442144049079786 -20.415879405992513 0 0 0 0 20.129710983721644 5.8701221680301927 0 5.8701221680301927 -0.68873705650058314 0 0 0 0 37.769665370483409 26.463679286635575 0 26.463679286635575 -120.39489482501654 0 0 0 0 30.981368657045095 12.410576528805251 0 12.410576528805251 -32.434856593950428 0 0 0 0 3.1099981514668062 3.3838472966711812 0 3.3838472966711812 -2.4388286463173334 0 0 0 0 111.66132505365113 -89.157042356090642 0 -89.157042356090642 -65.894070311441908 0 0 0 0 52.306982128320669 -19.427699044673147 0 -19.427699044673147 219.92579733206617 0 0 0 0 16.743273245899672 6.7700781094802949 0 6.7700781094802949 -2.0080716775892995 0 0 0 0 14.748726280664414 4.8774637436634976 0 4.8774637436634976 -1.8454177768590512 0 0 0 0 10.13162279792196 3.1478408444442891 0 3.1478408444442891 -0.12628359893711583 0 0 0 0 118.84808843982682 47.198014527781652 0 47.198014527781652 -6.541825084956713 0 0 0 0 -44.8153499733844 -92.45212899949972 0 -92.45212899949972 38.988495481465634 0 0 0 0 5.6812301058774946 0.98158646455592091 0 0.98158646455592091 -0.46431958573312526 0 0 0 0 200.10210206573174 22.606545361798908 0 22.606545361798908 -74.269435483061613 0 0 0 0 199.01551499611645 70.224920923264463 0 70.224920923264463 -30.275364986506702 0 0 0 0 -87.925936600428031 -78.438117396155931 0 -78.438117396155931 43.875423464786017 0 0 0 0 -88.522887934544826 -59.435183673545133 0 -59.435183673545133 -14.798932716571016 0 0 0 0 0.0063082434145940169 -0.3696200959572753 0 -0.3696200959572753 1.0605815732845745 0 0 0 0 -110.62149752954429 -88.253745978713141 0 -88.253745978713141 124.46425074032118 0 0 0 0 1.2356476991378518 -0.43221788823480978 0 -0.43221788823480978 1.4907042361127982 0 0 0 0 -53.277563168352572 -5.5790019953783485 0 -5.5790019953783485 84.696586379102826 0 0 0 0 260.49178898784612 -9.1629158733332474 0 -9.1629158733332474 -48.474483561081115 0 0 0 0 -62.578739712451352 -38.337715555442401 0 -38.337715555442401 41.562201676219097 0 0 0 0 0.1648912789584891 0.25085439911306651 0 0.25085439911306651 0.77289451855910385 0 0 0 0 158.50615750386442 -70.787413743104949 0 -70.787413743104949 46.020669101402973 0 0 0 0 -51.847790085828819 -6.5523359716502227 0 -6.5523359716502227 129.87420674892019 0 0 0 0 -0.53452878245444779 2.0557959250767652 0 2.0557959250767652 -1.2045950905836766 0 0 0 0 33.644840279668642 103.30990163524859 0 103.30990163524859 -50.423644512076748 0 0 0 0 -10.000181173758847 8.8530660229075409 0 8.8530660229075409 -3.8628318961880268 0 0 0 0 60.419806190077907 -21.481787169315794 0 -21.481787169315794 -2.1006029234652885 0 0 0 0 14.892132757433522 -4.9588930499086779 0 -4.9588930499086779 -2.0913536225049763 0 0 0 0 44.016928003287831 24.817959353956667 0 24.817959353956667 -0.36333106176698493 0 0 0 0 16.468625056864767 5.0935525873859433 0 5.0935525873859433 -1.201256860687181 0 0 0 0 2.631691678691424 3.775880626439875 0 3.775880626439875 -2.2328080357117024 0 0 0 0 17.822160130745942 5.2710532631909643 0 5.2710532631909643 -1.7496103106124394 0 0 0 0 13.010382741461399 6.4189765308177797 0 6.4189765308177797 -0.32302147544558579 0 0 0 0 10.858536732497669 3.9347810639283125 0 3.9347810639283125 -0.78914780572730336 0 0 0 0 31.721413659011517 121.4662498692927 0 121.4662498692927 50.372826609177466 0 0 0 0 10.508617908209999 9.382839059711273 0 9.382839059711273 -6.9975266212459246 0 0 0 0 18.541639533762009 6.0210957855425704 0 6.0210957855425704 -1.7875499448264236 0 0 0 0 0.58807836725378948 2.8755242011093136 0 2.8755242011093136 -0.74237065088797394 0 0 0 0 8.313346817350066 6.0843567942053483 0 6.0843567942053483 3.5393483124219074 0 0 0 0 17.217526469342374 6.2397526687217351 0 6.2397526687217351 -0.8487426704552945 0 0 0 0 13.83581587468052 18.72101761060469 0 18.72101761060469 18.203399501091695 0 0 0 0 8.0109847962821732 5.4921562691367853 0 5.4921562691367853 2.539660202381242 0 0 0 0 4.1220443541487839 1.8707221451948044 0 1.8707221451948044 11.833104516968433 0 0 0 0 2.5906413501534189 13.520958615085078 0 13.520958615085078 39.948369278696418 0 0 0 0 17.3055252074696 23.403677040184562 0 23.403677040184562 -3.2664152549368737 0 0 0 0 32.808988560615035 48.118384998469026 0 48.118384998469026 35.927717187829224 0 0 0 0 23.859355036708621 22.525224016516589 0 22.525224016516589 -17.737858230527749 0 0 0 0 27.312965844003884 29.581540077172249 0 29.581540077172249 -3.3231965356631763 0 0 0 0 35.316608882216087 0.58692982655699666 0 0.58692982655699666 -13.856735838084688 0 0 0 0 10.876344528304799 24.617202196005167 0 24.617202196005167 -43.719631163724387 0 0 0 0 3.4363871045371663 0.32392360746175353 0 0.32392360746175353 -0.27892963692974604 0 0 0 0 35.566876235551362 -32.370399668684897 0 -32.370399668684897 10.853325684512129 0 0 0 0 34.035471017013151 -3.5145164188163562 0 -3.5145164188163562 24.491037384986839 0 0 0 0 1.4163983578418993 3.7106499165229963 0 3.7106499165229963 -0.82525627051950323 0 0 0 0 3.3689022779121371 1.3748238956755383 0 1.3748238956755383 0.11292796669989413 0 0 0 0 -1.0898244909626555 -3.7472534383003904 0 -3.7472534383003904 15.39570783968955 0 0 0 0 1.7844345358412435 -0.310681676681416 0 -0.310681676681416 -0.28139751784537204 0 0 0 0 5.4320173240962504 1.3182073785229704 0 1.3182073785229704 0.58435070912679521 0 0 0 0 14.435034372198743 1.7373944872224172 0 1.7373944872224172 -0.99387678730613516 0 0 0 0 4.0954746060558698 -0.24932986243474309 0 -0.24932986243474309 -1.3257738205283063 0 0 0 0 21.74069856923029 4.1707035417632028 0 4.1707035417632028 -3.7548087808334571 0 0 0 0 13.090400600421809 3.6171599144440743 0 3.6171599144440743 -1.2674826425488681 0 0 0 0 17.482757601426556 5.0164175837835003 0 5.0164175837835003 -2.9101686298834579 0 0 0 0 22.437432276952677 3.8538782206346696 0 3.8538782206346696 -0.77764709358234541 0 0 0 0 5.3888900384009659 -2.4691836657258608 0 -2.4691836657258608 -2.2186566521645585 0 0 0 0 9.9830539139155974 -1.4476037966502346 0 -1.4476037966502346 -3.245791566733601 0 0 0 0 18.503313710199109 -0.033198359191970894 0 -0.033198359191970894 -2.1363388269007828 0 0 0 0 16.651711521451922 0.066562944583235861 0 0.066562944583235861 -2.6496129323144681 0 0 0 0 12.515936357180415 -0.061216915123699978 0 -0.061216915123699978 -2.4162597242662494 0 0 0 0 11.150360399729379 -3.1359049548531175 0 -3.1359049548531175 -0.89892038091625182 0 0 0 0 19.751257534606339 -20.188039854829356 0 -20.188039854829356 2.8186562062919052 0 0 0 0 12.617529493567742 -3.6901434328104976 0 -3.6901434328104976 -3.4156734382009901 0 0 0 0 22.042386833330283 -11.698211914491992 0 -11.698211914491992 -1.7697985923309716 0 0 0 0 20.547258504676392 5.7818050537194949 0 5.7818050537194949 1.1727432812053848 0 0 0 0 9.2066724185484858 1.5279973973932601 0 1.5279973973932601 -2.2069632083126391 0 0 0 0 21.513780752108751 -2.4262162891445218 0 -2.4262162891445218 -5.6314723836139056 0 0 0 0 28.039543284232423 -6.9132252814398498 0 -6.9132252814398498 -26.915500117907072 0 0 0 0 18.412231376308135 0.50719600156061695 0 0.50719600156061695 -0.31288833803098748 0 0 0 0 27.858243346940071 -11.582081735726661 0 -11.582081735726661 -33.012822691573092 0 0 0 0 43.630695901572381 -24.38340093010288 0 -24.38340093010288 -12.267353328368843 0 0 0 0 18.76561465251234 -10.323691876128464 0 -10.323691876128464 -12.447062653749413 0 0 0 0 22.664856955615392 -12.082805406243594 0 -12.082805406243594 13.431372808487595 0 0 0 0 20.156491140262233 -34.187274172400834 0 -34.187274172400834 -6.6515161034404002 0 0 0 0 28.057722179752545 77.987444163288302 0 77.987444163288302 -29.684646867381034 0 0 0 0 26.833277095571248 -28.520672635351019 0 -28.520672635351019 -37.190535282791984 0 0 0 0 28.928311715968448 -27.893226579328626 0 -27.893226579328626 -3.3690531878177872 0 0 0 0 5.8682388135739529 -29.577442931720981 0 -29.577442931720981 -1.5921478016006745 0 0 0 0 11.138859588874766 -20.994181507862947 0 -20.994181507862947 -16.383387472279082 0 0 0 0 10.816154621601527 6.1886950271856449 0 6.1886950271856449 -44.207973921297821 0 0 0 0 2.4975051015120577 0.077932068542176935 0 0.077932068542176935 -0.38584623218241343 0 0 0 0 18.779549239088738 -12.778080700641226 0 -12.778080700641226 -47.809211387924279 0 0 0 0 5.4842610901700937 3.8873296608978762 0 3.8873296608978762 -17.377265411413418 0 0 0 0 3.5120957494504825 0.5463007822651722 0 0.5463007822651722 0.20730041331446447 0 0 0 0 5.2035116944698219 -3.7504724900226556 0 -3.7504724900226556 -2.6406067592753768 0 0 0 0 32.670796220810189 2.1394422796411163 0 2.1394422796411163 1.5063588086763957 0 0 0 0 36.977211663236631 25.943479520528058 0 25.943479520528058 1.5701861060683768 0 0 0 0 0.35666094171207252 -0.21782767870288566 0 -0.21782767870288566 -0.18473937629925419 0 0 0 0 -12.887498020034855 -27.442584371490454 0 -27.442584371490454 -1.4643196571814769 0 0 0 0 -16.411737925955094 -18.415089807638736 0 -18.415089807638736 -9.0911749555552888 0 0 0 0 -0.85637180288540549 -15.040792905727585 0 -15.040792905727585 -17.621422186655412 0 0 0 0 -0.27497769392175542 -23.12079116747708 0 -23.12079116747708 -16.365256754086374 0 0 0 0 7.1007822127721738 -29.229413021758774 0 -29.229413021758774 -11.643521095088829 0 0 0 0 -11.174793148437402 -28.39868833224088 0 -28.39868833224088 -2.6543007534081937 0 0 0 0 -0.010593361239443766 -25.671501323086659 0 -25.671501323086659 -6.5499014889144291 0 0 0 0 -9.8612113920062257 -28.925969796553119 0 -28.925969796553119 -1.5842127626592486 0 0 0 0 -0.0016830409113081091 -0.33545062882619447 0 -0.33545062882619447 -0.0281849936931311 0 0 0 0 -6.3421779478958342 -33.241903150633775 0 -33.241903150633775 1.6534559800221871 0 0 0 0 14.773060040749215 0.10341757063181944 0 0.10341757063181944 -0.92335975285232053 0 0 0 0 5.8601958641129386 6.2366581534150214 0 6.2366581534150214 3.0201047026066021 0 0 0 0 14.109138814013022 1.827307967364618 0 1.827307967364618 -2.3236035547332676 0 0 0 0 4.3763564030362954 -2.5252033547991126 0 -2.5252033547991126 -1.6885187418169179 0 0 0 0 6.7158875458140752 2.5648911964142589 0 2.5648911964142589 -1.3025264657614049 0 0 0 0 40.88527963366505 -26.322292398714126 0 -26.322292398714126 2.7518743018035821 0 0 0 0 9.0097586344518277 10.552148895440183 0 10.552148895440183 -8.5326563399850386 0 0 0 0 6.227369122933851 9.7871673741827863 0 9.7871673741827863 -0.57642288058167424 0 0 0 0 8.1307328452727639 9.2203917616620608 0 9.2203917616620608 -0.14642883706642906 0 0 0 0 -10.177696789261063 18.933913684444292 0 18.933913684444292 14.457856521130452 0 0 0 0 7.9183002843107584 -5.137114487991604 0 -5.137114487991604 -2.7697101232027146 0 0 0 0 80.925601589963662 -12.644499402426391 0 -12.644499402426391 -13.226935469080104 0 0 0 0 32.94484052966709 -25.878718296772945 0 -25.878718296772945 20.102358274024937 0 0 0 0 -3.217928809429166 0.78854622545633024 0 0.78854622545633024 1.7322319871287448 0 0 0 0 34.687224067856278 4.231732549371543 0 4.231732549371543 -1.322789427645148 0 0 0 0 16.38249620462193 23.408530106329636 0 23.408530106329636 -19.099701593383088 0 0 0 0 6.1916836485793283 27.036792462383346 0 27.036792462383346 -18.809929737110991 0 0 0 0 11.445441047683914 18.047490860470845 0 18.047490860470845 -8.7908381054685378 0 0 0 0 12.597464801863964 28.899601674127439 0 28.899601674127439 -9.108760313708899 0 0 0 0 11.175961221658781 19.919927339251672 0 19.919927339251672 -7.3264508251638745 0 0 0 0 8.0462003127643129 22.800557632504365 0 22.800557632504365 4.7777185289185127 0 0 0 0 12.018015848808091 27.404009428954851 0 27.404009428954851 9.5261490301339791 0 0 0 0 7.9228088237332486 18.174934101801568 0 18.174934101801568 25.12959663415154 0 0 0 0 8.2401775468490541 9.4611062949228426 0 9.4611062949228426 -11.50546090869193 0 0 0 0 5.7008335910285783 0.57949005328444758 0 0.57949005328444758 0.16514038045782559 0 0 0 0 6.2704570027333375 1.6706582488470545 0 1.6706582488470545 2.2607726791857914 0 0 0 0 152.7501868580066 -15.272646146076397 0 -15.272646146076397 -23.793985673819293 0 0 0 0 3.8162726946379735 9.7583611744492202 0 9.7583611744492202 26.22556291470255 0 0 0 0 19.462052081321872 20.824300541072716 0 20.824300541072716 -33.436373453801252 0 0 0 0 2.0313865777261526 -1.8173680960730962 0 -1.8173680960730962 28.348935856608705 0 0 0 0 10.588567256394128 0.77451743114700378 0 0.77451743114700378 0.028094087958272729 0 0 0 0 -108.22658694586789 -7.6167395074453452 0 -7.6167395074453452 34.168395088712259 0 0 0 0 0.31541495209150128 0.15175941595201348 0 0.15175941595201348 0.10159775854720365 0 0 0 0 5.9228391290075706 -23.15729403986029 0 -23.15729403986029 159.55034466161248 0 0 0 0 -356.81735494123132 -263.64343073341252 0 -263.64343073341252 96.410750231926386 0 0 0 0 61.820508186883671 18.525230198008899 0 18.525230198008899 22.101190289976103 0 0 0 0 30.534043704591568 17.181356392230782 0 17.181356392230782 30.987965031476506 0 0 0 0 1.2752746118618941 -0.3467769926542188 0 -0.3467769926542188 0.62596449324800763 0 0 0 0 7.7349630011140107 15.283590741434864 0 15.283590741434864 33.960979071866177 0 0 0 0 33.226619107897022 5.0492459699682968 0 5.0492459699682968 21.185506654195706 0 0 0 0 234.14886800893919 129.1076004970304 0 129.1076004970304 -38.132638728251209 0 0 0 0 15.839443155836797 2.1638380342594097 0 2.1638380342594097 0.19039784811369581 0 0 0 0 37.259159339934286 8.3782337482307412 0 8.3782337482307412 -67.270876266530195 0 0 0 0 95.823157287232789 -8.9052896250404956 0 -8.9052896250404956 -2.5404353506103234 0 0 0 0 85.747753637619894 -30.681130975569602 0 -30.681130975569602 -40.576273845631363 0 0 0 0 16.597710390532484 -8.6470977080211924 0 -8.6470977080211924 -49.302944099358228 0 0 0 0 20.106545522878463 19.718119375513339 0 19.718119375513339 -41.895294145724165 0 0 0 0 15.848928164941299 -18.179466785309273 0 -18.179466785309273 -21.57220819081067 0 0 0 0 27.007977325672982 -1.5770257073221501 0 -1.5770257073221501 -23.287571511236024 0 0 0 0 52.013150474243957 1.5117087172837955 0 1.5117087172837955 -23.2387684164338 0 0 0 0 25.143026715393717 -7.4845240771351769 0 -7.4845240771351769 3.1114433670861672 0 0 0 0 -9.8191878716443171 9.6270313105940204 0 9.6270313105940204 -20.066684449544482 0 0 0 0 19.918841580375556 21.791779462958857 0 21.791779462958857 -16.92367802892727 0 0 0 0 9.613027239341136 9.7290068654463084 0 9.7290068654463084 -12.636089392728081 0 0 0 0 36.117574942110423 11.712072201889214 0 11.712072201889214 -37.875195745248675 0 0 0 0 26.964030705184769 16.170033057479998 0 16.170033057479998 4.4965524330643802 0 0 0 0 30.033037453458292 11.828531848526836 0 11.828531848526836 -12.62376949462524 0 0 0 0 20.935806231672814 29.074373128011302 0 29.074373128011302 2.2325542650346506 0 0 0 0 41.532134544028395 7.7425162750158449 0 7.7425162750158449 4.8060974559639362 0 0 0 0 45.005853352975009 14.186427263322457 0 14.186427263322457 15.052317308539273 0 0 0 0 34.579875000841326 34.973535293061843 0 34.973535293061843 17.963544321887298 0 0 0 0 30.719372445091039 -35.697393253537939 0 -35.697393253537939 43.870670893296278 0 0 0 0 88.03179851285995 -20.060621107722909 0 -20.060621107722909 -1.1904427445328736 0 0 0 0 0.1479168263957531 0.49266503556258057 0 0.49266503556258057 0.50894700183439268 0 0 0 0 88.443573183559693 -58.93082934685853 0 -58.93082934685853 38.846273029710957 0 0 0 0 31.857178304396939 38.981483969539653 0 38.981483969539653 61.558701278634715 0 0 0 0 127.93452955526891 16.020400592190242 0 16.020400592190242 12.760594069425863 0 0 0 0 13.653404398037651 7.8336641889515022 0 7.8336641889515022 25.384892850030496 0 0 0 0 9.6633103123067485 7.7467917726013971 0 7.7467917726013971 28.937151198596482 0 0 0 0 11.8071114205502 19.659481026533399 0 19.659481026533399 34.382083831242198 0 0 0 0 12.450624111571443 18.920068417154653 0 18.920068417154653 12.688041380040431 0 0 0 0 18.255758914235685 28.538344908395914 0 28.538344908395914 5.8905335766569351 0 0 0 0 12.640064246429006 28.28272961416809 0 28.28272961416809 13.458101258069405 0 0 0 0 12.497651744593441 20.770227645854447 0 20.770227645854447 9.419660376776676 0 0 0 0 18.271905798343823 30.448330097106464 0 30.448330097106464 -4.724173254602988 0 0 0 0 17.771101038080133 29.892864776776435 0 29.892864776776435 6.1614698630858697 0 0 0 0 30.473900118149345 21.259642479992525 0 21.259642479992525 -0.24261025423845695 0 0 0 0 10.833190329773402 -3.7479082642720436 0 -3.7479082642720436 10.166571307438879 0 0 0 0 6.5376613201858618 0.49499264187497971 0 0.49499264187497971 12.514095297733231 0 0 0 0 16.622372581576883 10.85551586933957 0 10.85551586933957 -8.0427492995002012 0 0 0 0 17.016621695949311 14.087013050857649 0 14.087013050857649 17.803616323729329 0 0 0 0 21.624862026385557 -4.695599893047266 0 -4.695599893047266 4.6275458661203857 0 0 0 0 21.176993524773252 -12.492022993404312 0 -12.492022993404312 16.615261921381908 0 0 0 0 4.6835407377691922 -1.1455110572785401 0 -1.1455110572785401 20.98151599437864 0 0 0 0 6.2150179408668009 -5.518181903318947 0 -5.518181903318947 -8.8197490814261528 0 0 0 0 13.432347393885948 9.7087603648269578 0 9.7087603648269578 -25.166854974050409 0 0 0 0 1.5103168163816463 -0.4719558629152516 0 -0.4719558629152516 -5.348967606559313 0 0 0 0 -3.2477358553102249 3.7841497467797751 0 3.7841497467797751 4.7543054462441035 0 0 0 0 1.8066287142069086 2.0091698187742395 0 2.0091698187742395 2.4442866747417611 0 0 0 0 4.787781852044418 -10.073735689478454 0 -10.073735689478454 14.848691559323498 0 0 0 0 6.5667217698333644 13.906511908868922 0 13.906511908868922 25.642442554105251 0 0 0 0 -2.7205503483673965 -11.781504486026193 0 -11.781504486026193 1.7962410827920507 0 0 0 0 14.078650372027369 -0.33188139906827629 0 -0.33188139906827629 41.689146560338997 0 0 0 0 96.110010228880583 48.849372881415491 0 48.849372881415491 -18.441731230932987 0 0 0 0 0.043398533815079077 -0.2396599855897863 0 -0.2396599855897863 0.35660314409954919 0 0 0 0 64.205812254290777 61.080484059009237 0 61.080484059009237 63.987367884468938 0 0 0 0 -2.4598817653984497 35.877333686544262 0 35.877333686544262 21.010990343526863 0 0 0 0 61.959280268227303 45.169323416563913 0 45.169323416563913 22.023230907877618 0 0 0 0 1.8011844261496766 0.7779156683653734 0 0.7779156683653734 0.39242056901522726 0 0 0 0 89.883576075078963 -61.0286504133446 0 -61.0286504133446 58.667575702958089 0 0 0 0 2.2666672889441521 0.51639322501431861 0 0.51639322501431861 0.16180908575982078 0 0 0 0 11.722851797727685 6.6911371511938142 0 6.6911371511938142 -36.722031496541604 0 0 0 0 20.729595533876591 -22.536094767608986 0 -22.536094767608986 22.074033928296814 0 0 0 0 2.4573098496388237 1.0663695176133623 0 1.0663695176133623 0.65090434927211205 0 0 0 0 67.137524690381724 -29.870411590252459 0 -29.870411590252459 5.378210931857609 0 0 0 0 20.573233566517047 -23.721110900393182 0 -23.721110900393182 38.946904081718117 0 0 0 0 19.644304147218463 -7.5261052945002689 0 -7.5261052945002689 -1.2579616087293246 0 0 0 0 12.004349389287427 -16.178149083680651 0 -16.178149083680651 19.752159543304998 0 0 0 0 26.868616575656461 -18.699838801570465 0 -18.699838801570465 -6.9189951278752346 0 0 0 0 1.8846456553253708 1.2177761598054113 0 1.2177761598054113 0.40417971943494879 0 0 0 0 25.706931988689121 -27.066906142100635 0 -27.066906142100635 -9.4513176147125009 0 0 0 0 27.958394578865864 -22.557158623325421 0 -22.557158623325421 -8.6541164549634235 0 0 0 0 38.758785820093181 -18.377030948208699 0 -18.377030948208699 -9.0718112720532691 0 0 0 0 5.2160556326965661 -1.2748940104259816 0 -1.2748940104259816 1.1388110654130514 0 0 0 0 4.336422557397384 1.3077872976421645 0 1.3077872976421645 1.1085330469038013 0 0 0 0 4.4928621629758512 0.92041928671133011 0 0.92041928671133011 0.1249238742608394 0 0 0 0 2.9631067389145755 -1.4155312781052203 0 -1.4155312781052203 2.8264317629558491 0 0 0 0 21.742206443318537 -11.831595272543041 0 -11.831595272543041 -13.308375625175401 0 0 0 0 14.426735670890935 16.247970632606496 0 16.247970632606496 -15.562518064600539 0 0 0 0 0.79023877385399244 -0.058989575481883882 0 -0.058989575481883882 -0.23523601023649587 0 0 0 0 0.45898639717338519 0.13401875863618606 0 0.13401875863618606 -0.46047127277656741 0 0 0 0 -1.3784750727711526 3.8276954206778555 0 3.8276954206778555 1.51086392445211 0 0 0 0 10.142380695369866 12.407121625886163 0 12.407121625886163 -15.659223466352856 0 0 0 0 -0.16155354917395925 9.6043043706683022 0 9.6043043706683022 -17.358538228714707 0 0 0 0 6.6437381245514189 -1.4359040255463356 0 -1.4359040255463356 0.23291487597259675 0 0 0 0 -5.6462547699106835 4.6887806395421734 0 4.6887806395421734 -2.1197586840361851 0 0 0 0 -0.55058440506854822 -27.195689079975978 0 -27.195689079975978 -10.816711830575002 0 0 0 0 -13.772793286491265 -1.7206399859979697 0 -1.7206399859979697 28.38838042117186 0 0 0 0 -15.402093381630948 9.2275755999148075 0 9.2275755999148075 -7.0472607869352597 0 0 0 0 -63.528710031886021 -2.8955845104684883 0 -2.8955845104684883 41.386861358889462 0 0 0 0 0.15438476742770924 -0.13686894900168944 0 -0.13686894900168944 -0.2626099637849974 0 0 0 0 -6.7658594467402509 -3.8367914443995232 0 -3.8367914443995232 -15.352306515829497 0 0 0 0 -1.2725221944460827 28.881948410244156 0 28.881948410244156 46.217059797973889 0 0 0 0 14.84927697398598 45.798525099548456 0 45.798525099548456 63.934961867996293 0 0 0 0 26.742124455763587 54.263482094198764 0 54.263482094198764 10.605132873163939 0 0 0 0 24.958466435706214 49.213623098816555 0 49.213623098816555 46.044672124059119 0 0 0 0 44.786321562382 33.504582549484056 0 33.504582549484056 39.401929168207118 0 0 0 0 11.375375978844204 -33.625982734552757 0 -33.625982734552757 66.823601475327095 0 0 0 0 3.2590323537876884 -39.31013561539573 0 -39.31013561539573 19.638953574347994 0 0 0 0 16.668816466449243 -11.987437999027378 0 -11.987437999027378 25.779968992041944 0 0 0 0 64.484502265942183 -3.9065687169529824 0 -3.9065687169529824 15.336373928373206 0 0 0 0 104.97965902243641 -74.155475453204588 0 -74.155475453204588 135.43990246985217 0 0 0 0 138.92961379622329 68.221879705466876 0 68.221879705466876 -9.9334362634372155 0 0 0 0 168.19019120841108 27.972342615085211 0 27.972342615085211 12.048126885136327 0 0 0 0 71.232026213103381 83.444081523322211 0 83.444081523322211 114.58621107465964 0 0 0 0 62.171358224483356 3.9707111360516478 0 3.9707111360516478 9.0368533158866455 0 0 0 0 65.301520387038636 14.272657452905833 0 14.272657452905833 -8.4275748989495582 0 0 0 0 24.336876001920473 6.6604132917764236 0 6.6604132917764236 -7.3265607111254099 0 0 0 0 46.110931371022389 4.0081268333562008 0 4.0081268333562008 -24.886346555897859 0 0 0 0 -29.99191376316503 14.126138432141943 0 14.126138432141943 -13.809992966786808 0 0 0 0 -83.616614835034397 63.372316612913338 0 63.372316612913338 12.80522526191163 0 0 0 0 29.049949138614636 36.837377155557206 0 36.837377155557206 -21.23737930542643 0 0 0 0 8.5898049938680998 77.519649325612662 0 77.519649325612662 -5.6564317402454662 0 0 0 0 6.5987925758922756 27.479088540950329 0 27.479088540950329 1.8237421014320603 0 0 0 0 67.445084650358126 51.75216793291311 0 51.75216793291311 7.8930388633200437 0 0 0 0 64.677267244685936 73.649504843090995 0 73.649504843090995 22.563892359142926 0 0 0 0 30.155894629718205 39.771382260348446 0 39.771382260348446 4.958453829246892 0 0 0 0 -2.4535614005044408 0.48602475988228377 0 0.48602475988228377 3.9743875552128429 0 0 0 0 -0.19635921523294897 -0.016303609510079475 0 -0.016303609510079475 0.11479915592894829 0 0 0 0 0.00065991580839319663 0.33436454573931584 0 0.33436454573931584 0.38374163333752243 0 0 0 0 25.266992720651615 56.10558879770133 0 56.10558879770133 13.859524942650808 0 0 0 0 0.10616857547212533 0.23085141596042291 0 0.23085141596042291 -0.016902183091915601 0 0 0 0 154.64202287139847 25.890495802550063 0 25.890495802550063 -22.051961149320164 0 0 0 0 160.95761071950619 37.742316838166857 0 37.742316838166857 0.097887882814262639 0 0 0 0 30.396462129536303 -28.859288976629614 0 -28.859288976629614 -17.884489337707208 0 0 0 0 27.621653647503081 22.668022277511593 0 22.668022277511593 -26.005399514435076 0 0 0 0 -4.7565237844310104 -20.81403073872184 0 -20.81403073872184 13.74405100766586 0 0 0 0 0.069439569292085057 0.032878758877927794 0 0.032878758877927794 0.31865089553323456 0 0 0 0 64.679365285755011 4.2023635485268755 0 4.2023635485268755 -3.8953585404560869 0 0 0 0 73.03119144268021 -40.986913536633296 0 -40.986913536633296 44.575901291313841 0 0 0 0 -36.699445325372665 0.3851002948378115 0 0.3851002948378115 55.01216058247752 0 0 0 0 -3.1119674254368874 -8.6701987028762275 0 -8.6701987028762275 6.2803455146421285 0 0 0 0 7.6958188940539003 21.140511790480076 0 21.140511790480076 64.122927880804312 0 0 0 0 76.893472292093065 3.0925659394917737 0 3.0925659394917737 -9.353683761756848 0 0 0 0 55.797252383340947 20.563802874364455 0 20.563802874364455 15.391245136785926 0 0 0 0 53.908169161818478 3.3639660431958305 0 3.3639660431958305 0.89922177330180375 0 0 0 0 77.381610187111619 5.797512847227182 0 5.797512847227182 -0.59948550743740725 0 0 0 0 12.284130451979763 -2.9240409943095358 0 -2.9240409943095358 10.891995823189689 0 0 0 0 37.061527108055344 12.105322922436361 0 12.105322922436361 19.965029985299509 0 0 0 0 138.25842661564766 22.450762426137445 0 22.450762426137445 -6.8465618221270006 0 0 0 0 66.456190520108521 -1.3428657232725527 0 -1.3428657232725527 38.080673111483748 0 0 0 0 60.684296455511912 14.216649794920045 0 14.216649794920045 -1.1182300449831928 0 0 0 0 73.471303869516305 -13.155486717690792 0 -13.155486717690792 -6.7705396895875083 0 0 0 0 -5.0870178736674916 3.4503659633680428 0 3.4503659633680428 0.75951074294624732 0 0 0 0 -0.17987581844818123 22.641132738037413 0 22.641132738037413 -21.474578756889827 0 0 0 0 0.16916496545507931 0.54736585352884681 0 0.54736585352884681 -0.33779187581094572 0 0 0 0 -17.126199986243478 18.563772625168532 0 18.563772625168532 -11.548307042929537 0 0 0 0 11.986854671798028 11.026813841842511 0 11.026813841842511 -17.594744979174607 0 0 0 0 9.7644976349798753 6.2958518762439866 0 6.2958518762439866 -22.219451829226756 0 0 0 0 3.9523668136043852 4.3123238452109334 0 4.3123238452109334 -10.279551262973598 0 0 0 0 0.3880695755965462 10.493066534101388 0 10.493066534101388 -17.541539284846841 0 0 0 0 2.669073401899368 1.6168253038072606 0 1.6168253038072606 -9.9898346349340841 0 0 0 0 1.7808988392888754 -0.50910848995282043 0 -0.50910848995282043 -0.16954886045886031 0 0 0 0 -0.041166831776170199 -0.40418163467467005 0 -0.40418163467467005 -0.38043806786485179 0 0 0 0 0.18352918866025902 -2.3561512138823559 0 -2.3561512138823559 -1.699654701488285 0 0 0 0 1.5453993514238391 -0.56161741241146501 0 -0.56161741241146501 13.201873991992882 0 0 0 0 0.27150099065388411 -0.33313808176533577 0 -0.33313808176533577 0.1344467524899029 0 0 0 0 36.802678977112009 -18.232955020260306 0 -18.232955020260306 18.426572378647052 0 0 0 0 30.953229062356513 -22.841728970528379 0 -22.841728970528379 16.408408602222607 0 0 0 0 0.37569829627678608 0.12449924590781247 0 0.12449924590781247 -0.459813803264147 0 0 0 0 0.60216529830383481 0.44793881337070474 0 0.44793881337070474 -1.0230970544970717 0 0 0 0 4.3572791105628994 0.30414253314746276 0 0.30414253314746276 -9.6651410560507429 0 0 0 0 71.329802561401948 -17.022171868173544 0 -17.022171868173544 17.018112992569627 0 0 0 0 15.969904193242883 13.235995612386425 0 13.235995612386425 8.8972348486782948 0 0 0 0 93.166610829519414 8.9567414463859905 0 8.9567414463859905 10.124761012098247 0 0 0 0 76.008288646890833 -42.82208104117251 0 -42.82208104117251 17.353318735364724 0 0 0 0 0.18205388407371537 0.24829049292406902 0 0.24829049292406902 -0.12791446160061204 0 0 0 0 42.623983550809498 -20.370355099366407 0 -20.370355099366407 18.579146316090714 0 0 0 0 80.032612608785257 -3.2156278132703449 0 -3.2156278132703449 -9.732611756879578 0 0 0 0 52.616565138016085 -24.270048483682785 0 -24.270048483682785 13.329960636031501 0 0 0 0 39.959931754395257 -12.545037214210595 0 -12.545037214210595 3.4881875358778416 0 0 0 0 32.859550209166173 4.8739278626123621 0 4.8739278626123621 0.67455201619816307 0 0 0 0 44.742823454655991 14.495504054617584 0 14.495504054617584 8.3842432654464574 0 0 0 0 49.023952695372827 -1.2357825534537596 0 -1.2357825534537596 14.093681716706783 0 0 0 0 38.440354934452444 7.4202655106004727 0 7.4202655106004727 -5.1514966669042224 0 0 0 0 30.134648910457145 19.610594228195282 0 19.610594228195282 8.7570425929177098 0 0 0 0 46.859836464414002 29.095597925386492 0 29.095597925386492 10.285186098875926 0 0 0 0 27.045165632498993 4.4862739166311769 0 4.4862739166311769 0.63284587434583273 0 0 0 0 67.82804640209315 5.7548956257254105 0 5.7548956257254105 -2.6983874082809223 0 0 0 0 20.973504006850817 9.5232990906069404 0 9.5232990906069404 0.68492168719114943 0 0 0 0 34.156655333417575 -21.296537167268049 0 -21.296537167268049 24.384100324110022 0 0 0 0 0.39439186712684204 11.001732125561844 0 11.001732125561844 39.506287520042122 0 0 0 0 5.9785114195096867 -40.630008169738794 0 -40.630008169738794 -19.958003645791038 0 0 0 0 0.574253788275632 -0.1635015916750433 0 -0.1635015916750433 -0.013698728682205674 0 0 0 0 31.538687213942467 -23.949271752910562 0 -23.949271752910562 -11.123143217668598 0 0 0 0 -6.0018535869903644 -7.4737612614497948 0 -7.4737612614497948 -9.9611381152031981 0 0 0 0 14.18946664166765 -6.3377980498458228 0 -6.3377980498458228 -35.440122872552521 0 0 0 0 6.2832673080447421 5.2357108513416648 0 5.2357108513416648 -18.852101924131091 0 0 0 0 1.2991630524836797 -0.43190011432941899 0 -0.43190011432941899 0.0573089051434168 0 0 0 0 9.2197184763080031 3.6388403507063174 0 3.6388403507063174 2.5062032911522465 0 0 0 0 12.04487163227941 -1.5196126371946512 0 -1.5196126371946512 -3.4385406409543293 0 0 0 0 7.5922298748264438 4.3733789515802641 0 4.3733789515802641 0.53972726843363716 0 0 0 0 -0.17553059501153712 -2.0988313901906892 0 -2.0988313901906892 2.1269620882090976 0 0 0 0 28.722735357804595 11.056481848703953 0 11.056481848703953 0.1194893608122527 0 0 0 0 19.586460752449057 -3.0034063394651866 0 -3.0034063394651866 -2.3944063562493056 0 0 0 0 30.365072397467884 6.8812209810992755 0 6.8812209810992755 10.549800794649457 0 0 0 0 30.944490786091137 10.041283198620533 0 10.041283198620533 -4.3777314382137433 0 0 0 0 34.290712755920595 9.6110523375396895 0 9.6110523375396895 -4.3272961493740461 0 0 0 0 -4.3065261372530586 -19.850895767771249 0 -19.850895767771249 -9.06368992669411 0 0 0 0 0.68322847790972929 -0.84916564316837828 0 -0.84916564316837828 0.76715721122309377 0 0 0 0 13.857683738258856 -11.973991211100383 0 -11.973991211100383 -17.336860248498965 0 0 0 0 -3.9337866964558259 -5.0046521110712092 0 -5.0046521110712092 -2.4897071851275996 0 0 0 0 17.121217813564726 -7.5360270781740155 0 -7.5360270781740155 -9.4576228047600353 0 0 0 0 26.270570566560309 -1.5189165055772378 0 -1.5189165055772378 -11.106691767378805 0 0 0 0 34.920608160448865 9.2026060428976848 0 9.2026060428976848 -8.5327277104091621 0 0 0 0 27.009173444416319 10.009909099074321 0 10.009909099074321 5.1196952557630198 0 0 0 0 27.920818349129149 5.3435990786500724 0 5.3435990786500724 -1.3527242485038187 0 0 0 0 27.401934871171306 1.5055424652804277 0 1.5055424652804277 -4.8014483559131236 0 0 0 0 29.188158845438693 5.7087083110817929 0 5.7087083110817929 -2.0154822167553448 0 0 0 0 25.623888373830596 -0.26845809277665467 0 -0.26845809277665467 -1.1299804582656634 0 0 0 0 24.871973690917002 3.114902663182761 0 3.114902663182761 -3.4534456921600167 0 0 0 0 14.398524658325641 -1.722210246016175 0 -1.722210246016175 -3.1612014639119934 0 0 0 0 11.829042618023777 5.3082949769386119 0 5.3082949769386119 -10.180153524575189 0 0 0 0 -0.022650342000079426 0.069816258626194561 0 0.069816258626194561 -0.0063511887450919957 0 0 0 0 6.1318094769679874 2.7443736770105502 0 2.7443736770105502 2.620069645570652 0 0 0 0 3.2447747051176066 2.96341986287635 0 2.96341986287635 7.5297628578988451 0 0 0 0 10.415510965421163 5.8674353498246319 0 5.8674353498246319 3.41429217012913 0 0 0 0 3.977647270054149 -8.9554060676565541 0 -8.9554060676565541 -0.67144275303212453 0 0 0 0 30.739073225520769 -9.9023471357186281 0 -9.9023471357186281 -6.2005777994836535 0 0 0 0 3.8783199563484025 -3.0640482484395379 0 -3.0640482484395379 -0.22871346233554934 0 0 0 0 27.913979097872584 5.2703967703105619 0 5.2703967703105619 0.41508583702795931 0 0 0 0 29.028165295451799 2.75338041081352 0 2.75338041081352 3.0747514749491529 0 0 0 0 27.12066249510633 4.1840939937508281 0 4.1840939937508281 2.4285041783787165 0 0 0 0 25.915341690621062 -0.3854508709049469 0 -0.3854508709049469 -1.2220930051024652 0 0 0 0 27.370639553349065 2.9041136706354109 0 2.9041136706354109 0.17368410282756486 0 0 0 0 25.785302680364111 1.1641288597515995 0 1.1641288597515995 3.3173400909093402 0 0 0 0 19.470775629862146 11.56181984373427 0 11.56181984373427 2.0088699312527751 0 0 0 0 0.98809257736399658 -1.8796149589203457 0 -1.8796149589203457 -0.62425265548453734 0 0 0 0 11.024761684142049 -1.3968776164170009 0 -1.3968776164170009 1.4900140013677401 0 0 0 0 2.5125867608708132 -1.2877159174722017 0 -1.2877159174722017 -0.013178390842031984 0 0 0 0 19.100671240908696 0.68687954740364887 0 0.68687954740364887 -3.0305968865907289 0 0 0 0 18.903368581294671 1.2754191885494492 0 1.2754191885494492 1.0988704758398171 0 0 0 0 24.736860709269649 -0.8154389716529522 0 -0.8154389716529522 0.94036034268697222 0 0 0 0 24.570546362570894 1.2484222646667149 0 1.2484222646667149 -1.0864932802302292 0 0 0 0 24.571572748226398 -0.75497530592135742 0 -0.75497530592135742 1.6332560515268142 0 0 0 0 24.269306911338617 1.8229498493039102 0 1.8229498493039102 -1.094103534139208 0 0 0 0 25.390462320986444 4.4961603323382633 0 4.4961603323382633 -0.87523974837973384 0 0 0 0 18.338449671507988 1.1365716284077507 0 1.1365716284077507 -0.97526811332147645 0 0 0 0 23.910630370246963 2.4847382748194491 0 2.4847382748194491 -1.5640704081542935 0 0 0 0 17.389603450644813 3.4145530099187482 0 3.4145530099187482 -2.1166648850185084 0 0 0 0 4.8490290092850046 -1.264004008974382 0 -1.264004008974382 2.2612956634316674 0 0 0 0 9.8994530495949675 -16.267539963568993 0 -16.267539963568993 2.1113953158372851 0 0 0 0 14.439350921654295 7.0457550066938666 0 7.0457550066938666 6.1595373818267944 0 0 0 0 3.4625186847565601 -5.0465126670508766 0 -5.0465126670508766 0.81279560970665443 0 0 0 0 0.75848296776340529 -0.1148074855422534 0 -0.1148074855422534 -0.11294551750222714 0 0 0 0 1.1063602880782497 -1.0812211033302646 0 -1.0812211033302646 1.1551754744331137 0 0 0 0 0.71151585058509426 -0.36707138423445818 0 -0.36707138423445818 0.092096024728783421 0 0 0 0 27.178122060763599 -2.7084267357237195 0 -2.7084267357237195 2.5065196193932024 0 0 0 0 28.18541515985271 -0.21513479295725801 0 -0.21513479295725801 -2.4023743032227003 0 0 0 0 26.613238046916194 -0.25640689840474806 0 -0.25640689840474806 -1.4855804139521069 0 0 0 0 26.445881804528653 -1.5492022865897752 0 -1.5492022865897752 0.12790421362490179 0 0 0 0 25.890579037545649 -0.78583810668590104 0 -0.78583810668590104 0.87959734387038679 0 0 0 0 26.47533224165295 1.6789046875360754 0 1.6789046875360754 8.017775873569235 0 0 0 0 36.956414882573881 5.365342977074306 0 5.365342977074306 3.3300566949984614 0 0 0 0 26.366504008155971 1.34159291810181 0 1.34159291810181 1.9549253840973506 0 0 0 0 32.621908233344584 -0.79100512951333712 0 -0.79100512951333712 -0.31955959180481841 0 0 0 0 23.950691065157116 0.82948581142380817 0 0.82948581142380817 -0.2848688214380104 0 0 0 0 39.339963854842381 -6.1005257372604973 0 -6.1005257372604973 2.1263360591294713 0 0 0 0 25.974864169894317 4.1843801342056395 0 4.1843801342056395 2.1721628232689625 0 0 0 0 0.80447555720569541 -1.8329425658284153 0 -1.8329425658284153 1.1527745211636538 0 0 0 0 8.5202135108241919 22.69234637737717 0 22.69234637737717 8.5123740678385502 0 0 0 0 2.2539146573099043 0.59167171479781233 0 0.59167171479781233 0.43045811513267068 0 0 0 0 5.3921652725130116 -0.88026039704391223 0 -0.88026039704391223 1.3848883428886438 0 0 0 0 27.457030509275 -2.4194661774126622 0 -2.4194661774126622 -9.3442853978671678 0 0 0 0 9.1850030819041422 -2.6510129585883533 0 -2.6510129585883533 1.7866341477601964 0 0 0 0 1.5001583927063331 -2.011998054200272 0 -2.011998054200272 1.2676292536995926 0 0 0 0 5.9862902238805873 -0.96012395243988635 0 -0.96012395243988635 0.88609982724682368 0 0 0 0 5.4374404360769404 -1.264905660531781 0 -1.264905660531781 0.93449815970758721 0 0 0 0 5.6432288189289466 -1.1111543325253876 0 -1.1111543325253876 1.0349974826906987 0 0 0 0 5.3380507345916612 -1.1584726554905842 0 -1.1584726554905842 1.2049392682729376 0 0 0 0 7.0004659544151373 0.48584389316513282 0 0.48584389316513282 -0.01287994923268776 0 0 0 0 16.414847264052128 -4.7514760947719878 0 -4.7514760947719878 -14.184544154063985 0 0 0 0 18.753459359161752 2.6552939232749395 0 2.6552939232749395 4.0674682209121329 0 0 0 0 23.396254607809169 1.4981635568096863 0 1.4981635568096863 -8.5564696555912292 0 0 0 0 16.412329261863306 11.57338954978843 0 11.57338954978843 -18.311969039509393 0 0 0 0 1.3619318735330257 -2.4621755704853108 0 -2.4621755704853108 -0.51917071356469036 0 0 0 0 21.957928214644198 9.1693917648114223 0 9.1693917648114223 -1.7294105186906563 0 0 0 0 2.1375609409858929 -1.8226738193865772 0 -1.8226738193865772 0.81365458363028065 0 0 0 0 18.654749271652236 3.6530401574866573 0 3.6530401574866573 0.63096602398786672 0 0 0 0 25.202599542282769 2.0976391377575965 0 2.0976391377575965 0.99864418066442795 0 0 0 0 25.042112195072832 4.9490528279252164 0 4.9490528279252164 -1.4303513899783411 0 0 0 0 24.602544253260135 1.0653912884795389 0 1.0653912884795389 -3.5277700723315775 0 0 0 0 21.72126192113592 0.90890032686468203 0 0.90890032686468203 -3.2831312044760921 0 0 0 0 38.858357066075769 -2.8193837133177908 0 -2.8193837133177908 -3.102716606349702 0 0 0 0 26.083589348796522 5.343236603180344 0 5.343236603180344 -1.285860148533402 0 0 0 0 30.693002254369276 9.5344475466584981 0 9.5344475466584981 -3.3413777848990094 0 0 0 0 21.481474956999861 -4.8086590435338774 0 -4.8086590435338774 2.0807458701427777 0 0 0 0 9.533075238409765 -3.3422141870537985 0 -3.3422141870537985 3.6569101928411101 0 0 0 0 39.605835277611277 -22.950330364701244 0 -22.950330364701244 15.312238717941625 0 0 0 0 10.006325212859565 -7.3075909877250069 0 -7.3075909877250069 8.0565080528180033 0 0 0 0 4.7380215378957473 0.12430108448987198 0 0.12430108448987198 5.3659250285611506 0 0 0 0 25.125861270571477 -10.205726838012026 0 -10.205726838012026 4.6790044799240604 0 0 0 0 69.084591375794616 21.446335888772438 0 21.446335888772438 2.4423621040284615 0 0 0 0 24.320661620505234 4.4146036165150804 0 4.4146036165150804 0.44502527491738419 0 0 0 0 68.609696729080042 -1.017007922560822 0 -1.017007922560822 -22.882895853976947 0 0 0 0 3.3154144696632102 -18.445178999577081 0 -18.445178999577081 59.563236798669095 0 0 0 0 -0.5777700873509275 6.9007603069873653 0 6.9007603069873653 25.061845608269152 0 0 0 0 0.53422119128329548 0.38700075621107433 0 0.38700075621107433 0.16799546655851838 0 0 0 0 9.9194669459100027 2.8831493103915236 0 2.8831493103915236 -2.2861628209039395 0 0 0 0 11.91249193491447 -1.9194244417525397 0 -1.9194244417525397 0.45837959944060458 0 0 0 0 10.765649083686894 0.37856643833410908 0 0.37856643833410908 -0.035149156170199647 0 0 0 0 21.47441552170676 8.7165464748722457 0 8.7165464748722457 -24.841701840825152 0 0 0 0 8.8804848666817406 0.66079372496196231 0 0.66079372496196231 0.94896828531473476 0 0 0 0 30.507997754468306 -14.041075117914488 0 -14.041075117914488 -24.690969256033441 0 0 0 0 3.7945443322568995 -5.8599354041592537 0 -5.8599354041592537 1.4925503409019765 0 0 0 0 10.842960065583744 -1.1156129596845501 0 -1.1156129596845501 0.24898888521670781 0 0 0 0 3.2317487383686512 -0.7520210792066564 0 -0.7520210792066564 -0.84935410857104898 0 0 0 0 -2.9912869503142474 -6.9912646878264582 0 -6.9912646878264582 15.508349019158629 0 0 0 0 -6.2792895827988104 -23.182633839071173 0 -23.182633839071173 11.378783566326888 0 0 0 0 7.1995235901511352 -0.48558048817210769 0 -0.48558048817210769 1.5830161133819034 0 0 0 0 -4.5574190717599095 -2.0836147851483169 0 -2.0836147851483169 8.7503243643884616 0 0 0 0 9.7304626218635804 3.4103168543064442 0 3.4103168543064442 10.005537640135827 0 0 0 0 1.7039548043334207 -12.68104313805199 0 -12.68104313805199 22.268050925554363 0 0 0 0 -0.065387943017368944 -0.54843506225230609 0 -0.54843506225230609 0.94873192838756115 0 0 0 0 16.040075985643 4.2376839809302282 0 4.2376839809302282 6.6458523974532682 0 0 0 0 25.672635453262046 -1.3940384744910403 0 -1.3940384744910403 2.1902715576429905 0 0 0 0 12.803471132634542 -8.8884481277135308 0 -8.8884481277135308 -5.3873297067207204 0 0 0 0 9.7557444480502511 -6.9215254377756139 0 -6.9215254377756139 -5.720060372924479 0 0 0 0 20.291210058152728 -18.992087095689726 0 -18.992087095689726 8.2437013015970706 0 0 0 0 29.104847210983849 -4.1782106393384311e-05 0 -4.1782106393384311e-05 -5.7850339739231913 0 0 0 0 -20.938117566072833 -1.4001037977013766 0 -1.4001037977013766 32.475406861283432 0 0 0 0 2.4174562289624224 -5.7507783262404653 0 -5.7507783262404653 0.49167772392527676 0 0 0 0 2.2838535293212772 -9.2242069721538797 0 -9.2242069721538797 -12.414357010991807 0 0 0 0 6.1827875750266124 -1.050122508758891 0 -1.050122508758891 -0.47945250810374351 0 0 0 0 7.2382117341949197 -2.5491586529592496 0 -2.5491586529592496 2.7555447732638072 0 0 0 0 13.511366839853963 3.0042084668917823 0 3.0042084668917823 -5.5821219218379383 0 0 0 0 5.067230171436222 -5.7863495520510924 0 -5.7863495520510924 3.8648455660029413 0 0 0 0 5.0051905199541125 -5.6482672854839961 0 -5.6482672854839961 4.048525330718121 0 0 0 0 3.3995830015724096 -3.1654782272360649 0 -3.1654782272360649 8.465462171669742 0 0 0 0 0.60759949710891803 0.11973350123045545 0 0.11973350123045545 0.02943361936685962 0 0 0 0 8.655535982952415 -3.7480078687342484 0 -3.7480078687342484 -0.33420181014332684 0 0 0 0 30.029464324608398 2.2176790060715348 0 2.2176790060715348 -8.7787418820746552 0 0 0 0 12.590226821518399 0.019835964598541977 0 0.019835964598541977 -0.2658878754542684 0 0 0 0 4.9145838651683418 -2.2461258945780562 0 -2.2461258945780562 0.32541216721642519 0 0 0 0 -8.9176987029932206 -5.4868428202282757 0 -5.4868428202282757 13.628715275489299 0 0 0 0 12.553842122430225 0.07920196691125625 0 0.07920196691125625 1.6660513379030135 0 0 0 0 10.273556844386576 -0.78010156902951167 0 -0.78010156902951167 2.6681486913743129 0 0 0 0 10.246693710971499 0.067598196930703125 0 0.067598196930703125 -1.1227123988219319 0 0 0 0 9.159257951956647 0.088958127572652756 0 0.088958127572652756 2.1231376587934676 0 0 0 0 9.1349753942437637 1.7808006955299551 0 1.7808006955299551 0.13987857978075902 0 0 0 0 5.0123616801465687 3.5866171909855211 0 3.5866171909855211 3.581288102012536 0 0 0 0 2.455432700866595 8.7016211296158161 0 8.7016211296158161 -5.1407462163411992 0 0 0 0 8.8326210445605255 0.5947139210155612 0 0.5947139210155612 0.12937350106001255 0 0 0 0 6.4133607129606389 3.919531072232985 0 3.919531072232985 -1.7307702836128556 0 0 0 0 3.4426981546957736 -0.88578234424697744 0 -0.88578234424697744 0.70954047402567433 0 0 0 0 5.8399355924066185 1.3991423217649981 0 1.3991423217649981 0.42490298254040226 0 0 0 0 3.32683724261733 -1.4525388321054606 0 -1.4525388321054606 3.8731704861787648 0 0 0 0 2.2426752353774848 0.21606286163280508 0 0.21606286163280508 0.59658267693339329 0 0 0 0 5.2718882839635626 0.12786926981289071 0 0.12786926981289071 5.4572458589719872 0 0 0 0 4.332336805664454 -6.1711727172069004 0 -6.1711727172069004 2.1025644958748586 0 0 0 0 -2.4574193067046508 -2.067734012389792 0 -2.067734012389792 4.2014125651085408 0 0 0 0 7.3922963482555133 -4.5688877644425929 0 -4.5688877644425929 4.9931257280601073 0 0 0 0 4.8441002557333377 -1.3436265009344197 0 -1.3436265009344197 1.1885083381273489 0 0 0 0 7.4714856903224245 -1.7391295005714937 0 -1.7391295005714937 2.0517360065416597 0 0 0 0 9.4765121289256058 -2.7771362673820477 0 -2.7771362673820477 1.03581294673819 0 0 0 0 4.146584603813996 -2.1816662093634225 0 -2.1816662093634225 1.9920059177545779 0 0 0 0 8.4038493553521221 -1.5446846599097626 0 -1.5446846599097626 0.37589812461305883 0 0 0 0 5.7573768668961876 0.012609234974628958 0 0.012609234974628958 -0.43817992201826095 0 0 0 0 7.339166077821119 -0.98083562025578885 0 -0.98083562025578885 0.95408937659931325 0 0 0 0 8.1673953449662804 -1.586974609987692 0 -1.586974609987692 1.2683819882049647 0 0 0 0 6.414838664525405 -2.1025373145029107 0 -2.1025373145029107 1.5637114806233967 0 0 0 0 6.1908729457422851 -1.7465357264641739 0 -1.7465357264641739 2.1881877647657575 0 0 0 0 6.661594373254502 0.55544978039551296 0 0.55544978039551296 -0.44649562565609813 0 0 0 0 8.0565802385681309 -1.8705879938354428 0 -1.8705879938354428 1.5427792420196056 0 0 0 0 7.1087855086452691 -2.5947862445168539 0 -2.5947862445168539 1.0944276850818824 0 0 0 0 9.3882246288517308 -3.2624410977156799 0 -3.2624410977156799 2.0721073219375512 0 0 0 0 11.10112535296048 -3.3310804453486185 0 -3.3310804453486185 0.93972475894187824 0 0 0 0 9.9625528669669166 -0.39560431833058374 0 -0.39560431833058374 -0.20249862846105771 0 0 0 0 1.7442741052129618 -1.9181375211709959 0 -1.9181375211709959 0.91018351655084651 0 0 0 0 3.4398979865309229 -1.1646627044330273 0 -1.1646627044330273 1.060399552448871 0 0 0 0 0.75569465035066674 -0.24279891059198011 0 -0.24279891059198011 0.78478952867867813 0 0 0 0 -0.12321292654536542 0.050643063798142762 0 0.050643063798142762 0.69491496548913467 0 0 0 0 3.6362377296468367 -1.1939153647485625 0 -1.1939153647485625 0.73892104531648783 0 0 0 0 2.821357678637014 -1.1428316922691124 0 -1.1428316922691124 0.25424714471535026 0 0 0 0 2.9252550939118009 -0.80755255150756966 0 -0.80755255150756966 0.96370453690988711 0 0 0 0 3.6530946923461158 -0.16416770153983595 0 -0.16416770153983595 -0.24936978697491852 0 0 0 0 7.7820543823545449 -0.0020210810683920499 0 -0.0020210810683920499 -4.8732127398422733 0 0 0 0 3.0104197046275658 -0.39225352998266771 0 -0.39225352998266771 -0.39011332098456819 0 0 0 0 2.9241878435814215 -0.74593559774640994 0 -0.74593559774640994 0.89932898948964635 0 0 0 0 2.8224600940866367 -0.60048002418362501 0 -0.60048002418362501 0.74292518516446648 0 0 0 0 2.0842188141682527 -0.0020293127887909268 0 -0.0020293127887909268 -0.024194939223040168 0 0 0 0 1.808314919204804 1.9951071880904294 0 1.9951071880904294 -0.50854823248874936 0 0 0 0 2.3290955591346574 0.64490347537253001 0 0.64490347537253001 2.669816941836757 0 0 0 0 -0.29546653933357447 2.0937284684385418 0 2.0937284684385418 5.7831425055093177 0 0 0 0 3.4413464925219159 -2.5554478069238939 0 -2.5554478069238939 4.6111606616389338 0 0 0 0 0.5638174669905105 -0.2063491919345779 0 -0.2063491919345779 0.098812481519297446 0 0 0 0 -0.77143258850901475 3.1946805784733669 0 3.1946805784733669 -0.071031730494269141 0 0 0 0 36.020692184658401 0.2824769815527759 0 0.2824769815527759 -25.537554273089654 0 0 0 0 11.688785346708755 -5.7024891567469922 0 -5.7024891567469922 -0.36950523772827637 0 0 0 0 0.12568410348247561 -0.03906131959869974 0 -0.03906131959869974 0.75820893175335335 0 0 0 0 0.43920776941013173 -0.69250657834493268 0 -0.69250657834493268 2.0183388058993046 0 0 0 0 1.5694278989805657 0.12920902898105346 0 0.12920902898105346 -0.40142485353148949 0 0 0 0 0.78618352983039586 -1.9614991306737863 0 -1.9614991306737863 6.4886446194125256 0 0 0 0 22.844255170899487 -8.5466539389879586 0 -8.5466539389879586 -1.0542478907855752 0 0 0 0 0.39742637193812946 -0.09560515179673601 0 -0.09560515179673601 0.11478111322781248 0 0 0 0 7.2535243032980361 -4.154010881645263 0 -4.154010881645263 25.453228503219634 0 0 0 0 0.42799073879285388 -0.12347904430740653 0 -0.12347904430740653 0.14783691282329325 0 0 0 0 20.976966510522288 -17.895973338656233 0 -17.895973338656233 14.107854117019713 0 0 0 0 2.4723666411511118 -2.9206298774353598 0 -2.9206298774353598 1.38704993495065 0 0 0 0 10.707037704275535 -2.75382929080547 0 -2.75382929080547 3.9411630203451296 0 0 0 0 15.930849084440524 22.037531574770298 0 22.037531574770298 -7.7026025435271777 0 0 0 0 -17.807450090007706 8.1840632539667411 0 8.1840632539667411 3.2812758992015461 0 0 0 0 -30.854822898560087 5.2777908198727346 0 5.2777908198727346 17.617644851889281 0 0 0 0 22.14810197995007 -23.930329105473326 0 -23.930329105473326 33.355753086862705 0 0 0 0 -10.128571698358428 34.201700518421688 0 34.201700518421688 17.629407789727338 0 0 0 0 0.19248859293274734 -1.1090870980511436 0 -1.1090870980511436 0.44303172825735582 0 0 0 0 24.7021700622754 -4.5805475226492263 0 -4.5805475226492263 -0.7441107498307673 0 0 0 0 6.3885669475858258 -1.2467731476832307 0 -1.2467731476832307 -0.073057127370116978 0 0 0 0 2.1709537455071768 6.5692096461603739 0 6.5692096461603739 -12.457580571483049 0 0 0 0 1.2844054835274967 -0.4548940067186571 0 -0.4548940067186571 -0.48373711714909273 0 0 0 0 8.6493112977082092 -2.6057633964140905 0 -2.6057633964140905 -0.096991121438350092 0 0 0 0 11.829709271114552 5.0573192090453176 0 5.0573192090453176 9.3544793028881941 0 0 0 0 12.91230244685903 11.291281305685516 0 11.291281305685516 18.476207028735871 0 0 0 0 6.8462948139940636 3.3137736248861529 0 3.3137736248861529 8.7857158318633992 0 0 0 0 2.1067112274403588 -1.0848443384176996 0 -1.0848443384176996 0.90114293786601607 0 0 0 0 6.2877474425858964 -0.51882603637830016 0 -0.51882603637830016 3.4040214590622782 0 0 0 0 24.657806071945743 -38.950553278956022 0 -38.950553278956022 10.722110352938046 0 0 0 0 65.34156564744444 -23.176205890660071 0 -23.176205890660071 -14.428235218495502 0 0 0 0 3.9055534943108334 -0.23423043631864526 0 -0.23423043631864526 0.16024243923819315 0 0 0 0 3.2539517997329312 5.2144650334234939 0 5.2144650334234939 -5.5991671959758378 0 0 0 0 2.706806432990561 15.250753096163862 0 15.250753096163862 12.791784355005916 0 0 0 0 1.425596536163539 5.2156816060078199 0 5.2156816060078199 2.77905832789952 0 0 0 0 14.37035215119613 1.2266605541958597 0 1.2266605541958597 -0.42609374950768597 0 0 0 0 7.6855134076995455 1.9239820219121384 0 1.9239820219121384 0.33706473671321646 0 0 0 0 10.904276847224537 -0.022432321502037667 0 -0.022432321502037667 0.40284479635874959 0 0 0 0 16.868894989787805 5.6304030418674529 0 5.6304030418674529 0.94391783789978945 0 0 0 0 17.630925196033559 0.27504973743457128 0 0.27504973743457128 0.87824074170885069 0 0 0 0 20.33761434720509 1.4697839052375912 0 1.4697839052375912 -2.7714720119658978 0 0 0 0 13.687340395963474 2.3762410779315815 0 2.3762410779315815 -2.3508775443028753 0 0 0 0 29.034568020852021 2.3262595355527083 0 2.3262595355527083 -8.458186818334525 0 0 0 0 19.778246748251149 -5.555730929341621 0 -5.555730929341621 18.508126946276207 0 0 0 0 16.622637235861475 6.6116479327259299 0 6.6116479327259299 -6.0920237220284434 0 0 0 0 13.902427177449681 -2.4829273785458099 0 -2.4829273785458099 -0.49366339226844502 0 0 0 0 22.789000088424473 -8.3810375070841872 0 -8.3810375070841872 2.6607130158804466 0 0 0 0 1.6495130880316058 -0.88689099835473328 0 -0.88689099835473328 1.3163740260591879 0 0 0 0 2.5100664978895111 -2.8051400371330715 0 -2.8051400371330715 5.573656771203332 0 0 0 0 5.2020144458092545 0.16282899999498568 0 0.16282899999498568 8.8834819185698279 0 0 0 0 4.3537247063859468 3.3799166954627253 0 3.3799166954627253 2.2091036080653055 0 0 0 0 2.3646583555631349 1.9165231978619364 0 1.9165231978619364 1.9829132630527084 0 0 0 0 1.0168355941262313 0.45311433932135969 0 0.45311433932135969 0.36184671138769886 0 0 0 0 1.4595891096303575 -2.7811609672495532 0 -2.7811609672495532 1.8296447665817905 0 0 0 0 17.965427193917321 8.7585853575157131 0 8.7585853575157131 0.46741441688982377 0 0 0 0 5.4294212900313141 -0.28244222974007727 0 -0.28244222974007727 1.9904451691770078 0 0 0 0 2.0116113689548047 -1.1951659185278007 0 -1.1951659185278007 0.94562808718547009 0 0 0 0 7.3510400591912912 2.0885596670797213 0 2.0885596670797213 2.4160297091727898 0 0 0 0 6.025584522396457 0.10151914790255034 0 0.10151914790255034 1.7437087438934213 0 0 0 0 5.3108914546119195 -0.26584925217105138 0 -0.26584925217105138 1.7341337441225884 0 0 0 0 6.8494824788826918 -0.3897531525402087 0 -0.3897531525402087 -0.73022293843519037 0 0 0 0 2.0225901284014096 1.2313148946984835 0 1.2313148946984835 0.8234295743282356 0 0 0 0 5.4827350470095553 -0.068240898362731173 0 -0.068240898362731173 1.0006380633775507 0 0 0 0 5.542209296625515 -0.40427028908632678 0 -0.40427028908632678 -0.057714361091939281 0 0 0 0 5.5673634062004567 -0.75224574531756616 0 -0.75224574531756616 0.96049249212619969 0 0 0 0 1.9004343610984442 0.95915863020253589 0 0.95915863020253589 0.25260166867418454 0 0 0 0 4.5060380715622159 1.1784261286131255 0 1.1784261286131255 2.4701990653920802 0 0 0 0 3.9971145939070993 3.163382017925187 0 3.163382017925187 -2.1099950136568282 0 0 0 0 0.30175185245473557 -0.045672445152192598 0 -0.045672445152192598 0.20305212357770064 0 0 0 0 1.3655969965002441 3.8083787127100095 0 3.8083787127100095 5.1327490012063208 0 0 0 0 3.3229164057051861 -0.22774785329475106 0 -0.22774785329475106 -0.061109306559014989 0 0 0 0 1.2042728164165055 -0.45993179653106608 0 -0.45993179653106608 2.6486779853709095 0 0 0 0 4.7867245903362345 -1.0233327274911517 0 -1.0233327274911517 -2.0304134052511245 0 0 0 0 -4.9814727798966487 2.1257777696220046 0 2.1257777696220046 -2.5129501242247159 0 0 0 0 4.8076227776447702 -0.87077505876081096 0 -0.87077505876081096 0.019722472981264838 0 0 0 0 5.3249080673613207 -1.971969197336378 0 -1.971969197336378 -2.270214491728666 0 0 0 0 1.6791453490480883 -1.278002509530328 0 -1.278002509530328 0.13359662715580178 0 0 0 0 0.43244442401917382 -0.1584729813635527 0 -0.1584729813635527 0.14214611996931592 0 0 0 0 -1.1488021615705293 -8.4715089183605983 0 -8.4715089183605983 9.3692363027539258 0 0 0 0 -5.97393920603281 4.0060398712169558 0 4.0060398712169558 7.144006739805036 0 0 0 0 32.958207177577151 2.8878042050447732 0 2.8878042050447732 -12.40241916168759 0 0 0 0 16.771105443370743 -2.5956365180235821 0 -2.5956365180235821 -14.244391892773933 0 0 0 0 2.1457429872607463 17.087490400022375 0 17.087490400022375 24.415902739631179 0 0 0 0 -5.1748343520284834 12.192042775656375 0 12.192042775656375 -0.18539119112620028 0 0 0 0 4.3901990462770435 -0.37690306085215486 0 -0.37690306085215486 0.14915062341082508 0 0 0 0 2.6370047561844334 0.86037797955562745 0 0.86037797955562745 -0.073282285902368516 0 0 0 0 4.8058873302634311 -0.76181765353155129 0 -0.76181765353155129 0.17149377089176454 0 0 0 0 1.9296392464414645 -0.24593147254152292 0 -0.24593147254152292 -0.63068938157660548 0 0 0 0 4.362234901789634 -0.24267149739966953 0 -0.24267149739966953 1.1901457106824012 0 0 0 0 24.789079179098735 -7.9505438717995389 0 -7.9505438717995389 35.215743106128798 0 0 0 0 12.775690194495837 6.4422280223898269 0 6.4422280223898269 18.016351591524995 0 0 0 0 42.851189321004313 -2.589873639143093 0 -2.589873639143093 -4.6269667820915856 0 0 0 0 15.953687028162676 -0.82224451536296783 0 -0.82224451536296783 -2.8440680354520396 0 0 0 0 49.668686615612387 -10.543905315043503 0 -10.543905315043503 4.5966618470246203 0 0 0 0 -3.0210793368273698 -0.91453826386137393 0 -0.91453826386137393 1.6999241423339981 0 0 0 0 5.5143969878568377 -2.423163656501587 0 -2.423163656501587 0.04258722428033801 0 0 0 0 27.275127376221008 14.2200072548805 0 14.2200072548805 21.121254848335411 0 0 0 0 44.065021148325286 19.588744038591699 0 19.588744038591699 2.3750057728481835 0 0 0 0 10.437518095810447 -7.0158316474413098 0 -7.0158316474413098 2.0128203992491542 0 0 0 0 5.5517443648616549 -1.2689569500360989 0 -1.2689569500360989 0.43064781560440835 0 0 0 0 6.5861360057824641 -1.8163796065085478 0 -1.8163796065085478 -2.0914457909218527 0 0 0 0 -1.4368811764328395 -4.0225239076612942 0 -4.0225239076612942 0.82656804039770293 0 0 0 0 31.363576699109217 -2.1489664997593536 0 -2.1489664997593536 1.8735902840871503 0 0 0 0 80.123701327640902 1.8885363636735519 0 1.8885363636735519 -5.4993278708539037 0 0 0 0 5.2715416596387623 -1.4952409878105488 0 -1.4952409878105488 -1.8066281122092707 0 0 0 0 43.897055764344259 -34.000831788917026 0 -34.000831788917026 11.365401477681189 0 0 0 0 22.973679659193294 5.5005491477306236 0 5.5005491477306236 8.2322963898733406 0 0 0 0 43.571563338362012 25.447776769490019 0 25.447776769490019 25.41514373520431 0 0 0 0 31.569062490626948 -1.6857783209464685 0 -1.6857783209464685 -0.82979932064914408 0 0 0 0 12.80778523792481 -7.4915866454867075 0 -7.4915866454867075 -0.83641120719582973 0 0 0 0 22.128033153032447 -4.4641401580594575 0 -4.4641401580594575 -2.9851233184745212 0 0 0 0 28.82621572531491 10.140421365808933 0 10.140421365808933 4.7128065577732059 0 0 0 0 8.4121565615343776 2.1295463041443377 0 2.1295463041443377 0.61186998834300965 0 0 0 0 23.241957130413994 4.928941139624218 0 4.928941139624218 -17.446835440561514 0 0 0 0 30.163650174632949 -11.137139783209648 0 -11.137139783209648 -18.062971307989159 0 0 0 0 43.455581814423567 -41.371107072278321 0 -41.371107072278321 19.494068202154622 0 0 0 0 -0.0091132603102543897 0.43630316234627742 0 0.43630316234627742 0.60779985758883326 0 0 0 0 14.253120489405774 -1.6410385433459815 0 -1.6410385433459815 5.4581885389129283 0 0 0 0 14.746318222756599 -1.7411705465287497 0 -1.7411705465287497 0.17037059973763036 0 0 0 0 31.422838568143561 -23.014128899383337 0 -23.014128899383337 6.7268293623708928 0 0 0 0 3.9272624733150145 -1.2909218342849034 0 -1.2909218342849034 0.17210751731059815 0 0 0 0 5.8317114352657882 -0.49552173986427306 0 -0.49552173986427306 1.5728940076663456 0 0 0 0 5.0770092990176181 -0.73391775658095071 0 -0.73391775658095071 1.5258949239086519 0 0 0 0 15.134442864132325 7.4953161329303413 0 7.4953161329303413 0.15788217187241571 0 0 0 0 4.3234978312386474 2.6170392787521344 0 2.6170392787521344 0.12721677613897703 0 0 0 0 16.879360587091469 49.671931455895745 0 49.671931455895745 1.042366291388376 0 0 0 0 1.867592242444589 1.5982299228654213 0 1.5982299228654213 0.37567903636592914 0 0 0 0 2.3094534277970524 -11.830170664087717 0 -11.830170664087717 9.9254725379643389 0 0 0 0 18.123176141687509 6.4577182307961323 0 6.4577182307961323 -1.508889986891063 0 0 0 0 -25.254252608494426 12.567125127782125 0 12.567125127782125 8.154780805502611 0 0 0 0 -5.0651783221464939 -23.833419481102382 0 -23.833419481102382 28.886270115440439 0 0 0 0 61.370071865780119 -6.8491445887052027 0 -6.8491445887052027 -2.3824834392647176 0 0 0 0 44.09973920606717 -26.057754609552095 0 -26.057754609552095 7.8051126652492044 0 0 0 0 19.044887149961141 -24.285618626357419 0 -24.285618626357419 7.908245122893014 0 0 0 0 33.008449722949081 -2.9278228829181643 0 -2.9278228829181643 -4.9619553448485192 0 0 0 0 32.027092700996945 -1.1858183969332927 0 -1.1858183969332927 -2.6423259141353554 0 0 0 0 6.8107547699510178 -13.064134215405602 0 -13.064134215405602 4.6228305366117439 0 0 0 0 1.5996747046501696 -5.6482292704033021 0 -5.6482292704033021 0.59167048525258892 0 0 0 0 1.2564790611540957 -7.6034847583808869 0 -7.6034847583808869 4.4931873408490048 0 0 0 0 0.4586497685111226 -5.622829878646094 0 -5.622829878646094 2.3878555753491071 0 0 0 0 0.16732682103429397 -10.196544030465915 0 -10.196544030465915 5.6229712657552398 0 0 0 0 2.2212061692207499 6.5520331703907466 0 6.5520331703907466 25.146354279559439 0 0 0 0 42.924104519583125 21.241187850322387 0 21.241187850322387 14.618626524421572 0 0 0 0 17.159313243286306 7.5450347400073099 0 7.5450347400073099 7.6432625715961819 0 0 0 0 25.761591764752666 10.916411657080204 0 10.916411657080204 2.4434354590557632 0 0 0 0 16.492796136818015 4.9413533612242055 0 4.9413533612242055 2.7168486421837201 0 0 0 0 18.198425492755632 7.0467217707877872 0 7.0467217707877872 2.2415323895585288 0 0 0 0 19.559751301385404 5.3131417033872808 0 5.3131417033872808 -2.6104901031295071 0 0 0 0 21.657675455817298 5.5587246218194082 0 5.5587246218194082 -3.5171729317083873 0 0 0 0 0.022355134022816969 -0.21329879588866518 0 -0.21329879588866518 0.016466619369711388 0 0 0 0 16.060676317079924 1.158902304306082 0 1.158902304306082 -5.5181559795884425 0 0 0 0 14.965568149915271 -1.0708217614857176 0 -1.0708217614857176 -0.47633825189944901 0 0 0 0 18.328335635324038 5.0738828907041409 0 5.0738828907041409 -0.25665981355541589 0 0 0 0 19.49905940334429 -21.693792308419688 0 -21.693792308419688 8.8222218353885182 0 0 0 0 7.9698078380420156 -5.3869214164961505 0 -5.3869214164961505 -2.4471450650825659 0 0 0 0 6.3481582954118494 -8.3310061899394725 0 -8.3310061899394725 0.96755571356089831 0 0 0 0 4.9648257231929165 -6.7230484870389944 0 -6.7230484870389944 0.15526899729161414 0 0 0 0 1.9589635971387906 -5.5448513070791705 0 -5.5448513070791705 1.7240083118441589 0 0 0 0 3.2442425232784444 -7.3616088412268965 0 -7.3616088412268965 2.8673180889073251 0 0 0 0 5.5402854196545377 -7.9431644479041381 0 -7.9431644479041381 2.9520263415636805 0 0 0 0 18.451948773308686 -1.4110981305900339 0 -1.4110981305900339 -3.0258213399831106 0 0 0 0 20.624735790994237 -8.6303127696947683 0 -8.6303127696947683 -1.7485086636922347 0 0 0 0 15.615662641633207 -2.9483036750727223 0 -2.9483036750727223 -3.7529911871590116 0 0 0 0 14.77170728161218 -0.9517753732136498 0 -0.9517753732136498 -6.6010241469080597 0 0 0 0 13.833327390038903 -3.9105857861108575 0 -3.9105857861108575 -2.4394777832990826 0 0 0 0 16.264668694882857 -0.049664603117150818 0 -0.049664603117150818 -6.2268451776850213 0 0 0 0 13.195691633216484 1.1287396599113322 0 1.1287396599113322 -3.7807606580081483 0 0 0 0 2.8074888374496823 -6.5472193192377484 0 -6.5472193192377484 0.38102683056530395 0 0 0 0 4.3411985782828708 -2.8242860635918916 0 -2.8242860635918916 0.14771155601726293 0 0 0 0 2.4856802205667918 -1.0938971243455171 0 -1.0938971243455171 -2.7652272171276877 0 0 0 0 10.036943310122297 -2.0871735442074737 0 -2.0871735442074737 1.3361509349304299 0 0 0 0 11.819993001727653 1.6841128185067902 0 1.6841128185067902 2.2783208381001714 0 0 0 0 11.935960996390349 0.70148577774355658 0 0.70148577774355658 1.5672982987329931 0 0 0 0 5.7543710087040587 -2.7368236227672238 0 -2.7368236227672238 0.4951024918784247 0 0 0 0 -4.2570544856216657 12.107929498952672 0 12.107929498952672 -6.7802594034322823 0 0 0 0 6.0465776909070321 3.1437426152031716 0 3.1437426152031716 1.3598791283023979 0 0 0 0 12.100564215717895 1.4259599650621055 0 1.4259599650621055 2.5695554297525227 0 0 0 0 12.798595706465676 1.392486607869742 0 1.392486607869742 1.3862406505604099 0 0 0 0 7.5778581748563738 3.1765723420294023 0 3.1765723420294023 1.0606041676922757 0 0 0 0 2.1746319887243803 1.1804340939849496 0 1.1804340939849496 0.77863434496969086 0 0 0 0 14.978575604938669 3.0304870982070327 0 3.0304870982070327 2.3277931747931007 0 0 0 0 6.7524429785369158 3.4539594622293297 0 3.4539594622293297 1.5646504247706277 0 0 0 0 13.780360800641489 8.4436759001343749 0 8.4436759001343749 -1.4905743551375963 0 0 0 0 2.6445242645877443 3.8883600579072208 0 3.8883600579072208 10.563671162634932 0 0 0 0 14.043908320922156 1.8493488851247104 0 1.8493488851247104 -6.5179224936011906 0 0 0 0 2.0069754964108739 1.1545532412694559 0 1.1545532412694559 1.8151691345424013 0 0 0 0 6.7878273486608123 2.0978079567672694 0 2.0978079567672694 2.3724690269723396 0 0 0 0 6.9844775664842018 1.9053442191435437 0 1.9053442191435437 2.402384972659263 0 0 0 0 9.5538653782414258 16.575899819588244 0 16.575899819588244 5.5115879308946205 0 0 0 0 0.72493103712259632 -0.29929562257907349 0 -0.29929562257907349 0.24688292482492002 0 0 0 0 17.130744816950028 8.9250460475287241 0 8.9250460475287241 0.11576338116606166 0 0 0 0 2.4074741300012192 10.274899067691223 0 10.274899067691223 11.533140988477044 0 0 0 0 4.145352168892714 1.8164725127917336 0 1.8164725127917336 -3.0118730151983755 0 0 0 0 -12.914849541325566 -1.9635753449869071 0 -1.9635753449869071 9.4495022702940332 0 0 0 0 -7.1194965270333341 8.1044843273832043 0 8.1044843273832043 12.316158312880361 0 0 0 0 1.8660048071098982 -2.2415602179099974 0 -2.2415602179099974 1.1803904795210141 0 0 0 0 10.359798567738835 2.249190333082737 0 2.249190333082737 3.8235252430420132 0 0 0 0 3.0406326656903442 2.8466966550952471 0 2.8466966550952471 1.8812275666950702 0 0 0 0 8.649024831760471 1.1483024200843488 0 1.1483024200843488 2.7952842228514214 0 0 0 0 8.8416976714979683 1.6708365491641644 0 1.6708365491641644 2.1535153263418181 0 0 0 0 3.5760000141116137 -0.47243688177375098 0 -0.47243688177375098 0.90079677931221713 0 0 0 0 8.8390472841896326 1.6442522604672973 0 1.6442522604672973 3.021226486038131 0 0 0 0 2.0614304649161816 -1.5395377020983201 0 -1.5395377020983201 1.5917174003943493 0 0 0 0 8.2075596246722853 0.96908819062900875 0 0.96908819062900875 3.9142461597132296 0 0 0 0 -1.1995728136425896 -8.7618884579553935 0 -8.7618884579553935 12.901646784225051 0 0 0 0 7.3388796921954054 -0.35053511737400811 0 -0.35053511737400811 1.9701452251404632 0 0 0 0 3.4082645298819223 1.1706305450674286 0 1.1706305450674286 -0.51483513735226327 0 0 0 0 2.8387469625831212 1.4004352444566486 0 1.4004352444566486 0.96531259367108457 0 0 0 0 10.094825860673154 -7.4939804572891262 0 -7.4939804572891262 6.2603070815771389 0 0 0 0 3.8471096377934373 -2.406733289725004 0 -2.406733289725004 0.91129287692143635 0 0 0 0 8.8175255827081855 0.55321894225659207 0 0.55321894225659207 2.1034723841846699 0 0 0 0 1.0846012862868726 0.097405557996331993 0 0.097405557996331993 0.0243021868673855 0 0 0 0 0.51490387974990881 -7.0594870613303415 0 -7.0594870613303415 3.0427801783149704 0 0 0 0 2.1531903155264445 -3.2505989298017539 0 -3.2505989298017539 3.4501532317635792 0 0 0 0 -0.21353268994049301 -0.23135099585502594 0 -0.23135099585502594 0.44316748057835631 0 0 0 0 8.241737525577765 -0.32387775222713522 0 -0.32387775222713522 1.9210031986017098 0 0 0 0 5.251451441049376 0.025372178630613362 0 0.025372178630613362 1.3307333033764928 0 0 0 0 1.3372762085371619 -6.6700589411393114 0 -6.6700589411393114 1.4256828478512276 0 0 0 0 8.6846705782518256 0.96629275277240367 0 0.96629275277240367 3.5867967459101919 0 0 0 0 13.708924856551675 4.1975881706040354 0 4.1975881706040354 -3.6461885279456396 0 0 0 0 10.118553247615637 -1.4135136564677282 0 -1.4135136564677282 -0.45317212012750474 0 0 0 0 15.24357564158694 -0.040486779066488232 0 -0.040486779066488232 -3.0131429464927408 0 0 0 0 -13.835390839529282 -13.72580284403648 0 -13.72580284403648 1.4574233918497157 0 0 0 0 3.339150788942689 -1.8178275669375519 0 -1.8178275669375519 -0.22308529236442953 0 0 0 0 28.075982664687217 -31.01093934225085 0 -31.01093934225085 -43.316633908630934 0 0 0 0 12.082646743752775 22.408498138401228 0 22.408498138401228 28.020625097318799 0 0 0 0 19.846476501329107 -8.8283350612566238 0 -8.8283350612566238 -26.548641760893929 0 0 0 0 14.741157139805217 -2.3343753708951267 0 -2.3343753708951267 -3.235539069538488 0 0 0 0 21.030879054816069 7.6419345173177362 0 7.6419345173177362 -5.3514582491807232 0 0 0 0 23.521778771244499 -30.599963135725432 0 -30.599963135725432 -19.428395995108218 0 0 0 0 5.2346350334378258 11.685356651108577 0 11.685356651108577 1.5453322706492258 0 0 0 0 61.074957662769521 28.986141789946714 0 28.986141789946714 9.0717681665158807 0 0 0 0 0.34275114134258722 -0.038284509766118191 0 -0.038284509766118191 -0.1998885746317598 0 0 0 0 14.625829720363981 9.4895679453164803 0 9.4895679453164803 11.316382115740893 0 0 0 0 27.598248597148086 9.8374641148437831 0 9.8374641148437831 -13.167981993112335 0 0 0 0 17.999974284389964 -13.829613471268544 0 -13.829613471268544 -29.286792733097514 0 0 0 0 15.563591719338024 -2.541631382973752 0 -2.541631382973752 -3.2148143438115957 0 0 0 0 13.94420074257323 -18.1246681169564 0 -18.1246681169564 0.36824921084044604 0 0 0 0 35.811095192393168 -4.8435701603003736 0 -4.8435701603003736 -5.7331112535335933 0 0 0 0 56.428930598945499 -25.432898315645048 0 -25.432898315645048 10.026132189447765 0 0 0 0 4.2560006179021457 -8.5218040994570856 0 -8.5218040994570856 -1.0475186914044343 0 0 0 0 7.7955282333905416 -16.225187919857035 0 -16.225187919857035 13.555348387064592 0 0 0 0 3.3040730335567332 -21.321307847198909 0 -21.321307847198909 -1.1330798268119224 0 0 0 0 35.205721437463126 39.911662929697897 0 39.911662929697897 8.8884922579234171 0 0 0 0 -35.730909136207629 -13.441954801372589 0 -13.441954801372589 47.512043115104348 0 0 0 0 69.527180673239855 -52.456153224364357 0 -52.456153224364357 -58.776859592955077 0 0 0 0 63.821007085278325 25.311505921177201 0 25.311505921177201 13.899246670554362 0 0 0 0 1.3772779591173681 0.063773681284236883 0 0.063773681284236883 0.094162246040930708 0 0 0 0 36.311239332550031 29.530431183723124 0 29.530431183723124 30.102945979156829 0 0 0 0 70.222159439319512 1.3218982146981659 0 1.3218982146981659 5.0961515296998527 0 0 0 0 34.278916153654791 -16.120608621287545 0 -16.120608621287545 39.75484437730502 0 0 0 0 11.614361848580302 18.337643680694441 0 18.337643680694441 28.772971380707901 0 0 0 0 30.440817571859952 -5.755312763703273 0 -5.755312763703273 18.507910512890639 0 0 0 0 8.7564839515071071 -1.4342712139336271 0 -1.4342712139336271 14.751365548252224 0 0 0 0 8.3941322633636446 12.426303068252523 0 12.426303068252523 12.318335355483384 0 0 0 0 11.154068308579554 12.182902601749305 0 12.182902601749305 4.1657870248267272 0 0 0 0 10.579504475272188 11.705937440383252 0 11.705937440383252 3.9719666847024655 0 0 0 0 17.483577627330305 6.6135547321424042 0 6.6135547321424042 50.059140422125381 0 0 0 0 26.700648636583537 6.7337245969791866 0 6.7337245969791866 -28.590947896624982 0 0 0 0 16.457583668471827 -1.3975408089512928 0 -1.3975408089512928 -2.8094100734993619 0 0 0 0 1.6426860688399536 -1.4375007332180203 0 -1.4375007332180203 -1.1101083586522409 0 0 0 0 8.5282531277534872 0.98737502276415512 0 0.98737502276415512 -1.8482189544043592 0 0 0 0 8.1267054399410767 -1.7259875343763973 0 -1.7259875343763973 2.4424180582230974 0 0 0 0 24.209257883339887 14.832418989485802 0 14.832418989485802 1.9500637753059777 0 0 0 0 33.834916170942051 7.8857899928142388 0 7.8857899928142388 1.7279883132590044 0 0 0 0 2.0872852728196811 1.6094493118087891 0 1.6094493118087891 -0.16252778730342721 0 0 0 0 15.999854079848975 6.3148645452505523 0 6.3148645452505523 1.6647534322077582 0 0 0 0 25.562839015636484 15.631984392382527 0 15.631984392382527 -7.7065925269363333 0 0 0 0 13.6424671172792 6.6059344319452817 0 6.6059344319452817 2.7000829700005156 0 0 0 0 52.693487864775307 20.468146977981291 0 20.468146977981291 8.15137112553154 0 0 0 0 7.0153430229765945 -7.7651519811343519 0 -7.7651519811343519 -8.5325130298539023 0 0 0 0 0.86991434732590278 -17.965294708460931 0 -17.965294708460931 -10.348457523044843 0 0 0 0 65.05550422973829 -74.655370112019853 0 -74.655370112019853 -28.184696427554428 0 0 0 0 0.26266067535027737 -0.28775568834437593 0 -0.28775568834437593 0.301197854785207 0 0 0 0 -26.683382471520872 -26.231526635123316 0 -26.231526635123316 4.9016151378849599 0 0 0 0 50.118961274072717 24.804724807003026 0 24.804724807003026 5.7766100936633222 0 0 0 0 81.815568577698286 20.98895251857499 0 20.98895251857499 -11.738793575802447 0 0 0 0 -18.488901814906512 3.3122104216755019 0 3.3122104216755019 4.2829140632678104 0 0 0 0 10.050561047310453 -9.5637913658986982 0 -9.5637913658986982 6.8951021060317998 0 0 0 0 22.900316304420812 6.1852829282946118 0 6.1852829282946118 3.2005064323681154 0 0 0 0 4.2686611646331585 5.7045143025760581 0 5.7045143025760581 11.642480718837618 0 0 0 0 -8.5659998972500944 -9.8046700020578612 0 -9.8046700020578612 3.874307841907239 0 0 0 0 12.788098788045318 3.6131918366536979 0 3.6131918366536979 1.3471489459929629 0 0 0 0 8.8471949575186954 6.3959671117066534 0 6.3959671117066534 8.488661110372675 0 0 0 0 24.121948099078963 3.6744509716432248 0 3.6744509716432248 7.3850906243276881 0 0 0 0 9.386627909397248 6.2867769305797481 0 6.2867769305797481 2.3882825216166452 0 0 0 0 14.993082354870236 4.1786246847657917 0 4.1786246847657917 1.523614998986472 0 0 0 0 10.01030197617365 13.954570821425044 0 13.954570821425044 -0.25578235440116259 0 0 0 0 7.7829109578815405 7.8800313143911183 0 7.8800313143911183 3.0664201024715965 0 0 0 0 4.1289627295618629 1.0526046981075297 0 1.0526046981075297 5.5277210855120629 0 0 0 0 6.0598045160768077 -3.0074989601180686 0 -3.0074989601180686 0.52807850449594274 0 0 0 0 14.720754545327509 5.045331190305653 0 5.045331190305653 5.4893244301865636 0 0 0 0 7.2434869313674426 3.2111162872091086 0 3.2111162872091086 4.6349345762484973 0 0 0 0 4.1911548121284099 -3.6632204042528915 0 -3.6632204042528915 0.27627679183445497 0 0 0 0 1.1425836970652199 -7.8060145115537836 0 -7.8060145115537836 6.6096455530249898 0 0 0 0 12.587243185721036 1.8252474924871471 0 1.8252474924871471 1.664075686124221 0 0 0 0 16.967718550065911 4.6260256357037122 0 4.6260256357037122 -1.8465619529951027 0 0 0 0 18.023013930951493 2.9009749909710294 0 2.9009749909710294 0.95957861589212712 0 0 0 0 19.021532046444008 6.4252551016017776 0 6.4252551016017776 -1.5646322718139913 0 0 0 0 18.331386820089392 5.6954826314481721 0 5.6954826314481721 -2.3220006856271311 0 0 0 0 24.758895841825506 -1.3783529885580492 0 -1.3783529885580492 -8.0085894215087876 0 0 0 0 9.2278212197561515 -4.3999129896890281 0 -4.3999129896890281 -4.1465595751595856 0 0 0 0 4.7915640290593728 -7.3518843655154491 0 -7.3518843655154491 0.48149857362760073 0 0 0 0 4.4407761312465048 -3.4815606258968845 0 -3.4815606258968845 0.020350340171839787 0 0 0 0 16.692147490695334 6.0458532324828838 0 6.0458532324828838 0.29998363108541071 0 0 0 0 21.075352192361606 -6.7978522267949018 0 -6.7978522267949018 9.1687055995670619 0 0 0 0 11.047204770504322 2.6486968964521225 0 2.6486968964521225 1.164460416569054 0 0 0 0 13.175562358402203 4.3365435761868554 0 4.3365435761868554 12.928021234327076 0 0 0 0 48.840461056532149 0.77928456575810401 0 0.77928456575810401 5.3634097854064073 0 0 0 0 34.194689564511464 20.101069139533877 0 20.101069139533877 6.8609895282004913 0 0 0 0 39.464354115712922 14.255580504277447 0 14.255580504277447 9.2680898531293678 0 0 0 0 31.114371224172828 16.12782570287844 0 16.12782570287844 1.1789089370487602 0 0 0 0 35.267577201187123 10.15671629217546 0 10.15671629217546 -1.5717935802845773 0 0 0 0 24.53579980338327 14.21867358839242 0 14.21867358839242 3.2791774609259505 0 0 0 0 29.645867425233519 8.0329997085477682 0 8.0329997085477682 3.1976789394248257 0 0 0 0 31.3222337372531 7.094769716063384 0 7.094769716063384 -1.6111762984514151 0 0 0 0 26.384919326712406 3.3998206678088252 0 3.3998206678088252 -1.9979095749543436 0 0 0 0 15.904131056356164 2.4916941940974766 0 2.4916941940974766 -1.1125213790118522 0 0 0 0 18.224897164103822 14.628804679165057 0 14.628804679165057 7.5313263888584174 0 0 0 0 32.416511140691 16.88246824403393 0 16.88246824403393 -0.84503158290228697 0 0 0 0 23.498511845982875 11.186132186548747 0 11.186132186548747 -0.99056162499385891 0 0 0 0 28.788826738537864 14.212692249931564 0 14.212692249931564 -1.3222787397848492 0 0 0 0 31.283099492284236 12.808337329675425 0 12.808337329675425 -1.6468203282279248 0 0 0 0 27.137349811217973 9.1937599732747799 0 9.1937599732747799 -4.4319838682075385 0 0 0 0 25.256714048466165 12.008900953634864 0 12.008900953634864 -1.4896054096507809 0 0 0 0 32.747463037530906 12.234672466706058 0 12.234672466706058 -6.0046252434164415 0 0 0 0 25.576088988806987 8.936545561812764 0 8.936545561812764 -1.5287622960545093 0 0 0 0 17.975223893669863 4.5784028020924055 0 4.5784028020924055 1.9757738557337632 0 0 0 0 26.600874514026145 10.306904934743798 0 10.306904934743798 -0.40348604184629266 0 0 0 0 14.685138018841826 7.845137007447704 0 7.845137007447704 2.6835387990585815 0 0 0 0 5.1493954868492438 8.6617772692177937 0 8.6617772692177937 13.849361479504552 0 0 0 0 24.290044429886166 14.120646868310736 0 14.120646868310736 6.6977537035366197 0 0 0 0 -1.1544610110395297 3.2664021544693753 0 3.2664021544693753 10.7328061635219 0 0 0 0 3.858453292287777 -1.7522268429248413 0 -1.7522268429248413 4.7870397786526837 0 0 0 0 10.792330606504038 0.9755035234330478 0 0.9755035234330478 3.3208709726650341 0 0 0 0 12.997826754999551 3.3596742701840299 0 3.3596742701840299 3.6042384160520271 0 0 0 0 28.494256992327337 -11.943895587483723 0 -11.943895587483723 -38.37463120395978 0 0 0 0 39.186776812664903 6.6749684654666908 0 6.6749684654666908 -9.1112823826326519 0 0 0 0 19.12525362518636 22.838031490924038 0 22.838031490924038 6.1409117514110676 0 0 0 0 44.496200772449811 0.77037750156432594 0 0.77037750156432594 -7.8412651079938911 0 0 0 0 18.835753214856595 -2.4514103284219289 0 -2.4514103284219289 22.071286221722858 0 0 0 0 26.81017293298919 25.359876641192841 0 25.359876641192841 23.740401522894842 0 0 0 0 55.00482148806816 22.524095852256728 0 22.524095852256728 -1.3503030675578884 0 0 0 0 13.486246657112133 7.9913449335177233 0 7.9913449335177233 4.5821167235944813 0 0 0 0 -5.5953039706078016 -5.4382224839608284 0 -5.4382224839608284 7.4141317956388093 0 0 0 0 16.557147943155542 6.6647068878812377 0 6.6647068878812377 3.4187039217958954 0 0 0 0 3.9392543759719238 -2.7997923864873329 0 -2.7997923864873329 -0.94384534638784912 0 0 0 0 15.057846250455896 7.3484712890295327 0 7.3484712890295327 -0.40463953251071416 0 0 0 0 3.4717343491800641 -2.3547722445242965 0 -2.3547722445242965 -1.9194806612447386 0 0 0 0 -10.450675407471863 -10.207718109751227 0 -10.207718109751227 1.4587369393127005 0 0 0 0 5.0771072603713492 -1.0921320052819041 0 -1.0921320052819041 -1.4280998971623831 0 0 0 0 5.3317772881291603 1.3433766159125753 0 1.3433766159125753 -1.4806673311848044 0 0 0 0 8.1893717700368143 3.85213315520366 0 3.85213315520366 -0.30283312080473479 0 0 0 0 11.93200463247922 4.3539079510645706 0 4.3539079510645706 -1.9906112186204155 0 0 0 0 11.820993126102394 2.977532784279262 0 2.977532784279262 -1.5193085686586301 0 0 0 0 10.647667678043945 5.3179554398699338 0 5.3179554398699338 0.50627627810422382 0 0 0 0 -5.7562807913818688 -1.8349089547255062 0 -1.8349089547255062 6.44251323126079 0 0 0 0 -0.43630929605387792 0.73336553063808196 0 0.73336553063808196 3.3105755336142693 0 0 0 0 4.1961137462084324 -3.238053913864924 0 -3.238053913864924 -0.3291482626847122 0 0 0 0 -1.797171767691907 -19.043356853682667 0 -19.043356853682667 5.2317604595914418 0 0 0 0 9.4990954416762179 1.8904081635712089 0 1.8904081635712089 -1.982633961708018 0 0 0 0 8.3955716512832623 -1.6394899408179384 0 -1.6394899408179384 28.402291014145817 0 0 0 0 9.4649510607086995 1.7447699276526407 0 1.7447699276526407 -2.4560560704487102 0 0 0 0 40.879687525854933 17.240357652590102 0 17.240357652590102 1.2995528565422774 0 0 0 0 43.265982778366379 -13.230540450569862 0 -13.230540450569862 3.2861826365811453 0 0 0 0 19.768040037102764 7.3872442754089889 0 7.3872442754089889 -2.3500562768219311 0 0 0 0 11.876403802089044 17.381500909350734 0 17.381500909350734 18.588459640071278 0 0 0 0 0.19252480815995909 0.47411050144185651 0 0.47411050144185651 0.24822106058582127 0 0 0 0 22.874353635817897 -20.917191182056968 0 -20.917191182056968 20.021224983215347 0 0 0 0 0.9578983467845319 -5.187251074749156 0 -5.187251074749156 9.4557322739269125 0 0 0 0 32.366136493984413 17.02878995942865 0 17.02878995942865 7.0957376817167983 0 0 0 0 41.175731458200971 -13.13092805813497 0 -13.13092805813497 -1.8972563968259237 0 0 0 0 25.870632883004873 -3.3148914720185871 0 -3.3148914720185871 -7.5412122612638655 0 0 0 0 11.264272709238867 -8.2269860339812624 0 -8.2269860339812624 -8.3892328433126977 0 0 0 0 17.123549813688442 -1.5034654756095027 0 -1.5034654756095027 -0.43590873639568084 0 0 0 0 8.7745660695311827 -3.2083847115209583 0 -3.2083847115209583 -2.1947361560388128 0 0 0 0 -0.95501870096137509 -2.1836499946246937 0 -2.1836499946246937 0.33249249210374582 0 0 0 0 16.540522851273408 -1.6601369296117465 0 -1.6601369296117465 0.577183660131106 0 0 0 0 15.855652022710274 7.6639534746015672 0 7.6639534746015672 4.3322132518557677 0 0 0 0 20.103177672308902 -1.8840818708893607 0 -1.8840818708893607 -11.408500163776239 0 0 0 0 11.264207014788759 0.11405517626119721 0 0.11405517626119721 -1.2800515854619903 0 0 0 0 1.6352461966870138 0.35134254619592653 0 0.35134254619592653 0.28082674967691523 0 0 0 0 10.328915298439824 1.5623831697213924 0 1.5623831697213924 -1.7111614300220284 0 0 0 0 17.632965404780407 6.5183865713147995 0 6.5183865713147995 -5.5704422158644036 0 0 0 0 13.201758846666053 1.7539923087078864 0 1.7539923087078864 -2.3358715914009895 0 0 0 0 10.34453648078761 1.3384624360016792 0 1.3384624360016792 0.8931208315871304 0 0 0 0 12.547019322965753 -0.11730502321287867 0 -0.11730502321287867 -0.73574946304532007 0 0 0 0 9.1256149407854537 1.7717463939618863 0 1.7717463939618863 -1.210801542262842 0 0 0 0 11.183259682304197 0.81563891999592941 0 0.81563891999592941 -1.2037887834976058 0 0 0 0 10.239461877772555 1.5054472810248014 0 1.5054472810248014 -1.1599491522671834 0 0 0 0 9.4956020978479501 1.4754755749968009 0 1.4754755749968009 0.0059600862509094302 0 0 0 0 11.097714496492813 0.4901301787933931 0 0.4901301787933931 -0.13935402648678652 0 0 0 0 2.2481440491510511 0.071054951392379523 0 0.071054951392379523 -0.10478225774386241 0 0 0 0 8.1069597482182871 4.3605502309212847 0 4.3605502309212847 -1.9993512684406918 0 0 0 0 -0.054398389805044189 -0.13803703788104471 0 -0.13803703788104471 0.069861777725456514 0 0 0 0 34.853509911083165 17.754646491022541 0 17.754646491022541 3.4370945708616816 0 0 0 0 3.715266706726652 -6.1229740734238502 0 -6.1229740734238502 -0.66693946893520906 0 0 0 0 11.31665794646193 -6.0857935941340386 0 -6.0857935941340386 -0.80380886565245779 0 0 0 0 26.219812069175532 1.921984588059924 0 1.921984588059924 -0.0089509532707997344 0 0 0 0 15.90345433470975 5.566117542817107 0 5.566117542817107 6.8438837909548527 0 0 0 0 24.956208880993017 -6.09161729304431 0 -6.09161729304431 1.2675055709163536 0 0 0 0 8.4895498237601714 1.7624972868131301 0 1.7624972868131301 -0.83011080981502872 0 0 0 0 11.308076053431733 0.66778847558495613 0 0.66778847558495613 -1.0336356080157361 0 0 0 0 12.789558031669003 -0.064334770341702097 0 -0.064334770341702097 -5.1756297230704149 0 0 0 0 22.599253339710231 -4.8858439623912204 0 -4.8858439623912204 -14.188278237645669 0 0 0 0 2.5342494862681733 1.1753189820286174 0 1.1753189820286174 -0.65761226715909338 0 0 0 0 5.2886754864048271 3.4258000944311817 0 3.4258000944311817 7.7871086524649122 0 0 0 0 12.04732962694834 2.8430614148777522 0 2.8430614148777522 -5.8250057371413106 0 0 0 0 11.975362046684495 3.8717725423256297 0 3.8717725423256297 -4.5525060433308226 0 0 0 0 12.588786086892469 0.80223317849262799 0 0.80223317849262799 -2.4932536505507414 0 0 0 0 4.8927561089494702 -0.30259443981128697 0 -0.30259443981128697 -1.0592241674501963 0 0 0 0 4.8586789901810334 -0.5059709390505418 0 -0.5059709390505418 -2.1915256895027824 0 0 0 0 7.2909063101451466 -1.293045985250501 0 -1.293045985250501 -2.5679817546536015 0 0 0 0 5.3775205116078766 -0.14949304921554152 0 -0.14949304921554152 -0.66945114328793376 0 0 0 0 5.2978625893263853 -0.23519660982548274 0 -0.23519660982548274 -0.88464836169259542 0 0 0 0 5.8561690704555076 1.3123279971675288 0 1.3123279971675288 -0.85573589205046119 0 0 0 0 8.1516908693483856 -0.3060630963384483 0 -0.3060630963384483 -1.5816218400309481 0 0 0 0 7.4789756609508231 -7.3291648869957626 0 -7.3291648869957626 -4.9094159792949039 0 0 0 0 2.8501977661235287 0.74051769398707457 0 0.74051769398707457 2.1688337869875012 0 0 0 0 10.530072462599492 -2.2574388006324497 0 -2.2574388006324497 0.010883063111601299 0 0 0 0 2.3454223757769341 -3.9150557486948725 0 -3.9150557486948725 -0.33103916152732227 0 0 0 0 0.3378297562703807 -0.28651646672479636 0 -0.28651646672479636 -0.073613118333127517 0 0 0 0 2.2647150802549731 0.15053717334970712 0 0.15053717334970712 -0.00044359406473973057 0 0 0 0 4.4048792593888848 -0.77092183919948631 0 -0.77092183919948631 -1.0309021029493726 0 0 0 0 6.9663633842392301 1.7035033078878428 0 1.7035033078878428 0.60905391152510902 0 0 0 0 4.8876092521491046 -0.56532775172475169 0 -0.56532775172475169 1.1368783835775957 0 0 0 0 7.6109791276430769 0.95965130833047851 0 0.95965130833047851 -0.38479048440007091 0 0 0 0 7.4002596629020445 0.9219619883428436 0 0.9219619883428436 -0.33270237248098056 0 0 0 0 7.2311349728643108 -0.1864948444243737 0 -0.1864948444243737 -2.2463322722221619 0 0 0 0 4.5134174654881996 1.1183728847896575 0 1.1183728847896575 -0.49803458094232544 0 0 0 0 7.2028734384439304 3.7023654910490538 0 3.7023654910490538 -0.061316850194184702 0 0 0 0 5.4881542987976459 1.7153819628160623 0 1.7153819628160623 0.059922776114510377 0 0 0 0 0.6302053579704392 0.38105089215174814 0 0.38105089215174814 0.083060046255907058 0 0 0 0 11.515822108671273 4.4513988096481789 0 4.4513988096481789 0.018545130112374242 0 0 0 0 2.2667130612471738 0.15371581600487827 0 0.15371581600487827 0.00022491896082270938 0 0 0 0 4.3745094708228862 2.3904609344020704 0 2.3904609344020704 -0.18323766881025261 0 0 0 0 0.9820898978701571 0.45506428597114024 0 0.45506428597114024 0.16936997490076555 0 0 0 0 7.2860367029134068 -0.7470445220741232 0 -0.7470445220741232 0.01431823533581798 0 0 0 0 11.232430032245247 3.5154459367374904 0 3.5154459367374904 -1.678295947736574 0 0 0 0 5.1606699443116213 0.442364323712507 0 0.442364323712507 -0.57364520422450305 0 0 0 0 8.1297005520827952 -3.7327887386589405 0 -3.7327887386589405 -1.65015935375343 0 0 0 0 0.50173855894569641 -0.76233226996720482 0 -0.76233226996720482 -0.49420054929811286 0 0 0 0 5.2931644704804057 1.4318766515257266 0 1.4318766515257266 -0.69477469678184889 0 0 0 0 4.1795891336375846 0.96768471566969261 0 0.96768471566969261 -0.038532382696889189 0 0 0 0 6.1966965335996065 -1.1677318529478384 0 -1.1677318529478384 -0.33687162529543002 0 0 0 0 6.959953164762922 2.2473283714309744 0 2.2473283714309744 -0.8588509836393996 0 0 0 0 7.3104487419186626 1.603543585934176 0 1.603543585934176 -4.143467977289788 0 0 0 0 2.3920047036954202 1.7483055543117985 0 1.7483055543117985 -0.047999020490919975 0 0 0 0 24.434286706350576 -0.80879245632661423 0 -0.80879245632661423 -29.7863882909935 0 0 0 0 36.881576474766007 27.992566074546858 0 27.992566074546858 0.79507720943661297 0 0 0 0 5.0592342147609344 -0.18295600426140179 0 -0.18295600426140179 -1.1945894580401828 0 0 0 0 4.1771379233768933 -0.99132703393166466 0 -0.99132703393166466 -2.8198739219732767 0 0 0 0 8.9966493870679187 -31.496822253557355 0 -31.496822253557355 -1.1606199122904854 0 0 0 0 0.52685362709349448 0.5642225676419983 0 0.5642225676419983 0.026894795351642145 0 0 0 0 -0.17123898377576552 19.768718293793654 0 19.768718293793654 60.697842661264076 0 0 0 0 12.605983437650139 1.1428894057910952 0 1.1428894057910952 -0.48442875189775236 0 0 0 0 7.153709189699839 5.0143735162053247 0 5.0143735162053247 1.1645370240036925 0 0 0 0 14.76647720676192 1.8059302408130122 0 1.8059302408130122 -1.0908861608293279 0 0 0 0 -19.507821792180039 8.0119173891177411 0 8.0119173891177411 2.6059200154462587 0 0 0 0 13.438477826242888 0.11794479024719351 0 0.11794479024719351 -1.43984455926525 0 0 0 0 6.2135732080111126 3.1452974005476868 0 3.1452974005476868 0.043248165087485912 0 0 0 0 16.579447894697296 -1.8209555996322564 0 -1.8209555996322564 -0.21634887389764401 0 0 0 0 28.40423425181325 -3.3760980962897094 0 -3.3760980962897094 -0.06559786999764583 0 0 0 0 3.0896960786956011 -3.5239315116122505 0 -3.5239315116122505 -0.47159228250741064 0 0 0 0 21.060924844841793 2.6784529889114452 0 2.6784529889114452 -1.4478915724125869 0 0 0 0 22.867581906079067 1.7501014811030089 0 1.7501014811030089 -1.1663576138493603 0 0 0 0 21.019933700037654 3.7808723923394396 0 3.7808723923394396 -1.6652246174704146 0 0 0 0 20.399552187711379 2.787284219098904 0 2.787284219098904 -0.63684736802724728 0 0 0 0 20.304448447870527 2.8530437648581142 0 2.8530437648581142 -0.67497027281844169 0 0 0 0 21.932043289549256 1.7725592043643061 0 1.7725592043643061 -0.81761971794179544 0 0 0 0 20.697743938921121 2.2651265056540808 0 2.2651265056540808 -0.5708770518907329 0 0 0 0 19.246787225581102 3.4906543878163845 0 3.4906543878163845 2.2161443948837416 0 0 0 0 18.14668570914364 1.6379863552911047 0 1.6379863552911047 0.44096050456174396 0 0 0 0 19.800946814867075 2.2434406533339946 0 2.2434406533339946 2.6710968244475453 0 0 0 0 18.646021840462708 3.9438298037965467 0 3.9438298037965467 0.69422688963629753 0 0 0 0 13.9466412421488 7.1142978184900016 0 7.1142978184900016 0.28142815665434817 0 0 0 0 20.523316959810472 1.8409554572978646 0 1.8409554572978646 2.7147741375970611 0 0 0 0 1.6564625406233375 0.44651209907497602 0 0.44651209907497602 1.5450263251057461 0 0 0 0 8.6130409211208416 -1.3608913229106729 0 -1.3608913229106729 -1.1834607088040281 0 0 0 0 20.345526672543087 2.9906359391625967 0 2.9906359391625967 2.3386602970108754 0 0 0 0 8.1393297456834262 2.4007720327585957 0 2.4007720327585957 1.2640177800521997 0 0 0 0 19.686356226848147 2.5805513797827189 0 2.5805513797827189 1.3441025105081827 0 0 0 0 17.014484820560028 3.0223765531781623 0 3.0223765531781623 2.2052760533019296 0 0 0 0 26.765179936006462 8.16862330645165 0 8.16862330645165 4.9187018443801662 0 0 0 0 21.9014039063577 -2.6263246249216792 0 -2.6263246249216792 4.1456623386813476 0 0 0 0 2.76733059699969 -3.2844512955794087 0 -3.2844512955794087 -0.33921592267825063 0 0 0 0 16.53477791129626 -7.7475782354590308 0 -7.7475782354590308 2.8653794630060929 0 0 0 0 17.514561994721248 3.9771051910855846 0 3.9771051910855846 1.1309013550472855 0 0 0 0 -1.6827132790929653 -0.65019523637853283 0 -0.65019523637853283 1.0909933002657206 0 0 0 0 10.487105006908678 2.7148896716058744 0 2.7148896716058744 7.2104919728884482 0 0 0 0 10.759968678159566 1.319235871842011 0 1.319235871842011 0.44691744334244277 0 0 0 0 10.973065004009641 -0.28361155348817846 0 -0.28361155348817846 1.3003849634808375 0 0 0 0 10.856890990506145 -0.43104079231332548 0 -0.43104079231332548 4.5659117616228855 0 0 0 0 6.3862699539531604 0.13075779700054113 0 0.13075779700054113 2.558168425085654 0 0 0 0 6.0656687810117091 -1.1588022890889924 0 -1.1588022890889924 0.86686917863619328 0 0 0 0 2.9731878372343528 -0.27316590690523057 0 -0.27316590690523057 -0.045037818754657177 0 0 0 0 12.066191944330058 -3.4914250319188227 0 -3.4914250319188227 -0.7415574681825774 0 0 0 0 5.8240303119212768 -1.6884707392866538 0 -1.6884707392866538 -0.485425577159035 0 0 0 0 17.048940292677798 -0.079395559247132041 0 -0.079395559247132041 -1.1769082035664269 0 0 0 0 6.951021108303987 -6.1916182354913047 0 -6.1916182354913047 -0.69530956627763496 0 0 0 0 13.865770500700819 -0.84106446479268016 0 -0.84106446479268016 0.13183719211303924 0 0 0 0 3.4163748289576681 -2.1254655153985311 0 -2.1254655153985311 -0.30072587716610988 0 0 0 0 6.4222230162113689 2.1586360329209935 0 2.1586360329209935 -0.65574494523956717 0 0 0 0 17.295229599183585 -6.6715933903624602 0 -6.6715933903624602 -6.5695612370181919 0 0 0 0 4.4678763160773087 2.7599483724854963 0 2.7599483724854963 0.093387226999389839 0 0 0 0 5.0804241157184151 0.54792320019788576 0 0.54792320019788576 3.8764991114184966 0 0 0 0 16.759677203132014 9.4877652857796022 0 9.4877652857796022 5.8059590871871478 0 0 0 0 11.558063189953828 3.4860151855173171 0 3.4860151855173171 -0.33651980616790667 0 0 0 0 11.853271652933245 -1.3184536173397632 0 -1.3184536173397632 0.97754047140574585 0 0 0 0 8.5494605733947537 -0.5029736695317979 0 -0.5029736695317979 2.7892009577094541 0 0 0 0 12.820011473181694 1.6004943691429503 0 1.6004943691429503 2.4056316550712609 0 0 0 0 11.355941659641758 -0.6020554335716497 0 -0.6020554335716497 0.091694540687683457 0 0 0 0 8.5059097017419845 -2.1323667712711085 0 -2.1323667712711085 -0.079841670264897857 0 0 0 0 10.626498225441537 -2.4668381206018921 0 -2.4668381206018921 -0.030965809177246229 0 0 0 0 5.2287104346078479 -2.4025867278360327 0 -2.4025867278360327 -0.67722155392817029 0 0 0 0 7.170490645305108 -1.8571230672555572 0 -1.8571230672555572 -1.6536414408531641 0 0 0 0 1.4764254907722716 1.5891616107445543 0 1.5891616107445543 7.9128644706283922 0 0 0 0 8.9658060651527194 -0.45924547148194961 0 -0.45924547148194961 -2.3611142309352431 0 0 0 0 8.0114324948253852 -2.3008276397018506 0 -2.3008276397018506 -0.53669533611855513 0 0 0 0 -0.63446641794962488 -10.116306815724272 0 -10.116306815724272 0.62374648390783705 0 0 0 0 8.8660489528848387 -3.4992217168498723 0 -3.4992217168498723 -2.1621297605736154 0 0 0 0 1.7473405123389796 -0.91447113015632953 0 -0.91447113015632953 -0.41894918458123498 0 0 0 0 13.317071256458803 -1.6561438075874655 0 -1.6561438075874655 0.14529898961114007 0 0 0 0 7.6300766191462941 -0.63617289454198378 0 -0.63617289454198378 -0.77130843278615158 0 0 0 0 12.785478799771226 0.17374810811704022 0 0.17374810811704022 0.56982826780406381 0 0 0 0 13.787509892317757 1.2658140382093048 0 1.2658140382093048 0.97189663614887145 0 0 0 0 35.550896700551675 48.277422471795234 0 48.277422471795234 -5.9889606148823873 0 0 0 0 10.846397224050634 -19.858002234540088 0 -19.858002234540088 15.331505600597922 0 0 0 0 5.3244932103791456 3.2007838801909916 0 3.2007838801909916 -0.048169974122409087 0 0 0 0 26.472465882881806 15.305696480239121 0 15.305696480239121 9.1643028515711364 0 0 0 0 0.62176427194520301 -0.20055511665160797 0 -0.20055511665160797 0.23722395068862567 0 0 0 0 11.700115483095942 4.8563829138605783 0 4.8563829138605783 4.7356711174378177 0 0 0 0 0.52082302046771112 0.2015532223629144 0 0.2015532223629144 0.57372486458197069 0 0 0 0 10.113558445918898 -0.18042885214889193 0 -0.18042885214889193 1.3953168512976095 0 0 0 0 9.7355150615621824 -34.942358764072054 0 -34.942358764072054 9.7171157465190454 0 0 0 0 48.432904687715563 -3.8952028389004951 0 -3.8952028389004951 -7.5427345375319987 0 0 0 0 17.659255795810168 -8.4641834244860661 0 -8.4641834244860661 -7.6880922079302518 0 0 0 0 24.294431556065319 -0.8642812768214867 0 -0.8642812768214867 -2.4608823676855849 0 0 0 0 25.441796092973163 0.13372196880563791 0 0.13372196880563791 -2.2180740684073328 0 0 0 0 29.614355233932656 2.1096342688420044 0 2.1096342688420044 -2.27827333659922 0 0 0 0 0.013241029404327698 0.18794876774524738 0 0.18794876774524738 0.29497178282817249 0 0 0 0 9.7115597446099855 -0.79086066000166855 0 -0.79086066000166855 0.81653792231270539 0 0 0 0 23.518099818839346 0.64661619566375172 0 0.64661619566375172 1.293813671937059 0 0 0 0 13.252647084298587 1.1624752436036299 0 1.1624752436036299 2.566429154054084 0 0 0 0 12.607213078659697 -0.91431307160525765 0 -0.91431307160525765 3.3828989725849778 0 0 0 0 12.404029149016424 -0.13598617456633327 0 -0.13598617456633327 0.84690002781950202 0 0 0 0 11.746095917384082 -0.81892262357895707 0 -0.81892262357895707 0.049829387136770875 0 0 0 0 11.668277783493977 -0.031739006636642642 0 -0.031739006636642642 1.8864822229115215 0 0 0 0 11.097330149663321 -0.37038538977325036 0 -0.37038538977325036 -0.23544232652852437 0 0 0 0 11.180272639485906 -0.88970808169377491 0 -0.88970808169377491 -0.20216763976978191 0 0 0 0 12.352749617737572 -1.4238861346519913 0 -1.4238861346519913 0.64701498528902068 0 0 0 0 13.213533645874122 0.28926163302996077 0 0.28926163302996077 -0.50692793209319664 0 0 0 0 11.962262758687757 -0.053322091336983887 0 -0.053322091336983887 -0.77228245079458968 0 0 0 0 11.498399704754775 0.99516358056595799 0 0.99516358056595799 -1.6274348925412259 0 0 0 0 9.6420200446409581 -0.62220291915447856 0 -0.62220291915447856 -0.23309664897857646 0 0 0 0 10.770692854323897 -0.32724676138186826 0 -0.32724676138186826 -0.39205261050621154 0 0 0 0 10.87077060050251 0.312972814039363 0 0.312972814039363 -0.88923431016154164 0 0 0 0 10.727044164261315 0.73265509123539041 0 0.73265509123539041 -0.0031331228320033004 0 0 0 0 19.331139163306943 2.8749498151605124 0 2.8749498151605124 4.1704600249313977 0 0 0 0 35.378378976383829 -2.8263441309955581 0 -2.8263441309955581 -2.9277571016514905 0 0 0 0 8.8404979208853547 -0.18222729804355828 0 -0.18222729804355828 0.2378641720689105 0 0 0 0 9.7079617011931987 0.085844666449607879 0 0.085844666449607879 0.00042137360294655353 0 0 0 0 0.073730647495679591 0.069900504896228455 0 0.069900504896228455 0.072250296262508562 0 0 0 0 18.807655234643789 -1.1819378210818368 0 -1.1819378210818368 1.3552893356861908 0 0 0 0 31.34050090274286 10.726498480326542 0 10.726498480326542 0.018667106939360426 0 0 0 0 44.396750633373813 2.6951423510894963 0 2.6951423510894963 -7.4547920360042639 0 0 0 0 0.020190133865424897 0.0025092549846235102 0 0.0025092549846235102 -0.037656405366833394 0 0 0 0 0.058555789001275116 0.13711601571862708 0 0.13711601571862708 -0.038120692771521525 0 0 0 0 0.72591445193211257 0.55997356167427403 0 0.55997356167427403 -4.4896271934122971e-05 0 0 0 0 -0.19095066202498856 0.53942487199625366 0 0.53942487199625366 -0.00029462980539079467 0 0 0 0 0.21064642423777258 0.2834496565600233 0 0.2834496565600233 0.049949800859381374 0 0 0 0 18.955743298093296 -1.7312417187754052 0 -1.7312417187754052 -0.46465808162108146 0 0 0 0 -0.013237567032675202 0.065467971269491443 0 0.065467971269491443 -0.12314524330723793 0 0 0 0 0.091816099395146011 0.68827250496421377 0 0.68827250496421377 -0.038120692771934674 0 0 0 0 13.73720664384291 -3.6396544138481488 0 -3.6396544138481488 0.88968176044235747 0 0 0 0 0.13086837887475156 0.0089042242263879245 0 0.0089042242263879245 -0.037657526676956043 0 0 0 0 18.812724208035434 0.68607705295249488 0 0.68607705295249488 -1.3636992815493016 0 0 0 0 21.136663171815599 -0.60539371262343167 0 -0.60539371262343167 -1.738960206371603 0 0 0 0 5.3178003392213213 1.5379660793103618 0 1.5379660793103618 2.3270953473629277 0 0 0 0 1.1579226863955547 -0.33929837560745923 0 -0.33929837560745923 -0.17479332694862856 0 0 0 0 -0.21783940607383556 1.1795765074993128 0 1.1795765074993128 1.3856977430341288 0 0 0 0 0.82135544755939272 0.40515311772155016 0 0.40515311772155016 -0.10287195443782282 0 0 0 0 23.390345018380685 2.1959737729058908 0 2.1959737729058908 -1.2077444622736664 0 0 0 0 25.110836426854803 -1.0348984595165511 0 -1.0348984595165511 0.94668051883128079 0 0 0 0 23.428586540702781 2.5128403835966857 0 2.5128403835966857 -0.13837679714360718 0 0 0 0 22.347917351874457 -3.3372610302008994 0 -3.3372610302008994 -0.42320307147076619 0 0 0 0 23.711738799845989 1.6063017325695004 0 1.6063017325695004 -3.5533318801899298 0 0 0 0 32.844432270007019 0.72010783555747793 0 0.72010783555747793 -3.4676372754525988 0 0 0 0 24.855682586115108 8.078067228583981 0 8.078067228583981 -0.19062431692552906 0 0 0 0 26.054046237295552 -5.4959036158402341 0 -5.4959036158402341 -0.72443040892685673 0 0 0 0 55.738098006881046 -11.764086548245253 0 -11.764086548245253 -1.0624274843755512 0 0 0 0 0.17913161084603502 0.061847531744380291 0 0.061847531744380291 0.01982888165300908 0 0 0 0 34.701314375700349 9.9387115521847331 0 9.9387115521847331 0.033505991902908101 0 0 0 0 25.347086372917147 2.5400178220235867 0 2.5400178220235867 -0.31077655787520087 0 0 0 0 18.485498056559663 9.8310392780871059 0 9.8310392780871059 -0.013495780080536493 0 0 0 0 58.631215289481588 -26.490582201639569 0 -26.490582201639569 -0.14284302486569467 0 0 0 0 20.175333665571088 -18.646182065531626 0 -18.646182065531626 97.422856929805761 0 0 0 0 0.078131711066999898 0.027135270403618961 0 0.027135270403618961 -0.32789996951142097 0 0 0 0 8.5603569387180869 3.4207889167531436 0 3.4207889167531436 3.0352876832930917 0 0 0 0 18.68986093253443 5.3338423144930758 0 5.3338423144930758 -2.337916862534275 0 0 0 0 -3.4261338427768351 3.5858213093082432 0 3.5858213093082432 0.066280655095522834 0 0 0 0 3.8711142378670047 21.740575172673147 0 21.740575172673147 48.524365729044611 0 0 0 0 25.459852389289154 -21.242680550589196 0 -21.242680550589196 21.067106730659972 0 0 0 0 0.71188018892696903 0.21592376822715798 0 0.21592376822715798 0.082310778256344974 0 0 0 0 36.17637239618648 45.766072963912144 0 45.766072963912144 3.255330464218062 0 0 0 0 26.323485935694407 9.3562948012750553 0 9.3562948012750553 -21.280049407949207 0 0 0 0 5.2754538536501059 4.5450913577645338 0 4.5450913577645338 12.800054408560428 0 0 0 0 5.9490147751744189 3.1408101981544343 0 3.1408101981544343 2.0016101064244651 0 0 0 0 20.237807488038015 16.97124150470222 0 16.97124150470222 6.5032064036618777 0 0 0 0 9.7921267843003079 6.1326942481766196 0 6.1326942481766196 -4.5334123398406234 0 0 0 0 23.306058475376631 0.16872867656158519 0 0.16872867656158519 -11.737129096267267 0 0 0 0 13.637914707109303 1.0119120612137635 0 1.0119120612137635 -0.64249854948127449 0 0 0 0 8.5438976577756875 11.113501342778449 0 11.113501342778449 -6.2319885346252875 0 0 0 0 20.184053310931631 5.3436204604960693 0 5.3436204604960693 -1.4502629767983635 0 0 0 0 19.712311796874019 3.2155135114371873 0 3.2155135114371873 -0.48334119251698837 0 0 0 0 15.037824833968443 3.6147220755485705 0 3.6147220755485705 0.17243710033146442 0 0 0 0 -0.40767231522615432 0.14483530352588048 0 0.14483530352588048 -1.3228134121914215 0 0 0 0 18.249970294076775 3.1518920462696371 0 3.1518920462696371 -1.6490465064799338 0 0 0 0 19.389830377134786 3.0870531195003679 0 3.0870531195003679 -1.1089465223401476 0 0 0 0 16.934699691433707 3.5215257541630649 0 3.5215257541630649 0.10953353887634876 0 0 0 0 19.345468065102978 4.1515205237996327 0 4.1515205237996327 -1.5232094664202975 0 0 0 0 15.777063780768003 6.4785632876194654 0 6.4785632876194654 -2.5430582601074931 0 0 0 0 2.4548949127896584 -0.75995218209241777 0 -0.75995218209241777 -0.88115108563523692 0 0 0 0 12.413401567160772 6.1119363627700452 0 6.1119363627700452 -1.0289689570372165 0 0 0 0 39.305448951512517 14.407730078742674 0 14.407730078742674 8.9295391450601755 0 0 0 0 17.217135174245414 4.2324732243535124 0 4.2324732243535124 -1.108824302178661 0 0 0 0 18.039669958738159 4.7863273130544712 0 4.7863273130544712 -1.2705963434427385 0 0 0 0 3.105501770602725 0.65012700321795336 0 0.65012700321795336 -2.6086335456943548 0 0 0 0 -14.192231560738946 30.409368506616858 0 30.409368506616858 -6.2009428401238438 0 0 0 0 9.1983495855265822 4.7000489260671987 0 4.7000489260671987 -0.31287328357933308 0 0 0 0 20.909094781565727 6.814559498885842 0 6.814559498885842 -4.9890537140899482 0 0 0 0 -4.0564519838444539 9.0499194325876715 0 9.0499194325876715 8.5609935794859062 0 0 0 0 -26.681348201792389 6.1633650090786887 0 6.1633650090786887 -48.745003484358904 0 0 0 0 1.41716928274408 0.93558808034807228 0 0.93558808034807228 0.57423499724698801 0 0 0 0 4.1013957237628347 1.2477243362914265 0 1.2477243362914265 0.65358830321414985 0 0 0 0 2.4131955079756153 1.657925321351513 0 1.657925321351513 3.4721603945124571 0 0 0 0 1.2346990321857447 -0.18147164019509887 0 -0.18147164019509887 7.8715715381056128 0 0 0 0 3.1770320999173691 -9.4638735811828951 0 -9.4638735811828951 1.0752679090475112 0 0 0 0 -11.722782293320051 2.1601149149476857 0 2.1601149149476857 2.0854845497931276 0 0 0 0 -14.687108906220146 -11.752272423258706 0 -11.752272423258706 4.6371553525539184 0 0 0 0 4.3255145806760993 3.0873842917743137 0 3.0873842917743137 -19.017322285253037 0 0 0 0 -1.9641539286303669 -15.634133579502919 0 -15.634133579502919 -1.0937436057087098 0 0 0 0 -14.81816627230728 20.137038502284213 0 20.137038502284213 -21.610765979005919 0 0 0 0 1.2878071391668264 2.0077458103258401 0 2.0077458103258401 0.83909802418844903 0 0 0 0 17.928120853007258 0.86578975532821545 0 0.86578975532821545 -1.4537201847978167 0 0 0 0 8.1299556866870262 -9.070487770698719 0 -9.070487770698719 -24.609035136131936 0 0 0 0 25.517706642393023 13.748091033790189 0 13.748091033790189 4.9281628952692529 0 0 0 0 10.020046879353686 3.4576491344237894 0 3.4576491344237894 10.7631719247251 0 0 0 0 6.7799142835297062 -9.2726010549427418 0 -9.2726010549427418 4.4970829958391221 0 0 0 0 2.211680263812803 0.41937721387997406 0 0.41937721387997406 0.10747112203052951 0 0 0 0 -3.8717546415718971 15.466162258660717 0 15.466162258660717 2.5935795563380566 0 0 0 0 16.133200963296986 17.541589741318205 0 17.541589741318205 -2.8690161332935986 0 0 0 0 23.608817658463522 8.6854552768279376 0 8.6854552768279376 -9.09126930126871 0 0 0 0 -0.11285076491149049 0.21025464693102691 0 0.21025464693102691 -0.091562681040167682 0 0 0 0 4.5068926714084228 -5.717701305815293 0 -5.717701305815293 -17.74388863718027 0 0 0 0 -13.608886589820941 3.5548727430100655 0 3.5548727430100655 4.1805922006614651 0 0 0 0 4.5657538091745664 4.6343106556625457 0 4.6343106556625457 -2.5906958767200194 0 0 0 0 0.53544981645663725 0.97935986015253818 0 0.97935986015253818 -0.11075963373662523 0 0 0 0 0.1366556851680798 0.39681974919349727 0 0.39681974919349727 2.134785926539962 0 0 0 0 8.3844895822458057 -0.71632201955611663 0 -0.71632201955611663 0.91644422429590122 0 0 0 0 6.6742539155202394 6.3166658167169203 0 6.3166658167169203 -1.722004499539139 0 0 0 0 25.143735106556051 6.8715296908203243 0 6.8715296908203243 -7.7682621374599989 0 0 0 0 15.908809792485044 3.892736113260014 0 3.892736113260014 -2.8765926850190908 0 0 0 0 15.689976436193319 4.5270328396544528 0 4.5270328396544528 -2.613998978350196 0 0 0 0 25.1611613567311 6.8065719109593488 0 6.8065719109593488 -8.5282155067226313 0 0 0 0 17.252427385232295 7.6768535833594456 0 7.6768535833594456 -3.4424689499455781 0 0 0 0 19.106068268605668 8.7716085199353984 0 8.7716085199353984 -8.0061685832296625 0 0 0 0 5.7185835474738269 16.286283615263528 0 16.286283615263528 2.8742286710719327 0 0 0 0 10.60569565694459 13.471340570724678 0 13.471340570724678 -8.1053406202362019 0 0 0 0 18.703498175017558 3.8155253506383637 0 3.8155253506383637 -0.43894494154679364 0 0 0 0 12.78365287556457 6.6142876425361479 0 6.6142876425361479 0.18408210780966183 0 0 0 0 33.731773850448008 18.040875817498403 0 18.040875817498403 -0.47173870280627739 0 0 0 0 44.134172094562018 -5.84864186383885 0 -5.84864186383885 -17.64435938125871 0 0 0 0 10.053666526550444 1.0486481943607124 0 1.0486481943607124 -6.9513509944877114 0 0 0 0 1.2168021283014241 -37.609054139352722 0 -37.609054139352722 28.776820499427345 0 0 0 0 2.3786866721166007 -1.7324917945845471 0 -1.7324917945845471 -3.7323008632830579 0 0 0 0 2.1763536566340917 0.33756247164468789 0 0.33756247164468789 -14.179763886321652 0 0 0 0 0.5749251693365629 -0.62593693691271213 0 -0.62593693691271213 1.1218376771354552 0 0 0 0 33.404991702174812 -5.2189840294980172 0 -5.2189840294980172 -19.684035066570289 0 0 0 0 34.191331194839222 7.4314220114528666 0 7.4314220114528666 92.494164970252996 0 0 0 0 83.788287514260446 -50.398744287413479 0 -50.398744287413479 35.169710851086961 0 0 0 0 10.889829218242085 7.6919089718525129 0 7.6919089718525129 0.50908394034468074 0 0 0 0 91.767986020384342 32.496977724342628 0 32.496977724342628 -24.750811052406334 0 0 0 0 -45.502581746395663 -81.734093432950772 0 -81.734093432950772 -34.894516224695963 0 0 0 0 -6.5485932536430482 -38.656445422957859 0 -38.656445422957859 12.729120834021366 0 0 0 0 2.8881269753073866 -14.315126597665198 0 -14.315126597665198 13.616847001709402 0 0 0 0 2.4388913647121626 -10.393772674317248 0 -10.393772674317248 -20.605265759544409 0 0 0 0 9.3233412284880615 -33.436369185087017 0 -33.436369185087017 -33.606769679293393 0 0 0 0 18.346791706435397 -19.012160257329811 0 -19.012160257329811 -17.007814210716219 0 0 0 0 58.609395549143301 7.6504181454617139 0 7.6504181454617139 -0.33498748585711269 0 0 0 0 103.89967575253104 -46.563069043156815 0 -46.563069043156815 4.289133101944401 0 0 0 0 1.4311889643677205 6.3944178159569294 0 6.3944178159569294 -5.9999527403677035 0 0 0 0 1.6946113741428626 1.6931954072238895 0 1.6931954072238895 0.9237475497133989 0 0 0 0 51.09263821444074 -24.695845024036032 0 -24.695845024036032 23.662001458531648 0 0 0 0 2.9235762289044942 -5.8616059115376959 0 -5.8616059115376959 -13.249082859379445 0 0 0 0 -5.3331718728259148 -3.4116954816816509 0 -3.4116954816816509 -12.510441815217344 0 0 0 0 1.4090396488897952 0.55528732694842908 0 0.55528732694842908 -0.40450202037681926 0 0 0 0 52.631729240313689 -20.723492240048245 0 -20.723492240048245 10.969956842258171 0 0 0 0 61.978627100149424 -31.33186405852625 0 -31.33186405852625 132.54302239961532 0 0 0 0 119.51618978178431 -39.699123714900267 0 -39.699123714900267 -8.2357104376568486 0 0 0 0 -2.6425838677419051 35.526055121595959 0 35.526055121595959 4.7171653532606683 0 0 0 0 0.88044844233058228 0.59505177426811962 0 0.59505177426811962 0.19841921267851204 0 0 0 0 29.633517431077053 62.639474197591994 0 62.639474197591994 22.838589752765131 0 0 0 0 18.283047427248675 42.670335230619372 0 42.670335230619372 -8.7064987582732556 0 0 0 0 -13.492759271953219 6.6698746336609629 0 6.6698746336609629 -5.1095052306974367 0 0 0 0 6.5240284430437896 -0.32551424851428123 0 -0.32551424851428123 -11.72080696376554 0 0 0 0 2.8059698622819269 15.342075689060792 0 15.342075689060792 -1.3455091427822197 0 0 0 0 21.045113801370462 17.284723453676122 0 17.284723453676122 -4.4817777733107675 0 0 0 0 33.277635546652164 16.882528414302669 0 16.882528414302669 -7.6929606147984941 0 0 0 0 13.881412692378944 0.43182882402226141 0 0.43182882402226141 -2.70746448841453 0 0 0 0 3.6272050492952985 1.3321695074488744 0 1.3321695074488744 -2.6492685106203453 0 0 0 0 16.757965602497279 0.057256402624830116 0 0.057256402624830116 1.302041243995177 0 0 0 0 13.606106076556898 -6.5652942137229502 0 -6.5652942137229502 9.2755905145245379 0 0 0 0 15.319570273062709 -1.7567829005867139 0 -1.7567829005867139 0.53613648957281157 0 0 0 0 32.321990551652561 20.631177812966428 0 20.631177812966428 -17.001430853808188 0 0 0 0 56.170486727116668 2.3799046952404161 0 2.3799046952404161 -19.559405747998994 0 0 0 0 54.86526173991524 -19.608742573785733 0 -19.608742573785733 8.1207420158769992 0 0 0 0 -9.8600751129088167 4.8598029448915554 0 4.8598029448915554 21.197377894765566 0 0 0 0 -9.260870879950744 -14.075873201761681 0 -14.075873201761681 27.993114006230712 0 0 0 0 130.29135525659512 38.538275759843373 0 38.538275759843373 -44.165574780571205 0 0 0 0 0.066770005981872771 -0.12689402460156174 0 -0.12689402460156174 0.50128815071471622 0 0 0 0 -5.5303873212797043 -17.459777972356434 0 -17.459777972356434 5.0514202937152959 0 0 0 0 -3.4947249086908414 146.07671621992023 0 146.07671621992023 -5.0150566698949035 0 0 0 0 71.993107394606341 80.791872442261877 0 80.791872442261877 -60.143840560542515 0 0 0 0 85.460564867127687 62.06026834658303 0 62.06026834658303 -51.477685847933969 0 0 0 0 69.156078076178346 62.098743930065943 0 62.098743930065943 -36.075143643463662 0 0 0 0 69.357924580777762 48.82486145485592 0 48.82486145485592 -7.9667448477822234 0 0 0 0 86.016713049499231 13.53695815499475 0 13.53695815499475 -16.421423295680285 0 0 0 0 98.848651029944449 43.264779482335314 0 43.264779482335314 -39.917017750317584 0 0 0 0 140.52217302648205 -24.177447056626363 0 -24.177447056626363 -16.614394734522079 0 0 0 0 4.7213490632075263 -2.1595315178451244 0 -2.1595315178451244 2.451027369245935 0 0 0 0 6.3934425480347272 2.6734789854802443 0 2.6734789854802443 -4.6180195050546757 0 0 0 0 1.5347673518485863 2.3703541379000441 0 2.3703541379000441 -3.9799548476773339 0 0 0 0 0.4714042744589797 -0.17770786939626504 0 -0.17770786939626504 0.84456131546104396 0 0 0 0 0.97781564022856315 0.45483631139309288 0 0.45483631139309288 0.22428934633563158 0 0 0 0 2.3546304893237604 1.9869551720122662 0 1.9869551720122662 -4.694981124335186 0 0 0 0 16.334498599298968 37.895938995475696 0 37.895938995475696 1.8140028953350216 0 0 0 0 2.3462353181694198 -0.75604441056469796 0 -0.75604441056469796 -6.407417302267902 0 0 0 0 39.747947667276094 -19.439731803163625 0 -19.439731803163625 -27.268158876251334 0 0 0 0 122.5096708195324 15.804566622832311 0 15.804566622832311 -12.562666946892563 0 0 0 0 -13.476989124650572 -23.767133287296659 0 -23.767133287296659 -4.3720082778912115 0 0 0 0 22.37714876098471 -31.980477930165037 0 -31.980477930165037 -11.215684698028525 0 0 0 0 5.855343330688811 0.16920646571486486 0 0.16920646571486486 1.8908009224419402 0 0 0 0 -3.2095216818395045 5.3377469157734856 0 5.3377469157734856 7.7393206453776884 0 0 0 0 0.44625896628715012 0.32683543433457629 0 0.32683543433457629 -0.17830472104567696 0 0 0 0 -3.2415158259022618 0.5369089970580927 0 0.5369089970580927 10.921855420615543 0 0 0 0 2.3678005152505648 -2.4094148400144491 0 -2.4094148400144491 8.3927107501921796 0 0 0 0 3.46478263253357 2.252418220186641 0 2.252418220186641 27.708538984034476 0 0 0 0 23.354877676432807 4.2645211926388242 0 4.2645211926388242 4.6246425605211812 0 0 0 0 3.588085544641217 -8.4930572167567675 0 -8.4930572167567675 16.326403490222503 0 0 0 0 1.3241077039710945 -12.098296628037815 0 -12.098296628037815 21.799715637404915 0 0 0 0 0.77549982741948043 -15.437935198674722 0 -15.437935198674722 6.5665186370740116 0 0 0 0 11.048761304385152 -13.235642852336639 0 -13.235642852336639 -4.0817437672815231 0 0 0 0 15.69122555001195 -5.9740784066839296 0 -5.9740784066839296 -0.059825213576914393 0 0 0 0 1.979360475028443 -3.2530734851045793 0 -3.2530734851045793 12.938342615815941 0 0 0 0 11.435905939851637 -11.336483810606126 0 -11.336483810606126 -4.3183662898518378 0 0 0 0 8.3922358651237161 4.0545960216412471 0 4.0545960216412471 -0.4910959247908937 0 0 0 0 85.507455306906195 1.3755085778102512 0 1.3755085778102512 -0.45312649182045561 0 0 0 0 0.65262492218600698 0.34717888611880099 0 0.34717888611880099 0.0620614956287735 0 0 0 0 6.5677479019359453 57.8663759607266 0 57.8663759607266 2.8929561502675369 0 0 0 0 88.021318407110812 1.7977239727463825 0 1.7977239727463825 -0.44000815576754349 0 0 0 0 39.882286570897122 -48.492370894115652 0 -48.492370894115652 28.473915231408682 0 0 0 0 88.03537421648889 -2.3993449629800523 0 -2.3993449629800523 -0.17912368771112597 0 0 0 0 83.377789449536067 -2.5091090049005516 0 -2.5091090049005516 -0.1772552327936836 0 0 0 0 26.557163584595401 -23.839085958654664 0 -23.839085958654664 5.204873414834708 0 0 0 0 93.353589712905887 89.362039160068889 0 89.362039160068889 22.296928496027931 0 0 0 0 -23.35601247782688 -8.6137401723673293 0 -8.6137401723673293 31.53163748080803 0 0 0 0 7.499018290719782 3.2437566486363831 0 3.2437566486363831 -1.7956619655695416 0 0 0 0 25.713327450145698 26.882143428900775 0 26.882143428900775 43.250287038500119 0 0 0 0 -94.089804427450872 -55.623903848223563 0 -55.623903848223563 -62.666184818811871 0 0 0 0 1.4041355205554282 6.9355199374121597 0 6.9355199374121597 4.9269553018720842 0 0 0 0 1.2883832403416591 9.2477302933481038 0 9.2477302933481038 -2.3241489574914453 0 0 0 0 2.7380624864044876 1.8099486720693143 0 1.8099486720693143 -0.58873132310402809 0 0 0 0 3.2204952572774346 0.038481275679726951 0 0.038481275679726951 -0.022027922699978806 0 0 0 0 2.1229808889798178 0.31885862017597733 0 0.31885862017597733 0.083676080882987267 0 0 0 0 -1.135229108389467 3.1298023719060502 0 3.1298023719060502 -1.6187557531153149 0 0 0 0 2.4406963533856469 3.2144744188846843 0 3.2144744188846843 3.5564090106139332 0 0 0 0 15.516995614317239 -7.3901620401592822 0 -7.3901620401592822 -2.5691506082534943 0 0 0 0 14.325690759604186 -10.471453994041894 0 -10.471453994041894 -9.9581709439544284 0 0 0 0 14.815292842407871 -13.776882123109317 0 -13.776882123109317 -4.8030721388538495 0 0 0 0 11.252870747651286 -21.798453242147247 0 -21.798453242147247 -22.644910763350708 0 0 0 0 -12.167800524704944 -34.884039609850561 0 -34.884039609850561 -1.9149027593487062 0 0 0 0 16.636029703784516 -7.8610249794977562 0 -7.8610249794977562 -16.919384250359428 0 0 0 0 3.1854817011558225 1.9072281450296593 0 1.9072281450296593 -2.6292299989786017 0 0 0 0 3.3639637050261157 0.8607962630107453 0 0.8607962630107453 -0.08978714356156213 0 0 0 0 7.6187328085373238 0.69933525464943713 0 0.69933525464943713 -2.7260309785563863 0 0 0 0 3.6219063640073728 0.27550293590494324 0 0.27550293590494324 0.10915018916184267 0 0 0 0 6.2950504522159463 0.53683628191864685 0 0.53683628191864685 0.0073214861154218009 0 0 0 0 17.963599224313839 -2.2202233311847692 0 -2.2202233311847692 -4.2960048331651706 0 0 0 0 9.2782441228628159 1.9168371090200866 0 1.9168371090200866 -0.082969650672873332 0 0 0 0 7.0906300995295553 -3.614812042777146 0 -3.614812042777146 0.28269075072216238 0 0 0 0 14.011051870034862 -5.2446721254748354 0 -5.2446721254748354 10.235218843378334 0 0 0 0 11.778128553167335 -2.7772040145505033 0 -2.7772040145505033 -5.6902958166829816 0 0 0 0 11.607695727597466 -2.075200482715267 0 -2.075200482715267 -2.3413419108930449 0 0 0 0 6.8031619923822362 2.880042776976941 0 2.880042776976941 -3.9125862227711905 0 0 0 0 13.426637517690324 -10.833931795548475 0 -10.833931795548475 3.0300539359859364 0 0 0 0 13.543524575590254 -2.9747165427776423 0 -2.9747165427776423 -0.0093348269338093814 0 0 0 0 0.22603485292867731 -0.97280888508614094 0 -0.97280888508614094 0.82505366960024251 0 0 0 0 8.6704729879782647 -4.9511017036189209 0 -4.9511017036189209 2.5015987938809947 0 0 0 0 5.0695811395871715 -1.1370655176664324 0 -1.1370655176664324 -0.0023072849880337257 0 0 0 0 11.505664038753821 -5.7730544672807582 0 -5.7730544672807582 1.4379670451098718 0 0 0 0 10.670196293071058 -7.7587063141754697 0 -7.7587063141754697 0.48808414601825234 0 0 0 0 10.828917558312241 -11.166922981577272 0 -11.166922981577272 -4.1894391936576767 0 0 0 0 10.689972086940543 -17.021887507076624 0 -17.021887507076624 -3.7543163492107183 0 0 0 0 2.063756736430193 -1.130996713982622 0 -1.130996713982622 -1.4717644629386366 0 0 0 0 5.6219632624527662 -4.5885067288951991 0 -4.5885067288951991 3.1246588108794309 0 0 0 0 -8.6950211673483864 2.3061117918960536 0 2.3061117918960536 17.130264945129017 0 0 0 0 8.3342477280539242 -1.2790679525007447 0 -1.2790679525007447 0.080749741345743309 0 0 0 0 2.3511572361278539 -0.92965469880750717 0 -0.92965469880750717 0.20580562006624589 0 0 0 0 72.573664573708811 12.749631163173728 0 12.749631163173728 2.6536852012963195 0 0 0 0 23.537617139768372 -11.915950784200815 0 -11.915950784200815 0.048129795614458577 0 0 0 0 151.78310996594882 15.344977488372422 0 15.344977488372422 -0.048007055064707239 0 0 0 0 72.62748891079849 16.766915910685693 0 16.766915910685693 35.596481442731445 0 0 0 0 68.495083610859183 24.009609749887975 0 24.009609749887975 1.6356646076350927 0 0 0 0 146.49641918781708 -7.911347895663468 0 -7.911347895663468 0.19264294755262767 0 0 0 0 8.3181057061010506 -10.572644604322164 0 -10.572644604322164 24.020932182741571 0 0 0 0 3.4117994276057289 -12.546402797432108 0 -12.546402797432108 13.768078604874177 0 0 0 0 3.9178012344408728 -2.8409580396934082 0 -2.8409580396934082 2.1818284677736988 0 0 0 0 65.333014261774224 6.6951979221296867 0 6.6951979221296867 -3.35038079064865 0 0 0 0 -1.0880444258837088 -5.8751063802598402 0 -5.8751063802598402 34.743775620678647 0 0 0 0 0.052036236338608433 -27.365110043988711 0 -27.365110043988711 137.21365390537147 0 0 0 0 1.4095990469604658 -10.584043326606036 0 -10.584043326606036 23.807599074661766 0 0 0 0 -1.6242504403289786 -17.8003916250656 0 -17.8003916250656 29.763160630037973 0 0 0 0 21.504836469425754 -15.450659155550568 0 -15.450659155550568 15.045976732411191 0 0 0 0 0.53968988293490838 -20.536400952945968 0 -20.536400952945968 23.233289847308178 0 0 0 0 23.162599516504997 -17.680749684864452 0 -17.680749684864452 14.63253188772217 0 0 0 0 23.451272102580333 2.1950877854129018 0 2.1950877854129018 -19.751353461618919 0 0 0 0 -12.14810390338971 5.2354539672043359 0 5.2354539672043359 27.584338855787337 0 0 0 0 -0.046355801160490984 0.082057733531520682 0 0.082057733531520682 -1.0205463203804042 0 0 0 0 14.274205389700001 -10.012131983196014 0 -10.012131983196014 -6.1618725574135169 0 0 0 0 4.4838608146133083 -11.243802847426934 0 -11.243802847426934 -0.56811946404263836 0 0 0 0 11.940103293018183 -9.185068120592689 0 -9.185068120592689 -2.5358620402797669 0 0 0 0 8.6720223363395235 -2.3357420817325192 0 -2.3357420817325192 2.2508788361259349 0 0 0 0 0.13769137785220664 4.6824188994391429 0 4.6824188994391429 -0.0075303421796375971 0 0 0 0 -0.99899179424483009 3.0770712892339285 0 3.0770712892339285 -1.9583867715176808 0 0 0 0 2.5865928654257004 2.6412172412456352 0 2.6412172412456352 -0.39539026512112319 0 0 0 0 3.8588365499827262 -26.661066327749033 0 -26.661066327749033 -10.912176969505667 0 0 0 0 2.8284946261810546 8.9587308367182423 0 8.9587308367182423 -6.230590907964789 0 0 0 0 7.1584927626845456 4.9452062645864094 0 4.9452062645864094 0.02754298381692856 0 0 0 0 91.352799539983607 -27.146895077449265 0 -27.146895077449265 -10.910007176481727 0 0 0 0 0.76571480336939857 -0.31753156385604697 0 -0.31753156385604697 0.087124437035770136 0 0 0 0 156.91320542723042 50.452296887625899 0 50.452296887625899 -24.228926608219282 0 0 0 0 142.46112805863413 55.032951739930823 0 55.032951739930823 -23.166728919162818 0 0 0 0 108.87502052378477 60.620472160816917 0 60.620472160816917 21.086680241774644 0 0 0 0 205.22715627460821 99.241416846719488 0 99.241416846719488 31.641902391407847 0 0 0 0 1.3571788934079549 -0.97540101200658391 0 -0.97540101200658391 0.94607751839998444 0 0 0 0 189.20501247676884 -64.129332724931828 0 -64.129332724931828 70.967659988001714 0 0 0 0 11.579653471357233 37.745991656572784 0 37.745991656572784 162.25135789022664 0 0 0 0 18.863488420769499 -0.034662405093541793 0 -0.034662405093541793 54.372655511468608 0 0 0 0 37.619307616846527 -36.495595622632294 0 -36.495595622632294 -18.585418049504852 0 0 0 0 1.8902611696230451 -1.0029152487668176 0 -1.0029152487668176 -10.224310472585882 0 0 0 0 1.2913334993580889 -0.73554785605144701 0 -0.73554785605144701 0.31571625138104276 0 0 0 0 -40.861989915285449 10.117619108676617 0 10.117619108676617 77.260488863462527 0 0 0 0 -4.1414320061376202 36.477099055287809 0 36.477099055287809 63.962877377419161 0 0 0 0 0.47342311531610903 -4.9563313128491373 0 -4.9563313128491373 68.55814409176601 0 0 0 0 -23.5432773874345 -26.260264630797359 0 -26.260264630797359 25.185682287329598 0 0 0 0 0.95021722572410994 -0.59785938555054408 0 -0.59785938555054408 0.36261859839543814 0 0 0 0 1.2814276843128027 -0.11089237673552255 0 -0.11089237673552255 -1.3430759064419995 0 0 0 0 -11.097958521586406 31.189359882152516 0 31.189359882152516 58.922207401802623 0 0 0 0 0.27514056753015836 -0.022915608160273493 0 -0.022915608160273493 0.12781463757623351 0 0 0 0 0.39613476948559878 0.27137158435203901 0 0.27137158435203901 0.10661374655966468 0 0 0 0 2.0140471323320526 0.12639555077671361 0 0.12639555077671361 -1.2719742467691262 0 0 0 0 1.6489271663194813 0.51544483157806509 0 0.51544483157806509 -0.95545886231541388 0 0 0 0 1.1314798577895999 0.28704564546858902 0 0.28704564546858902 -1.0562560792431235 0 0 0 0 36.676806327937356 13.315211480180157 0 13.315211480180157 -12.86219516883051 0 0 0 0 41.228320456269785 2.8774687381345743 0 2.8774687381345743 -7.7152117082923724 0 0 0 0 41.791357476689882 8.2453552985752481 0 8.2453552985752481 -14.079691694740873 0 0 0 0 35.594044931093322 8.1347501050968631 0 8.1347501050968631 -6.7712522387624858 0 0 0 0 14.850901744437579 6.8901656364860386 0 6.8901656364860386 29.438327354870779 0 0 0 0 20.966213301326206 26.979585973333073 0 26.979585973333073 22.574794730789563 0 0 0 0 50.109331282405037 -21.127600664607684 0 -21.127600664607684 48.46785741514293 0 0 0 0 -26.45522323554178 11.53793311489277 0 11.53793311489277 61.011099514596985 0 0 0 0 15.809469061930031 1.478224029661277 0 1.478224029661277 55.173901337307591 0 0 0 0 11.587915090491151 37.199992784103749 0 37.199992784103749 49.348887018189131 0 0 0 0 23.410938250572599 43.806643485594492 0 43.806643485594492 51.8128345065183 0 0 0 0 49.649658826036102 50.899937541022865 0 50.899937541022865 -39.302109405151796 0 0 0 0 -20.765022266095912 106.12995295545272 0 106.12995295545272 -68.484673906429236 0 0 0 0 59.106309276440697 96.303268264057152 0 96.303268264057152 86.397692276167589 0 0 0 0 91.779679195916742 -88.592722636811956 0 -88.592722636811956 46.087488093351169 0 0 0 0 154.48500486341436 23.166692213732418 0 23.166692213732418 -30.296085897280363 0 0 0 0 15.705691384369857 10.0836553043805 0 10.0836553043805 -31.147706241635575 0 0 0 0 53.716851688404859 2.0574833596542703 0 2.0574833596542703 -77.181886641094934 0 0 0 0 -2.0720788475621248 1.5847263626175589 0 1.5847263626175589 -76.927011397288538 0 0 0 0 6.4053819858290808 6.878482837212573 0 6.878482837212573 -35.845376659670819 0 0 0 0 0.23954925128224858 -1.3910516040074103 0 -1.3910516040074103 -1.1541800361947334 0 0 0 0 2.1432462929789438 -0.95371611600253825 0 -0.95371611600253825 -0.22106164064905787 0 0 0 0 12.485354894917691 -9.6330824841065237 0 -9.6330824841065237 -22.610690643841934 0 0 0 0 13.180887882674142 -3.8115031043739407 0 -3.8115031043739407 -2.0420913430167076 0 0 0 0 34.853680505320881 7.6957975855470693 0 7.6957975855470693 -82.283977152226157 0 0 0 0 3.9837863093548549 47.334408491587631 0 47.334408491587631 -103.43135443437473 0 0 0 0 1.2210214406520521 -0.80682344434455189 0 -0.80682344434455189 -0.9476880860293676 0 0 0 0 0.3051021781515999 -0.038045488029833763 0 -0.038045488029833763 -0.35754812803566405 0 0 0 0 107.87446471945259 -23.903538328569539 0 -23.903538328569539 3.5496667591770006 0 0 0 0 107.17420554990485 -4.7673775715410258 0 -4.7673775715410258 -28.550930032217025 0 0 0 0 12.577641140056585 -0.63778591614136459 0 -0.63778591614136459 -2.1095510312101169 0 0 0 0 0.74279214684590045 -0.44974347619645982 0 -0.44974347619645982 0.16185494169077291 0 0 0 0 112.55384238742772 40.893479348588528 0 40.893479348588528 2.7811418370695264 0 0 0 0 18.8923006086643 -43.089229046753417 0 -43.089229046753417 25.829408455308254 0 0 0 0 134.33819606694033 -16.369471063931854 0 -16.369471063931854 -43.078991966947569 0 0 0 0 16.835130051220403 -19.219805092175989 0 -19.219805092175989 6.2382139565665398 0 0 0 0 -77.418207604707277 51.475706583569149 0 51.475706583569149 -46.774109170745533 0 0 0 0 -3.4663211313090869 -32.806073356190836 0 -32.806073356190836 -1.8216445301252406 0 0 0 0 55.682835631821945 -27.186314301983543 0 -27.186314301983543 -18.917074612534861 0 0 0 0 9.8778988757912884 1.4783698989576806 0 1.4783698989576806 -8.4887209072485348 0 0 0 0 61.584144703345373 -8.7575679194889915 0 -8.7575679194889915 -26.060116225764773 0 0 0 0 -1.7789044237561029 -40.513484339211203 0 -40.513484339211203 23.946210900645099 0 0 0 0 25.219363619044998 -45.900090140317005 0 -45.900090140317005 2.7706451832001449 0 0 0 0 -13.929136890459631 -23.85382465267071 0 -23.85382465267071 0.34931231633100879 0 0 0 0 42.09202156995525 -73.705178545265056 0 -73.705178545265056 9.4262174636934333 0 0 0 0 20.639565703098924 -56.579262972949437 0 -56.579262972949437 -1.716229335580902 0 0 0 0 -27.494563815761467 -3.764675225773054 0 -3.764675225773054 -1.550430167848674 0 0 0 0 69.20301946058089 -42.806625691936425 0 -42.806625691936425 0.69291550584578943 0 0 0 0 0.16996113801277701 0.22466668939307155 0 0.22466668939307155 -0.40669210689759278 0 0 0 0 22.64317882008072 -17.096109727930667 0 -17.096109727930667 14.652214862036939 0 0 0 0 19.475249102227735 -30.534705930003639 0 -30.534705930003639 27.74194435550838 0 0 0 0 -6.6296814307297609 -13.118496112677516 0 -13.118496112677516 55.106493497775062 0 0 0 0 13.356278280605693 -58.944733773834372 0 -58.944733773834372 47.313201056465175 0 0 0 0 39.983329609382054 -27.141464341782495 0 -27.141464341782495 -18.023349747016766 0 0 0 0 27.805628563521168 -34.693233124675373 0 -34.693233124675373 -18.950744502382634 0 0 0 0 4.1766450658760732 -28.067384009032622 0 -28.067384009032622 -12.15867690423562 0 0 0 0 2.9338049315735759 -1.0510445110207973 0 -1.0510445110207973 0.24767136469316109 0 0 0 0 -2.3255276605323161 -44.10619783471742 0 -44.10619783471742 -14.826019409642441 0 0 0 0 12.364867975882589 -28.009000968153885 0 -28.009000968153885 -75.975904316397646 0 0 0 0 31.748044875468622 -13.245719018391014 0 -13.245719018391014 -98.141268957299872 0 0 0 0 3.8388472921167249 1.5972933480210401 0 1.5972933480210401 -64.551862220694488 0 0 0 0 4.340203604699127 -7.4850926486246863 0 -7.4850926486246863 -5.6595656513351855 0 0 0 0 3.9755487006128831 -1.1535225801016598 0 -1.1535225801016598 -0.16781088099631314 0 0 0 0 -1.0928339727424827 -3.3874745421029218 0 -3.3874745421029218 -2.1037019641389634 0 0 0 0 -5.6891661558847773 -15.827442717850403 0 -15.827442717850403 -21.643162650868817 0 0 0 0 16.771721919223637 -10.029061092915299 0 -10.029061092915299 -11.723593128971885 0 0 0 0 -1.9197252306657901 -22.82497590953443 0 -22.82497590953443 -9.0866628799211639 0 0 0 0 12.754770275726059 8.54440549216487 0 8.54440549216487 -15.558611983279889 0 0 0 0 80.414689207378615 22.889118259944553 0 22.889118259944553 -24.680852025188244 0 0 0 0 111.52473029622615 -7.2828447139646073 0 -7.2828447139646073 -32.898312518476814 0 0 0 0 1.0429993441495355 -0.66269272450093641 0 -0.66269272450093641 0.21342679167668832 0 0 0 0 6.2423538820094109 -56.509799770533562 0 -56.509799770533562 36.742279022007551 0 0 0 0 99.794617756167099 5.4973893997065773 0 5.4973893997065773 -39.002752709071501 0 0 0 0 79.559237524208584 2.1114090175067304 0 2.1114090175067304 -21.178139219801437 0 0 0 0 82.707612813668675 -2.1398090012642115 0 -2.1398090012642115 -32.852303046182215 0 0 0 0 142.02722893734972 -5.358306199974777 0 -5.358306199974777 -34.186767873912004 0 0 0 0 118.90643467567861 -2.6134973356040518 0 -2.6134973356040518 59.636696237483648 0 0 0 0 65.553058799934661 -30.266527455429014 0 -30.266527455429014 1.8294085539841944 0 0 0 0 65.497849852434229 41.304282484252326 0 41.304282484252326 37.714411012389974 0 0 0 0 0.35932647701930875 -0.23113884576898158 0 -0.23113884576898158 0.33342816134998943 0 0 0 0 27.330439514538739 -4.8806723691908473 0 -4.8806723691908473 -6.1892625939970003 0 0 0 0 174.73061588197561 63.461304306980992 0 63.461304306980992 -10.068169032459082 0 0 0 0 12.36157286647358 28.302075762871596 0 28.302075762871596 8.2190833087948931 0 0 0 0 28.485438337182131 6.6124813284872062 0 6.6124813284872062 -19.844337864186969 0 0 0 0 19.535070998186711 -1.5516895298178497 0 -1.5516895298178497 -8.6255306281989306 0 0 0 0 20.73260133945405 -16.402975969442309 0 -16.402975969442309 -9.0429961877441656 0 0 0 0 36.685213346097953 1.6540208587171605 0 1.6540208587171605 -19.01138938884128 0 0 0 0 -8.8403790237116482 -30.530607721399633 0 -30.530607721399633 -27.898962046065435 0 0 0 0 -24.811172206271294 -17.269438804294623 0 -17.269438804294623 4.2795805859989287 0 0 0 0 19.309164625044104 7.2937073478629486 0 7.2937073478629486 -55.540243627221571 0 0 0 0 -0.034838293700211409 -0.32859919055307962 0 -0.32859919055307962 -0.56974550764607912 0 0 0 0 1.0930324429409666 22.567688635827039 0 22.567688635827039 -73.200730031715921 0 0 0 0 -15.21369932169182 -27.43824422956493 0 -27.43824422956493 -22.522025326985613 0 0 0 0 -28.123811508832659 27.560382268641092 0 27.560382268641092 -8.0758924763622417 0 0 0 0 11.388000300652493 3.3915265568601853 0 3.3915265568601853 4.9510603244495996 0 0 0 0 11.622010636432378 11.852641394378267 0 11.852641394378267 17.082596560067486 0 0 0 0 6.6167613178629381 -13.976200164658863 0 -13.976200164658863 28.122084899876427 0 0 0 0 16.125770779872255 2.5042192237962126 0 2.5042192237962126 3.287093831872312 0 0 0 0 16.659882924643163 1.54596638858761 0 1.54596638858761 -5.4288999883193778 0 0 0 0 36.012762958496751 -0.0054887834072943065 0 -0.0054887834072943065 -2.716675481962767 0 0 0 0 4.9051108004395338 -1.5884726365730444 0 -1.5884726365730444 0.57269706449889402 0 0 0 0 31.620871535855258 6.393046607654469 0 6.393046607654469 0.49152733334062759 0 0 0 0 35.335725947861647 8.4060412731496399 0 8.4060412731496399 -5.004477600191592 0 0 0 0 36.787331738789362 7.9497771884850863 0 7.9497771884850863 -9.4724026252936255 0 0 0 0 11.700335528579672 -15.881436685195865 0 -15.881436685195865 -10.994479535947221 0 0 0 0 46.470058701210746 -5.0726064732138525 0 -5.0726064732138525 -6.7793036673879215 0 0 0 0 35.090661526345684 2.6505289891346706 0 2.6505289891346706 -9.731578692704943 0 0 0 0 59.904672721305815 31.417718147038585 0 31.417718147038585 8.9096954884694242 0 0 0 0 0.46400471628584228 -0.87695705685200664 0 -0.87695705685200664 1.5239601311415809 0 0 0 0 5.7267117253439892 3.993589768299401 0 3.993589768299401 20.922062411306115 0 0 0 0 40.581595416077334 84.34953159171738 0 84.34953159171738 -26.414133623859357 0 0 0 0 16.883199042255157 2.2595819222332647 0 2.2595819222332647 -5.0385795776184814 0 0 0 0 67.161735093500965 -47.113106179619507 0 -47.113106179619507 -30.035262595282575 0 0 0 0 17.176665901179266 1.7078644289802529 0 1.7078644289802529 -5.7919044807794524 0 0 0 0 20.44460179822363 -33.659024274925912 0 -33.659024274925912 21.151378660233377 0 0 0 0 41.733024758899774 -18.810806267011912 0 -18.810806267011912 -49.798407752421554 0 0 0 0 7.4849689312131886 -12.972501256276701 0 -12.972501256276701 -22.446342972785033 0 0 0 0 38.769504534588123 -18.498324898743618 0 -18.498324898743618 -23.04641303989365 0 0 0 0 11.850444544034417 -9.300117946640384 0 -9.300117946640384 -22.672831046286319 0 0 0 0 21.649890134511224 0.1368146845834417 0 0.1368146845834417 -13.853160406227516 0 0 0 0 22.529085139782183 -34.992442907419786 0 -34.992442907419786 10.872927837963402 0 0 0 0 16.878611849425003 1.4350347744985665 0 1.4350347744985665 -6.0200534480674426 0 0 0 0 32.948921241193602 -23.088929864328122 0 -23.088929864328122 9.661367029775846 0 0 0 0 28.031550530266031 -4.1320452691549363 0 -4.1320452691549363 -10.174483448036128 0 0 0 0 30.146115235053003 -8.9721862942877522 0 -8.9721862942877522 -9.1535908418131271 0 0 0 0 28.182141187447996 -4.3157936934036343 0 -4.3157936934036343 -13.588067035945478 0 0 0 0 37.988931323525549 -11.707090094255094 0 -11.707090094255094 -18.16845539130361 0 0 0 0 22.966486198630719 -1.9396343314134015 0 -1.9396343314134015 1.4328057671045826 0 0 0 0 12.682408723504523 -16.720282972445659 0 -16.720282972445659 -15.804096808366296 0 0 0 0 29.068278089939668 -0.62884702886293553 0 -0.62884702886293553 -52.145228974760485 0 0 0 0 10.060624486249253 -34.32821360232083 0 -34.32821360232083 -84.407270333342353 0 0 0 0 -59.236914015840739 0.73924160724058652 0 0.73924160724058652 14.55180155491837 0 0 0 0 27.398308110041853 6.0775995599325157 0 6.0775995599325157 -7.9344444619589467 0 0 0 0 13.630042078842052 1.6915411925663761 0 1.6915411925663761 -1.554203034332204 0 0 0 0 -0.41109903875530485 0.22010675485513254 0 0.22010675485513254 -0.97410975841510428 0 0 0 0 12.785523363394475 7.3885531638718911 0 7.3885531638718911 -7.9512737569016281 0 0 0 0 -4.7010758657279439 30.137569278167504 0 30.137569278167504 -37.546047301928411 0 0 0 0 14.459864187080655 26.37931183753058 0 26.37931183753058 -33.549366632713088 0 0 0 0 18.121358643027634 14.008446357698745 0 14.008446357698745 -16.389852553019807 0 0 0 0 6.349842947025536 13.751730466527135 0 13.751730466527135 -16.055380890283203 0 0 0 0 29.82836005657191 -2.7693347578900216 0 -2.7693347578900216 -5.9898609237775418 0 0 0 0 2.8026175060089784 0.032285466325078005 0 0.032285466325078005 -0.64575226135433894 0 0 0 0 8.3450611272883179 5.4975078658919188 0 5.4975078658919188 -13.486707582162012 0 0 0 0 16.699636785286202 1.4114502389430186 0 1.4114502389430186 -16.360472037647583 0 0 0 0 21.620526542472362 5.9090530018776946 0 5.9090530018776946 -20.059273317316691 0 0 0 0 12.79285723330122 5.2998874161102094 0 5.2998874161102094 -20.076294772845358 0 0 0 0 16.987401335675031 9.2166839510541578 0 9.2166839510541578 -22.420343966090769 0 0 0 0 30.111715720822758 3.1403794947458366 0 3.1403794947458366 -27.485719137337654 0 0 0 0 19.720962988637439 -0.96734194494357695 0 -0.96734194494357695 -23.117184964516241 0 0 0 0 24.326767345924964 1.4944915847932236 0 1.4944915847932236 -21.815283964135148 0 0 0 0 28.590160027325851 -6.5634054171019987 0 -6.5634054171019987 -14.195646502521697 0 0 0 0 26.135872893039505 -7.0331761917261133 0 -7.0331761917261133 -23.799639151443046 0 0 0 0 23.129604540084983 -5.1028196037104294 0 -5.1028196037104294 -25.032138422082539 0 0 0 0 16.921421198277585 -10.883999437021942 0 -10.883999437021942 -29.181059793263671 0 0 0 0 13.26794111415802 -1.9616095736309376 0 -1.9616095736309376 -19.639531217384274 0 0 0 0 -8.3293859872737812 -12.337299195726246 0 -12.337299195726246 -14.930326839436816 0 0 0 0 64.699563223460245 15.750506649192801 0 15.750506649192801 8.4867945799245028 0 0 0 0 7.7748571227468801 -5.7012957212186848 0 -5.7012957212186848 -13.890458931181115 0 0 0 0 2.257531502469547 -1.3590378906573841 0 -1.3590378906573841 1.3931139839669973 0 0 0 0 6.9577048071714671 -3.0588088423604631 0 -3.0588088423604631 -15.757697021262075 0 0 0 0 19.661636312745031 36.377249600248319 0 36.377249600248319 93.218273388993325 0 0 0 0 82.39242139403359 95.423400298481084 0 95.423400298481084 -45.69226556026166 0 0 0 0 0.37260709717952523 -0.62008159455192979 0 -0.62008159455192979 0.84231133658819313 0 0 0 0 24.292425957517082 -5.9351669913253318 0 -5.9351669913253318 -6.0897018100245077 0 0 0 0 19.95189193955234 -3.2185769133454514 0 -3.2185769133454514 -6.9164628926923291 0 0 0 0 35.89905490055753 10.972759293649197 0 10.972759293649197 -6.1879196661635554 0 0 0 0 21.208742754968114 27.864527977125725 0 27.864527977125725 5.7577136470567893 0 0 0 0 2.6493400558333029 0.64842852512861882 0 0.64842852512861882 2.3366220127008388 0 0 0 0 26.012242644523212 12.589106880837925 0 12.589106880837925 16.017914631882626 0 0 0 0 11.60882001423456 5.2037857014363569 0 5.2037857014363569 4.8351339792739276 0 0 0 0 7.1462798801717105 2.8628293564129312 0 2.8628293564129312 2.7836497761335708 0 0 0 0 7.0248479067304288 1.185605460449608 0 1.185605460449608 1.2377495804674936 0 0 0 0 7.1526976606928656 1.993921173436263 0 1.993921173436263 -3.5232507117182195 0 0 0 0 6.5611132222265169 0.55533024810409537 0 0.55533024810409537 0.81508588999742027 0 0 0 0 17.84542252281517 9.3317054803005703 0 9.3317054803005703 6.6862513248511277 0 0 0 0 10.896788759534047 4.6262784419564014 0 4.6262784419564014 4.1061526584148851 0 0 0 0 1.8547318109824982 0.53992577711570444 0 0.53992577711570444 2.2174832029909828 0 0 0 0 16.617961725921305 8.7230329724677631 0 8.7230329724677631 6.8489279656507165 0 0 0 0 23.320953003951217 11.531601090254753 0 11.531601090254753 5.619828426346885 0 0 0 0 16.317859816962482 9.9294179852317939 0 9.9294179852317939 9.2301661968217559 0 0 0 0 16.077747110210112 6.8499649284585757 0 6.8499649284585757 3.4138996930344092 0 0 0 0 23.176167043978239 4.6188832433888365 0 4.6188832433888365 -2.7988990904609636 0 0 0 0 21.63366799191499 4.3795045353365367 0 4.3795045353365367 -2.7003548535821551 0 0 0 0 25.618466207853999 7.2043753696348176 0 7.2043753696348176 -0.75827056211619492 0 0 0 0 33.888345238327929 13.209539499347102 0 13.209539499347102 3.5000572392336835 0 0 0 0 21.967760595237905 6.6760982722029212 0 6.6760982722029212 0.11050354683993646 0 0 0 0 28.879620119939318 2.0872854444510267 0 2.0872854444510267 5.168548001880481 0 0 0 0 25.469517415453083 2.5787674582488762 0 2.5787674582488762 -6.8086840086753693 0 0 0 0 25.998434854222069 6.7284905264300505 0 6.7284905264300505 -1.7335396164280041 0 0 0 0 21.422673157463578 1.5579178759744536 0 1.5579178759744536 -2.2719437057448317 0 0 0 0 22.318682897383496 -2.0363378129767398 0 -2.0363378129767398 -6.7959961765636763 0 0 0 0 16.613228071641061 2.1722757208217445 0 2.1722757208217445 -2.4343980347471188 0 0 0 0 26.691438522549788 3.2183507790665544 0 3.2183507790665544 -3.6302235042858229 0 0 0 0 21.463418235588506 3.8534945177068494 0 3.8534945177068494 -3.0895978483837325 0 0 0 0 15.224179818226597 1.125841426067957 0 1.125841426067957 -0.422173336246422 0 0 0 0 23.574800559626965 -1.4090022718778528 0 -1.4090022718778528 -1.8256186752008716 0 0 0 0 20.490114881236707 -0.95519343985754812 0 -0.95519343985754812 -7.7546773007196812 0 0 0 0 35.977965625617571 11.706790787394766 0 11.706790787394766 4.0856707107168404 0 0 0 0 35.76218242040045 4.5142367189171182 0 4.5142367189171182 1.6931187515742749 0 0 0 0 22.488645783704477 7.0208457755125915 0 7.0208457755125915 -0.28039823745024606 0 0 0 0 30.440605007326667 -1.5564801822361005 0 -1.5564801822361005 -13.471325518168442 0 0 0 0 15.448301359819997 -1.379290129676896 0 -1.379290129676896 -3.661261202398522 0 0 0 0 17.892959287463441 7.7333513042529276 0 7.7333513042529276 -5.1225769259381195 0 0 0 0 31.281055751042004 6.0811815588518812 0 6.0811815588518812 -4.2815226725896025 0 0 0 0 16.662010431148531 1.2549545945498117 0 1.2549545945498117 -3.9026518039808327 0 0 0 0 6.2134880191870252 31.299929334075188 0 31.299929334075188 -8.5191925088056166 0 0 0 0 4.7809634700389267 1.2387785668414217 0 1.2387785668414217 -1.6206682073959349 0 0 0 0 73.139121469204838 -101.45062698067011 0 -101.45062698067011 -75.076074412173625 0 0 0 0 61.226232443746994 13.906209118546172 0 13.906209118546172 -11.943801664852529 0 0 0 0 30.116811059648171 0.8766826797623537 0 0.8766826797623537 -10.172139563901478 0 0 0 0 52.351176905886405 -10.89534944082915 0 -10.89534944082915 -32.298883318639412 0 0 0 0 15.743413387628607 -30.967684106115314 0 -30.967684106115314 -42.71497612593663 0 0 0 0 100.81398856438864 106.64641579122963 0 106.64641579122963 8.0236469173955811 0 0 0 0 -9.2227111881766177 -23.555785328282241 0 -23.555785328282241 -30.164292148367451 0 0 0 0 -37.554747436344769 -9.4660234081178487 0 -9.4660234081178487 -35.999373616989146 0 0 0 0 0.53130820157850778 -0.48620973944565193 0 -0.48620973944565193 0.54622863424859158 0 0 0 0 15.943862666992572 -44.087795588639466 0 -44.087795588639466 8.2733542067150765 0 0 0 0 31.47033846586254 7.654366190853807 0 7.654366190853807 2.8063657350780886 0 0 0 0 31.003631729309916 6.0869192564169907 0 6.0869192564169907 -0.64648116165426472 0 0 0 0 32.565295699555008 7.8996511171253587 0 7.8996511171253587 -0.81435801909645988 0 0 0 0 14.261526926905731 -37.158102414700977 0 -37.158102414700977 56.35626408055299 0 0 0 0 18.54033930001799 -3.9508701611607462 0 -3.9508701611607462 -7.3663348222816953 0 0 0 0 30.67893630209619 6.7368252768087586 0 6.7368252768087586 -1.1560448927057223 0 0 0 0 69.158205368221843 11.248378081464118 0 11.248378081464118 -8.9774727695456704 0 0 0 0 28.54520606092683 6.8964143578459698 0 6.8964143578459698 -1.1018927137602077 0 0 0 0 20.126878935389868 2.2214625650926791 0 2.2214625650926791 -1.5022751826945751 0 0 0 0 24.496686486425006 5.1052104063924162 0 5.1052104063924162 -1.7335382279879923 0 0 0 0 30.752358321970405 6.0101132555178083 0 6.0101132555178083 -3.995937949317522 0 0 0 0 30.622670046629253 6.1685237290719215 0 6.1685237290719215 -3.6026169097494858 0 0 0 0 25.707979939398228 2.3545623144286765 0 2.3545623144286765 -4.508519060414983 0 0 0 0 27.516361219551982 2.5005554360450333 0 2.5005554360450333 -4.4971175716688663 0 0 0 0 33.504178305579899 8.6075844932213386 0 8.6075844932213386 -3.5122070163879471 0 0 0 0 31.77333731044223 6.4257665026007089 0 6.4257665026007089 -3.5485574899194035 0 0 0 0 34.085053886792139 7.3140647421812446 0 7.3140647421812446 -5.4878919824902823 0 0 0 0 34.095323701091957 8.6773609145509454 0 8.6773609145509454 -3.6344836495195523 0 0 0 0 34.262833679810797 11.991518708017111 0 11.991518708017111 -2.8502279475460455 0 0 0 0 33.725474700111263 9.4351328082821055 0 9.4351328082821055 -0.77561222562417242 0 0 0 0 32.897532108831683 9.397302037285499 0 9.397302037285499 -0.59787580094530313 0 0 0 0 23.882958415435894 6.6932479910485654 0 6.6932479910485654 3.2045942837630719 0 0 0 0 31.886109516389865 8.9330281561065021 0 8.9330281561065021 3.7713858331017036 0 0 0 0 28.589483907874026 11.681203420738939 0 11.681203420738939 1.8811262664719379 0 0 0 0 30.2445664277991 14.097901165060875 0 14.097901165060875 3.011975078422779 0 0 0 0 4.7766574188949713 13.08499207631715 0 13.08499207631715 3.4253643131962264 0 0 0 0 3.2855026837314654 5.8258830415416014 0 5.8258830415416014 1.5851617915983525 0 0 0 0 -12.78321235121723 2.6848652812312253 0 2.6848652812312253 6.4440723086879643 0 0 0 0 24.621873098759352 1.6847564200242005 0 1.6847564200242005 8.7265830405899578 0 0 0 0 1.7479532298950957 3.7490671816731216 0 3.7490671816731216 2.5815030748503895 0 0 0 0 30.908718476479606 13.995054374443271 0 13.995054374443271 4.1191810311938752 0 0 0 0 24.766291454653334 12.449127731863882 0 12.449127731863882 5.5328986976810484 0 0 0 0 16.398824210607017 8.4991029896157215 0 8.4991029896157215 -0.56556401406169243 0 0 0 0 2.8487488161901289 5.1415516357281525 0 5.1415516357281525 3.3488147355327289 0 0 0 0 15.042430136958711 10.447324494040785 0 10.447324494040785 3.6579003372887211 0 0 0 0 41.428226942968649 3.2411041844286501 0 3.2411041844286501 -1.3970660763197174 0 0 0 0 22.308766405083986 0.11071334357827922 0 0.11071334357827922 9.5298599099871808 0 0 0 0 46.38610392872215 -0.33132196366364042 0 -0.33132196366364042 -1.235239700509112 0 0 0 0 17.683089667732617 5.0848162846855089 0 5.0848162846855089 4.2774067433360869 0 0 0 0 67.304273580684821 -7.2964625828758471 0 -7.2964625828758471 -8.4453672793699468 0 0 0 0 51.417962019742845 -10.389019979991076 0 -10.389019979991076 -7.5043049694552337 0 0 0 0 47.761413343175263 -10.578522651715787 0 -10.578522651715787 -3.5059817814624239 0 0 0 0 43.034394506411445 1.5621315364617203 0 1.5621315364617203 -4.5879338035283581 0 0 0 0 57.857531632783093 0.13532305654639742 0 0.13532305654639742 0.78443022067540369 0 0 0 0 63.462657370442685 -18.132954375889994 0 -18.132954375889994 -0.16361745639937908 0 0 0 0 21.02504891091121 -22.634877312630238 0 -22.634877312630238 20.407929640604152 0 0 0 0 1.693291847603394 0.67918492898214744 0 0.67918492898214744 0.54045817358003667 0 0 0 0 93.426847542778887 -50.488849514809317 0 -50.488849514809317 29.177399569621343 0 0 0 0 134.72810695123735 0.64658204551960807 0 0.64658204551960807 0.76312641882654475 0 0 0 0 69.47673546920123 62.648975547478528 0 62.648975547478528 78.206774271732456 0 0 0 0 15.803443178454472 2.5708087860094793 0 2.5708087860094793 15.946200816604687 0 0 0 0 40.902815673773148 34.058179231475151 0 34.058179231475151 26.714033575672715 0 0 0 0 45.950200800310085 38.777536092913806 0 38.777536092913806 17.635638385038646 0 0 0 0 37.035654197559779 5.2317186255179422 0 5.2317186255179422 -1.2073114075241165 0 0 0 0 17.640830708884096 8.5917441960325505 0 8.5917441960325505 19.254695166950796 0 0 0 0 -43.793859167031769 -27.362148707302367 0 -27.362148707302367 5.812892408228592 0 0 0 0 4.9387333895701886 4.2118488343554077 0 4.2118488343554077 30.083420224191741 0 0 0 0 -1.513184588099648 16.694409747220334 0 16.694409747220334 10.816288050046936 0 0 0 0 13.464535896895995 2.8796341182374761 0 2.8796341182374761 0.0092716897563605016 0 0 0 0 1.6024190223128709 -2.9890290060729381 0 -2.9890290060729381 2.2317659803840142 0 0 0 0 -35.570644278378495 -14.704039383668203 0 -14.704039383668203 6.333495527984951 0 0 0 0 16.850574741256423 20.438380302868495 0 20.438380302868495 9.6859337596904993 0 0 0 0 36.259388382477482 12.439522893444746 0 12.439522893444746 -4.1539823525658903 0 0 0 0 23.527212888343229 9.8619471425451479 0 9.8619471425451479 -3.5748992224696394 0 0 0 0 10.257979351288668 5.9914444514074603 0 5.9914444514074603 1.8790962213018929 0 0 0 0 -17.079030781037545 -4.0862920368191169 0 -4.0862920368191169 4.5270865472334663 0 0 0 0 54.882932053473269 -3.4624775324602979 0 -3.4624775324602979 -3.5554822296373914 0 0 0 0 -14.844201346442787 16.629845975379567 0 16.629845975379567 14.720877907739805 0 0 0 0 74.353063659355939 30.63767976021461 0 30.63767976021461 -0.61278267326423475 0 0 0 0 0.09656026439836829 0.17439267059241814 0 0.17439267059241814 0.16715334989912112 0 0 0 0 25.974263200514542 -10.552249672242169 0 -10.552249672242169 -7.2161002373818519 0 0 0 0 25.416739469412278 5.2192835040283398 0 5.2192835040283398 -7.0483188385215598 0 0 0 0 9.4264149247082969 5.3801513085668375 0 5.3801513085668375 4.4027444867717804 0 0 0 0 0.13462623869586388 0.32392718691865952 0 0.32392718691865952 0.35315725446220547 0 0 0 0 5.8526682253918807 28.796555419564186 0 28.796555419564186 10.581022636224588 0 0 0 0 11.784873219661222 18.888345629236142 0 18.888345629236142 3.7988033872197775 0 0 0 0 60.260684482482247 32.277294418901761 0 32.277294418901761 -2.3607922048665841 0 0 0 0 76.670857841378165 -20.647491102306731 0 -20.647491102306731 -31.351824110669668 0 0 0 0 -14.992624841963334 0.36201716088999092 0 0.36201716088999092 9.258240193821166 0 0 0 0 -9.201483694631861 -6.8022970262766762 0 -6.8022970262766762 -14.932682496439611 0 0 0 0 6.3753081986474172 27.794912107076414 0 27.794912107076414 29.918958764935269 0 0 0 0 19.260561265964498 4.561370779482786 0 4.561370779482786 -1.9921733852551142 0 0 0 0 36.010424896470568 3.7979907406802909 0 3.7979907406802909 -5.3256464753292221 0 0 0 0 -33.818985704961051 2.1671851712629859 0 2.1671851712629859 13.357570635351294 0 0 0 0 0.058128818638007118 0.15013351235061734 0 0.15013351235061734 0.1846927962928735 0 0 0 0 24.68747522504782 -3.9919180044546465 0 -3.9919180044546465 6.3984324610116801 0 0 0 0 4.9341880063948338 6.4748708987609689 0 6.4748708987609689 5.7562175630321235 0 0 0 0 4.4001203157185955 4.3536977350438519 0 4.3536977350438519 23.807329841859655 0 0 0 0 28.746844659165617 11.866742743585192 0 11.866742743585192 -0.79703531599534472 0 0 0 0 71.864022645009754 -15.122471332189207 0 -15.122471332189207 15.911945601002344 0 0 0 0 94.561799829523807 48.696179821616397 0 48.696179821616397 -30.456733282538607 0 0 0 0 109.09624229541532 70.855084373010754 0 70.855084373010754 -6.0714266205513923 0 0 0 0 32.13882430589365 28.05349043977435 0 28.05349043977435 88.196951157352487 0 0 0 0 16.08209329859892 -2.8203131417834584 0 -2.8203131417834584 29.070571721166289 0 0 0 0 13.829091758260461 15.219559547739308 0 15.219559547739308 10.823477291844483 0 0 0 0 5.3649063378961728 8.3633083893705589 0 8.3633083893705589 5.5341616108817107 0 0 0 0 3.4182338484242791 15.204765426785116 0 15.204765426785116 6.1705177293883935 0 0 0 0 -0.59769997971670819 15.68465942507828 0 15.68465942507828 7.580507404591458 0 0 0 0 -7.4387776468302036 7.3017632123400062 0 7.3017632123400062 7.8460798767695223 0 0 0 0 24.246788260259564 -20.186385003107262 0 -20.186385003107262 -48.053944522150204 0 0 0 0 -0.76630993026309469 -0.035419065840684993 0 -0.035419065840684993 0.12457332458180481 0 0 0 0 51.860529009478341 31.077352793051546 0 31.077352793051546 19.249241850055341 0 0 0 0 15.509725292018629 14.343767633568461 0 14.343767633568461 15.267677762555323 0 0 0 0 34.636441101792343 12.5836742775953 0 12.5836742775953 -2.1387807483414463 0 0 0 0 29.896982081906572 -4.4483209201455765 0 -4.4483209201455765 2.1387137276008161 0 0 0 0 1.6231361636668815 2.1409405313564083 0 2.1409405313564083 -0.4613413823743624 0 0 0 0 16.013616053948681 14.544486715324865 0 14.544486715324865 2.6333168423784628 0 0 0 0 -14.846157191699604 5.6649028715489749 0 5.6649028715489749 -2.2264569369629044 0 0 0 0 62.426029203548296 -7.3649867953391208 0 -7.3649867953391208 9.3639559096411631 0 0 0 0 0.62844191096356639 0.56665439872867118 0 0.56665439872867118 0.5409911900827078 0 0 0 0 11.38343466805054 0.8676110890053792 0 0.8676110890053792 8.8830256266030574 0 0 0 0 16.921695505017851 -2.9153381331469745 0 -2.9153381331469745 9.5949950520998186 0 0 0 0 23.139022037767973 2.8681725904402242 0 2.8681725904402242 -2.2559621058886705 0 0 0 0 0.62091781487288245 -9.7982166585619836 0 -9.7982166585619836 -0.72758009843028049 0 0 0 0 11.323355646933123 2.5790347395987965 0 2.5790347395987965 2.3438832135209395 0 0 0 0 8.3138260058631204 17.525715857970624 0 17.525715857970624 -3.5495009577243763 0 0 0 0 1.3908685922768456 1.7463375067343136 0 1.7463375067343136 1.5967240480779283 0 0 0 0 106.90527582662617 -14.255775356767458 0 -14.255775356767458 -18.881818687990233 0 0 0 0 -24.953168562513383 27.727549840458778 0 27.727549840458778 29.320971190415776 0 0 0 0 0.51765333382289391 0.81764063402860998 0 0.81764063402860998 -0.34420065442490877 0 0 0 0 87.757160770650444 28.118534129008765 0 28.118534129008765 -47.341745907780023 0 0 0 0 3.0534041959053866 -23.205572400445135 0 -23.205572400445135 98.551890590070798 0 0 0 0 -5.1229345212268527 -50.151349118035455 0 -50.151349118035455 29.918477130496683 0 0 0 0 -0.0058808300050312567 -0.12205206000710689 0 -0.12205206000710689 0.25979554351451206 0 0 0 0 -0.37237585988805222 13.216409798124914 0 13.216409798124914 14.95844691525059 0 0 0 0 72.844503768759751 47.01019044126042 0 47.01019044126042 -23.80225371137567 0 0 0 0 11.313505917236398 -29.652573305034025 0 -29.652573305034025 47.251761751181334 0 0 0 0 0.52180852358879193 -0.64263336060410658 0 -0.64263336060410658 0.76280743225943759 0 0 0 0 145.13021308059797 85.535788023799114 0 85.535788023799114 10.119735327519606 0 0 0 0 114.39701333285734 -53.808723253945431 0 -53.808723253945431 0.68835267103395381 0 0 0 0 11.219877011904828 72.666471448061998 0 72.666471448061998 -38.691071627368274 0 0 0 0 0.66999333298581476 0.39567529945962221 0 0.39567529945962221 -0.44396930086449427 0 0 0 0 38.751443452696549 -8.641657912124856 0 -8.641657912124856 -23.591119672663581 0 0 0 0 8.2818134486146278 -11.921679117914227 0 -11.921679117914227 -18.930310452121603 0 0 0 0 22.320784945335163 -38.254405069755713 0 -38.254405069755713 -52.729710410729695 0 0 0 0 24.645751673331688 -17.955719592193645 0 -17.955719592193645 -24.728993892756421 0 0 0 0 31.538348246052919 -33.118728769454606 0 -33.118728769454606 -0.94025052328129277 0 0 0 0 32.406604679201337 -11.925023822331582 0 -11.925023822331582 -10.645990447063241 0 0 0 0 -149.60692963836391 -8.5395111311025858 0 -8.5395111311025858 44.321218444511715 0 0 0 0 -70.370285177516052 -37.780179796001107 0 -37.780179796001107 -81.22954346851202 0 0 0 0 -0.28907630953556462 0.09299201049903516 0 0.09299201049903516 -0.47818574809104053 0 0 0 0 116.0191392141387 14.81479924746975 0 14.81479924746975 -12.921761013429432 0 0 0 0 0.083757813413420479 -0.23597275257086991 0 -0.23597275257086991 0.43480751721604527 0 0 0 0 82.42167024663604 -32.010131978769593 0 -32.010131978769593 -47.663289713447284 0 0 0 0 1.3106930172671127 -1.398796452154329 0 -1.398796452154329 15.085499226128377 0 0 0 0 9.0972753280766483 -12.621302065361078 0 -12.621302065361078 26.773199782738629 0 0 0 0 11.744739406858571 -4.2664141399143318 0 -4.2664141399143318 9.1946843997016003 0 0 0 0 7.3755918964398006 4.0978552714896068 0 4.0978552714896068 6.5430160683529834 0 0 0 0 13.99134946855429 -1.9790164300903825 0 -1.9790164300903825 -4.239009578138166 0 0 0 0 40.516312326243678 3.9219597163016715 0 3.9219597163016715 3.408976423374952 0 0 0 0 3.2025829941156303 -0.97279904955671626 0 -0.97279904955671626 1.6223071846951087 0 0 0 0 -34.658595801554839 -21.544715769846448 0 -21.544715769846448 7.811296742189711 0 0 0 0 2.5786133353763225 -0.075406765175966228 0 -0.075406765175966228 -1.9112588443219902 0 0 0 0 22.165120746257344 5.5613036916170131 0 5.5613036916170131 2.7906169594800758 0 0 0 0 11.295997005450207 -2.7313906429564341 0 -2.7313906429564341 -2.8126593382573604 0 0 0 0 1.7031417169733674 4.747982164963565 0 4.747982164963565 4.3112683305687636 0 0 0 0 19.182142766643267 9.1905836311230544 0 9.1905836311230544 10.778476923445169 0 0 0 0 51.396681645134777 6.4495827673384838 0 6.4495827673384838 7.1265582992484724 0 0 0 0 87.613533039706454 -10.121380780171876 0 -10.121380780171876 3.246126975443218 0 0 0 0 10.409193023655462 -1.4367761306755256 0 -1.4367761306755256 8.930433416104151 0 0 0 0 35.546570795187108 -17.175859825702616 0 -17.175859825702616 9.9749317486214295 0 0 0 0 0.075781277948840042 -0.0808594787034842 0 -0.0808594787034842 0.22436689872089932 0 0 0 0 44.704403987753267 16.862721489507322 0 16.862721489507322 0.82994138061940248 0 0 0 0 85.787006169116466 -16.707461968354039 0 -16.707461968354039 -14.616984531212893 0 0 0 0 128.60765280393935 58.126407100407278 0 58.126407100407278 20.698989042307403 0 0 0 0 139.31585638350407 -1.4956026385192445 0 -1.4956026385192445 -35.594500705401515 0 0 0 0 120.31953431734291 186.62008461785086 0 186.62008461785086 83.404089384888167 0 0 0 0 6.1232032042407809 3.9532618793295455 0 3.9532618793295455 25.392883106936097 0 0 0 0 1.4543408592339233 1.0678725190361931 0 1.0678725190361931 1.4944193788459794 0 0 0 0 499.62121664844739 0.63975353419132686 0 0.63975353419132686 0.47453745827705057 0 0 0 0 354.94008334182945 59.879197079786024 0 59.879197079786024 -8.3194123889706475 0 0 0 0 2.5952088401593905 -0.15115708579065412 0 -0.15115708579065412 -3.3221155556137942 0 0 0 0 372.67561985130124 76.777303949919215 0 76.777303949919215 -54.378907161965827 0 0 0 0 316.62729738779581 104.89505447860576 0 104.89505447860576 -55.058909639533113 0 0 0 0 297.75831880570513 116.43121336407648 0 116.43121336407648 -3.5855252050206445 0 0 0 0 519.31175527574123 16.704856220001886 0 16.704856220001886 -53.645143609207821 0 0 0 0 468.83514908129109 75.364263550012453 0 75.364263550012453 -35.811721274990646 0 0 0 0 0.66414390870040041 0.38388067584499197 0 0.38388067584499197 -0.48849047721580785 0 0 0 0 271.10991779026153 192.27302357764916 0 192.27302357764916 67.915807893953939 0 0 0 0 604.75514707280672 99.062553318842589 0 99.062553318842589 -51.63994891795204 0 0 0 0 299.55518412122728 55.343956973492311 0 55.343956973492311 28.727393420815019 0 0 0 0 385.64417295443491 -24.055967038315259 0 -24.055967038315259 35.197508104100791 0 0 0 0 324.35676635985146 24.332499141980719 0 24.332499141980719 17.986092100422354 0 0 0 0 306.67145727408752 -8.1168688922452219 0 -8.1168688922452219 1.0817843023388605 0 0 0 0 360.08399762084809 4.3793628806696887 0 4.3793628806696887 -9.9463342744605256 0 0 0 0 0.88781848012573406 0.75295677618306911 0 0.75295677618306911 -1.0378784637137684 0 0 0 0 366.28041495187517 51.036003480071777 0 51.036003480071777 -31.91449825740029 0 0 0 0 399.26449333052733 -3.3987250450503517 0 -3.3987250450503517 -102.05666071969767 0 0 0 0 425.68391898142909 199.70742382088795 0 199.70742382088795 -104.79213891809215 0 0 0 0 364.17869527802486 19.332391405863639 0 19.332391405863639 -144.98602053464296 0 0 0 0 300.22810664287408 64.17136650823808 0 64.17136650823808 -29.150457137705203 0 0 0 0 499.48843909072639 115.11322604103817 0 115.11322604103817 -97.905789881568552 0 0 0 0 0.83192849102101718 -0.19344368118806443 0 -0.19344368118806443 -1.1656961452017811 0 0 0 0 21.567436868304867 -136.40068800964931 0 -136.40068800964931 -88.859156645911469 0 0 0 0 417.01244574071916 63.509967127252501 0 63.509967127252501 -17.638492884122108 0 0 0 0 411.66088269276224 71.833014777241871 0 71.833014777241871 -29.240507156752297 0 0 0 0 454.14591586176766 24.440536974285067 0 24.440536974285067 -30.158086434520065 0 0 0 0 459.55333721632633 41.750323912961839 0 41.750323912961839 -29.062542927563555 0 0 0 0 499.73143138187294 28.084222998384451 0 28.084222998384451 -36.530483870521309 0 0 0 0 451.17074741701981 15.913346839801484 0 15.913346839801484 -0.14057628740311129 0 0 0 0 487.24848705484146 26.606876330368117 0 26.606876330368117 0.5206097444375315 0 0 0 0 417.16847444266932 45.235085664062538 0 45.235085664062538 -16.084856051732935 0 0 0 0 403.44057332780812 -15.794210910461389 0 -15.794210910461389 -8.4468050743152219 0 0 0 0 271.8150322894835 19.257749547957204 0 19.257749547957204 -8.1025069827983884 0 0 0 0 348.28178244608353 41.690730021302556 0 41.690730021302556 -35.121959335929226 0 0 0 0 497.13358607299415 -5.0505390439540321 0 -5.0505390439540321 -16.627626072319305 0 0 0 0 0.66024640028302573 0.34410985245296288 0 0.34410985245296288 -0.54796025173156149 0 0 0 0 379.94289470779086 4.4727778600291961 0 4.4727778600291961 29.584005838442323 0 0 0 0 318.90113120056776 8.6948058585884098 0 8.6948058585884098 -6.0682145139161321 0 0 0 0 322.50939523753459 -2.0900055937000701 0 -2.0900055937000701 -1.1816104876351687 0 0 0 0 264.40156021326948 -37.204093892984361 0 -37.204093892984361 -16.152263834242859 0 0 0 0 200.10027661479762 -53.54140113862087 0 -53.54140113862087 44.126780763468759 0 0 0 0 218.8506848904849 -10.274492197778066 0 -10.274492197778066 29.842543190378365 0 0 0 0 384.54588826413783 -59.581398170900378 0 -59.581398170900378 -12.352907844620574 0 0 0 0 213.36841270803143 -111.27878002419484 0 -111.27878002419484 40.180862339069193 0 0 0 0 202.79184905505804 -59.966048032724842 0 -59.966048032724842 23.303997620005454 0 0 0 0 3.200867075094834 1.6180555198711493 0 1.6180555198711493 0.0059672252729613068 0 0 0 0 3.201860926703489 1.6267198893329906 0 1.6267198893329906 -0.0053073692607767519 0 0 0 0 1.9641668471331499 0.13953206517157923 0 0.13953206517157923 -0.084173072038680033 0 0 0 0 546.96835581496271 -260.27501047323312 0 -260.27501047323312 106.66203928796941 0 0 0 0 7.054514535706403 1.2091345269084202 0 1.2091345269084202 -0.00014613557541893606 0 0 0 0 8.8967611080697679 0.34869283263428841 0 0.34869283263428841 -1.2903886894186374 0 0 0 0 1.0887065570448557 -0.033208798262286621 0 -0.033208798262286621 0.0070403920634430238 0 0 0 0 4.0219383148543741 1.0670904620906754 0 1.0670904620906754 -0.048681420032817113 0 0 0 0 7.1061308515563724 1.0478693464450979 0 1.0478693464450979 0.25501662399040348 0 0 0 0 6.4602122759737313 1.0921750271864452 0 1.0921750271864452 0.30948941685353804 0 0 0 0 5.6648759195166463 1.7687431679252601 0 1.7687431679252601 -0.10139829560881837 0 0 0 0 12.52520816288984 4.1393944416759947 0 4.1393944416759947 4.6821469896202501 0 0 0 0 1.4283975025875177 -0.034380756237435861 0 -0.034380756237435861 0.26181504051151577 0 0 0 0 136.55732818466549 -64.178336984296593 0 -64.178336984296593 53.719738570373082 0 0 0 0 15.090214753621694 -36.800057366454737 0 -36.800057366454737 58.150494470926972 0 0 0 0 53.11271891812612 -54.283220394947094 0 -54.283220394947094 66.14899957673174 0 0 0 0 95.8053578381016 -50.177465606071777 0 -50.177465606071777 39.289741059769256 0 0 0 0 53.844188240660515 -76.068971307940402 0 -76.068971307940402 89.813937013828138 0 0 0 0 53.7898664064287 -63.551294166830729 0 -63.551294166830729 62.144381904756358 0 0 0 0 93.363635882802555 -28.991450499872229 0 -28.991450499872229 67.931273720135607 0 0 0 0 91.857586880867757 -38.285569715016209 0 -38.285569715016209 55.784689859933508 0 0 0 0 185.30674250073571 -6.3271535793212479 0 -6.3271535793212479 48.641263134182765 0 0 0 0 203.63331739554997 -20.776843441037869 0 -20.776843441037869 28.448097464621267 0 0 0 0 245.67244324746389 42.597300397769587 0 42.597300397769587 31.075048088304527 0 0 0 0 296.61323149101213 18.748550573706559 0 18.748550573706559 15.763419703723685 0 0 0 0 80.745653611691523 -8.1673041479523363 0 -8.1673041479523363 62.619117953376104 0 0 0 0 173.58871773270005 4.3025658254020911 0 4.3025658254020911 31.40925896548697 0 0 0 0 169.48219978350244 62.759177877279541 0 62.759177877279541 47.639206075375341 0 0 0 0 124.51216156587145 103.89599352707543 0 103.89599352707543 30.232285292966537 0 0 0 0 315.07496245495531 64.326017096004335 0 64.326017096004335 -15.515717212211996 0 0 0 0 132.30399582761129 -1.0397115660566669 0 -1.0397115660566669 -41.094884773985569 0 0 0 0 42.429923484161918 31.630342473698306 0 31.630342473698306 47.680193065747488 0 0 0 0 54.682974507617473 -28.813834169127176 0 -28.813834169127176 11.378651965930487 0 0 0 0 -19.086568159558738 -58.496270507771982 0 -58.496270507771982 2.5880544645589509 0 0 0 0 -21.711891433362325 -7.5392983616807783 0 -7.5392983616807783 33.528295534419556 0 0 0 0 14.957446179168414 -62.059745655718842 0 -62.059745655718842 98.212327018158533 0 0 0 0 15.7533191644971 -7.055398168724424 0 -7.055398168724424 64.17478843138673 0 0 0 0 0.15934123867059213 -1.0789001596529815 0 -1.0789001596529815 2.4364742788721192 0 0 0 0 210.56095111615195 -102.67303068974421 0 -102.67303068974421 38.498759035734906 0 0 0 0 -9.5973943135777517 -88.034306634718774 0 -88.034306634718774 235.4703212130681 0 0 0 0 11.312162875403374 45.651835990866402 0 45.651835990866402 54.803995860124132 0 0 0 0 136.72276711994527 -187.03820631455756 0 -187.03820631455756 -166.93073415280747 0 0 0 0 -94.627484945961442 -79.704308678518728 0 -79.704308678518728 158.19728999408053 0 0 0 0 -30.10891304562665 -153.4682525387955 0 -153.4682525387955 182.58652628294072 0 0 0 0 3.1628011649494923 -1.5460297799825611 0 -1.5460297799825611 0.71923277647539208 0 0 0 0 155.36998312449487 -133.41219394471628 0 -133.41219394471628 8.3992997143832042 0 0 0 0 -67.866148288507247 0.83702297792990521 0 0.83702297792990521 113.77335469562161 0 0 0 0 21.22632741844518 -82.990318294796452 0 -82.990318294796452 -9.8584655283038956 0 0 0 0 4.3990583836336654 -2.9863273647311104 0 -2.9863273647311104 4.3695765382160277 0 0 0 0 46.911019402853981 -21.335361591797465 0 -21.335361591797465 -106.91476276789876 0 0 0 0 1.4084345479241165 11.9601557663036 0 11.9601557663036 -2.5654511939822626 0 0 0 0 13.591884027838883 1.5424149676624719 0 1.5424149676624719 -2.7767548173738761 0 0 0 0 6.9627915980726272 2.2083493546524533 0 2.2083493546524533 0.82793956676575453 0 0 0 0 5.4865472840465372 5.1099623597087316 0 5.1099623597087316 10.937266864133946 0 0 0 0 24.169761886780179 -21.525604770753915 0 -21.525604770753915 19.958968488620826 0 0 0 0 41.796693414051333 -21.31088428984043 0 -21.31088428984043 6.684995862233464 0 0 0 0 79.538024632724046 -67.061302650869777 0 -67.061302650869777 43.188535859419034 0 0 0 0 26.85290622264074 -32.118795778560312 0 -32.118795778560312 27.490557323035347 0 0 0 0 45.750675024482916 -24.960474031333092 0 -24.960474031333092 25.013367507759746 0 0 0 0 6.189646599373205 2.3711978166666317 0 2.3711978166666317 0.17646892535416425 0 0 0 0 9.0402549338832614 13.515431643333599 0 13.515431643333599 8.7015732078600898 0 0 0 0 7.8931646392861623 1.5111451191323702 0 1.5111451191323702 0.90113495569247437 0 0 0 0 7.901451082308995 0.30957102648159773 0 0.30957102648159773 1.3713056553377698 0 0 0 0 7.1378414157525185 1.2469253091120902 0 1.2469253091120902 0.41901373826188326 0 0 0 0 7.4416354370578119 1.0869088880434692 0 1.0869088880434692 -0.00018104658119165299 0 0 0 0 7.2091731974742288 0.96239771811440566 0 0.96239771811440566 0.2533054908426336 0 0 0 0 5.9075075776981976 1.0433181130572984 0 1.0433181130572984 -0.00083640598876511289 0 0 0 0 6.7362001287128805 1.7630509088372537 0 1.7630509088372537 0.079962411538185396 0 0 0 0 5.7052943941125704 2.9242565926943231 0 2.9242565926943231 1.0132899373268112 0 0 0 0 7.7558000364824693 1.105891373266954 0 1.105891373266954 0.20059569624838042 0 0 0 0 8.8466771260482346 -0.29863910463447452 0 -0.29863910463447452 3.0025988955177323 0 0 0 0 9.6572918569327157 2.1201700884770571 0 2.1201700884770571 0.66691179899156827 0 0 0 0 1.7411130615884645 0.6971565141559033 0 0.6971565141559033 -0.58148347097039099 0 0 0 0 3.142580445081876 7.3008745833292181 0 7.3008745833292181 -0.66880058710796675 0 0 0 0 0.63932041094994929 6.8554919080463605 0 6.8554919080463605 6.243501278191192 0 0 0 0 5.8726891333535605 2.1574482687704339 0 2.1574482687704339 8.6043807284380449 0 0 0 0 7.1393028967795544 4.0436746867678082 0 4.0436746867678082 11.149457649732904 0 0 0 0 6.0402039075815992 6.3875452466862335 0 6.3875452466862335 4.4810949881711828 0 0 0 0 4.6591185626780316 1.6556655532020617 0 1.6556655532020617 0.72596533814397168 0 0 0 0 -0.35489247171146943 0.01847398350431817 0 0.01847398350431817 0.0090725967880016245 0 0 0 0 0.90337177315996087 -3.0927308913980269 0 -3.0927308913980269 7.016976966149838 0 0 0 0 4.0893350506721617 2.2776349021435731 0 2.2776349021435731 0.73066621850217472 0 0 0 0 37.834180320833184 -0.98454403584308636 0 -0.98454403584308636 -4.325066209242725 0 0 0 0 2.5867854186544719 0.62964860980369097 0 0.62964860980369097 0.0028874574319129034 0 0 0 0 0.09323075185847074 -0.0066818487907447377 0 -0.0066818487907447377 -0.030499380682152986 0 0 0 0 38.765164327332968 -9.6923872438992422 0 -9.6923872438992422 3.614988269958308 0 0 0 0 -2.8779329024273466 3.3062314241889448 0 3.3062314241889448 8.8013066889567465e-05 0 0 0 0 62.521683424771254 -20.591225315494501 0 -20.591225315494501 3.4482832429736541 0 0 0 0 0.13404658559612415 0.059739223288939769 0 0.059739223288939769 -0.017151654690908902 0 0 0 0 43.693466714918031 1.7527736501433389 0 1.7527736501433389 0.023165558110454794 0 0 0 0 35.549255798593776 -13.684938375377193 0 -13.684938375377193 8.3456923101261538 0 0 0 0 43.359172923423102 -14.010627571170767 0 -14.010627571170767 1.9150142271754582 0 0 0 0 0.24074273428131931 0.20402149823250681 0 0.20402149823250681 0.00034507456170319167 0 0 0 0 0.32355969084892422 1.9447054715102707 0 1.9447054715102707 -2.3436416964725466 0 0 0 0 37.711512548659812 -18.2521059224715 0 -18.2521059224715 10.99658667552594 0 0 0 0 28.909376973570033 -8.060474353857785 0 -8.060474353857785 9.7874652594000153 0 0 0 0 28.070304603043041 -10.261130115283287 0 -10.261130115283287 4.6506563954488431 0 0 0 0 18.183354829649033 -9.0728970979888359 0 -9.0728970979888359 25.104177808475058 0 0 0 0 31.510618050779158 -4.387086482445806 0 -4.387086482445806 6.9098789734986639 0 0 0 0 19.958388892198855 -8.7950912557731868 0 -8.7950912557731868 18.666609611791905 0 0 0 0 33.828111841428836 -31.659794095631959 0 -31.659794095631959 54.414259590273815 0 0 0 0 68.930385563187883 -19.150080993032518 0 -19.150080993032518 -1.9999537760871711 0 0 0 0 27.113260285214608 20.36368059744305 0 20.36368059744305 12.912667109192569 0 0 0 0 28.694971776683815 16.238468739115774 0 16.238468739115774 50.785730451808007 0 0 0 0 20.42974016066546 -1.0350441008455959 0 -1.0350441008455959 21.859033026821976 0 0 0 0 27.381320697897536 -0.7229778346577973 0 -0.7229778346577973 21.358516750622925 0 0 0 0 17.86711868252678 7.9139677735706755 0 7.9139677735706755 -3.214317798932953 0 0 0 0 4.614746171346269 19.905774694644116 0 19.905774694644116 8.3822325536305868 0 0 0 0 14.613654584885353 11.589042482740297 0 11.589042482740297 17.050426098156294 0 0 0 0 5.3696610057013459 6.9566885041474364 0 6.9566885041474364 15.075775706557508 0 0 0 0 -1.635984213451593 13.541692174384778 0 13.541692174384778 7.3708894411345405 0 0 0 0 7.0469007660485659 9.7589146758273451 0 9.7589146758273451 0.27384122403879019 0 0 0 0 3.7126599615439773 10.495255437587119 0 10.495255437587119 -9.0327057159671256 0 0 0 0 -0.044303784266958246 25.523026693775591 0 25.523026693775591 -15.762187674626304 0 0 0 0 15.170558340730668 3.7843054926799198 0 3.7843054926799198 -2.4301941414257064 0 0 0 0 7.330456029171728 21.877314779835068 0 21.877314779835068 -4.7635691995433831 0 0 0 0 0.073573660734837176 13.285090569464444 0 13.285090569464444 -12.319851223816073 0 0 0 0 15.613460784665534 4.666295206128332 0 4.666295206128332 -1.4730140991823326 0 0 0 0 157.49815353513804 123.89284704049878 0 123.89284704049878 -149.14513151098345 0 0 0 0 240.26115828756065 -134.98490963594773 0 -134.98490963594773 61.461284522429736 0 0 0 0 -58.642396874583937 37.007659725883755 0 37.007659725883755 188.71362512613246 0 0 0 0 -51.703604960286157 120.56974280030309 0 120.56974280030309 -62.291642349306592 0 0 0 0 -44.604035872836903 -7.3524190702415098 0 -7.3524190702415098 75.243094572086363 0 0 0 0 -45.14599768727112 38.557023132163579 0 38.557023132163579 -10.258276827580847 0 0 0 0 -8.3375777117107646 40.809022725855073 0 40.809022725855073 -36.668537358405331 0 0 0 0 18.280541111362254 15.474275352823724 0 15.474275352823724 -53.349767825448794 0 0 0 0 15.835496744109911 3.863466894293154 0 3.863466894293154 -0.45878159145891861 0 0 0 0 7.0887226021222425 -1.2910032171085604 0 -1.2910032171085604 -2.2644920682490328 0 0 0 0 -39.75809069405841 0.47001729428438921 0 0.47001729428438921 9.0974411340843062 0 0 0 0 11.528201999466546 24.741141557765928 0 24.741141557765928 -7.7282750705494863 0 0 0 0 16.970815882901661 -8.5521286379214985 0 -8.5521286379214985 -5.3175452636750151 0 0 0 0 3.9246466252295704 15.423611453834075 0 15.423611453834075 -17.072201826239734 0 0 0 0 6.017255029961234 32.734580407085389 0 32.734580407085389 -29.06813726664484 0 0 0 0 18.544910639032423 -1.567992961240634 0 -1.567992961240634 23.154794339318869 0 0 0 0 3.6412857238303555 -1.3292544852506349 0 -1.3292544852506349 4.3297401132184579 0 0 0 0 -26.840560889952485 -7.5871624692577857 0 -7.5871624692577857 22.430018933259568 0 0 0 0 -19.655569014760658 -2.788807019422519 0 -2.788807019422519 13.289789602996194 0 0 0 0 55.038297621177662 -26.785929221301238 0 -26.785929221301238 17.675845952555655 0 0 0 0 54.687904481850637 -7.9905872039801302 0 -7.9905872039801302 0.44036380370919304 0 0 0 0 54.874461616164126 -28.710414372199335 0 -28.710414372199335 6.8544568741602596 0 0 0 0 79.608462965311901 -41.668204446386518 0 -41.668204446386518 3.3943594215565973 0 0 0 0 151.14179324136876 20.470948115108776 0 20.470948115108776 21.12036020601813 0 0 0 0 157.89937070069027 -54.186931151391057 0 -54.186931151391057 7.9248722241621472 0 0 0 0 -22.484461026904683 -6.9935781053135031 0 -6.9935781053135031 -27.012955570363857 0 0 0 0 71.989547917812274 6.320068699233321 0 6.320068699233321 -27.100637595391333 0 0 0 0 78.641834743189975 1.8051464995393758 0 1.8051464995393758 -37.943282929301716 0 0 0 0 65.450979652460887 -34.097146998595115 0 -34.097146998595115 -11.520872992430682 0 0 0 0 0.27615026723718117 -0.31449228506067506 0 -0.31449228506067506 0.68115258221630959 0 0 0 0 4.714747064540461 -24.343552880149247 0 -24.343552880149247 18.138193229285637 0 0 0 0 -0.12281734209228645 -0.81738105228918556 0 -0.81738105228918556 2.6900625800103493 0 0 0 0 44.100988817983762 34.833672074260136 0 34.833672074260136 -14.167283445962084 0 0 0 0 0.3726980111496232 -4.633998570393203 0 -4.633998570393203 13.723291473281847 0 0 0 0 12.957989667142101 -42.370739960680112 0 -42.370739960680112 -62.881634709231619 0 0 0 0 -6.6040530696700444 42.835181047502431 0 42.835181047502431 -12.30507717891777 0 0 0 0 -51.961493619196517 -42.09164095994899 0 -42.09164095994899 -16.785479833204562 0 0 0 0 -11.584936184523031 -15.706091292718241 0 -15.706091292718241 -6.9949290454715083 0 0 0 0 -7.9470121780323097 -36.845298096132268 0 -36.845298096132268 -14.947957292217666 0 0 0 0 37.147414129372692 -9.6184920937262319 0 -9.6184920937262319 -25.552580147577487 0 0 0 0 34.392123891133451 -22.635399915269787 0 -22.635399915269787 -49.065698285639428 0 0 0 0 44.660568552885707 -44.485689335219107 0 -44.485689335219107 -23.446914486660035 0 0 0 0 23.634260935652947 -22.252185794073682 0 -22.252185794073682 -34.088629699385137 0 0 0 0 17.140060165354953 -30.406822194383906 0 -30.406822194383906 -15.248911841883 0 0 0 0 16.05158699207459 -10.734443523226034 0 -10.734443523226034 -26.78363863046502 0 0 0 0 15.416695747144331 -6.232497067907957 0 -6.232497067907957 -40.905239831960898 0 0 0 0 3.5988602700859786 0.90490011956291205 0 0.90490011956291205 -2.8117491732004947 0 0 0 0 14.390073480682076 -7.1405265500801303 0 -7.1405265500801303 -16.482407001700231 0 0 0 0 7.8302695937854878 -9.6499013877922266 0 -9.6499013877922266 -6.3556965994965822 0 0 0 0 2.6478344674997061 -19.624675543675679 0 -19.624675543675679 -21.379714011402541 0 0 0 0 14.882236389792524 -10.785495187363608 0 -10.785495187363608 -17.541095845502298 0 0 0 0 9.8562065447822533 -5.3471798834742899 0 -5.3471798834742899 -12.777382355509189 0 0 0 0 20.425881852126622 -5.8377797285861561 0 -5.8377797285861561 12.678121864481326 0 0 0 0 13.644299690949707 1.6332751782378867 0 1.6332751782378867 -0.44089865563240432 0 0 0 0 12.780807899296633 -9.2147462337885599 0 -9.2147462337885599 -18.497277059420185 0 0 0 0 8.6075361099701695 0.37420568927701936 0 0.37420568927701936 -20.49732966440094 0 0 0 0 3.7637027516684611 1.4901089280033375 0 1.4901089280033375 23.743557138048345 0 0 0 0 8.9878090434031037 1.4550045644820031 0 1.4550045644820031 -28.628917659663323 0 0 0 0 38.03172398602328 16.752287117917263 0 16.752287117917263 -77.796331439878486 0 0 0 0 18.969408378798107 26.501722068083836 0 26.501722068083836 -130.36793470869907 0 0 0 0 31.947346984889009 -1.7134018378001201 0 -1.7134018378001201 -69.289615028430944 0 0 0 0 -0.03381960715294241 1.5319472417800193 0 1.5319472417800193 0.32786468303565469 0 0 0 0 9.2836700037614648 -1.6515899597195944 0 -1.6515899597195944 -4.8977887926311352 0 0 0 0 -73.963743006540881 -32.736848759828263 0 -32.736848759828263 -32.770371262275148 0 0 0 0 10.895758151484188 -23.798295713379957 0 -23.798295713379957 -38.842413617437614 0 0 0 0 13.348917919043743 -33.066006938685859 0 -33.066006938685859 -105.48625775206892 0 0 0 0 35.51938989136579 5.8075714696465184 0 5.8075714696465184 -19.937789615223664 0 0 0 0 12.845053048333511 -23.991767906978396 0 -23.991767906978396 -28.967599270252322 0 0 0 0 44.952894944908621 -20.831680658977803 0 -20.831680658977803 -38.691757707266333 0 0 0 0 53.766508512648215 -34.098245578529941 0 -34.098245578529941 -35.406915317924359 0 0 0 0 -40.006075341836549 30.559117310209786 0 30.559117310209786 -16.093684068204311 0 0 0 0 -64.305582166181011 3.8006911430320542 0 3.8006911430320542 -22.532160994614969 0 0 0 0 -29.566832402924774 26.260966309597279 0 26.260966309597279 -11.672391643089213 0 0 0 0 -0.60341628252899682 53.631686133559469 0 53.631686133559469 -16.115148413889983 0 0 0 0 -0.26581549471029575 42.98778264504017 0 42.98778264504017 -6.1849106346217013 0 0 0 0 -9.9179791933565866 42.596211624275384 0 42.596211624275384 -12.52508795173344 0 0 0 0 -26.712864712349983 23.596332798614185 0 23.596332798614185 -10.04301169068458 0 0 0 0 -4.6636898126962478 24.123364181537909 0 24.123364181537909 -7.8536188901507558 0 0 0 0 2.1476413589189178 27.639323308567327 0 27.639323308567327 -9.6698275101607578 0 0 0 0 3.9198284204976517 44.652081814871963 0 44.652081814871963 -7.6891652623107802 0 0 0 0 0.70665554451261414 40.796232197189966 0 40.796232197189966 -12.226474133796728 0 0 0 0 12.199451586421219 46.595719571567201 0 46.595719571567201 -6.0511056341829317 0 0 0 0 23.736150565985554 19.427096506064004 0 19.427096506064004 -7.2194306296078139 0 0 0 0 -0.6102688650462369 42.988275457512827 0 42.988275457512827 -5.7330109807016925 0 0 0 0 10.147741053147911 -22.605933840653051 0 -22.605933840653051 -23.864047518100051 0 0 0 0 51.469636179383997 -25.06949893983051 0 -25.06949893983051 -21.391220946788962 0 0 0 0 52.942479699453543 -24.698122049582707 0 -24.698122049582707 -27.02325400941595 0 0 0 0 17.069221449182805 -3.9660870991783668 0 -3.9660870991783668 -14.662922855102806 0 0 0 0 -36.957254351035317 -4.5360253638564245 0 -4.5360253638564245 -12.860401574978823 0 0 0 0 15.987622260236094 -4.1741120430287992 0 -4.1741120430287992 -13.113558593204402 0 0 0 0 49.959970259555121 -7.109107942832452 0 -7.109107942832452 -14.462965105237515 0 0 0 0 30.157556123796894 22.807479801566842 0 22.807479801566842 -7.0675677123590503 0 0 0 0 78.334776461779256 -33.947950149152575 0 -33.947950149152575 -20.958286799968846 0 0 0 0 57.317829733577128 -2.846008752777152 0 -2.846008752777152 -17.290574584585556 0 0 0 0 96.249649532021067 -7.6721289372362662 0 -7.6721289372362662 -16.6929140301811 0 0 0 0 65.876924005152432 25.099167432820877 0 25.099167432820877 -4.5742794167617831 0 0 0 0 86.40859723691392 10.573644864006837 0 10.573644864006837 0.86287413535114865 0 0 0 0 87.981975892334958 -18.589640883152924 0 -18.589640883152924 -19.952389396057697 0 0 0 0 20.717170630030523 59.361147985848675 0 59.361147985848675 -7.9057983781394796 0 0 0 0 30.450182587985182 42.435848872499264 0 42.435848872499264 -5.4741767697005344 0 0 0 0 46.462831811561045 47.750073920598425 0 47.750073920598425 -6.8692945749908176 0 0 0 0 45.699107135364102 15.395975035609808 0 15.395975035609808 -3.6790421117552796 0 0 0 0 30.260561768447587 46.108420301884053 0 46.108420301884053 2.2903768494879841 0 0 0 0 23.242111573170405 55.978080209402833 0 55.978080209402833 -2.124224925364615 0 0 0 0 4.7619141330481156 1.6654044707525051 0 1.6654044707525051 -1.5060856095625024 0 0 0 0 13.45377542820188 -1.6521745676018327 0 -1.6521745676018327 -1.6565591870785283 0 0 0 0 19.485957369819516 51.182382499886899 0 51.182382499886899 -23.998661766920122 0 0 0 0 4.544187714032887 33.153784344032374 0 33.153784344032374 -29.625750176111069 0 0 0 0 8.7112636640135861 10.118799292371222 0 10.118799292371222 -8.7322713544017461 0 0 0 0 2.1642032419497728 -0.010733572336635078 0 -0.010733572336635078 -0.68699588171097314 0 0 0 0 -5.9336285270528606 29.299628132051566 0 29.299628132051566 -1.3279054780851567 0 0 0 0 47.012763622942657 -30.823149980317794 0 -30.823149980317794 -13.198528908282242 0 0 0 0 36.981679895659909 48.104910879260387 0 48.104910879260387 -9.3693634883538834 0 0 0 0 -5.7621184284180345 17.7495841284981 0 17.7495841284981 -21.186238046360359 0 0 0 0 115.90535092486198 -26.076710493458791 0 -26.076710493458791 -266.18334925607587 0 0 0 0 16.393009566240835 58.591707912296215 0 58.591707912296215 -17.36716612077953 0 0 0 0 83.830934317683386 -55.842006847656421 0 -55.842006847656421 -1.8870155468389385 0 0 0 0 86.733061828632344 -49.830519943724539 0 -49.830519943724539 -3.5880115277218465 0 0 0 0 82.748327764405985 -51.172340168594019 0 -51.172340168594019 1.2260769009908472 0 0 0 0 52.29772052233966 -50.191590367338904 0 -50.191590367338904 7.5355066152965264 0 0 0 0 83.542316740180922 -54.712996738768766 0 -54.712996738768766 4.9624245737418278 0 0 0 0 100.31995899876347 -69.41145441315939 0 -69.41145441315939 -0.42979666833934971 0 0 0 0 99.560175693493875 -56.143953688241481 0 -56.143953688241481 -13.235526904572453 0 0 0 0 104.28202056207397 -55.410318263171263 0 -55.410318263171263 -16.4152699712904 0 0 0 0 100.88379584611175 -21.816790939642033 0 -21.816790939642033 -24.167432303038368 0 0 0 0 84.104265223139919 -40.360340289502801 0 -40.360340289502801 -23.562212966394327 0 0 0 0 83.065534415356524 -41.81541846165328 0 -41.81541846165328 -25.124831243543667 0 0 0 0 86.344141844727346 -57.835935101711584 0 -57.835935101711584 -9.1925092932087864 0 0 0 0 93.579746200468435 -48.03041206709463 0 -48.03041206709463 -19.634421837877198 0 0 0 0 92.784519103566709 -53.592768688314209 0 -53.592768688314209 -6.3978117985102472 0 0 0 0 84.100652100521074 -44.331022127493725 0 -44.331022127493725 0.46709679252307978 0 0 0 0 40.503077953218053 -28.857099302704626 0 -28.857099302704626 40.725858847121131 0 0 0 0 70.271895734171267 -35.668569360503682 0 -35.668569360503682 6.1859676083677755 0 0 0 0 87.081344863869163 -49.562936428187413 0 -49.562936428187413 -9.2260876230222948 0 0 0 0 70.604665651400865 -31.861292036622558 0 -31.861292036622558 2.1033795397033828 0 0 0 0 9.9378874560247752 4.8039839446377792 0 4.8039839446377792 1.658523125858131 0 0 0 0 67.536405718201422 -34.481549935040448 0 -34.481549935040448 7.3973495716988964 0 0 0 0 45.056360585354923 -13.259113692315395 0 -13.259113692315395 3.1478516482097803 0 0 0 0 59.787504274117964 -24.115179013442685 0 -24.115179013442685 -25.009843764003715 0 0 0 0 78.529097540314979 -35.208912192818843 0 -35.208912192818843 -14.075908133567737 0 0 0 0 77.699581401579053 -36.87157718358867 0 -36.87157718358867 -16.376998206198095 0 0 0 0 72.60381644716017 -33.648252762451307 0 -33.648252762451307 3.5392107850027514 0 0 0 0 74.813150733162729 -41.029950916060329 0 -41.029950916060329 25.0931183099039 0 0 0 0 85.616335338762838 -50.09970182154791 0 -50.09970182154791 1.3714789385744552 0 0 0 0 94.660801218789857 -54.630944375983972 0 -54.630944375983972 3.546009326871058 0 0 0 0 6.6940813556755216 3.205098093469144 0 3.205098093469144 0.85901561485721267 0 0 0 0 -28.840947309456624 82.26270469832609 0 82.26270469832609 -68.899497977038976 0 0 0 0 108.47380647429691 -87.548779877778045 0 -87.548779877778045 64.428334436357119 0 0 0 0 28.736067663839549 36.995696830450093 0 36.995696830450093 -77.389771647286011 0 0 0 0 87.84071466316891 5.8045371893744573 0 5.8045371893744573 -78.666024890828368 0 0 0 0 59.547099354256261 -25.878420201162072 0 -25.878420201162072 -78.013024977999464 0 0 0 0 2.578363098165859 1.098061544750319 0 1.098061544750319 0.23009726020321009 0 0 0 0 241.32710802601105 -199.80482605255793 0 -199.80482605255793 109.92780705344097 0 0 0 0 11.450876907543716 -22.929587816399135 0 -22.929587816399135 349.83200557234795 0 0 0 0 0.95413803016176857 -0.96020045640069895 0 -0.96020045640069895 0.76523790681007542 0 0 0 0 8.8152065974977631 7.5154828067829955 0 7.5154828067829955 3.478318003665585 0 0 0 0 269.19725488577751 -59.161481592007021 0 -59.161481592007021 -5.4781369897180454 0 0 0 0 151.04796823920969 -4.2239497749860107 0 -4.2239497749860107 -24.015821305532199 0 0 0 0 49.738892073943134 64.332772742509718 0 64.332772742509718 -24.952098534021843 0 0 0 0 125.8055803874995 -75.498308569925655 0 -75.498308569925655 78.047882592052545 0 0 0 0 118.2694728970323 -47.382629834055656 0 -47.382629834055656 11.649074996065792 0 0 0 0 93.098238138699799 -23.497796123495618 0 -23.497796123495618 -7.2565533470674382 0 0 0 0 81.784528112280896 -35.339755672130423 0 -35.339755672130423 16.366510800448566 0 0 0 0 95.716270439531115 -37.300357696318166 0 -37.300357696318166 0.1799835630799862 0 0 0 0 29.403620823934034 5.7963759867901672 0 5.7963759867901672 -4.3071275962175264 0 0 0 0 73.10571073542269 6.2183903321056277 0 6.2183903321056277 -22.302934714619141 0 0 0 0 47.572703922391156 -4.2885185755417865 0 -4.2885185755417865 -3.6073460310926748 0 0 0 0 48.526227713527987 2.610386076290979 0 2.610386076290979 0.05187700957094421 0 0 0 0 31.860104544506612 10.868677150250505 0 10.868677150250505 1.0683475657101553 0 0 0 0 29.946314579823593 8.2326556964721931 0 8.2326556964721931 4.0180567367347066 0 0 0 0 26.570597432264549 2.7899371877786052 0 2.7899371877786052 5.073669117303325 0 0 0 0 41.110673955756283 -5.369646628364535 0 -5.369646628364535 0.18619106374126204 0 0 0 0 38.813236014460927 -24.87009374613217 0 -24.87009374613217 7.8653073067449668 0 0 0 0 71.957938123926851 -32.706025057959494 0 -32.706025057959494 -0.6367395074171327 0 0 0 0 61.746968259902133 -33.504759864941661 0 -33.504759864941661 9.6719305818686507 0 0 0 0 59.54045245242196 -13.161168415801967 0 -13.161168415801967 1.7081448678253537 0 0 0 0 1.0690268565704173 4.1546877293509965 0 4.1546877293509965 -5.7352216433505419 0 0 0 0 -0.54638511313532945 2.3830825136064959 0 2.3830825136064959 -6.0106031705045098 0 0 0 0 3.0379392144113808 0.89386886428314938 0 0.89386886428314938 -6.5162048436163786 0 0 0 0 2.2311988191040655 -0.15371405160504992 0 -0.15371405160504992 -2.687634058295771 0 0 0 0 -0.54084128832073475 3.1379381688533385 0 3.1379381688533385 -7.3104986825862852 0 0 0 0 0.0053079171248100465 4.9195762291293477 0 4.9195762291293477 -3.1820902713090788 0 0 0 0 0.53213446064470382 0.92312370061371141 0 0.92312370061371141 -0.77157156200398092 0 0 0 0 -0.88062316565162746 2.1003757357677362 0 2.1003757357677362 -2.3074532476073331 0 0 0 0 0.48307747562262193 3.5550735479370985 0 3.5550735479370985 -3.8464344793751479 0 0 0 0 -0.2618590077099725 10.192779697863898 0 10.192779697863898 9.0848006910327967 0 0 0 0 29.179269187248792 9.2516426805684659 0 9.2516426805684659 2.8346133175234627 0 0 0 0 0.4499226380895216 0.79086384702750046 0 0.79086384702750046 -0.76298692683478198 0 0 0 0 30.443437519368445 3.3559297708398788 0 3.3559297708398788 -0.59304697395191397 0 0 0 0 0.79748154068511212 0.7296022611374724 0 0.7296022611374724 -10.808618431488412 0 0 0 0 0.91799973549994007 0.98783312509397092 0 0.98783312509397092 -2.2869233563237188 0 0 0 0 28.370094739132014 11.002138217058786 0 11.002138217058786 -7.3114341092777977 0 0 0 0 2.7175737357320031 -0.34366108800412576 0 -0.34366108800412576 -4.9781048526288032 0 0 0 0 -0.42834171733654358 0.023939258401833641 0 0.023939258401833641 0.2198635087109726 0 0 0 0 0.14674277365702437 1.3848285534338629 0 1.3848285534338629 1.1284189786647403 0 0 0 0 -0.12578623689114465 3.048861372783108 0 3.048861372783108 -0.39951234437194216 0 0 0 0 0.39686466909142482 0.26724638843351478 0 0.26724638843351478 0.15053509097765305 0 0 0 0 0.092871747623576084 4.0979729310813582 0 4.0979729310813582 -3.9862639678426603 0 0 0 0 1.7018366553184023 3.2608401317035032 0 3.2608401317035032 -4.9149729402399771 0 0 0 0 -0.11051051915819698 3.5717304940417307 0 3.5717304940417307 -1.3690943969063483 0 0 0 0 0.6011324678265737 2.6177772048219481 0 2.6177772048219481 -0.56558031952067722 0 0 0 0 0.87901745486306027 2.4764820829606151 0 2.4764820829606151 -1.0198534419733107 0 0 0 0 1.1070211490164183 1.8991855686248584 0 1.8991855686248584 0.69365616041841349 0 0 0 0 1.5105036908689726 0.64141613553161392 0 0.64141613553161392 0.96441390078643963 0 0 0 0 1.9204031810859306 0.76514552271669345 0 0.76514552271669345 0.36395454327004018 0 0 0 0 0.90857814867267805 1.5572872273695264 0 1.5572872273695264 1.137897466993089 0 0 0 0 3.6917162317895418 4.8119157432072956 0 4.8119157432072956 1.59503580217131 0 0 0 0 -12.242074026440605 -0.27213910656656282 0 -0.27213910656656282 14.262359722231459 0 0 0 0 0.5092179881434955 0.31063720405473205 0 0.31063720405473205 -0.86826010468734838 0 0 0 0 -0.46816686071906588 1.2802723712732984 0 1.2802723712732984 4.5542600552983288 0 0 0 0 1.5239357600457879 -0.86400716044996173 0 -0.86400716044996173 2.925482064071403 0 0 0 0 0.91904751096808468 0.30799877242436224 0 0.30799877242436224 0.66367726173328911 0 0 0 0 0.76268655627427506 1.1118297932286696 0 1.1118297932286696 -4.8209374195373229 0 0 0 0 -0.10374542167916445 0.25455787417097664 0 0.25455787417097664 0.1005513013956239 0 0 0 0 0.82727111547080767 1.1053600916451476 0 1.1053600916451476 0.87883756159333271 0 0 0 0 -1.1347978065005009 2.5865443184938925 0 2.5865443184938925 2.0076806652076087 0 0 0 0 -0.53378063989748625 1.5933306643853218 0 1.5933306643853218 -0.48000349450163426 0 0 0 0 -0.48518944047145851 4.8191144331913627 0 4.8191144331913627 1.7171781896668001 0 0 0 0 0.57256020342083502 4.2117975377640615 0 4.2117975377640615 -3.2027396220894335 0 0 0 0 6.4124909654501607 13.144328778167644 0 13.144328778167644 -6.0337934316008806 0 0 0 0 6.6069963883983291 9.7138215116217559 0 9.7138215116217559 -19.246201050915339 0 0 0 0 5.4895380259686135 2.4901989270054443 0 2.4901989270054443 -12.897014252200613 0 0 0 0 7.2705950911986292 5.446020650867025 0 5.446020650867025 -9.0522499842272488 0 0 0 0 4.481713389045126 -2.9050866139838405 0 -2.9050866139838405 -14.828476503513922 0 0 0 0 0.40473622040190094 2.0920548266558239 0 2.0920548266558239 -8.9806741594920112 0 0 0 0 2.143873366452226 -7.4002613831295037 0 -7.4002613831295037 -17.312292061552466 0 0 0 0 2.2513527277333196 -4.8846653282642176 0 -4.8846653282642176 10.8824589039596 0 0 0 0 -0.081919247624721692 -0.0020975259171782668 0 -0.0020975259171782668 -0.0091041626079311194 0 0 0 0 253.21628349451021 117.44049129121149 0 117.44049129121149 -118.3674686573741 0 0 0 0 271.12441368252212 243.84310064193431 0 243.84310064193431 -171.48528132213136 0 0 0 0 19.481079562494415 198.33881171405119 0 198.33881171405119 -90.273658160560842 0 0 0 0 0.90608079680825782 -0.70263239087623575 0 -0.70263239087623575 0.49678889653006975 0 0 0 0 2.8316102008175221 -12.531769691330599 0 -12.531769691330599 -3.9992739861946056 0 0 0 0 10.638353157879465 0.30364852580246726 0 0.30364852580246726 -13.171013112591789 0 0 0 0 27.382773080659717 -7.3091447946253085 0 -7.3091447946253085 -19.476085854881838 0 0 0 0 23.106150873669321 -27.352893997900456 0 -27.352893997900456 0.56197245666967888 0 0 0 0 159.72088192906358 9.9834472875611961 0 9.9834472875611961 -29.883963111118767 0 0 0 0 200.4891679893326 52.016870791342718 0 52.016870791342718 -29.448035547657042 0 0 0 0 24.522827507718375 5.4664937917000813 0 5.4664937917000813 -19.787040522086137 0 0 0 0 8.5754426022519432 -3.1999690452384169 0 -3.1999690452384169 0.89054023204970545 0 0 0 0 33.063919121659296 -26.30774840672202 0 -26.30774840672202 -51.784387272659139 0 0 0 0 11.177441482551721 -3.3898664445636477 0 -3.3898664445636477 0.67253678316225218 0 0 0 0 47.811058427525495 -13.925475724046251 0 -13.925475724046251 -259.80500460909849 0 0 0 0 10.549211185292279 -16.056273577192677 0 -16.056273577192677 -61.025003670299171 0 0 0 0 -0.41561286094520256 -11.771086485342229 0 -11.771086485342229 -28.002847571562043 0 0 0 0 7.7723901329818545 2.217326546624653 0 2.217326546624653 -16.199048195366281 0 0 0 0 16.105051051837108 -13.978784140385311 0 -13.978784140385311 -88.615093691572014 0 0 0 0 11.454607082829796 -2.9906083278707012 0 -2.9906083278707012 0.39191425055942508 0 0 0 0 2.2436522558509751 -5.4533921272440296 0 -5.4533921272440296 -33.684601248911726 0 0 0 0 -15.988379126707514 17.894033725498218 0 17.894033725498218 -19.461223239802791 0 0 0 0 39.656969770337128 -54.098497222354993 0 -54.098497222354993 -180.45905564818111 0 0 0 0 3.8921134612864989 8.1679534347740912 0 8.1679534347740912 -16.414497371728572 0 0 0 0 106.38197157425202 6.7555417694167517 0 6.7555417694167517 -40.175738782867995 0 0 0 0 9.8790938599319631 -2.3047399466459231 0 -2.3047399466459231 0.16913428714557283 0 0 0 0 110.0386160019234 27.293123576043609 0 27.293123576043609 -133.6955569944306 0 0 0 0 18.310825734110949 19.485755761497938 0 19.485755761497938 -53.286288060537444 0 0 0 0 -3.5848954635437167 -3.355568859189356 0 -3.355568859189356 -51.115619170605214 0 0 0 0 24.482595768749206 -42.779235719460935 0 -42.779235719460935 -159.24386435745549 0 0 0 0 44.354214010549185 33.937189988445922 0 33.937189988445922 -105.48877971787634 0 0 0 0 -37.266425770869319 -25.960692290474888 0 -25.960692290474888 10.98846047046181 0 0 0 0 161.41974642816695 -93.105531842806457 0 -93.105531842806457 10.3675923990454 0 0 0 0 -8.6676933779899628 11.266977723236597 0 11.266977723236597 -5.2247303280115709 0 0 0 0 62.08430084855263 7.1160865336704973 0 7.1160865336704973 -5.9856762549339377 0 0 0 0 -0.22046117694753775 8.1250929504695257 0 8.1250929504695257 -5.910347689179936 0 0 0 0 3.4402962944332103 21.355156940723909 0 21.355156940723909 7.5512133969881674 0 0 0 0 18.540744776850261 -1.4916878779975455 0 -1.4916878779975455 -39.981957029703963 0 0 0 0 17.393483116044081 10.330421374519293 0 10.330421374519293 4.3700940643338964 0 0 0 0 0.23586503984654605 0.16705005426593189 0 0.16705005426593189 -0.019891810953441363 0 0 0 0 1.2284059175256061 15.903726193659393 0 15.903726193659393 3.3229661285457119 0 0 0 0 1.2002508955229132 9.1094920867113061 0 9.1094920867113061 5.7561994401376779 0 0 0 0 0.55811613634623569 0.29823084317774295 0 0.29823084317774295 -0.14931158148679757 0 0 0 0 1.0155631152774731 1.3546734767159023 0 1.3546734767159023 0.77390326830709455 0 0 0 0 1.2202166470338582 11.322927697604172 0 11.322927697604172 22.450315602722966 0 0 0 0 1.6605658860516996 1.4121352353076162 0 1.4121352353076162 10.527119723230861 0 0 0 0 0.58548028098630311 0.87433022431685004 0 0.87433022431685004 -0.25075055011643599 0 0 0 0 0.57505505969203341 0.99836567092746442 0 0.99836567092746442 -1.1052511597850412 0 0 0 0 -0.11168704397189799 0.51015121278293485 0 0.51015121278293485 -0.36455104412616629 0 0 0 0 0.43154451152440743 0.98828077092548483 0 0.98828077092548483 0.56110969964652213 0 0 0 0 1.12495464101994 1.4625180412431291 0 1.4625180412431291 -1.3832112932126392 0 0 0 0 1.1849450808495021 1.5229573815342974 0 1.5229573815342974 -0.14124101370009612 0 0 0 0 1.035320993325513 1.8992972603649605 0 1.8992972603649605 -0.24625224674633728 0 0 0 0 1.5979041487134964 2.181818169587018 0 2.181818169587018 -2.6376510514314759 0 0 0 0 1.9365906148086651 2.5342832215800399 0 2.5342832215800399 -2.772590503661263 0 0 0 0 1.7306306750379008 1.6895388250178485 0 1.6895388250178485 -1.318081304124803 0 0 0 0 0.14896640188635502 1.1077954045634044 0 1.1077954045634044 -0.98344217891116159 0 0 0 0 1.0487410403002286 0.91878371427191041 0 0.91878371427191041 -2.1637928178353576 0 0 0 0 23.264078256024732 -3.1280685860046731 0 -3.1280685860046731 -2.997887382641693 0 0 0 0 0.44115585307616101 0.024568093004278424 0 0.024568093004278424 -1.5700052917121838 0 0 0 0 2.4604335307412839 0.68543898621135213 0 0.68543898621135213 -2.1346211618949553 0 0 0 0 2.9579120311536826 0.13767052933314972 0 0.13767052933314972 -2.7355139471426355 0 0 0 0 2.5869874747832 0.38343942500648609 0 0.38343942500648609 -2.5826190181371658 0 0 0 0 3.103253062879844 0.11867036572883194 0 0.11867036572883194 -3.4352978026017809 0 0 0 0 2.4413301673776004 1.4607806719500331 0 1.4607806719500331 -4.3833186677741196 0 0 0 0 11.585959736526547 7.1204654984496898 0 7.1204654984496898 -1.9648777227999972 0 0 0 0 33.238059984974825 11.921664185052379 0 11.921664185052379 -10.160270104569406 0 0 0 0 28.638058567861663 -7.8883911823508299 0 -7.8883911823508299 0.5625201932427899 0 0 0 0 40.617976212286521 -12.775437984554372 0 -12.775437984554372 -3.1763122961493764 0 0 0 0 0.66264467377681946 0.24735651187352481 0 0.24735651187352481 -1.3029221262554829 0 0 0 0 43.668911827824559 -11.500055512686387 0 -11.500055512686387 4.6807606982919197 0 0 0 0 88.08314760360372 16.123334710508118 0 16.123334710508118 -18.289285852692572 0 0 0 0 9.2056204504015113 27.445959925658912 0 27.445959925658912 -13.65505276263724 0 0 0 0 116.25669312247373 4.5909640911582699 0 4.5909640911582699 -16.12088725786333 0 0 0 0 89.003362553049556 -12.951336711787661 0 -12.951336711787661 20.342031018619821 0 0 0 0 101.5848732420327 -21.130236632183966 0 -21.130236632183966 -1.0985441976157517 0 0 0 0 108.38381646830749 10.073299184025103 0 10.073299184025103 28.842466014528618 0 0 0 0 108.04391993836907 -13.122889619044017 0 -13.122889619044017 11.929394654056559 0 0 0 0 0.17998103067009552 0.35997734958351835 0 0.35997734958351835 -0.072746135002150325 0 0 0 0 54.236189785722672 -30.229917494599363 0 -30.229917494599363 7.3215484165248199 0 0 0 0 53.242278777514002 -32.755574105436153 0 -32.755574105436153 5.0634751729768368 0 0 0 0 0.16922541957602277 0.16992175286678268 0 0.16992175286678268 -0.20424829391753108 0 0 0 0 4.2186655590369355 26.898546004973504 0 26.898546004973504 34.291187021510865 0 0 0 0 -1.8568311651188196 -1.6380569387780284 0 -1.6380569387780284 38.754102792657918 0 0 0 0 46.879191534940219 -21.841604567202602 0 -21.841604567202602 39.876213304916874 0 0 0 0 137.56129290468198 -10.413905723341628 0 -10.413905723341628 36.828414942232499 0 0 0 0 289.2602288701346 -43.232138722430022 0 -43.232138722430022 -42.876116250452753 0 0 0 0 174.36302634847698 45.264443796143041 0 45.264443796143041 22.965144882426728 0 0 0 0 364.43618592915846 -73.041292040813062 0 -73.041292040813062 -99.482414782970068 0 0 0 0 420.08678226876509 -69.510827082659375 0 -69.510827082659375 -99.258442841089675 0 0 0 0 317.9127605042313 -31.887525808071601 0 -31.887525808071601 -120.74754783405845 0 0 0 0 519.96435054751146 15.256094754911203 0 15.256094754911203 -109.88877783038394 0 0 0 0 440.18713328302192 -125.75327442533357 0 -125.75327442533357 -108.10039075780486 0 0 0 0 2.2186288490257589 0.970588196038916 0 0.970588196038916 -0.084360716234738953 0 0 0 0 109.33299020412869 14.934794572494901 0 14.934794572494901 20.699027419874028 0 0 0 0 -0.28644160831420784 0.51948940958100565 0 0.51948940958100565 -0.44255386583525502 0 0 0 0 279.01332036400345 181.14441802300701 0 181.14441802300701 41.710629932259167 0 0 0 0 235.3130243018968 20.873949055193847 0 20.873949055193847 11.857118921877639 0 0 0 0 360.73534607661168 178.00188362471215 0 178.00188362471215 -147.59130771001577 0 0 0 0 361.46589100676647 154.399342295108 0 154.399342295108 -96.014913200157167 0 0 0 0 367.11139113232616 127.72856275922413 0 127.72856275922413 -15.077796786037396 0 0 0 0 324.4644711560868 144.07500211070692 0 144.07500211070692 7.2530734346765939 0 0 0 0 333.31776327751777 126.71016412135282 0 126.71016412135282 -1.5455942148851136 0 0 0 0 347.91228620969923 137.38112072378385 0 137.38112072378385 8.1679596314138081 0 0 0 0 331.71736971321297 130.02593803693401 0 130.02593803693401 55.136810324133251 0 0 0 0 340.14152521232973 125.25718913127326 0 125.25718913127326 58.812010230848472 0 0 0 0 341.46034304924433 133.45553319669594 0 133.45553319669594 -15.040987192371375 0 0 0 0 1.6778668349668759 2.2147690234767978 0 2.2147690234767978 -1.619729428372813 0 0 0 0 -4.4788827186712297 9.6563543908551424 0 9.6563543908551424 2.2323891663327231 0 0 0 0 9.8888423060016066 8.2761304491344276 0 8.2761304491344276 2.3359329276588028 0 0 0 0 334.9937397961985 36.795571394132345 0 36.795571394132345 -25.091783598824158 0 0 0 0 350.71875250485391 113.3413453634449 0 113.3413453634449 50.880184966222785 0 0 0 0 315.55565328015473 112.45988161965101 0 112.45988161965101 49.488996455250515 0 0 0 0 331.74801572428714 139.84134411766274 0 139.84134411766274 15.426976950642484 0 0 0 0 351.90269884320151 119.91839587157307 0 119.91839587157307 -0.98720647498936387 0 0 0 0 375.97462134233956 76.455916611733912 0 76.455916611733912 -85.384202994845793 0 0 0 0 269.24358139541982 108.04381822349217 0 108.04381822349217 2.5181430367597955 0 0 0 0 273.01414030827254 195.28350480814419 0 195.28350480814419 -68.61152722758095 0 0 0 0 499.88879913657911 -26.801930214279526 0 -26.801930214279526 -203.66270398420582 0 0 0 0 410.60463117421295 135.29991307902804 0 135.29991307902804 -30.146840840491251 0 0 0 0 0.72739344480108947 -0.018955478728820196 0 -0.018955478728820196 -0.36376881398625838 0 0 0 0 220.0355818007979 -166.40840801379224 0 -166.40840801379224 -80.665789734770911 0 0 0 0 299.33308154711995 -49.603310123742872 0 -49.603310123742872 -174.47031430537493 0 0 0 0 140.39829588495832 295.78984380261352 0 295.78984380261352 -161.42030040059601 0 0 0 0 5.0911433685269003 53.162105249531507 0 53.162105249531507 -61.204116873965205 0 0 0 0 -67.150919681695996 214.8527516414814 0 214.8527516414814 39.16309356773256 0 0 0 0 224.45517651303635 -152.66323899022288 0 -152.66323899022288 -105.58941368998011 0 0 0 0 2.2775515644950346 0.89712309821245206 0 0.89712309821245206 0.01363789486585229 0 0 0 0 499.41831266773625 -129.96117552169213 0 -129.96117552169213 -145.17718604563382 0 0 0 0 403.64930214289507 -218.82874645266151 0 -218.82874645266151 -65.77586851562674 0 0 0 0 371.59525609981029 182.66172762575584 0 182.66172762575584 43.914650402699429 0 0 0 0 498.44679855734648 133.81043590393924 0 133.81043590393924 -19.705812888586877 0 0 0 0 235.79016008882172 170.65957482180124 0 170.65957482180124 58.1525802296688 0 0 0 0 499.16403860711944 76.659150993317368 0 76.659150993317368 -0.19035962529506328 0 0 0 0 370.40920525994625 93.782454910292955 0 93.782454910292955 -2.3288636199931751 0 0 0 0 157.65863860170066 234.81861395401287 0 234.81861395401287 56.953955233659187 0 0 0 0 231.83296718161 191.88116647870368 0 191.88116647870368 174.80756544680312 0 0 0 0 384.65090621278978 126.99976099246619 0 126.99976099246619 108.03821782834223 0 0 0 0 406.61273994857402 121.41975893736466 0 121.41975893736466 47.569050365713245 0 0 0 0 291.90247611117047 227.9969643717771 0 227.9969643717771 25.380404682335648 0 0 0 0 118.91951881853402 61.917093532792734 0 61.917093532792734 41.508693988079308 0 0 0 0 293.42126901030861 -130.4436565286519 0 -130.4436565286519 -66.564735292687388 0 0 0 0 584.59768520939542 -101.84754687460617 0 -101.84754687460617 -84.780229136029106 0 0 0 0 467.93153797928244 209.07306726755229 0 209.07306726755229 170.01780901014163 0 0 0 0 219.99293161846799 -58.275871470076105 0 -58.275871470076105 -41.863457713428716 0 0 0 0 4.3383165559787074 -0.86328321208058423 0 -0.86328321208058423 0.097821344409959599 0 0 0 0 580.73306394265819 203.86175470132736 0 203.86175470132736 24.606557151918466 0 0 0 0 166.95122947148138 -215.27798921351476 0 -215.27798921351476 -34.626322589312252 0 0 0 0 394.95584692399871 26.621153226684385 0 26.621153226684385 311.85945686792866 0 0 0 0 653.58321687482749 -35.20247425738652 0 -35.20247425738652 77.472803370477777 0 0 0 0 596.39462137686633 -25.709090852556159 0 -25.709090852556159 -17.596168784227984 0 0 0 0 360.26775449234628 260.29936315871635 0 260.29936315871635 56.443926173636868 0 0 0 0 168.443625928865 174.13782863170547 0 174.13782863170547 64.864385391790108 0 0 0 0 362.51509194425671 36.711472925097198 0 36.711472925097198 -25.171986406594357 0 0 0 0 438.53134682099335 64.753879164849067 0 64.753879164849067 -55.21285957753026 0 0 0 0 2.5453176240987681 1.2350780892159641 0 1.2350780892159641 -1.3150587053910177 0 0 0 0 378.78906534416274 20.42097027336311 0 20.42097027336311 -10.680749508866541 0 0 0 0 0.73104594174310478 -18.958608261710431 0 -18.958608261710431 -55.487521138270239 0 0 0 0 1.6634634893200229 -0.27117011263138657 0 -0.27117011263138657 0.18718472608581385 0 0 0 0 499.62330930359803 0.64068066827551573 0 0.64068066827551573 0.47471613381793243 0 0 0 0 50.094758244908007 -70.548678220457148 0 -70.548678220457148 -26.250809343631694 0 0 0 0 288.84021760910764 -54.137394664962073 0 -54.137394664962073 -34.507262470194831 0 0 0 0 0.71782001971196507 0.39174461593801979 0 0.39174461593801979 -0.13633117000956893 0 0 0 0 796.19311762561301 28.781116028030652 0 28.781116028030652 -16.716860505044238 0 0 0 0 -89.778934434112671 191.48016690088167 0 191.48016690088167 69.160573265610623 0 0 0 0 3.4540145923437979 -0.6946032577067669 0 -0.6946032577067669 0.10109455963117653 0 0 0 0 1.3589106976403897 -0.074599524091722991 0 -0.074599524091722991 -0.053200287092929871 0 0 0 0 -6.702054243996372 23.996578125612501 0 23.996578125612501 86.340664929226676 0 0 0 0 16.501684450978246 14.456510744638692 0 14.456510744638692 15.269101215820688 0 0 0 0 -1.6353600170252776 6.159128023159667 0 6.159128023159667 -5.1051621885218879 0 0 0 0 494.18781951627898 113.75650350796995 0 113.75650350796995 28.674491097718377 0 0 0 0 1.4054856102931179 -0.40156979401816195 0 -0.40156979401816195 0.25708964030929304 0 0 0 0 31.034771164787344 -4.2327024352922127 0 -4.2327024352922127 2.7248020812255742 0 0 0 0 112.30178620284369 -173.51382561972892 0 -173.51382561972892 166.49678661870172 0 0 0 0 314.65368122266773 -220.75864716967783 0 -220.75864716967783 43.317547468300873 0 0 0 0 499.36503742376362 -95.070251170300509 0 -95.070251170300509 -88.682381436680529 0 0 0 0 209.10728768949912 -55.960408349506125 0 -55.960408349506125 -1.1002102885077676 0 0 0 0 -1.7933176380311124 -0.015047145144066576 0 -0.015047145144066576 10.079603119381602 0 0 0 0 244.73040366385499 -20.423868109877233 0 -20.423868109877233 -33.94112874045593 0 0 0 0 -20.786484010342065 -34.740901998410493 0 -34.740901998410493 -16.433715951761101 0 0 0 0 -9.3658338924292366 -14.587177242927932 0 -14.587177242927932 19.074587683170698 0 0 0 0 -2.9794017692706802 -13.607332712653463 0 -13.607332712653463 -15.404297792760687 0 0 0 0 6.4308609368942919 -2.6806361421769092 0 -2.6806361421769092 -1.7007694267062192 0 0 0 0 -1.1183469639631767 -6.8842160460200184 0 -6.8842160460200184 6.0657643544418818 0 0 0 0 7.6844730770676506 -20.510250425766248 0 -20.510250425766248 -10.161588660650482 0 0 0 0 7.4530264240788711 -4.4143856604689731 0 -4.4143856604689731 -12.246665531993244 0 0 0 0 7.5386632238065374 -5.0948227739025924 0 -5.0948227739025924 -9.8574208015917293 0 0 0 0 -4.8197393626479652 -11.087785700401966 0 -11.087785700401966 -5.3861230001635079 0 0 0 0 6.9595833626178711 -2.4695197109407694 0 -2.4695197109407694 -1.9805758475581468 0 0 0 0 -6.2678391800882309 1.2544953047641911 0 1.2544953047641911 -2.7235937022864292 0 0 0 0 0.91707526782117554 -0.03726494059112806 0 -0.03726494059112806 -0.62127109216200904 0 0 0 0 12.142488417033292 -2.695892826237916 0 -2.695892826237916 -4.9972433832368637 0 0 0 0 -2.4208932864597728 -3.5784144221371053 0 -3.5784144221371053 1.8418530336744965 0 0 0 0 5.1445983377265332 -1.2060961270052855 0 -1.2060961270052855 -0.37345889159906132 0 0 0 0 10.11386183210152 0.1316362257129704 0 0.1316362257129704 -3.3979591331571726 0 0 0 0 1.0638451612399979 0.14051846177034655 0 0.14051846177034655 -0.42658616250317105 0 0 0 0 7.0349125236583347 -6.3947973463928118 0 -6.3947973463928118 -2.4442621885422398 0 0 0 0 6.7247883646441551 0.53825219115419998 0 0.53825219115419998 0.66176990132655078 0 0 0 0 -0.96321635596205191 -3.4074187779231271 0 -3.4074187779231271 0.41086794676503496 0 0 0 0 23.158259412157349 3.1857514570549057 0 3.1857514570549057 -2.3202845011795077 0 0 0 0 13.204656364221592 -5.4352418492235302 0 -5.4352418492235302 -0.955478218637694 0 0 0 0 20.281610592648576 0.85271373402024153 0 0.85271373402024153 -16.729703435204073 0 0 0 0 23.183493623111644 7.7335322422002974 0 7.7335322422002974 -3.1135499964719884 0 0 0 0 -0.04077615034728943 0.031145245297746094 0 0.031145245297746094 -0.11008718428793973 0 0 0 0 -0.92139756208416657 2.5410193013565845 0 2.5410193013565845 -0.57889085623805769 0 0 0 0 19.523820863887977 6.2091831405215494 0 6.2091831405215494 -1.267683834840355 0 0 0 0 15.317700185985814 10.832837816960129 0 10.832837816960129 1.8566535133959476 0 0 0 0 15.418126233713792 8.4890868733029325 0 8.4890868733029325 3.7701435765105415 0 0 0 0 1.3963634710828305 -0.48258239278326265 0 -0.48258239278326265 -0.3132548444201263 0 0 0 0 5.5855142190894185 -1.2826374688428359 0 -1.2826374688428359 4.7933048840885633 0 0 0 0 499.96095398372472 254.27521104393509 0 254.27521104393509 123.85273197618547 0 0 0 0 471.0488385583285 240.88966351186718 0 240.88966351186718 118.70663061239506 0 0 0 0 464.71442486180786 217.14340314766892 0 217.14340314766892 105.27931299206696 0 0 0 0 485.85325869975713 222.3308244996324 0 222.3308244996324 94.922688976847937 0 0 0 0 500.00337767170049 232.06374167304008 0 232.06374167304008 94.808892860238132 0 0 0 0 2.7286794269384922 -1.6683947696937302 0 -1.6683947696937302 -0.82140591388413198 0 0 0 0 6.1359159632513638 23.050025711392596 0 23.050025711392596 -5.74663267929526 0 0 0 0 3.8643299379695657 -2.7714388142079907 0 -2.7714388142079907 -1.5905681906145945 0 0 0 0 429.00885755627996 195.81155822429787 0 195.81155822429787 81.795871005337162 0 0 0 0 426.32439075780894 188.59312773837874 0 188.59312773837874 80.962766347590573 0 0 0 0 404.22986635065536 109.81456504521341 0 109.81456504521341 -1.8509008378851384 0 0 0 0 499.75658463846889 171.9676734433173 0 171.9676734433173 22.452382844022143 0 0 0 0 367.9959797126503 161.12583197943343 0 161.12583197943343 66.225715387804371 0 0 0 0 389.65137285162655 153.08840024474779 0 153.08840024474779 62.453950746303612 0 0 0 0 408.34505909803374 122.68201867843085 0 122.68201867843085 37.472066659648405 0 0 0 0 342.5483051439769 132.20477386696842 0 132.20477386696842 54.213572183998245 0 0 0 0 363.19556641316558 123.72927651113834 0 123.72927651113834 51.570332213154508 0 0 0 0 357.2389951475102 109.97952101538506 0 109.97952101538506 43.117155382111676 0 0 0 0 379.54269706270861 87.100969695226382 0 87.100969695226382 48.862719079687004 0 0 0 0 393.36479146697502 96.77556087978985 0 96.77556087978985 28.957722973349746 0 0 0 0 499.94053381934555 138.87416346032597 0 138.87416346032597 36.189486945475998 0 0 0 0 1.0507059431779115 0.020763724503682468 0 0.020763724503682468 -0.36776051830464074 0 0 0 0 8.9006166938843307 6.360926934852813 0 6.360926934852813 -1.1162585818406114 0 0 0 0 167.78259861090919 152.69960115287699 0 152.69960115287699 139.7290142851644 0 0 0 0 9.8570345182879464 7.382131382037926 0 7.382131382037926 -1.8148478614319572 0 0 0 0 472.16289041287746 176.03226471619038 0 176.03226471619038 44.084290470916095 0 0 0 0 2.1942732463658103 0.016109171878554207 0 0.016109171878554207 -1.5154266449938436 0 0 0 0 337.52420300403537 164.64262544380685 0 164.64262544380685 112.93056376234675 0 0 0 0 350.97013031959614 153.0044834331226 0 153.0044834331226 86.861529198360515 0 0 0 0 340.92388950331951 128.58213441759216 0 128.58213441759216 55.36107684631061 0 0 0 0 332.98239628768715 143.878837656596 0 143.878837656596 107.87147405915033 0 0 0 0 14.078010522403929 -8.3622240646556065 0 -8.3622240646556065 -27.438186981382728 0 0 0 0 5.8209084660507004 -3.0734516509605143 0 -3.0734516509605143 -2.8072489661431788 0 0 0 0 366.19171830381492 144.18916066231947 0 144.18916066231947 59.028031661407361 0 0 0 0 20.651025045917891 16.70233570206662 0 16.70233570206662 -7.8850815539652785 0 0 0 0 8.6222550421307513 5.0542804355685522 0 5.0542804355685522 0.12359384601667811 0 0 0 0 8.9221084797163712 27.806353140282567 0 27.806353140282567 52.708806817929258 0 0 0 0 -7.7335448297162657 -3.4206393218142352 0 -3.4206393218142352 12.539539575920784 0 0 0 0 1.9575990626281055 0.57499304486867686 0 0.57499304486867686 0.91995277481692028 0 0 0 0 0.45271171387751608 0.22115205069543176 0 0.22115205069543176 0.094572020242662341 0 0 0 0 46.149762097229541 16.679264389132442 0 16.679264389132442 -8.9199603537682819 0 0 0 0 42.226592471018193 -28.835094736791262 0 -28.835094736791262 19.145609937675829 0 0 0 0 -36.823283528982756 -22.512526853101434 0 -22.512526853101434 67.958928890159541 0 0 0 0 81.112915052810422 45.197846987888738 0 45.197846987888738 -34.292873819379651 0 0 0 0 35.897037526013264 31.14334818352873 0 31.14334818352873 -10.321214130452645 0 0 0 0 65.130953222100288 1.6148485793457965 0 1.6148485793457965 -16.78905431029699 0 0 0 0 15.617532570968251 -23.372246997392104 0 -23.372246997392104 23.30743856354951 0 0 0 0 0.564949718127707 0.15506195380721921 0 0.15506195380721921 0.078412775354618824 0 0 0 0 6.0447555574828584 -3.1341924454736869 0 -3.1341924454736869 0.95677497144134804 0 0 0 0 5.9569954007183696 -1.661314715656701 0 -1.661314715656701 -0.56385554752588973 0 0 0 0 1.7826800387748989 0.30027248089091729 0 0.30027248089091729 -0.31123218770183819 0 0 0 0 2.9584924194132327 -2.4996409754359519 0 -2.4996409754359519 -0.0055025882555526096 0 0 0 0 2.2719346074427449 2.0351205464761506 0 2.0351205464761506 -0.47768794307217632 0 0 0 0 1.8096912633991451 -4.0505522575739121 0 -4.0505522575739121 -1.0526588657262081 0 0 0 0 2.9738972262857715 -0.20075113083373708 0 -0.20075113083373708 -2.9231880677942854 0 0 0 0 5.2704030395948749 -1.1871677429237399 0 -1.1871677429237399 -1.2712725046759239 0 0 0 0 6.0139156963196001 -0.16937330953396668 0 -0.16937330953396668 -4.9817088973206012 0 0 0 0 5.0581190098258624 0.013198725571138215 0 0.013198725571138215 -2.2016563200712667 0 0 0 0 5.0782315341639332 0.034360835706593207 0 0.034360835706593207 -4.7478088687711022 0 0 0 0 5.110708383306747 -2.832824450932744 0 -2.832824450932744 -1.5671932280665135 0 0 0 0 7.4019642536547128 2.0432031851611869 0 2.0432031851611869 -2.5932934300771544 0 0 0 0 11.969136848229027 1.7612321999156961 0 1.7612321999156961 -2.0561674142992388 0 0 0 0 5.7071713278746756 0.95409181818172328 0 0.95409181818172328 -5.8777754543871197 0 0 0 0 8.1871244782947166 0.61841018652478585 0 0.61841018652478585 -1.6773652822778478 0 0 0 0 7.8333740562248249 2.8667309756567949 0 2.8667309756567949 -0.65728290917486731 0 0 0 0 0.96926297649567772 1.7078950046023853 0 1.7078950046023853 -0.010087668564709149 0 0 0 0 6.2847000080573707 8.7540021022164183 0 8.7540021022164183 -5.8606254608168911 0 0 0 0 -3.1179935915188253 11.380945443246901 0 11.380945443246901 1.758229837987443 0 0 0 0 11.930525104497974 2.1686360686155126 0 2.1686360686155126 -3.2624164138367746 0 0 0 0 16.423792989648064 2.5613054135506275 0 2.5613054135506275 -3.3469191181467295 0 0 0 0 12.902297835087666 -0.99470350557406562 0 -0.99470350557406562 -2.7071845608948593 0 0 0 0 9.8446787199812249 6.2601150959368077 0 6.2601150959368077 -1.7986470352664128 0 0 0 0 4.3896394566800154 -1.2264479322400348 0 -1.2264479322400348 -1.9155827541813721 0 0 0 0 1.4355932037900825 -0.13706795095713353 0 -0.13706795095713353 -2.2490607683077224 0 0 0 0 11.526306231200579 -0.088205325592781492 0 -0.088205325592781492 -2.7350392659317322 0 0 0 0 10.286511369879008 -1.2805304857158148 0 -1.2805304857158148 -2.7217991965799637 0 0 0 0 3.3842928372001957 0.62980059076731898 0 0.62980059076731898 -2.0851028123370394 0 0 0 0 6.1245443546295064 -0.8757609226060481 0 -0.8757609226060481 -2.3617250386114392 0 0 0 0 6.0107120008897255 -1.1674423578951405 0 -1.1674423578951405 -2.0196435041116274 0 0 0 0 4.4404560995131614 -1.1031028465666672 0 -1.1031028465666672 -1.6734551882623063 0 0 0 0 6.5884634335857299 -0.99624686931099404 0 -0.99624686931099404 -7.1601634457484806 0 0 0 0 5.0010725423162228 -1.0065172773062505 0 -1.0065172773062505 -0.96061132618145195 0 0 0 0 5.3874006738869076 1.1172621693026836 0 1.1172621693026836 -2.1353338900928045 0 0 0 0 6.3316582896495675 -0.50998558002686423 0 -0.50998558002686423 -3.5726300699336235 0 0 0 0 5.2238662332470085 -1.0512747402084415 0 -1.0512747402084415 -2.4209032635649237 0 0 0 0 6.6920388695563879 2.5471041260093923 0 2.5471041260093923 -2.6404819583355099 0 0 0 0 4.4713735431423949 -0.41681326193099988 0 -0.41681326193099988 -2.5208433803228485 0 0 0 0 4.9701838836846868 -1.3091760651945097 0 -1.3091760651945097 -0.90582873392297503 0 0 0 0 5.2497267721228127 -0.80421031084597416 0 -0.80421031084597416 -6.8833390507311378 0 0 0 0 6.4713393267399404 2.1703901292146695 0 2.1703901292146695 -2.382575028793239 0 0 0 0 8.0528495848152488 0.58962489381337946 0 0.58962489381337946 -4.5654828956758138 0 0 0 0 8.8607537029620289 0.084432958369177413 0 0.084432958369177413 -4.295996582516409 0 0 0 0 9.6729796527185954 -1.0545199485326293 0 -1.0545199485326293 -3.9397740836557205 0 0 0 0 7.413307985798042 -1.3805383577201269 0 -1.3805383577201269 -4.0176229262547167 0 0 0 0 3.2054126103063165 -1.6395217663192589 0 -1.6395217663192589 -2.6971910071584042 0 0 0 0 10.241867626940873 -3.1313503137186132 0 -3.1313503137186132 -10.419595682989325 0 0 0 0 5.9261044919075365 -1.6721823771521724 0 -1.6721823771521724 -5.9141816433426948 0 0 0 0 2.8057762296093642 -3.0455735144529399 0 -3.0455735144529399 -8.2999834507363275 0 0 0 0 12.125463060914626 -19.677921983845408 0 -19.677921983845408 -10.073929344459799 0 0 0 0 8.6893730313236297 -0.67139044305097895 0 -0.67139044305097895 -0.71227325673072539 0 0 0 0 9.8663716744826502 -2.8059228813433492 0 -2.8059228813433492 -6.6843801359678423 0 0 0 0 41.770289124344345 6.3141636426350658 0 6.3141636426350658 -11.562766381420943 0 0 0 0 19.776889707973169 14.34495016511255 0 14.34495016511255 9.7369166570604193 0 0 0 0 1.1862423803568722 -0.067350426976042765 0 -0.067350426976042765 -0.86085162671277038 0 0 0 0 16.118796291850913 1.0638863157566334 0 1.0638863157566334 6.2209856369663612 0 0 0 0 21.317428729131279 -13.284934319421296 0 -13.284934319421296 -9.7622371976519844 0 0 0 0 37.452621310350878 -4.2602269695696009 0 -4.2602269695696009 -17.393447966382382 0 0 0 0 -3.6608581513066838 -12.773846153318971 0 -12.773846153318971 0.30220106910985578 0 0 0 0 5.3178250585675162 -2.3398982637773331 0 -2.3398982637773331 -0.97672018188679943 0 0 0 0 -6.3492509971281379 -7.8156606595495077 0 -7.8156606595495077 -5.3258802823266933 0 0 0 0 -0.17148792078101494 -0.061562224816607003 0 -0.061562224816607003 0.34348921120056741 0 0 0 0 32.20258606290372 20.003586302528106 0 20.003586302528106 6.1364038052151955 0 0 0 0 6.9083905163479358 -0.52273054085306825 0 -0.52273054085306825 -2.267460441165781 0 0 0 0 1.2639892211163897 -2.0396165559815813 0 -2.0396165559815813 0.75367673701468618 0 0 0 0 0.15539630399780435 -5.8599915851651758 0 -5.8599915851651758 -5.6831660551010827 0 0 0 0 0.63773764370444042 -7.4811894681043327 0 -7.4811894681043327 -5.9956259106301673 0 0 0 0 4.6189265827525343 -1.781952805899838 0 -1.781952805899838 -1.5634188631145689 0 0 0 0 1.3225619766190171 -0.088063210959865579 0 -0.088063210959865579 -0.31523705670468738 0 0 0 0 8.209667935267154 -1.7024800929642252 0 -1.7024800929642252 -0.23284668217873117 0 0 0 0 13.201941050722553 2.9543061599899261 0 2.9543061599899261 -13.074595797238089 0 0 0 0 -0.18920528489434218 -5.184026171055848 0 -5.184026171055848 17.089475436037674 0 0 0 0 8.5836088538112563 13.834171178922247 0 13.834171178922247 8.2352299199088748 0 0 0 0 8.9671987832137887 -4.5928217313232551 0 -4.5928217313232551 -7.458233975659482 0 0 0 0 7.3270968669826004 -4.4100812937340947 0 -4.4100812937340947 -3.2115400423952565 0 0 0 0 9.4181783188988746 -2.2123587495184154 0 -2.2123587495184154 -4.4405591620039786 0 0 0 0 7.320252350211149 -3.8237574917623078 0 -3.8237574917623078 -8.7642803462006214 0 0 0 0 5.0994224517929609 -5.1694286079944334 0 -5.1694286079944334 -5.217768677269305 0 0 0 0 8.8600681630651223 -4.5545941816793629 0 -4.5545941816793629 -7.4638040242452348 0 0 0 0 8.9748039668356689 -4.8515889943600996 0 -4.8515889943600996 -7.3278389482811122 0 0 0 0 10.291131544572067 -4.7801000278955144 0 -4.7801000278955144 -7.7981041964190467 0 0 0 0 4.1737776485694535 -3.943286983114783 0 -3.943286983114783 -5.4488642426452616 0 0 0 0 13.195400017142163 -3.5154850705116587 0 -3.5154850705116587 -8.1772653673138507 0 0 0 0 10.037613725578808 -3.7683402734535321 0 -3.7683402734535321 -7.5696401040432022 0 0 0 0 8.3695040945015364 -5.4141106021298242 0 -5.4141106021298242 -9.1593833777305917 0 0 0 0 9.1745471561853265 -4.1222863791206663 0 -4.1222863791206663 -8.1734111526603783 0 0 0 0 30.625230636279298 -4.0400000946435739 0 -4.0400000946435739 -10.353826631113861 0 0 0 0 32.490278416129229 -6.735058618172701 0 -6.735058618172701 -21.671424607111476 0 0 0 0 30.63636558523217 -14.81035509691651 0 -14.81035509691651 -4.5235375363190542 0 0 0 0 2.764347750125002 0.98404726379084195 0 0.98404726379084195 -0.58667273373935647 0 0 0 0 12.065853505795985 9.8378620422147947 0 9.8378620422147947 -24.55960558316292 0 0 0 0 3.2012516151438768 -3.7397260551543878 0 -3.7397260551543878 -8.4457822277896284 0 0 0 0 6.6562087758320558 -12.107182218412618 0 -12.107182218412618 2.0811893147381397 0 0 0 0 6.8281842286792198 -22.918440896009542 0 -22.918440896009542 -25.836564311066276 0 0 0 0 20.625562690114805 -9.2032312980240931 0 -9.2032312980240931 19.795515890687511 0 0 0 0 -78.739752620512718 9.8594120716873022 0 9.8594120716873022 46.118029538699375 0 0 0 0 73.119860026434253 130.37528925179777 0 130.37528925179777 -40.979024675656547 0 0 0 0 0.75429498233086445 1.1314902349629943 0 1.1314902349629943 1.4434038414396699 0 0 0 0 37.700708214034705 -14.345124669392249 0 -14.345124669392249 15.499473900517614 0 0 0 0 26.435631767272014 -32.126290931940275 0 -32.126290931940275 -7.7639719821095241 0 0 0 0 34.379261475457213 -43.669714183970768 0 -43.669714183970768 19.415221266065469 0 0 0 0 9.2563233309482484 10.155313430902652 0 10.155313430902652 4.0643072613960385 0 0 0 0 41.733372357620397 29.32091755777958 0 29.32091755777958 -30.542757817940583 0 0 0 0 26.745121822319959 -16.983371497083112 0 -16.983371497083112 -6.9814074642954438 0 0 0 0 26.411180094482802 -4.7158052582194614 0 -4.7158052582194614 -38.840409706022001 0 0 0 0 -0.6439574391035241 -0.98389311626585818 0 -0.98389311626585818 0.37533729434509588 0 0 0 0 28.365867617700587 -17.465665316394052 0 -17.465665316394052 -10.417864587198892 0 0 0 0 28.684746961165445 1.1426153860215891 0 1.1426153860215891 -61.065242195594237 0 0 0 0 -25.507441997440544 36.212681224436892 0 36.212681224436892 -29.176730274690726 0 0 0 0 32.718903917000453 1.5593697222343934 0 1.5593697222343934 -35.337942528120948 0 0 0 0 14.311001965152627 13.899650767038565 0 13.899650767038565 -24.291752230121801 0 0 0 0 7.9885257211938061 8.5126148066058249 0 8.5126148066058249 -13.142293204880843 0 0 0 0 3.8290095317844695 -0.43794517339802708 0 -0.43794517339802708 -1.4543097047810463 0 0 0 0 9.9068754293790562 10.352196895926227 0 10.352196895926227 -12.886511566092508 0 0 0 0 11.777104561624583 6.6361949243032541 0 6.6361949243032541 -5.5046086928741715 0 0 0 0 14.83278172336054 1.3472561075823251 0 1.3472561075823251 -7.2803712512976517 0 0 0 0 22.351150324828097 -1.6801188640056353 0 -1.6801188640056353 -11.416035038452719 0 0 0 0 15.120136998541728 2.3444508624143703 0 2.3444508624143703 -2.002323255350793 0 0 0 0 16.673160154413381 6.2967039953084623 0 6.2967039953084623 -6.3081595822864074 0 0 0 0 13.835090216378376 10.369078035228085 0 10.369078035228085 -0.22723233548640565 0 0 0 0 10.681125809782316 3.6525012569248929 0 3.6525012569248929 0.61931021259624686 0 0 0 0 13.244590774095741 1.3353521519070455 0 1.3353521519070455 -4.6684246340578284 0 0 0 0 6.879891537389212 2.8533329589949976 0 2.8533329589949976 -1.1644345988849238 0 0 0 0 15.966798666554496 4.1478050828284267 0 4.1478050828284267 0.026395888513434329 0 0 0 0 11.154270722369732 3.1971060026004068 0 3.1971060026004068 -1.3976865296598069 0 0 0 0 11.103904683446785 1.5156007542911993 0 1.5156007542911993 -3.132716383854131 0 0 0 0 12.50640809043216 2.2618737925649839 0 2.2618737925649839 -5.5600055894918228 0 0 0 0 12.52762324954756 -0.80917389534261019 0 -0.80917389534261019 -7.4653883529058476 0 0 0 0 16.912007603712254 6.7222537231266415 0 6.7222537231266415 -14.348180893860444 0 0 0 0 19.8155783625308 -1.5325706007848225 0 -1.5325706007848225 -12.007323567147068 0 0 0 0 12.048806335087047 0.60572943431835213 0 0.60572943431835213 -2.9769891050125943 0 0 0 0 21.310546118365664 3.9413680451575601 0 3.9413680451575601 -12.712472705803521 0 0 0 0 8.418018339208551 -0.7774515445546637 0 -0.7774515445546637 -3.2484739718373907 0 0 0 0 6.7543744724688324 -2.1266959727399066 0 -2.1266959727399066 -6.1059666187458186 0 0 0 0 9.4423503150922841 -1.1281570299545365 0 -1.1281570299545365 -6.0702873903587715 0 0 0 0 16.241243026073562 -1.7966612853415427 0 -1.7966612853415427 -8.1235568316088802 0 0 0 0 14.439158865029185 2.6164867371539913 0 2.6164867371539913 -4.0433967492081138 0 0 0 0 13.286051235571904 0.41920708776115134 0 0.41920708776115134 -4.3476388122198841 0 0 0 0 4.6648132498032826 -0.32500785315450109 0 -0.32500785315450109 -3.9130998582811554 0 0 0 0 15.013788334403671 0.42539276116156088 0 0.42539276116156088 -4.0373470519989496 0 0 0 0 9.804911273318794 2.4540665547926892 0 2.4540665547926892 -0.060391987234652333 0 0 0 0 8.9455111518009289 -0.55277766301242082 0 -0.55277766301242082 -3.4877696277610539 0 0 0 0 10.982305867947616 1.4362039411153091 0 1.4362039411153091 -3.5029261896779644 0 0 0 0 9.7242158357958033 0.076791286930983915 0 0.076791286930983915 -6.8126483173564338 0 0 0 0 8.6562476228136802 -0.42190243664117588 0 -0.42190243664117588 -5.6705275479685042 0 0 0 0 10.689743935054139 -0.82527046417544625 0 -0.82527046417544625 -5.6387981447242055 0 0 0 0 32.374773748058942 -2.8974563546216814 0 -2.8974563546216814 -10.608793844369757 0 0 0 0 8.5963544828500744 -1.0190832327912176 0 -1.0190832327912176 1.5116413547712 0 0 0 0 0.74114254050073214 25.321637367113453 0 25.321637367113453 3.1445243990310701 0 0 0 0 0.59415652072723013 0.28938235228853681 0 0.28938235228853681 -0.79935105960603803 0 0 0 0 5.3013370243563118 1.836230152537512 0 1.836230152537512 -2.3665747306805835 0 0 0 0 13.134569402305715 -2.0688631573768816 0 -2.0688631573768816 -2.1315494025329826 0 0 0 0 11.026844150668694 -1.0820694095968975 0 -1.0820694095968975 -1.6111930216279688 0 0 0 0 1.550552379835417 -0.32917056844132198 0 -0.32917056844132198 -0.15348086482052015 0 0 0 0 3.0593030478157743 11.074588209626199 0 11.074588209626199 -12.660996510574819 0 0 0 0 3.1851001926079334 0.60509838572875196 0 0.60509838572875196 -3.1500685434284605 0 0 0 0 9.5035828466970997 -0.73235558656006106 0 -0.73235558656006106 -2.5088101740415141 0 0 0 0 5.3377616413733389 0.43522272996303535 0 0.43522272996303535 -1.8854878687088314 0 0 0 0 7.5021841083738945 -1.8562835129396964 0 -1.8562835129396964 -2.0078214209182441 0 0 0 0 2.5395479104518017 0.16856347473003552 0 0.16856347473003552 -2.8324557824662406 0 0 0 0 4.5275421115070404 0.20422276156987662 0 0.20422276156987662 -1.3409194921099146 0 0 0 0 3.2784878823245549 -0.44768034931585698 0 -0.44768034931585698 -1.0496466647470619 0 0 0 0 5.8663020171890139 0.37879096066074247 0 0.37879096066074247 -1.5204235903992491 0 0 0 0 4.3324411375288037 -0.43469388079893179 0 -0.43469388079893179 -1.9689508624934433 0 0 0 0 4.1808197383415973 -0.14923305329398318 0 -0.14923305329398318 -5.2773118247669117 0 0 0 0 3.5085082980695006 0.33756503895983769 0 0.33756503895983769 -4.7845892673822163 0 0 0 0 13.89653464558296 0.45596790736021831 0 0.45596790736021831 0.85155406792000576 0 0 0 0 11.635577450465007 2.3593749912674866 0 2.3593749912674866 -0.58582110289444245 0 0 0 0 4.2030665792908621 -1.2788425008394597 0 -1.2788425008394597 -3.4588244927645064 0 0 0 0 7.2248252870226999 -0.1548851476537827 0 -0.1548851476537827 -2.5276641454017534 0 0 0 0 12.893019532104518 3.1575396590069431 0 3.1575396590069431 -1.9233739364890425 0 0 0 0 12.588774940531948 2.7638323498540558 0 2.7638323498540558 -1.8988595987220265 0 0 0 0 4.8488204322887221 -0.95435071842745645 0 -0.95435071842745645 -1.4738491088654988 0 0 0 0 4.5508525159852979 -0.52117850894796902 0 -0.52117850894796902 -3.6853796657787825 0 0 0 0 8.1835417773845869 -0.21746546466424022 0 -0.21746546466424022 -1.9255699863318654 0 0 0 0 7.8915301499037014 0.28099305436080613 0 0.28099305436080613 -2.5829489356015074 0 0 0 0 4.9232637622517359 1.6544957104524656 0 1.6544957104524656 -4.6289680480513198 0 0 0 0 6.4186746217626585 2.5826430845732213 0 2.5826430845732213 -2.6263655005939537 0 0 0 0 8.6924810657849214 1.8892468732914423 0 1.8892468732914423 -1.9201257758635533 0 0 0 0 9.3169422847247603 -3.0459794642045344 0 -3.0459794642045344 -0.58708796788095086 0 0 0 0 18.257216058771519 -6.0032812102474509 0 -6.0032812102474509 -12.198773847023404 0 0 0 0 4.6577680883370096 3.2292536475854741 0 3.2292536475854741 -3.7199208122211527 0 0 0 0 3.5460343663082661 -1.071919702634986 0 -1.071919702634986 -2.1738127836350962 0 0 0 0 9.9387829664276524 0.66390889875606263 0 0.66390889875606263 -2.9303020646366349 0 0 0 0 9.9879990849549358 0.18446312516130092 0 0.18446312516130092 -2.5869909229807035 0 0 0 0 18.089986132737977 -1.0169199740385011 0 -1.0169199740385011 -4.7290669532419543 0 0 0 0 4.2219314093286897 -0.68999260399992046 0 -0.68999260399992046 -2.9073581295530753 0 0 0 0 8.7762442604207536 0.32175694180091341 0 0.32175694180091341 -2.2742949307097433 0 0 0 0 4.4407285412873492 -0.83461879931931282 0 -0.83461879931931282 -1.546879614178045 0 0 0 0 4.6507435389606542 -0.1059345018683544 0 -0.1059345018683544 -1.3211523368630216 0 0 0 0 7.2362478147961156 1.0232583926142524 0 1.0232583926142524 -2.5153772673579624 0 0 0 0 4.9364440920298875 1.1573529206713147 0 1.1573529206713147 -3.2391705646333673 0 0 0 0 6.1991644939412254 0.26412764182259707 0 0.26412764182259707 -3.2252787555385112 0 0 0 0 8.2577305072209128 1.0328292129538568 0 1.0328292129538568 -1.5116032447613179 0 0 0 0 19.772531349068231 6.6112745058121618 0 6.6112745058121618 -1.6587382630805223 0 0 0 0 5.23892053171335 3.3143947325821426 0 3.3143947325821426 -2.5053999881935827 0 0 0 0 19.288180175524758 6.8667977807417628 0 6.8667977807417628 -1.2277426612099589 0 0 0 0 19.649491290459991 7.0615704544661639 0 7.0615704544661639 -2.5605195399257354 0 0 0 0 19.12720994564188 7.2971074442311874 0 7.2971074442311874 -2.0155553961176338 0 0 0 0 19.658350050864101 6.8867516751834046 0 6.8867516751834046 -2.3218156800958241 0 0 0 0 19.254453277419088 6.9831411256650426 0 6.9831411256650426 -1.3505456000575577 0 0 0 0 21.485357634541288 14.442299193890904 0 14.442299193890904 -1.851536703489046 0 0 0 0 1.5561597088738992 0.3284743680193678 0 0.3284743680193678 -0.66535913139907521 0 0 0 0 6.2474433374759428 5.9910780699266866 0 5.9910780699266866 -2.8446654885478893 0 0 0 0 8.2655920654306101 1.2673065184676489 0 1.2673065184676489 -20.541829885619336 0 0 0 0 2.4336464673737712 2.2469333476285165 0 2.2469333476285165 -3.3294370646320868 0 0 0 0 18.556488263077426 14.419969711626834 0 14.419969711626834 -3.7915303469144419 0 0 0 0 3.5645526682365016 0.6134538113230974 0 0.6134538113230974 -2.4283696742472785 0 0 0 0 2.5155813431872076 -0.41383619100145985 0 -0.41383619100145985 -2.1947597477347287 0 0 0 0 21.924461764367152 5.0212569429249925 0 5.0212569429249925 -3.5732890992449029 0 0 0 0 29.955622373786809 -14.313478009403525 0 -14.313478009403525 4.3854982586017286 0 0 0 0 7.2048474253224413 -17.97870919710931 0 -17.97870919710931 16.954809625231121 0 0 0 0 57.656452042208912 -42.065418266521874 0 -42.065418266521874 19.823965207162928 0 0 0 0 22.370135875706183 -0.16501515784648291 0 -0.16501515784648291 3.4748507730072618 0 0 0 0 36.619134517528437 -5.52310909024186 0 -5.52310909024186 3.159635181005342 0 0 0 0 20.127599433127443 1.6700569031653458 0 1.6700569031653458 0.66780225775710278 0 0 0 0 25.831756487817984 8.7476224324677787 0 8.7476224324677787 -15.928386952246001 0 0 0 0 27.955249655356056 2.7772185721128153 0 2.7772185721128153 -6.6691510286782432 0 0 0 0 15.284853655184634 6.376804946457014 0 6.376804946457014 -11.908155689800424 0 0 0 0 19.707604189869926 9.3218493209924418 0 9.3218493209924418 -11.694972406923625 0 0 0 0 22.925605814171377 1.2726261797038205 0 1.2726261797038205 -8.6214465305702106 0 0 0 0 20.991611969155201 11.393463901130417 0 11.393463901130417 -8.4159501680845779 0 0 0 0 21.079307799867365 12.165893764705686 0 12.165893764705686 -9.9941148925663583 0 0 0 0 17.257292869104276 5.5941896305857881 0 5.5941896305857881 -11.04855959509041 0 0 0 0 18.103149026164829 4.3420637446743058 0 4.3420637446743058 -9.3499803777418151 0 0 0 0 16.146170916763367 -1.4514867710277031 0 -1.4514867710277031 -19.233466949176091 0 0 0 0 14.260793457989166 -25.096655040064888 0 -25.096655040064888 -48.471419240942396 0 0 0 0 -1.2305040647788701 -13.994325357979505 0 -13.994325357979505 -19.773994284194032 0 0 0 0 21.911348187574731 -2.9533701778475461 0 -2.9533701778475461 -26.333372097160463 0 0 0 0 10.828524066045247 0.82332083996561778 0 0.82332083996561778 -3.486641144244004 0 0 0 0 5.6356074934926852 -3.1829698520089735 0 -3.1829698520089735 1.8209477559362872 0 0 0 0 32.125912842001526 -4.826416746635914 0 -4.826416746635914 4.403178382009628 0 0 0 0 16.00357899847495 20.598996235419463 0 20.598996235419463 26.083519820461333 0 0 0 0 18.424683341381751 -5.015335594514454 0 -5.015335594514454 -18.520661171140091 0 0 0 0 13.820447011565193 0.073245151028913824 0 0.073245151028913824 -18.488753146653835 0 0 0 0 9.0759735659704273 -4.3330637722299752 0 -4.3330637722299752 1.5000079122866117 0 0 0 0 17.092740292519011 -4.0279953166063933 0 -4.0279953166063933 -13.719628073145714 0 0 0 0 4.4750363073944754 0.63830882048921467 0 0.63830882048921467 -13.808155423323115 0 0 0 0 3.235752312925797 1.2587073773925113 0 1.2587073773925113 8.30372351092592 0 0 0 0 16.027453962386971 5.2052059699008169 0 5.2052059699008169 1.6138818679482938 0 0 0 0 12.273879634100012 -1.950385566452951 0 -1.950385566452951 1.5238552855353191 0 0 0 0 1.566367299952617 -2.5040213493275587 0 -2.5040213493275587 4.181391493866613 0 0 0 0 0.0079286214649876285 0.021451195120324229 0 0.021451195120324229 0.022266770281234027 0 0 0 0 11.861662287983563 6.0329174275539117 0 6.0329174275539117 7.4563410443570319 0 0 0 0 3.452672778456872 8.0179668097091508 0 8.0179668097091508 15.805239703752704 0 0 0 0 10.938014248725722 8.2423027676181846 0 8.2423027676181846 2.4496590277949508 0 0 0 0 17.636239340336033 15.273234810311806 0 15.273234810311806 9.8281791282493032 0 0 0 0 25.941177831978621 4.7279838360125268 0 4.7279838360125268 -0.16552193240931956 0 0 0 0 50.766403325102146 4.1281852775859988 0 4.1281852775859988 17.699561631130564 0 0 0 0 33.683823244752261 -3.0982359701078508 0 -3.0982359701078508 -4.7761441887259934 0 0 0 0 1.0055057543150099 -0.021738027906242241 0 -0.021738027906242241 -0.25241998030669421 0 0 0 0 66.555990292694332 9.6557717159741117 0 9.6557717159741117 15.5507652987244 0 0 0 0 63.21277315319071 -6.6706862611920315 0 -6.6706862611920315 7.5855877113681345 0 0 0 0 36.992542615287675 11.087899828934951 0 11.087899828934951 0.30360149854914198 0 0 0 0 113.74411526298536 -26.865274233528908 0 -26.865274233528908 -10.997191292109619 0 0 0 0 100.57087983275596 -28.57599241400203 0 -28.57599241400203 -9.9413122963960632 0 0 0 0 41.662110491817657 -28.616964677677515 0 -28.616964677677515 20.858236844538624 0 0 0 0 78.234552737430931 -22.466485419297896 0 -22.466485419297896 -3.6700164752573983 0 0 0 0 77.461202754977421 -36.344368120438048 0 -36.344368120438048 5.4981103997961327 0 0 0 0 99.792812222560315 -27.05821135655151 0 -27.05821135655151 -2.692262987714912 0 0 0 0 85.772986322794168 -36.547310910415035 0 -36.547310910415035 5.3319416928111423 0 0 0 0 63.737580654618796 -17.234462793054263 0 -17.234462793054263 8.2835477172939136 0 0 0 0 82.504733670350106 -12.154434312619742 0 -12.154434312619742 8.9551597664940346 0 0 0 0 81.74722987637324 -2.7495879427356158 0 -2.7495879427356158 -2.8830222916458297 0 0 0 0 104.63413246906566 -15.682784439223724 0 -15.682784439223724 -4.9676900500908232 0 0 0 0 102.26388810270555 -21.448931790669349 0 -21.448931790669349 -12.315407266196416 0 0 0 0 115.32555934664924 -15.435990282031526 0 -15.435990282031526 -9.7427629996000178 0 0 0 0 113.57927775023973 -19.629264272940645 0 -19.629264272940645 -19.673182433344664 0 0 0 0 99.159063648955453 60.329250260849676 0 60.329250260849676 30.184133628545169 0 0 0 0 133.93703962002564 -23.07167729170078 0 -23.07167729170078 -19.179746308166614 0 0 0 0 121.80541469934178 -11.09123566458311 0 -11.09123566458311 -25.101727532075529 0 0 0 0 109.05234809581725 -8.8005706849166927 0 -8.8005706849166927 -16.428098939340089 0 0 0 0 117.16042073860444 8.5578169682185035 0 8.5578169682185035 -1.2357284946497202 0 0 0 0 200.74534332100666 -11.702259722647568 0 -11.702259722647568 -29.445838272619767 0 0 0 0 29.15514911642822 -5.1096087188425372 0 -5.1096087188425372 19.111734766400787 0 0 0 0 77.582135981232568 30.113097849477072 0 30.113097849477072 18.899471045736391 0 0 0 0 55.759771300905413 3.2016176484794414 0 3.2016176484794414 12.122387832906952 0 0 0 0 34.951611990401034 18.268034289365687 0 18.268034289365687 20.963487603354281 0 0 0 0 -15.460091391839796 -11.558279595999693 0 -11.558279595999693 26.876846726325766 0 0 0 0 19.373803273594604 1.9505855710704054 0 1.9505855710704054 -36.421335384478425 0 0 0 0 40.097118391549884 -97.142489637452854 0 -97.142489637452854 73.994410672639788 0 0 0 0 1.9940618092374471 -1.2301678710619122 0 -1.2301678710619122 0.87063752962911423 0 0 0 0 212.33185722953749 112.51164339076854 0 112.51164339076854 44.685331916443147 0 0 0 0 253.37680423243549 -102.80686601349743 0 -102.80686601349743 7.7285144824968484 0 0 0 0 175.70699011114812 -10.665824977374086 0 -10.665824977374086 -20.740843550265708 0 0 0 0 152.99248840477321 -76.403092766891405 0 -76.403092766891405 -7.9173913202876065 0 0 0 0 104.96306119344808 -79.978078546971801 0 -79.978078546971801 5.4998630825525652 0 0 0 0 85.68144063924592 -67.121440191261172 0 -67.121440191261172 6.5442257809845614 0 0 0 0 82.623946402904949 -73.3074551387474 0 -73.3074551387474 22.389649093611752 0 0 0 0 41.036293202402703 -59.902222209307411 0 -59.902222209307411 50.103920384947287 0 0 0 0 -58.728487807817146 -17.452302055797873 0 -17.452302055797873 202.05884245893321 0 0 0 0 17.194588548193337 4.6536049253816429 0 4.6536049253816429 9.8004627636300938 0 0 0 0 0.064136262242606712 0.51994185416697558 0 0.51994185416697558 -0.23696188085862779 0 0 0 0 -8.5356378307178602 26.050960831546945 0 26.050960831546945 2.3869214452499818 0 0 0 0 -39.994321730458068 -16.482319250017554 0 -16.482319250017554 44.956731754598422 0 0 0 0 -11.905137841372834 16.98827702657286 0 16.98827702657286 20.391403136095505 0 0 0 0 -57.636534413711786 17.237410351300923 0 17.237410351300923 29.367551961322533 0 0 0 0 1.199210798099557 3.142781403827712 0 3.142781403827712 43.40867572769821 0 0 0 0 27.359792723744249 59.556081241037191 0 59.556081241037191 25.323731919682359 0 0 0 0 55.884247816147763 34.600131425335348 0 34.600131425335348 -3.00245933004976 0 0 0 0 59.307442625110525 43.292846020279057 0 43.292846020279057 18.742690296603541 0 0 0 0 107.9611358658367 49.576817224176011 0 49.576817224176011 18.654979664442635 0 0 0 0 110.19414546732514 22.307717418560969 0 22.307717418560969 11.978566945991815 0 0 0 0 113.77621674972579 28.378257694946114 0 28.378257694946114 7.7768128271945898 0 0 0 0 242.69367361662927 81.29907984462281 0 81.29907984462281 36.960597101425265 0 0 0 0 20.00618351673711 42.91340071701029 0 42.91340071701029 126.28906042779636 0 0 0 0 42.850998167727994 -48.13792695339248 0 -48.13792695339248 47.536414171445813 0 0 0 0 47.234649951617939 -14.008218524372296 0 -14.008218524372296 256.90661066043049 0 0 0 0 304.03020902438175 -34.153681023831155 0 -34.153681023831155 -52.432284607720248 0 0 0 0 19.564087889475559 -12.573926742248204 0 -12.573926742248204 -6.6017328503885437 0 0 0 0 5.2889613522074796 -14.452175939881272 0 -14.452175939881272 43.185848329506143 0 0 0 0 8.3154671594502361 0.21773304979251407 0 0.21773304979251407 -4.443123302928484 0 0 0 0 9.2240656368832106 -9.8125771055103712 0 -9.8125771055103712 -8.9581891326952245 0 0 0 0 1.7456011533077795 -1.3187327928522501 0 -1.3187327928522501 -0.52291693517093485 0 0 0 0 74.094588866671984 -27.948936385687375 0 -27.948936385687375 20.698085055519186 0 0 0 0 -2.7945191138746406 -1.037608797972716 0 -1.037608797972716 1.4898405961425922 0 0 0 0 96.935954740838497 -45.926037559433098 0 -45.926037559433098 8.1717949981712081 0 0 0 0 127.16404901825808 -54.513196990665165 0 -54.513196990665165 -33.191862719092569 0 0 0 0 97.159584167637149 -45.52570540291299 0 -45.52570540291299 -6.6335985490568419 0 0 0 0 97.562891299174055 -29.745531308976609 0 -29.745531308976609 -8.2383043988857025 0 0 0 0 97.809065389234092 -27.396721795485064 0 -27.396721795485064 -9.4475682736210729 0 0 0 0 118.28109192369084 -38.29927532702095 0 -38.29927532702095 -4.292547561057745 0 0 0 0 112.24197456421643 -27.741352823326679 0 -27.741352823326679 -14.916906116048267 0 0 0 0 115.63713825720515 -21.7303418593483 0 -21.7303418593483 -17.900079468885451 0 0 0 0 76.364149265265041 -31.847015760031354 0 -31.847015760031354 -8.204099263282842 0 0 0 0 93.213398362705448 -17.097063284718843 0 -17.097063284718843 -15.988625088900335 0 0 0 0 112.80417733880131 -21.693568045734537 0 -21.693568045734537 -22.02270648509807 0 0 0 0 111.88870401089389 -28.074189676029619 0 -28.074189676029619 -11.371731485687633 0 0 0 0 113.84494645975022 -24.134889390170201 0 -24.134889390170201 -18.7445480949591 0 0 0 0 45.557737799330084 4.0161087051732807 0 4.0161087051732807 -18.022580357405332 0 0 0 0 -10.461017588444754 -7.2615273972528538 0 -7.2615273972528538 1.0044658065811225 0 0 0 0 1.962576275399158 16.743406081500893 0 16.743406081500893 -9.1508923039104957 0 0 0 0 54.595952539218615 -8.3264123125541118 0 -8.3264123125541118 -11.052315551511128 0 0 0 0 6.0111683542263563 -43.209150739168308 0 -43.209150739168308 -6.0560608215787397 0 0 0 0 55.429521404600564 -25.475880833112569 0 -25.475880833112569 -9.1423804006396949 0 0 0 0 89.7987711680031 23.408135648219627 0 23.408135648219627 -8.8511989728449407 0 0 0 0 -18.284774956361616 -4.2211744671790257 0 -4.2211744671790257 7.2567202104999069 0 0 0 0 95.4880409234014 -33.463163368999119 0 -33.463163368999119 10.865938296783497 0 0 0 0 -46.907335248671188 34.497292337122417 0 34.497292337122417 35.882048601648876 0 0 0 0 109.05922533646481 -19.393739739914849 0 -19.393739739914849 24.1825093621419 0 0 0 0 242.61630627132899 -115.91044387586498 0 -115.91044387586498 29.577592539453462 0 0 0 0 145.9709640272149 -23.088824503971409 0 -23.088824503971409 3.0108802157775472 0 0 0 0 108.63312380167827 -19.438026196264218 0 -19.438026196264218 5.8486956900555924 0 0 0 0 74.52417914323496 -9.8615435682777388 0 -9.8615435682777388 -9.6949746306299858 0 0 0 0 112.3757828218495 -22.263311507704657 0 -22.263311507704657 -18.665099214180827 0 0 0 0 126.72494799555579 -46.328820323879768 0 -46.328820323879768 4.3050144672615716 0 0 0 0 115.76987850217756 -25.207158052622162 0 -25.207158052622162 -9.335982347945901 0 0 0 0 3.3756069042903176 4.1094010980304221 0 4.1094010980304221 4.7486439395071454 0 0 0 0 158.6298090468008 -41.47083166552693 0 -41.47083166552693 -4.5561247821078723 0 0 0 0 122.79752286001349 -36.688065259283576 0 -36.688065259283576 -7.0376633048872463 0 0 0 0 143.59675113637013 -77.944219995169988 0 -77.944219995169988 21.444573932170783 0 0 0 0 101.90451696810851 -48.689955843745338 0 -48.689955843745338 9.7528182771820866 0 0 0 0 99.411011353950016 -7.9126251909838174 0 -7.9126251909838174 38.274289815668453 0 0 0 0 85.014518133009915 -48.406216837276588 0 -48.406216837276588 18.438720987365741 0 0 0 0 62.190546356359846 -44.573432783344288 0 -44.573432783344288 17.940342655681889 0 0 0 0 7.9519623738580769 1.1275774810102468 0 1.1275774810102468 -4.929735908044286 0 0 0 0 11.097880495939989 5.4446316980711345 0 5.4446316980711345 -9.3302047865563509 0 0 0 0 22.667626935471162 -6.8907981261963869 0 -6.8907981261963869 -5.5796187502828616 0 0 0 0 9.5978802049648948 0.88818282837382867 0 0.88818282837382867 -8.9512188922635687 0 0 0 0 10.751696203255506 4.7565220655897065 0 4.7565220655897065 -7.6965128553360955 0 0 0 0 10.499646383934717 2.8340324456055646 0 2.8340324456055646 -0.76858855523754555 0 0 0 0 15.234823592781709 2.9421620992290514 0 2.9421620992290514 -10.986108240904287 0 0 0 0 13.457612024579703 6.3819189221080705 0 6.3819189221080705 -17.241504571228688 0 0 0 0 6.3884601643769656 17.434669596834681 0 17.434669596834681 -17.160619095826405 0 0 0 0 7.2735814741449758 4.0872570750641444 0 4.0872570750641444 -14.153243075053012 0 0 0 0 28.690697700947112 2.5027587151346324 0 2.5027587151346324 -17.120154998329319 0 0 0 0 16.484459269206127 14.914448795567068 0 14.914448795567068 -2.2660138313854077 0 0 0 0 35.547471365939373 37.301405506653737 0 37.301405506653737 -1.4775898985895637 0 0 0 0 29.588661039467297 32.760855905710741 0 32.760855905710741 2.2139123128827123 0 0 0 0 17.831480523831942 51.363398613038953 0 51.363398613038953 2.9839385754737577 0 0 0 0 52.712935942498461 90.770833522987004 0 90.770833522987004 45.7520464787317 0 0 0 0 294.84336503048326 -34.390544792245237 0 -34.390544792245237 -83.926113024432198 0 0 0 0 -191.55374794183763 -54.848175965573319 0 -54.848175965573319 142.6071951465658 0 0 0 0 154.81359809107653 41.195565268633686 0 41.195565268633686 -18.571225301847335 0 0 0 0 0.85947735264112346 1.1246222366985095 0 1.1246222366985095 2.0820403479217369 0 0 0 0 -19.359872650801776 39.155235252654109 0 39.155235252654109 38.192152526613881 0 0 0 0 10.602602184772422 -22.286002559503917 0 -22.286002559503917 -28.09783541654425 0 0 0 0 -23.065786046481662 -17.558157199566068 0 -17.558157199566068 -0.44672921023652634 0 0 0 0 10.316970495175713 -8.6724693629687639 0 -8.6724693629687639 -2.4340537209607582 0 0 0 0 -15.992078462120617 -2.4799246408393856 0 -2.4799246408393856 4.0583161029567236 0 0 0 0 -47.493901231645282 -52.819825227973723 0 -52.819825227973723 24.670007326255245 0 0 0 0 11.62674971024013 -10.739272966719145 0 -10.739272966719145 1.4371134994497137 0 0 0 0 -7.1320219173635451 -12.423164664398769 0 -12.423164664398769 -12.656177467480916 0 0 0 0 82.505371122886572 22.528060804584129 0 22.528060804584129 -16.845811450997189 0 0 0 0 -29.14577807388514 -79.97330061973787 0 -79.97330061973787 -57.560446322944586 0 0 0 0 39.300276670844596 42.407152845963083 0 42.407152845963083 4.2504599787500297 0 0 0 0 26.803493939683904 14.914853368933109 0 14.914853368933109 15.86748110184109 0 0 0 0 33.406697721630849 43.442467138806023 0 43.442467138806023 15.767951780257818 0 0 0 0 59.430088564129392 33.984378348170594 0 33.984378348170594 2.2220651401165128 0 0 0 0 22.355875541069366 13.533144634864726 0 13.533144634864726 46.777585943137638 0 0 0 0 64.606001097504929 48.325621317723773 0 48.325621317723773 41.253875260058976 0 0 0 0 31.295111978962041 12.733279333951597 0 12.733279333951597 14.596575378451568 0 0 0 0 23.23072191912545 -15.649089209862519 0 -15.649089209862519 -15.996422944371055 0 0 0 0 11.275453017084299 -4.9842590283904311 0 -4.9842590283904311 -5.8592357141364957 0 0 0 0 15.868327706761193 -6.8040703701044372 0 -6.8040703701044372 -20.061030516704108 0 0 0 0 37.345891702316067 9.05940365351114 0 9.05940365351114 -44.08248517660013 0 0 0 0 14.455493844625011 -31.4951783741339 0 -31.4951783741339 -11.140907468677142 0 0 0 0 16.293149474062673 6.4718018407811329 0 6.4718018407811329 1.5197061892642343 0 0 0 0 0.56929011587590139 25.866686631292168 0 25.866686631292168 -17.140944928834244 0 0 0 0 -10.753425834534028 25.347544597770479 0 25.347544597770479 -15.386180443804392 0 0 0 0 3.7122840744506185 1.0128219754003052 0 1.0128219754003052 -0.28640942263565305 0 0 0 0 3.6010579114894323 -0.79374454437577047 0 -0.79374454437577047 -0.89184274424931909 0 0 0 0 -0.48233276850351103 -5.1688306083320867 0 -5.1688306083320867 -2.1237377764826988 0 0 0 0 -2.3820810472175253 -6.9689912357342791 0 -6.9689912357342791 -0.6562046923266962 0 0 0 0 -1.9883663924267694 -7.4907699962578818 0 -7.4907699962578818 -5.9909112994741918 0 0 0 0 2.4579920109081286 3.8993725468612297 0 3.8993725468612297 -0.34171627391219772 0 0 0 0 0.46369992334004539 -0.61031325639839418 0 -0.61031325639839418 0.84567766304895908 0 0 0 0 -6.5656195356993976 -5.9636302462784556 0 -5.9636302462784556 2.7744756742231402 0 0 0 0 3.168489297150245 -0.61823999273258323 0 -0.61823999273258323 0.45606080583166886 0 0 0 0 71.942794268104876 21.360316187368483 0 21.360316187368483 10.135213836439561 0 0 0 0 1.325029591837195 -0.77929822984531594 0 -0.77929822984531594 1.1496569739133693 0 0 0 0 79.122289724775783 54.012125809914608 0 54.012125809914608 48.517245119996687 0 0 0 0 149.76167148325476 35.568623652713995 0 35.568623652713995 -1.5393309407328388 0 0 0 0 -0.031451823776652788 0.21523228001599559 0 0.21523228001599559 0.51227484566205628 0 0 0 0 91.407792447677821 76.889465729645508 0 76.889465729645508 52.699767411224229 0 0 0 0 94.884407254748552 15.645967475444586 0 15.645967475444586 22.826412072131916 0 0 0 0 0.13469930571171851 -0.066460213322812045 0 -0.066460213322812045 -0.27635655533992898 0 0 0 0 -14.790758325480283 12.712293823953644 0 12.712293823953644 -7.1880512229231499 0 0 0 0 4.7812568130821091 2.1212444537534338 0 2.1212444537534338 -2.5365555487046549 0 0 0 0 64.753741154117733 38.57625041915901 0 38.57625041915901 10.793756008764831 0 0 0 0 71.91958638263759 25.981174583654223 0 25.981174583654223 -4.3783072395347062 0 0 0 0 63.572711154080025 54.474653234754498 0 54.474653234754498 1.2655322334802293 0 0 0 0 26.033787596368711 30.175295062213735 0 30.175295062213735 -0.35585695518796001 0 0 0 0 41.975252146948151 31.914886801276111 0 31.914886801276111 -0.16602678576521157 0 0 0 0 43.29775971785034 24.072731318532249 0 24.072731318532249 -3.154263858082345 0 0 0 0 55.959304630812312 28.818976298673192 0 28.818976298673192 -3.1760875745134172 0 0 0 0 55.942827877568561 29.337210053817046 0 29.337210053817046 -9.2558686263224672 0 0 0 0 44.914066909790108 12.070331138174367 0 12.070331138174367 3.4202737213281864 0 0 0 0 33.16715064557593 12.234990687228503 0 12.234990687228503 3.4536853428924132 0 0 0 0 29.597404698039099 21.095646730125509 0 21.095646730125509 3.8494453875672718 0 0 0 0 45.377512008602935 19.779498315606986 0 19.779498315606986 3.8969390118759009 0 0 0 0 36.699893211261951 14.939457719234611 0 14.939457719234611 2.3992866541941567 0 0 0 0 29.530897451727185 4.3504605113762054 0 4.3504605113762054 -0.20312539675933294 0 0 0 0 44.381125142050678 7.7537425835515137 0 7.7537425835515137 0.28370931951837974 0 0 0 0 27.10973536712936 17.547902521142419 0 17.547902521142419 1.7164039010327201 0 0 0 0 33.557720090834664 6.0819836676723753 0 6.0819836676723753 -2.9215437825778281 0 0 0 0 16.217894791618392 1.5891501565432975 0 1.5891501565432975 -3.3750467574905088 0 0 0 0 18.881666577174713 15.455710430521734 0 15.455710430521734 -6.1182417289371642 0 0 0 0 30.629439423059011 0.7473497339090045 0 0.7473497339090045 -11.884829932905973 0 0 0 0 15.702455895085222 13.521662669292823 0 13.521662669292823 0.49587858744553159 0 0 0 0 25.31759417137846 32.151637875987433 0 32.151637875987433 -4.3765760021350388 0 0 0 0 0.55078724774193688 27.015128395483885 0 27.015128395483885 -5.4375839722531509 0 0 0 0 15.537382131630238 7.9327976006904919 0 7.9327976006904919 -34.697724893121176 0 0 0 0 7.3938177969289427 27.486960322498192 0 27.486960322498192 -23.261504259247658 0 0 0 0 11.631552341156748 10.029788018022714 0 10.029788018022714 -6.7986843368787504 0 0 0 0 12.992219425045278 6.4667197627302926 0 6.4667197627302926 -33.513378370330884 0 0 0 0 -5.8377008681572988 14.8785915027795 0 14.8785915027795 -4.2524177092666946 0 0 0 0 26.263379168574829 -4.9045161302300357 0 -4.9045161302300357 -7.1857481188321017 0 0 0 0 27.941959054442577 -2.0154907584267505 0 -2.0154907584267505 -2.305101815355215 0 0 0 0 51.144951258933361 -4.1548084609902958 0 -4.1548084609902958 -12.807147595156266 0 0 0 0 63.279421500824128 -7.9081912739532356 0 -7.9081912739532356 -14.773267135872629 0 0 0 0 62.167748180496233 -5.3548250221393801 0 -5.3548250221393801 -13.991078015835683 0 0 0 0 56.441485033185927 -5.4676168291572367 0 -5.4676168291572367 -13.663897407601098 0 0 0 0 48.292755274751471 -12.861723602953134 0 -12.861723602953134 -5.8454465352989473 0 0 0 0 29.933673842396274 -0.42500644133428978 0 -0.42500644133428978 -6.203569235031182 0 0 0 0 40.054095224521006 -5.5992125798017014 0 -5.5992125798017014 -5.5819368691079063 0 0 0 0 56.629755186823786 2.4282979279279289 0 2.4282979279279289 -6.8783574746168483 0 0 0 0 48.138711161689116 0.1400326585703624 0 0.1400326585703624 -7.3288831267550449 0 0 0 0 65.745994019735008 -0.1377734778230888 0 -0.1377734778230888 -11.779708017814983 0 0 0 0 56.483141131377124 0.37645494628907272 0 0.37645494628907272 -10.972696586552104 0 0 0 0 60.844627088708876 2.5566562070438295 0 2.5566562070438295 -3.9405407746904046 0 0 0 0 54.88693747691832 8.0614106859785579 0 8.0614106859785579 4.8310431673769472 0 0 0 0 63.357155299560873 6.8986795965629426 0 6.8986795965629426 -4.7872374630645709 0 0 0 0 53.882261591451424 5.7470145688863568 0 5.7470145688863568 -0.48130158150036095 0 0 0 0 43.207783057145207 4.9043595691481414 0 4.9043595691481414 -0.18556941871156596 0 0 0 0 74.841871572186392 4.9294599429497907 0 4.9294599429497907 -18.140593744320313 0 0 0 0 63.348587071054681 -18.485452938678804 0 -18.485452938678804 -6.7176393896692161 0 0 0 0 62.169850016340206 -14.874301433661003 0 -14.874301433661003 -14.881018903139648 0 0 0 0 42.945699126035834 -20.384312742739667 0 -20.384312742739667 -6.5808915470288412 0 0 0 0 73.096236069735824 -18.437068025612007 0 -18.437068025612007 -7.5178199234765088 0 0 0 0 58.750565953316254 -13.116235415205324 0 -13.116235415205324 2.179799228227921 0 0 0 0 72.249404248038445 -1.297273992746625 0 -1.297273992746625 2.0101886103747972 0 0 0 0 66.087940052419526 9.6096277278781201 0 9.6096277278781201 5.4057102553965706 0 0 0 0 65.771425053590065 7.4697137612452025 0 7.4697137612452025 -2.0734627304803439 0 0 0 0 67.795451027547188 3.0341285830082256 0 3.0341285830082256 -16.58356584222247 0 0 0 0 66.548011205552484 -1.0268516202270064 0 -1.0268516202270064 -20.340119123188515 0 0 0 0 67.866491312029211 1.8239216377612593 0 1.8239216377612593 -16.119570809370487 0 0 0 0 68.01797352111862 2.5402099654509414 0 2.5402099654509414 -24.489351384274414 0 0 0 0 55.154776414789012 -2.7008551491020967 0 -2.7008551491020967 -25.734002516590408 0 0 0 0 53.627647646612786 0.97060817919418696 0 0.97060817919418696 -15.888118917909878 0 0 0 0 36.260411126664621 -14.429335390772167 0 -14.429335390772167 -12.297435398032917 0 0 0 0 36.547519298634143 -16.398457972551341 0 -16.398457972551341 -13.716117742690585 0 0 0 0 40.541904146957677 -2.096248919814343 0 -2.096248919814343 -20.364293255963567 0 0 0 0 34.353843042003064 3.7032963121587272 0 3.7032963121587272 -20.336366480628158 0 0 0 0 8.8862970434020099 -10.946809705927762 0 -10.946809705927762 -10.392475419940638 0 0 0 0 44.930345923935874 15.815342238107462 0 15.815342238107462 -17.275124953487193 0 0 0 0 -0.17967677151409589 18.42946461758288 0 18.42946461758288 -14.417852612850766 0 0 0 0 55.232211928517529 6.3550152613562148 0 6.3550152613562148 -9.6003014619018359 0 0 0 0 50.444943169578437 6.7515617214591543 0 6.7515617214591543 -24.623439597986362 0 0 0 0 60.162179866417318 -1.6928571609818164 0 -1.6928571609818164 -22.1890517671564 0 0 0 0 74.226359784861415 -5.284797320935354 0 -5.284797320935354 -18.807010345270271 0 0 0 0 59.918314351065419 -1.4859608778938309 0 -1.4859608778938309 -22.179577035308284 0 0 0 0 72.225000365793676 0.7929712492497174 0 0.7929712492497174 -23.610305009966396 0 0 0 0 84.639973140462644 6.5838195571876668 0 6.5838195571876668 -16.008778371449893 0 0 0 0 61.017144294317859 0.43217129120182562 0 0.43217129120182562 -16.936478595335984 0 0 0 0 76.569720949727525 -13.674451470599593 0 -13.674451470599593 -13.328672259523955 0 0 0 0 115.32782607364061 -1.5989855773760837 0 -1.5989855773760837 -11.306319437138569 0 0 0 0 82.314161885884459 29.025883282749078 0 29.025883282749078 24.055146695876715 0 0 0 0 59.797094660510993 -9.546208829811917 0 -9.546208829811917 4.18984437283234 0 0 0 0 0.99385352099233693 -0.86050163514037958 0 -0.86050163514037958 0.37203702909442349 0 0 0 0 55.220254697158452 6.5893007040247085 0 6.5893007040247085 9.5871760335187446 0 0 0 0 117.69215206298577 -15.265389906621294 0 -15.265389906621294 -26.946605794983043 0 0 0 0 8.3732987707357722 66.27273300779288 0 66.27273300779288 42.680982242537539 0 0 0 0 122.45270485119636 49.865332215561324 0 49.865332215561324 -26.595727586327712 0 0 0 0 3.435460664282445 -53.299913347909801 0 -53.299913347909801 -3.3823880580209789 0 0 0 0 0.11345619530994089 0.12051712290127448 0 0.12051712290127448 -0.55203999118066083 0 0 0 0 89.451560717023312 -3.4485070288717452 0 -3.4485070288717452 -27.920912150594859 0 0 0 0 131.7183420310821 -1.6005631562450162 0 -1.6005631562450162 -44.978971032115851 0 0 0 0 289.66083590329981 -9.7182873982764022 0 -9.7182873982764022 -45.015665665771337 0 0 0 0 141.45799308322717 155.3030862262828 0 155.3030862262828 67.298539198661501 0 0 0 0 163.89385224260059 -59.39281210272901 0 -59.39281210272901 -7.8309965604967147 0 0 0 0 189.87720154514136 -76.656601629109218 0 -76.656601629109218 -4.9159774397369205 0 0 0 0 205.9837418364782 -54.970346303550969 0 -54.970346303550969 -49.5007375927255 0 0 0 0 131.67556606357084 -44.618163163621489 0 -44.618163163621489 -45.612292315776813 0 0 0 0 162.83271222049439 -36.726259274331028 0 -36.726259274331028 -6.9511801002408902 0 0 0 0 184.27305447640401 47.6419853811243 0 47.6419853811243 -3.65997852171472 0 0 0 0 0.46018984817422037 -0.3645126033763626 0 -0.3645126033763626 0.27747712866675478 0 0 0 0 52.605455600255937 -21.883791960374253 0 -21.883791960374253 13.659446427058583 0 0 0 0 16.384504524889508 -6.1597077366554345 0 -6.1597077366554345 2.7447628120550007 0 0 0 0 -4.5743665184254496 17.416347616859525 0 17.416347616859525 -8.9451028325064357 0 0 0 0 10.128571469973206 5.0116099246335652 0 5.0116099246335652 2.3989615477324322 0 0 0 0 67.35332484021194 70.603670148605374 0 70.603670148605374 -41.180734903280666 0 0 0 0 -16.724882438997156 -44.2066361447296 0 -44.2066361447296 64.429294642824402 0 0 0 0 18.172912691127749 43.729332015318903 0 43.729332015318903 -36.331925589796697 0 0 0 0 -19.103217670391928 3.5046370297878298 0 3.5046370297878298 52.774238795733027 0 0 0 0 -101.35878660934941 98.315469151671778 0 98.315469151671778 23.058530204409749 0 0 0 0 -48.460121592421501 62.032510415875649 0 62.032510415875649 9.3057659341874341 0 0 0 0 -28.380943082715021 84.702652835606386 0 84.702652835606386 61.250397636236357 0 0 0 0 119.72262429784242 -54.242075627773588 0 -54.242075627773588 37.5623332372611 0 0 0 0 134.16876415101848 19.573753087477598 0 19.573753087477598 11.50723131947143 0 0 0 0 86.94824936815246 -1.9288557834177027 0 -1.9288557834177027 5.2964884437897126 0 0 0 0 46.300559837441227 24.442359804122361 0 24.442359804122361 18.841259385606918 0 0 0 0 -0.10621336932506908 0.51430727244815655 0 0.51430727244815655 1.1883721925643114 0 0 0 0 -121.33318990569819 3.0693193152018523 0 3.0693193152018523 -9.5850072863281639 0 0 0 0 36.508014272008552 -24.706304181804626 0 -24.706304181804626 39.560301499724119 0 0 0 0 49.037289423306902 29.151806217865897 0 29.151806217865897 -149.70014709617931 0 0 0 0 116.56257254578077 71.477952621073428 0 71.477952621073428 -168.6269238566656 0 0 0 0 0.79923800847434023 0.6597238328119257 0 0.6597238328119257 -0.33633742852933146 0 0 0 0 66.826661485148065 75.740033754041008 0 75.740033754041008 -73.264764998703868 0 0 0 0 21.632293392558495 35.224004604349602 0 35.224004604349602 -70.321771072981875 0 0 0 0 80.65004077613753 -95.965597685340981 0 -95.965597685340981 -224.12616430748244 0 0 0 0 0.81921241773985898 -1.0686476262894913 0 -1.0686476262894913 -1.0379024592932957 0 0 0 0 -22.236688624083399 19.191871757137051 0 19.191871757137051 -83.009750932435963 0 0 0 0 313.7039225046251 32.154374291468002 0 32.154374291468002 -86.683487128565275 0 0 0 0 105.96283563962857 -204.01240094852994 0 -204.01240094852994 120.46872070481527 0 0 0 0 -43.361270987971693 -29.58390173356895 0 -29.58390173356895 260.56668571724663 0 0 0 0 110.26008186469448 160.98111826921757 0 160.98111826921757 89.723910452493556 0 0 0 0 -29.423238522154406 32.233436585119193 0 32.233436585119193 179.99178736924785 0 0 0 0 3.608268201148789 1.8522106603651805 0 1.8522106603651805 1.0311490739936158 0 0 0 0 -7.7835382854154886 -35.244809927711572 0 -35.244809927711572 -41.286128312906158 0 0 0 0 -167.47000120216671 -142.41704726487649 0 -142.41704726487649 69.263070135402359 0 0 0 0 20.06250054486145 -1.6165361783850187 0 -1.6165361783850187 -16.609233187109623 0 0 0 0 1.4405408394190387 -0.063352293226022205 0 -0.063352293226022205 -1.8898541757262572 0 0 0 0 -32.449307065256107 -88.485569302362478 0 -88.485569302362478 -88.065748669278037 0 0 0 0 -83.274965305412479 -20.395793820521135 0 -20.395793820521135 -57.63107481699717 0 0 0 0 10.175375718329812 -1.9575454150653535 0 -1.9575454150653535 -0.75330584411318346 0 0 0 0 7.3111945796258624 -3.974839606760554 0 -3.974839606760554 -2.5521296526501374 0 0 0 0 10.71329420564301 -5.2239888444852625 0 -5.2239888444852625 -8.1883205476543708 0 0 0 0 9.9992268434774445 -1.6980569225450486 0 -1.6980569225450486 0.075682641189741995 0 0 0 0 8.8067273883809918 -6.0552569284132005 0 -6.0552569284132005 -12.264951561297835 0 0 0 0 6.8265540952694437 -7.1499301432750144 0 -7.1499301432750144 -12.735709040908432 0 0 0 0 6.7307468312511389 -3.9490886024079828 0 -3.9490886024079828 -11.95867741019083 0 0 0 0 5.4351975723184154 -6.0985588112854998 0 -6.0985588112854998 -10.960171109534258 0 0 0 0 2.807020745973178 -2.7194086768889143 0 -2.7194086768889143 -12.280658442200092 0 0 0 0 2.9046055023396207 -5.2131482442514425 0 -5.2131482442514425 -11.155356874360535 0 0 0 0 0.29559232978943117 -4.8218478660616029 0 -4.8218478660616029 0.61782696077776045 0 0 0 0 -2.3260493701076363 -3.7202244726839098 0 -3.7202244726839098 6.0766305265303799 0 0 0 0 16.871731862137494 -4.8338830959644383 0 -4.8338830959644383 -6.0405925838723533 0 0 0 0 8.0298342206815505 -11.688324671513783 0 -11.688324671513783 -9.9692740380782077 0 0 0 0 11.196163422074051 -0.19197072289847483 0 -0.19197072289847483 -10.543371639201496 0 0 0 0 10.970311817739002 -3.2369490787713175 0 -3.2369490787713175 -1.4396823627307072 0 0 0 0 10.254722970117655 -6.2568481516440499 0 -6.2568481516440499 -1.1079283410355174 0 0 0 0 11.398040477542963 -11.595113939184785 0 -11.595113939184785 -4.3733130149736894 0 0 0 0 1.2896761911225822 -2.1981159507238632 0 -2.1981159507238632 -3.7817709171988874 0 0 0 0 6.9207657066232855 -5.5773854491156989 0 -5.5773854491156989 -5.8525342160043579 0 0 0 0 7.3757942228980937 -4.255278946936258 0 -4.255278946936258 -3.5408693736476113 0 0 0 0 10.324739469840551 -2.3559949192243606 0 -2.3559949192243606 -3.362321544922231 0 0 0 0 4.7111007841297123 -10.77847674984082 0 -10.77847674984082 0.38760092742109009 0 0 0 0 0.27410629518470842 -0.16824255398370758 0 -0.16824255398370758 0.36179937923321948 0 0 0 0 -25.790242171382715 18.847075133629232 0 18.847075133629232 40.744588382389225 0 0 0 0 3.5158611657775509 -10.087761504748016 0 -10.087761504748016 -6.0722091240240843 0 0 0 0 0.16290895387987803 -16.781532015569894 0 -16.781532015569894 -5.3582135425817796 0 0 0 0 -132.44653464512248 -21.210105597038933 0 -21.210105597038933 31.208543897350182 0 0 0 0 18.402353841280274 51.13960321204695 0 51.13960321204695 -16.066672580573027 0 0 0 0 9.7596405028880326 70.368399754816323 0 70.368399754816323 -58.845786653589613 0 0 0 0 -10.594249617900914 -15.384471661226314 0 -15.384471661226314 -1.4574637354807578 0 0 0 0 12.702521889258151 31.560131689148989 0 31.560131689148989 -2.48626408692175 0 0 0 0 125.50099547588331 38.939062473347249 0 38.939062473347249 -14.780686111457953 0 0 0 0 2.9984337163805321 2.6225381545254436 0 2.6225381545254436 -0.68408645543030389 0 0 0 0 0.43225289750118678 -0.12676792183605556 0 -0.12676792183605556 -1.0623333581398953 0 0 0 0 -2.8799037134485843 2.3104607273023703 0 2.3104607273023703 2.0225121910040968 0 0 0 0 -8.1476632270732807 -1.0017851053418099 0 -1.0017851053418099 1.3994689845251287 0 0 0 0 -3.338211055881402 1.2988759026313801 0 1.2988759026313801 1.3912585721106345 0 0 0 0 -6.2992695882057888 -2.8618364394843638 0 -2.8618364394843638 -0.053911648195253292 0 0 0 0 -0.81440266960998997 -0.5506657142559277 0 -0.5506657142559277 0.15113907556280992 0 0 0 0 -1.6358774267055196 0.33690036878545015 0 0.33690036878545015 0.63195156362570515 0 0 0 0 -2.2382864001463076 -0.81844401782652199 0 -0.81844401782652199 0.53244322654290954 0 0 0 0 -2.0248795273955693 -0.89121138302414238 0 -0.89121138302414238 0.44756266007243539 0 0 0 0 42.331669891662386 67.677839821606085 0 67.677839821606085 34.342479727551108 0 0 0 0 -38.772244822617267 -18.704230291702288 0 -18.704230291702288 1.6509702802470656 0 0 0 0 197.81640592352778 -28.985572547625907 0 -28.985572547625907 -15.848862086455483 0 0 0 0 0.13123687219538294 -0.81046329076494494 0 -0.81046329076494494 -0.53506975999499407 0 0 0 0 0.59024176551261132 -0.45429452782917412 0 -0.45429452782917412 0.12378754737137765 0 0 0 0 162.26083526297634 50.352761897044218 0 50.352761897044218 15.799655895529838 0 0 0 0 -17.291520858088461 -53.443973579439159 0 -53.443973579439159 -5.6278743623520313 0 0 0 0 15.994720905463055 -25.865346961265061 0 -25.865346961265061 -6.6478951561462054 0 0 0 0 1.5255816135177156 -33.619556504417687 0 -33.619556504417687 -10.381281821370976 0 0 0 0 -3.7298680857620639 -52.991704543891103 0 -52.991704543891103 -11.192649336863724 0 0 0 0 17.384549716260409 -53.461276160952409 0 -53.461276160952409 -16.203445036839639 0 0 0 0 21.185954046708503 -49.531109202072912 0 -49.531109202072912 -14.761016682566833 0 0 0 0 38.963072349295544 -34.794515011645444 0 -34.794515011645444 -16.40830839706905 0 0 0 0 16.738908855899354 -29.786404311510978 0 -29.786404311510978 -11.643069332529649 0 0 0 0 11.869310670095729 -62.648538668020137 0 -62.648538668020137 -23.621679516948461 0 0 0 0 7.3596220319886925 -61.707135213644051 0 -61.707135213644051 -16.88958657043986 0 0 0 0 18.632408162737192 -60.772874396141901 0 -60.772874396141901 -28.076747885499572 0 0 0 0 -1.3585085830810248 -1.0151437578343625 0 -1.0151437578343625 -0.20018109368481984 0 0 0 0 -0.94462420174284034 -0.57136333252266525 0 -0.57136333252266525 0.52105655469972589 0 0 0 0 -0.59948281481320009 0.24893756277566581 0 0.24893756277566581 0.34897405844577634 0 0 0 0 21.523883251325515 35.310344513265136 0 35.310344513265136 8.7695097345244442 0 0 0 0 -46.697653916949889 -16.27776062933853 0 -16.27776062933853 12.149293480022607 0 0 0 0 -28.528683539938584 -4.6907911005159235 0 -4.6907911005159235 -0.93970454102145595 0 0 0 0 -0.47403482186702739 0.17175977011496268 0 0.17175977011496268 0.14853784408437587 0 0 0 0 3.4687702637434086 -32.70280437218571 0 -32.70280437218571 8.3119205513514771 0 0 0 0 59.426842279513949 -43.932462341598011 0 -43.932462341598011 9.7055416213547687 0 0 0 0 39.953079470938974 -38.939535121977769 0 -38.939535121977769 28.992739225505829 0 0 0 0 35.248462458792346 -85.942453147234346 0 -85.942453147234346 11.589797348899538 0 0 0 0 77.301983423625643 -35.391928546298004 0 -35.391928546298004 29.198657041238221 0 0 0 0 29.917890678036201 -26.274795587815333 0 -26.274795587815333 16.609289032530796 0 0 0 0 -0.21843861006591325 -0.020865001003982364 0 -0.020865001003982364 0.1889808973993552 0 0 0 0 53.573508444003892 -33.270257291243297 0 -33.270257291243297 -9.7143402095312013 0 0 0 0 36.645193607655528 -37.678296269037673 0 -37.678296269037673 -8.115328036861456 0 0 0 0 40.654335766660552 -40.002452062334328 0 -40.002452062334328 -19.494427639489004 0 0 0 0 36.115570619847858 -47.920639774274719 0 -47.920639774274719 -21.400717891586282 0 0 0 0 53.264563591271326 -32.418246706549667 0 -32.418246706549667 -16.562193343947456 0 0 0 0 28.376319029326623 -33.823321639223195 0 -33.823321639223195 -12.289991672369069 0 0 0 0 30.535951744105432 -49.002960196613202 0 -49.002960196613202 -19.875680595931044 0 0 0 0 28.759646048212744 -43.520352858673959 0 -43.520352858673959 -14.455738399481106 0 0 0 0 9.6766477165983815 -28.611022665940709 0 -28.611022665940709 -18.384228940632511 0 0 0 0 21.828107495959557 -49.404334009743479 0 -49.404334009743479 -21.619947411713383 0 0 0 0 -1.7440216356993803 -1.8056901014272642 0 -1.8056901014272642 0.011940068101667478 0 0 0 0 -5.6756093750543641 1.7907412697541929 0 1.7907412697541929 -4.2655690215144659 0 0 0 0 150.6400667972157 73.705708482237696 0 73.705708482237696 -26.471399841032508 0 0 0 0 23.023912355849461 -51.81122904055087 0 -51.81122904055087 -17.028168545436529 0 0 0 0 20.650194803722115 -54.260536458360093 0 -54.260536458360093 -38.704314976090018 0 0 0 0 6.3702551160249641 -36.158267128791294 0 -36.158267128791294 4.8807264496213065 0 0 0 0 -5.9894539733713827 -7.4668105543173624 0 -7.4668105543173624 0.732841210293941 0 0 0 0 12.969250999348787 -19.418859680681408 0 -19.418859680681408 7.9179136048963983 0 0 0 0 47.498195436089873 -13.745169379562924 0 -13.745169379562924 -8.5148472694847896 0 0 0 0 28.451108400656267 17.905470148664222 0 17.905470148664222 9.7857409259663655 0 0 0 0 0.086583018995333383 -0.30232327081028121 0 -0.30232327081028121 0.4730047226603733 0 0 0 0 -4.8024313093248452 -1.2198168201163071 0 -1.2198168201163071 28.949244299294605 0 0 0 0 -15.691287154700149 -31.834619191995216 0 -31.834619191995216 21.478560110415231 0 0 0 0 11.73519429977614 -27.566174452398741 0 -27.566174452398741 -1.9816785082254 0 0 0 0 -9.254861171328912 -12.293739694248927 0 -12.293739694248927 -9.5464856240048448 0 0 0 0 -39.014650893319413 -15.634818014279915 0 -15.634818014279915 13.09525227117706 0 0 0 0 20.344211777163537 -17.711443721886923 0 -17.711443721886923 4.6157717836132974 0 0 0 0 0.041134243695230444 0.28374773771094119 0 0.28374773771094119 -0.10925297147057877 0 0 0 0 26.959282761170869 -19.730033155134429 0 -19.730033155134429 2.615124946674996 0 0 0 0 21.51964992682133 5.9588642060849679 0 5.9588642060849679 1.4497862934490513 0 0 0 0 -0.64187049512651129 -6.2691530730385647 0 -6.2691530730385647 12.43304679033497 0 0 0 0 -0.63296524957781186 -0.14914922561138333 0 -0.14914922561138333 -0.17482761145989589 0 0 0 0 -0.61594444674940885 -0.67543749388979468 0 -0.67543749388979468 -0.063086075924696283 0 0 0 0 -1.8687056281158529 -1.7283715986055932 0 -1.7283715986055932 -0.97840580303072855 0 0 0 0 -3.3049449232753432 -3.7617960416700384 0 -3.7617960416700384 -9.1146959551902516 0 0 0 0 -2.0527911697841148 -3.5344164052787992 0 -3.5344164052787992 -1.8762427554602255 0 0 0 0 0.093239894966115955 -1.2830535192628019 0 -1.2830535192628019 0.31440465177158661 0 0 0 0 -8.7303485867446966 -6.8275390259229933 0 -6.8275390259229933 -1.1945372289302441 0 0 0 0 -1.2997670722861585 -6.3298148075854215 0 -6.3298148075854215 1.8772574614942812 0 0 0 0 -3.0570432826016258 -4.5496583774443025 0 -4.5496583774443025 -2.3688086262941397 0 0 0 0 9.8813314955764326 -2.4593175116657306 0 -2.4593175116657306 -4.1376164507620388 0 0 0 0 -0.4375277210124634 -1.7389871330412379 0 -1.7389871330412379 -3.3859670769268053 0 0 0 0 9.6012196438213095 -1.4580170728988975 0 -1.4580170728988975 -4.3577173403321581 0 0 0 0 22.865160277374343 3.7482088638336393 0 3.7482088638336393 -3.5330025805578202 0 0 0 0 6.0784315685086767 5.2206911721299321 0 5.2206911721299321 3.1966908890304921 0 0 0 0 8.3885513137054204 -4.4281380425013097 0 -4.4281380425013097 -7.270662842865022 0 0 0 0 4.8199284479364906 6.7395113692522131 0 6.7395113692522131 3.2887900176051517 0 0 0 0 1.3796424915216781 -0.12384638688630289 0 -0.12384638688630289 -1.1047991631006202 0 0 0 0 12.745759789748263 -0.14042994938118625 0 -0.14042994938118625 -7.3810706635019487 0 0 0 0 13.792621975779809 -4.7640447006010085 0 -4.7640447006010085 -5.007900984957729 0 0 0 0 14.245481789344012 -4.9661536071144496 0 -4.9661536071144496 -6.041769946032062 0 0 0 0 14.46333207803491 -11.310721056335467 0 -11.310721056335467 -3.2775012336380058 0 0 0 0 17.946723995250068 -7.4357040118388227 0 -7.4357040118388227 -4.4828766402613098 0 0 0 0 4.2698529235814533 -8.4767086519074812 0 -8.4767086519074812 -1.5545751645013866 0 0 0 0 5.2918103311558298 -10.040377389425117 0 -10.040377389425117 -1.2764437776980069 0 0 0 0 6.9576770096097107 -8.6506589081170162 0 -8.6506589081170162 -3.9634306066085401 0 0 0 0 5.1769758738571454 -12.367597983356688 0 -12.367597983356688 0.79837879629928921 0 0 0 0 0.46106381082100256 -2.7082172842801953 0 -2.7082172842801953 -6.3041197264304856 0 0 0 0 -7.9495646676667775 -9.4632458662594274 0 -9.4632458662594274 5.6091410200111227 0 0 0 0 1.7241777272245145 -8.7635927586322282 0 -8.7635927586322282 16.191481553503195 0 0 0 0 21.534472310091815 -19.158012136898094 0 -19.158012136898094 3.4291778973060332 0 0 0 0 34.213839122731315 -4.0445702510334058 0 -4.0445702510334058 -4.4225700600603659 0 0 0 0 26.243629308702793 -12.243997838529481 0 -12.243997838529481 0.8765704955756064 0 0 0 0 12.760479591918511 2.6736971014327366 0 2.6736971014327366 1.9292700185600324 0 0 0 0 10.188537030486287 -3.6130537060508132 0 -3.6130537060508132 -2.1477536419222361 0 0 0 0 -12.228488621803876 -0.94788690183122526 0 -0.94788690183122526 4.717413828899339 0 0 0 0 -2.0959032068806209 -5.0823177750520472 0 -5.0823177750520472 -1.9999397751317929 0 0 0 0 7.6586013919261404 -3.2300978489777208 0 -3.2300978489777208 -1.6890266084330676 0 0 0 0 1.8847493051349198 -1.7264860919827782 0 -1.7264860919827782 -2.4192409695722144 0 0 0 0 0.96570741022384254 4.4832903068402175 0 4.4832903068402175 -6.7207467238855543 0 0 0 0 3.606368786420262 -0.67414671451410868 0 -0.67414671451410868 -7.1591106953799226 0 0 0 0 5.8178504288796375 -6.1226727505134591 0 -6.1226727505134591 -3.3775500480758183 0 0 0 0 362.5765512507042 -156.83599949213021 0 -156.83599949213021 13.935072873734185 0 0 0 0 277.22235739568953 -136.72323504274669 0 -136.72323504274669 15.834265795444782 0 0 0 0 0.67264105588540946 -1.9150223195409448 0 -1.9150223195409448 -0.80320612912085343 0 0 0 0 195.46826969754204 -83.56747244652837 0 -83.56747244652837 39.647754402764839 0 0 0 0 282.28328698619629 -119.05869503242077 0 -119.05869503242077 43.219951385725381 0 0 0 0 13.434667655309568 -10.571038594572698 0 -10.571038594572698 -22.545316789204474 0 0 0 0 0.33089130966137731 -4.7711090144040167 0 -4.7711090144040167 -3.053439157145208 0 0 0 0 5.7146077719194395 0.75132139215740135 0 0.75132139215740135 -0.56634866904528169 0 0 0 0 499.379399140526 -327.67174315364906 0 -327.67174315364906 151.70249335876804 0 0 0 0 1.8251072965685737 0.39817982909067029 0 0.39817982909067029 0.38509702664466056 0 0 0 0 84.391097145589214 137.31747131499259 0 137.31747131499259 65.510814753648049 0 0 0 0 499.15813600483114 83.393854960310549 0 83.393854960310549 -90.855921585564772 0 0 0 0 -0.80283708928452713 -4.4152009721992425 0 -4.4152009721992425 -1.2253207063799936 0 0 0 0 63.027029521027146 -35.087409693884155 0 -35.087409693884155 -17.986479631599003 0 0 0 0 -23.817970812688827 0.91604457913079784 0 0.91604457913079784 52.736038682987207 0 0 0 0 209.70083919499643 -72.781121922079706 0 -72.781121922079706 -39.297270799133443 0 0 0 0 499.11503217600239 -96.498403168892551 0 -96.498403168892551 -94.259585269903667 0 0 0 0 217.00548461598737 -2.6816441835401266 0 -2.6816441835401266 -91.882771286348969 0 0 0 0 235.60156150565854 29.817335313588259 0 29.817335313588259 26.7941343711427 0 0 0 0 129.6802689035037 -120.59539529671834 0 -120.59539529671834 90.941143415445751 0 0 0 0 0.95142953567436894 -1.2480801276195856 0 -1.2480801276195856 -0.034104672661834368 0 0 0 0 497.191966729672 -117.21782615556459 0 -117.21782615556459 -49.754050911048537 0 0 0 0 91.089571459082435 13.755134494251074 0 13.755134494251074 -61.23186369980256 0 0 0 0 17.080533351865142 37.767814065501781 0 37.767814065501781 29.097537637876137 0 0 0 0 -93.513198092656239 -268.91931184966995 0 -268.91931184966995 123.40138651328861 0 0 0 0 -0.43349532536020075 -1.9435927574607037 0 -1.9435927574607037 -1.0384297516810386 0 0 0 0 0.99220297810479252 -0.15194750096654142 0 -0.15194750096654142 -0.48740455815594885 0 0 0 0 497.22713157858954 -0.20332409932331069 0 -0.20332409932331069 -1.1769480148146261 0 0 0 0 227.54522719443185 60.104258725566787 0 60.104258725566787 -48.682789007614097 0 0 0 0 191.15528057989786 406.17725328034965 0 406.17725328034965 273.13873359951714 0 0 0 0 0.28060391731055034 0.22005462711693879 0 0.22005462711693879 -1.2108395695129484 0 0 0 0 2.4792653481574689 -1.6601724723703484 0 -1.6601724723703484 -2.2379107975880039 0 0 0 0 -113.48885548905082 -1.8139280712899239 0 -1.8139280712899239 20.357242524071353 0 0 0 0 1.142981645748173 -4.1014985434459819 0 -4.1014985434459819 -3.7785824577705265 0 0 0 0 -51.56341185442534 31.868015953983331 0 31.868015953983331 34.019906649394116 0 0 0 0 0.45374921538935437 -4.5032273821392561 0 -4.5032273821392561 -0.44341495404927478 0 0 0 0 4.5382556192590187 -9.0784903208505661 0 -9.0784903208505661 -2.4977478716660642 0 0 0 0 5.7385802318040078 -9.2843502201379806 0 -9.2843502201379806 -3.69857358724839 0 0 0 0 5.0895124437902268 -8.9990268254601347 0 -8.9990268254601347 -3.599735246195749 0 0 0 0 7.1995059674200093 -9.301027182399487 0 -9.301027182399487 -3.2183248871393317 0 0 0 0 5.1055952276774406 -8.9939645512294106 0 -8.9939645512294106 -3.2224306470473949 0 0 0 0 2.6680029736148754 -6.7951682610823809 0 -6.7951682610823809 -4.0796740432429033 0 0 0 0 6.7685037284909413 -7.7522563080399287 0 -7.7522563080399287 -3.9983673298364266 0 0 0 0 8.6412826981811577 -4.5828189177822551 0 -4.5828189177822551 -5.0070693640574859 0 0 0 0 7.9208296051519937 -8.3987535954246368 0 -8.3987535954246368 -3.9746196735643551 0 0 0 0 8.7648917149006138 -4.7527779335601394 0 -4.7527779335601394 -4.7738231759057754 0 0 0 0 8.5555844059003903 -5.8066887081375995 0 -5.8066887081375995 -5.9967216316785539 0 0 0 0 8.0848427409705437 -16.877494135392226 0 -16.877494135392226 -7.3238751602661978 0 0 0 0 7.9972388478054199 -5.754075308698873 0 -5.754075308698873 -8.1521333154567515 0 0 0 0 5.8005581602884355 -3.7909373142030551 0 -3.7909373142030551 0.98381989399556247 0 0 0 0 7.1719764924000629 -5.17849893385619 0 -5.17849893385619 -6.2812822000382766 0 0 0 0 8.1582440325278185 -6.1249804349294834 0 -6.1249804349294834 -7.6779725118399824 0 0 0 0 6.8064115462768768 -4.402812360605509 0 -4.402812360605509 -7.7394975463722631 0 0 0 0 4.8767035610572407 -10.559938780761854 0 -10.559938780761854 -10.213997586271773 0 0 0 0 1.643335462399186 -4.9163450355466551 0 -4.9163450355466551 -17.542642458091905 0 0 0 0 1.8419260631849284 -5.1091028996875139 0 -5.1091028996875139 -17.602492596364819 0 0 0 0 5.1044924049908875 -4.2414263160358008 0 -4.2414263160358008 0.93328528913535647 0 0 0 0 -0.035209943175540159 -0.77942688046092989 0 -0.77942688046092989 -0.57541316989365132 0 0 0 0 7.4098747702656738 -6.5282066981858407 0 -6.5282066981858407 0.3571942663182508 0 0 0 0 10.523937853114944 -7.699468138768907 0 -7.699468138768907 -2.0005190638107706 0 0 0 0 8.645673467080627 0.082578788187078089 0 0.082578788187078089 -1.6400525811645821 0 0 0 0 17.948162762148371 -12.106295032612991 0 -12.106295032612991 -0.63722106047680427 0 0 0 0 -0.15302668563459232 -1.0853107944704838 0 -1.0853107944704838 0.47265408900792161 0 0 0 0 -1.9599669089959662 -8.7193073613523211 0 -8.7193073613523211 17.50178223498682 0 0 0 0 4.240863830725857 -12.092996829502511 0 -12.092996829502511 4.6663452894833881 0 0 0 0 11.22182017755199 -16.511592047412933 0 -16.511592047412933 6.4249508653640532 0 0 0 0 8.528433909667342 -3.1530415507522775 0 -3.1530415507522775 -15.77926933863273 0 0 0 0 4.2969987461651726 -1.6735969723704329 0 -1.6735969723704329 -12.824230507072116 0 0 0 0 5.6047658445384059 -2.2115373458118484 0 -2.2115373458118484 -12.831065961332115 0 0 0 0 1.9448591311250283 -19.889675794568745 0 -19.889675794568745 -2.5131194875524443 0 0 0 0 9.7843829614220112 -5.0145533237634368 0 -5.0145533237634368 -13.136951614406144 0 0 0 0 6.616099010711423 -1.8437038895580002 0 -1.8437038895580002 -12.959568589145224 0 0 0 0 5.9404958719873839 -3.0140823272658817 0 -3.0140823272658817 -1.9773028807629229 0 0 0 0 -65.262660228433106 -19.254731052791115 0 -19.254731052791115 86.206049569335661 0 0 0 0 11.993750355717566 -5.763409928438648 0 -5.763409928438648 -34.541668355861525 0 0 0 0 0.087358966624813128 -0.1460409657125803 0 -0.1460409657125803 0.15597766389603235 0 0 0 0 2.0188791304751077 0.30680385458357495 0 0.30680385458357495 -0.29411882538974249 0 0 0 0 -27.312657661434059 -14.57604472933491 0 -14.57604472933491 -78.618740813903173 0 0 0 0 152.53947436283579 69.497434910876493 0 69.497434910876493 -13.193136293029823 0 0 0 0 299.32924526227271 42.008189952676041 0 42.008189952676041 -56.569083976950722 0 0 0 0 314.09879345027844 -2.4462880983451001 0 -2.4462880983451001 -70.409413658145652 0 0 0 0 408.97873508605517 6.7010979163748026 0 6.7010979163748026 -81.679943549084939 0 0 0 0 363.23246597759135 -1.5616280658703019 0 -1.5616280658703019 -73.792805356605058 0 0 0 0 356.47557083208176 67.364458489162629 0 67.364458489162629 -47.28181472583249 0 0 0 0 351.68992682895919 101.24036138997189 0 101.24036138997189 18.061908548491751 0 0 0 0 351.76693891111506 123.7454441634704 0 123.7454441634704 1.5340665998646941 0 0 0 0 1.9912394373746887 -0.92969746202927617 0 -0.92969746202927617 -1.1263437683198223 0 0 0 0 499.5366070765325 119.00317902141329 0 119.00317902141329 -48.677349350016492 0 0 0 0 -9.803339350755266 -3.6680802761304676 0 -3.6680802761304676 3.237827083362447 0 0 0 0 1.5411340630223773 -2.379284984931592 0 -2.379284984931592 -2.3311616230146406 0 0 0 0 3.0866875450876705 -2.2362733101858794 0 -2.2362733101858794 8.2491598189660635 0 0 0 0 5.0809056363364107 5.2998067513962042 0 5.2998067513962042 8.8256499841486402 0 0 0 0 9.6240061452288597 1.7245572131614135 0 1.7245572131614135 0.90745589000663873 0 0 0 0 2.3279956242916526 0.34191288665171937 0 0.34191288665171937 0.37940651178610851 0 0 0 0 2.7600649776589918 0.99494723823827447 0 0.99494723823827447 0.97127492733167253 0 0 0 0 14.655689251635749 -2.7537813018648194 0 -2.7537813018648194 -3.6586826491341071 0 0 0 0 9.9185129141578727 -5.4589222713252639 0 -5.4589222713252639 5.3958478474406775 0 0 0 0 30.289201912364661 -5.234652751512499 0 -5.234652751512499 -7.5280164461676122 0 0 0 0 7.9348235466029742 -0.90328213541077407 0 -0.90328213541077407 -0.82700449026335554 0 0 0 0 10.858295302509759 1.8231482845972096 0 1.8231482845972096 -1.3353160527839236 0 0 0 0 6.438013979733114 -1.0887607642229113 0 -1.0887607642229113 -1.3473260864422514 0 0 0 0 9.0278856538682533 0.65190451110363357 0 0.65190451110363357 0.060058546742930652 0 0 0 0 5.692678934438689 0.71404602157713093 0 0.71404602157713093 -0.24351086425044155 0 0 0 0 1.3932245110781984 0.99922825252321257 0 0.99922825252321257 0.09473502497325037 0 0 0 0 9.3915021022586416 -11.130631959460775 0 -11.130631959460775 -10.109800540804258 0 0 0 0 -0.10942377873107034 6.3661915206753861 0 6.3661915206753861 4.2218227417009757 0 0 0 0 6.5867077729771744 -2.7212410599148433 0 -2.7212410599148433 0.11575517788787448 0 0 0 0 7.5676423624351878 -0.54624925386165657 0 -0.54624925386165657 0.99014198511990825 0 0 0 0 10.051517817380955 -0.23788847695186632 0 -0.23788847695186632 -1.7054964589679003 0 0 0 0 7.5642088584827434 3.0165894888669982 0 3.0165894888669982 0.27587596493651745 0 0 0 0 40.055504981854028 -3.0761278044932965 0 -3.0761278044932965 -6.6092539827482426 0 0 0 0 7.0851997890217397 1.9040740704554651 0 1.9040740704554651 0.032334316114670747 0 0 0 0 13.14125415248002 2.7207085527278068 0 2.7207085527278068 -0.44029122196530646 0 0 0 0 9.8758209141933548 0.30799635286805938 0 0.30799635286805938 -2.3457850694692297 0 0 0 0 0.89629232380208634 -1.2706828612997874 0 -1.2706828612997874 -1.0232989869901161 0 0 0 0 8.4695488060118365 -1.7669474218985428 0 -1.7669474218985428 -1.1426234189936717 0 0 0 0 13.242424190942984 24.416869324035133 0 24.416869324035133 -0.67740361515086533 0 0 0 0 33.272868081199704 13.868762167021487 0 13.868762167021487 3.9032837893661565 0 0 0 0 21.252290471557458 13.982362427434417 0 13.982362427434417 -0.73834365503853405 0 0 0 0 33.990304956261184 29.154134763994534 0 29.154134763994534 -3.5740425539523812 0 0 0 0 19.978939286685772 11.813365216491526 0 11.813365216491526 2.767703806071077 0 0 0 0 3.3185141256367539 1.525712345622207 0 1.525712345622207 -0.18385645615920865 0 0 0 0 24.400199410585628 15.579465388906442 0 15.579465388906442 3.5742119772442607 0 0 0 0 -1.744561550416633 1.3872001145503043 0 1.3872001145503043 1.6154684120757565 0 0 0 0 19.004924666689931 21.470477621466443 0 21.470477621466443 -10.551753079884008 0 0 0 0 30.125011676565009 29.866003273755268 0 29.866003273755268 -6.1746324969576563 0 0 0 0 4.6032532244415734 17.029632841142529 0 17.029632841142529 0.31157305325018569 0 0 0 0 -38.495416224986222 4.9871854923437837 0 4.9871854923437837 -1.5188898655051162 0 0 0 0 3.476309165811756 12.24997809263354 0 12.24997809263354 7.580788219254373 0 0 0 0 17.07451523316584 5.9626652754998304 0 5.9626652754998304 14.609097922235662 0 0 0 0 -4.6022219506789099 17.71072728983313 0 17.71072728983313 24.308752092049872 0 0 0 0 0.77175465572321023 0.89159496903638402 0 0.89159496903638402 0.19110909239161256 0 0 0 0 16.38036344926627 20.411976571048626 0 20.411976571048626 12.643071062405738 0 0 0 0 2.6047117369174657 14.356426025195788 0 14.356426025195788 15.756481879066087 0 0 0 0 -2.4761671531522689 1.381775990159511 0 1.381775990159511 0.3227393384618269 0 0 0 0 -23.650030593320537 -0.59085541106560413 0 -0.59085541106560413 26.104530791802972 0 0 0 0 7.7604009302303893 1.1833633748158263 0 1.1833633748158263 -2.5694487668365582 0 0 0 0 -14.672034352345008 21.863006604462271 0 21.863006604462271 12.569769220025989 0 0 0 0 14.439403609103692 6.5303881620154698 0 6.5303881620154698 2.9162490490102755 0 0 0 0 14.41112160234627 6.9983173496042923 0 6.9983173496042923 -3.279323947521334 0 0 0 0 4.6105198749118239 7.1495109679066911 0 7.1495109679066911 0.63671809355270437 0 0 0 0 3.8808874711012322 8.9276068955130086 0 8.9276068955130086 4.5714481030038314 0 0 0 0 12.489184727351585 2.8136800724259956 0 2.8136800724259956 8.6099204821734929 0 0 0 0 14.08621532327561 9.8818509991435803 0 9.8818509991435803 1.1875520002837447 0 0 0 0 6.2196476742687992 19.195775445905383 0 19.195775445905383 19.627175831936029 0 0 0 0 0.51137325674636491 -0.11362422530555705 0 -0.11362422530555705 -0.120086908618243 0 0 0 0 14.629123732440348 20.413064828881829 0 20.413064828881829 9.1807433599925403 0 0 0 0 -39.730375802044477 -36.994249098549631 0 -36.994249098549631 22.854933220208295 0 0 0 0 9.0313680314291105 5.9542398969231272 0 5.9542398969231272 -29.325299438589695 0 0 0 0 8.4170274127407936 17.245137030274236 0 17.245137030274236 -6.5277005008822471 0 0 0 0 5.753559662802548 1.9366261908543434 0 1.9366261908543434 0.54983809200179845 0 0 0 0 -1.2311161362189482 1.3865099195178709 0 1.3865099195178709 -0.31862857579518966 0 0 0 0 -3.3349038168946414 -3.4448368352476564 0 -3.4448368352476564 -5.6697353130505235 0 0 0 0 17.299208102300156 9.969148886769716 0 9.969148886769716 -7.6129572331456075 0 0 0 0 0.90864686356735547 8.2649692362374481 0 8.2649692362374481 2.5244224476841737 0 0 0 0 17.814183466607801 49.707474923626364 0 49.707474923626364 57.479510851650957 0 0 0 0 7.5771532105443384 -5.7655413650128366 0 -5.7655413650128366 -19.252243718301429 0 0 0 0 6.5071683115065753 9.446477113186063 0 9.446477113186063 9.8974592706659905 0 0 0 0 -1.1959057358631071 -6.4403246888742842 0 -6.4403246888742842 15.976293986436076 0 0 0 0 6.6517268186360869 2.3083475876000348 0 2.3083475876000348 0.66077716377466222 0 0 0 0 20.970366728450728 39.035111237466168 0 39.035111237466168 -12.985052371576785 0 0 0 0 12.034295212740517 5.7140889507808197 0 5.7140889507808197 -31.78999427846253 0 0 0 0 -18.254186059942185 -17.093580480564242 0 -17.093580480564242 25.319600564200641 0 0 0 0 -2.0306533267948907 9.8107717135408166 0 9.8107717135408166 -5.8930413380210211 0 0 0 0 -2.1652064521464958 0.32424507470693875 0 0.32424507470693875 2.1162994141309355 0 0 0 0 5.5337907613349664 -2.1781834501659443 0 -2.1781834501659443 2.0510799012076859 0 0 0 0 0.6097743122936663 3.297973095073985 0 3.297973095073985 4.8213659342789015 0 0 0 0 4.1268817699265128 2.0169893153366729 0 2.0169893153366729 0.17306046364251415 0 0 0 0 1.5984770586098449 23.404417224507625 0 23.404417224507625 -2.6511108214306205 0 0 0 0 -4.560919713698695 20.615481824556127 0 20.615481824556127 -16.503030254475618 0 0 0 0 1.4647323925996716 -0.72055701070536315 0 -0.72055701070536315 -1.8280943448717153 0 0 0 0 6.9104824535478766 1.9687321223219549 0 1.9687321223219549 0.58406270711359776 0 0 0 0 26.228999238657707 9.6365771699896641 0 9.6365771699896641 8.0614537723430999 0 0 0 0 -7.8583235446249091 5.8444771031623759 0 5.8444771031623759 8.0057661416492181 0 0 0 0 40.821772740131109 4.0977134248389575 0 4.0977134248389575 -4.27833381556934 0 0 0 0 15.18040528799952 -12.313674789823779 0 -12.313674789823779 -6.341768062086885 0 0 0 0 5.9581631257156005 13.384754982454751 0 13.384754982454751 16.097281524711093 0 0 0 0 22.952559416020449 14.181902094392058 0 14.181902094392058 5.9172350283357673 0 0 0 0 -23.95808144613784 -0.57584785993185506 0 -0.57584785993185506 15.598968973909763 0 0 0 0 0.0011651599840152294 -0.12643880924788897 0 -0.12643880924788897 0.21844741635274589 0 0 0 0 -29.251076963606238 23.185497055026303 0 23.185497055026303 -1.9888890650443045 0 0 0 0 46.568793164009094 -78.75858420094346 0 -78.75858420094346 63.39007709267662 0 0 0 0 11.346419947788036 3.5963694352431048 0 3.5963694352431048 3.9309014292929305 0 0 0 0 8.1376988753609112 6.520575243279211 0 6.520575243279211 9.8501274702482533 0 0 0 0 10.497674566349815 3.9104988320790426 0 3.9104988320790426 4.6588409992295965 0 0 0 0 10.117139165504341 3.5869087162802771 0 3.5869087162802771 4.5074620896505166 0 0 0 0 9.6119805521400394 2.2181274744046959 0 2.2181274744046959 3.806050180357488 0 0 0 0 102.66341014619184 53.160792609293821 0 53.160792609293821 -84.999280109217125 0 0 0 0 67.815821183680782 -47.41966220907284 0 -47.41966220907284 8.946912614418352 0 0 0 0 1.2148619931284088 -2.6176319571945896 0 -2.6176319571945896 21.836625290362463 0 0 0 0 0.67330994117745657 0.50209547689431311 0 0.50209547689431311 0.36326801513564866 0 0 0 0 8.0338839136725255 -4.1335631948684295 0 -4.1335631948684295 0.058881579873201417 0 0 0 0 0.64684498587875172 -0.20566343618901728 0 -0.20566343618901728 0.32844482076585058 0 0 0 0 3.3374948830883113 -2.2708102942417945 0 -2.2708102942417945 3.657053322323236 0 0 0 0 2.8875870767292326 -8.1867519436849534 0 -8.1867519436849534 -2.5656245746329205 0 0 0 0 8.0217877584364032 -4.1161285269353129 0 -4.1161285269353129 0.53068287240785139 0 0 0 0 3.2476018886500242 -2.1355785525273632 0 -2.1355785525273632 6.2108160030053341 0 0 0 0 0.85249605128524308 -4.5349027020484982 0 -4.5349027020484982 0.12499333091068365 0 0 0 0 -1.3817158631009079 -6.8228933821991404 0 -6.8228933821991404 2.3568053260732995 0 0 0 0 -8.8160880357831957 0.2404854265631684 0 0.2404854265631684 11.408483326387568 0 0 0 0 3.770033589662944 3.3135779426810359 0 3.3135779426810359 7.5689447960007783 0 0 0 0 2.8122258442170391 -1.4396548874019715 0 -1.4396548874019715 5.3842508933344106 0 0 0 0 5.4412192240220065 -0.22101501020927117 0 -0.22101501020927117 5.8172953139664969 0 0 0 0 6.5908481742649201 -3.0898640711307053 0 -3.0898640711307053 4.2536774578233292 0 0 0 0 6.7784104058252979 -3.8619184536531463 0 -3.8619184536531463 -0.41151125826286261 0 0 0 0 1.4606832770751161 0.14805098795049032 0 0.14805098795049032 1.4166616657415609 0 0 0 0 2.9800604100323653 -4.481714181391915 0 -4.481714181391915 3.8617573399501453 0 0 0 0 6.9594696310196014 -2.4739378540750749 0 -2.4739378540750749 0.31074179590063977 0 0 0 0 5.6885212896582527 -0.14748779630645359 0 -0.14748779630645359 -0.53074684825919061 0 0 0 0 10.026866326299569 0.7407332266479898 0 0.7407332266479898 -7.6581705660969419 0 0 0 0 2.360656960416236 -8.1479702173820669 0 -8.1479702173820669 -1.631435917301701 0 0 0 0 8.7859537655854183 1.8924704432209296 0 1.8924704432209296 -10.670935526531593 0 0 0 0 8.6326612358091097 0.52209919949149253 0 0.52209919949149253 3.1084055326501812 0 0 0 0 7.2684702436357727 0.77045869917509713 0 0.77045869917509713 0.31993632322618382 0 0 0 0 31.074222820609521 9.9280501397386161 0 9.9280501397386161 -9.0743327053648954 0 0 0 0 -3.8909306733457925 -2.6713266243061753 0 -2.6713266243061753 15.730640518225528 0 0 0 0 1.8003010023117074 -0.1929309770326233 0 -0.1929309770326233 -0.38100646882159328 0 0 0 0 14.566486450211869 3.4763022944120792 0 3.4763022944120792 -1.7282879670885904 0 0 0 0 2.0247184536878402 0.12774652902893902 0 0.12774652902893902 0.034224806263842389 0 0 0 0 10.756450533155203 -6.4604774675092358 0 -6.4604774675092358 4.3125113715831844 0 0 0 0 9.5720554304407415 5.2562557638012777 0 5.2562557638012777 8.0898836966721319 0 0 0 0 5.6476698117931505 0.024206486761953139 0 0.024206486761953139 -0.53758754657472707 0 0 0 0 5.6803174549131654 -3.6245959342061269 0 -3.6245959342061269 3.7844185735675637 0 0 0 0 7.3324035018831637 -1.5378585672432905 0 -1.5378585672432905 3.1881717644477732 0 0 0 0 8.5239621001228443 -0.1560543904182623 0 -0.1560543904182623 4.6897170362090037 0 0 0 0 5.3794818937458331 -2.3650062159796335 0 -2.3650062159796335 7.2199752140190867 0 0 0 0 19.103517294401627 10.001647113670288 0 10.001647113670288 -12.21315056538856 0 0 0 0 10.54858599149884 -9.5903181148132717 0 -9.5903181148132717 18.000774468413226 0 0 0 0 3.8728279040287816 0.11404193859016232 0 0.11404193859016232 12.201451004195405 0 0 0 0 26.107149552292981 0.1799172760021861 0 0.1799172760021861 -7.4594058009959099 0 0 0 0 2.5693022030738728 0.31757807857799669 0 0.31757807857799669 0.11698589596774012 0 0 0 0 9.876778831828986 1.449871615121626 0 1.449871615121626 -0.080856131165961465 0 0 0 0 11.164678477667621 2.8440496266608761 0 2.8440496266608761 3.9718147869209588 0 0 0 0 11.937645880321725 0.45321488689666012 0 0.45321488689666012 1.1129926301246087 0 0 0 0 3.4963394656366704 -1.0188650754849142 0 -1.0188650754849142 0.88175225455414497 0 0 0 0 11.629098291942682 -0.25056464803697054 0 -0.25056464803697054 -0.46668851515704546 0 0 0 0 9.2420864679029364 0.26345961629147041 0 0.26345961629147041 1.8173756110520571 0 0 0 0 4.5204104902595645 -0.87098006840437847 0 -0.87098006840437847 -1.8719206436726381 0 0 0 0 11.226082191574733 0.79209299860465521 0 0.79209299860465521 1.9460416332183286 0 0 0 0 3.3644406398088904 -5.0717463232071509 0 -5.0717463232071509 0.41450106064098691 0 0 0 0 7.11051518125754 -1.2875800961082442 0 -1.2875800961082442 -0.68121902366574894 0 0 0 0 5.7252651804056729 0.072286886462133992 0 0.072286886462133992 -0.91820927982711398 0 0 0 0 6.9768267394667021 -1.9613966810292549 0 -1.9613966810292549 -0.7999114679662549 0 0 0 0 6.3290814620409037 0.46253887107486635 0 0.46253887107486635 0.820316896331162 0 0 0 0 11.359471314264624 -0.55274591809666163 0 -0.55274591809666163 2.3287480449273517 0 0 0 0 23.821270609597377 -4.0879928228949893 0 -4.0879928228949893 -17.803766299341305 0 0 0 0 8.0383492923483573 8.0364149855629421 0 8.0364149855629421 1.3278835865485235 0 0 0 0 6.8309682049062204 -0.92717661716402056 0 -0.92717661716402056 -0.16022631028049661 0 0 0 0 6.3456950948702797 -0.33735982413588772 0 -0.33735982413588772 0.049979056897313967 0 0 0 0 0.89083248895253675 0.30530987034934221 0 0.30530987034934221 -0.54228715176773079 0 0 0 0 3.5610899428274934 -54.44588267900042 0 -54.44588267900042 -44.980151911549342 0 0 0 0 1.0843019245527614 -0.010989049321802558 0 -0.010989049321802558 -0.1826891048014494 0 0 0 0 35.655089895896026 7.821060576260578 0 7.821060576260578 -89.30606580981339 0 0 0 0 5.1590913455247573 -0.50116381717504055 0 -0.50116381717504055 0.68738944616103481 0 0 0 0 15.180389034563632 -0.47740213393507247 0 -0.47740213393507247 2.4211101407856859 0 0 0 0 3.5689290139501715 -2.0782916792548285 0 -2.0782916792548285 -0.19881643360936563 0 0 0 0 16.603322022849625 3.298917906588315 0 3.298917906588315 0.62306290134665687 0 0 0 0 10.210227274757756 1.0712507445551471 0 1.0712507445551471 -0.19370018939182287 0 0 0 0 20.599107721487599 1.6914636808095338 0 1.6914636808095338 0.31608237129194094 0 0 0 0 3.4736439723460437 0.37837735598478872 0 0.37837735598478872 0.78398969813221075 0 0 0 0 18.453375721352586 -1.7757782840142511 0 -1.7757782840142511 1.9543169521086838 0 0 0 0 16.028973180173125 6.8996699311019256 0 6.8996699311019256 3.8030114171411071 0 0 0 0 13.233889479789923 0.049893867371025635 0 0.049893867371025635 3.8144237782685195 0 0 0 0 23.369325302218385 4.890838846906604 0 4.890838846906604 0.24309133158453733 0 0 0 0 1.6235104161828282 -2.7139443125141032 0 -2.7139443125141032 0.78870528440639065 0 0 0 0 19.925577827542384 -1.2552622492458454 0 -1.2552622492458454 0.53013845106920598 0 0 0 0 1.9374876006308135 -3.0068913340199277 0 -3.0068913340199277 1.6223710251814683 0 0 0 0 -25.657417132433238 -37.093859984726521 0 -37.093859984726521 -4.0249864213767523 0 0 0 0 -8.8185088862010161 -21.073764730245557 0 -21.073764730245557 -25.104494567887627 0 0 0 0 -0.44298660410368029 14.85958148206953 0 14.85958148206953 26.786663077514049 0 0 0 0 -8.9330188638068648 -42.334471854527919 0 -42.334471854527919 -2.4253119048105418 0 0 0 0 16.419158517356664 4.4442809478168783 0 4.4442809478168783 5.6601638291081144 0 0 0 0 1.6809735636874423 -3.1860523547684974 0 -3.1860523547684974 2.0899457027704837 0 0 0 0 14.974183509194518 5.9269260721395653 0 5.9269260721395653 4.1398334413087241 0 0 0 0 6.6918754315574915 -38.382982717057928 0 -38.382982717057928 -14.218729203150133 0 0 0 0 13.170356246472693 -8.7299839388097098 0 -8.7299839388097098 -14.240739271709742 0 0 0 0 39.562972851218547 -61.136281215243855 0 -61.136281215243855 70.829478066190632 0 0 0 0 54.138398391361989 96.148047209525885 0 96.148047209525885 47.268541574852065 0 0 0 0 1.1348431373780841 16.393554899986839 0 16.393554899986839 90.079500530959308 0 0 0 0 42.104935734454102 94.261158900959828 0 94.261158900959828 -57.084297640730938 0 0 0 0 44.968910124826834 54.59945914942864 0 54.59945914942864 -8.9001589995997392 0 0 0 0 143.39380592415137 26.41808237601731 0 26.41808237601731 -29.318122182988645 0 0 0 0 -3.5258484017449518 0.32253101801188677 0 0.32253101801188677 -33.737347481196196 0 0 0 0 66.69212549392978 -30.273667652087624 0 -30.273667652087624 12.917603593493766 0 0 0 0 0.25296190666112395 0.35935170118336091 0 0.35935170118336091 0.17616910832295285 0 0 0 0 19.340513906015985 -10.306484942937004 0 -10.306484942937004 4.6788360947397223 0 0 0 0 46.927129249579593 -14.628214552477175 0 -14.628214552477175 -2.5893921983106338 0 0 0 0 21.68121903753854 -5.7574192047420638 0 -5.7574192047420638 -5.2422453441146217 0 0 0 0 62.289715602747947 12.946722987061634 0 12.946722987061634 -12.506050141044398 0 0 0 0 37.409595587239892 18.039655940052171 0 18.039655940052171 -11.26370147058708 0 0 0 0 28.368870484491708 15.420690039635531 0 15.420690039635531 -11.605543184008866 0 0 0 0 38.16675263067691 -7.3964180914488935 0 -7.3964180914488935 -11.266361612293963 0 0 0 0 6.7415366802388235 0.078024553703841093 0 0.078024553703841093 2.3349955863868672 0 0 0 0 23.498041175291291 -2.4303338804071473 0 -2.4303338804071473 -7.9800178648999918 0 0 0 0 -12.364565501173274 10.764530036997932 0 10.764530036997932 34.533320327818046 0 0 0 0 39.662802084060786 26.881628276062088 0 26.881628276062088 -9.15428393473087 0 0 0 0 22.483271985639476 22.585360916275192 0 22.585360916275192 -1.0040315619119156 0 0 0 0 4.2968823929317672 13.041261794851014 0 13.041261794851014 5.1470871456388165 0 0 0 0 -8.4670264834185218 34.754803615803382 0 34.754803615803382 26.772113910982853 0 0 0 0 0.67028903003191109 13.080476478848922 0 13.080476478848922 5.1150629480968028 0 0 0 0 75.966130225438178 26.572083976376859 0 26.572083976376859 -9.1519050964396911 0 0 0 0 31.738474269297569 31.318358681249947 0 31.318358681249947 2.0259614272554245 0 0 0 0 4.6888222112145854 23.959958675090547 0 23.959958675090547 6.891624637915811 0 0 0 0 29.114900070428348 17.219040334878628 0 17.219040334878628 0.75474591590159434 0 0 0 0 44.157131850308005 18.791266091125721 0 18.791266091125721 -4.0707851678403131 0 0 0 0 -29.73690687736962 13.277936082449287 0 13.277936082449287 25.823752840780344 0 0 0 0 0.60580880823335237 12.831769163443287 0 12.831769163443287 4.4910147212181997 0 0 0 0 26.572275725220685 16.799835168349638 0 16.799835168349638 1.0621858866215916 0 0 0 0 32.359114383536166 14.907805752322588 0 14.907805752322588 -2.7189698968240918 0 0 0 0 37.084840862775309 17.08636932278705 0 17.08636932278705 -1.7943237246831814 0 0 0 0 30.216520190536514 20.415583894238551 0 20.415583894238551 -2.739360724974631 0 0 0 0 39.425188658630645 14.912790679547925 0 14.912790679547925 -7.2999707884819145 0 0 0 0 43.38067408477491 17.59661689182758 0 17.59661689182758 -8.1738232285939603 0 0 0 0 37.047552409256241 14.227459085424471 0 14.227459085424471 -6.3242653860511382 0 0 0 0 36.561921426880765 12.325049680129162 0 12.325049680129162 -4.0441706143492411 0 0 0 0 36.570846032345948 10.307568207333881 0 10.307568207333881 -6.4300276019275771 0 0 0 0 37.607860414141669 7.4557454621135548 0 7.4557454621135548 -8.2855497781517897 0 0 0 0 36.92581793362956 9.641492462104452 0 9.641492462104452 -7.6642104146594647 0 0 0 0 32.642654401557735 2.3262654715416318 0 2.3262654715416318 -6.1338497389888289 0 0 0 0 32.782809714440418 6.3173585265587917 0 6.3173585265587917 -6.1793750160736636 0 0 0 0 39.764408104706945 -0.1958035929660582 0 -0.1958035929660582 -6.7250352820450416 0 0 0 0 38.391354347492495 3.4053245978398081 0 3.4053245978398081 -12.725183359099901 0 0 0 0 39.483623927474184 6.8905214570788189 0 6.8905214570788189 -9.5872576114752519 0 0 0 0 50.432087200766091 -8.0070241020275716 0 -8.0070241020275716 -32.750283258175614 0 0 0 0 40.284752049244844 8.2392788485849451 0 8.2392788485849451 -14.01542813116248 0 0 0 0 42.545836359551686 11.570602823455829 0 11.570602823455829 -9.2978916735628445 0 0 0 0 43.305475495572693 19.75869819462514 0 19.75869819462514 -2.5314179779370534 0 0 0 0 46.460415478489949 16.82786427676001 0 16.82786427676001 -14.956796707153302 0 0 0 0 45.062734005703987 19.878617809501179 0 19.878617809501179 -4.4934454932354129 0 0 0 0 42.301963978115623 33.509107326883623 0 33.509107326883623 -54.77904946712988 0 0 0 0 43.689278894001745 24.666621396878782 0 24.666621396878782 -4.7231408980446901 0 0 0 0 27.700247530945148 10.238398422185014 0 10.238398422185014 20.473939794457237 0 0 0 0 60.954231034100758 -0.25869361064314944 0 -0.25869361064314944 16.923592469545156 0 0 0 0 43.632432287230358 18.52708530184043 0 18.52708530184043 9.9897168555778535 0 0 0 0 46.392424505150018 24.606903963522086 0 24.606903963522086 3.9103597944299509 0 0 0 0 39.98279423941085 27.390189361748298 0 27.390189361748298 17.994366470922387 0 0 0 0 39.050684434210552 24.957798972987348 0 24.957798972987348 12.259204398791553 0 0 0 0 38.322420996437586 18.505804910111237 0 18.505804910111237 11.477480847963079 0 0 0 0 39.885014098065483 17.060328516775598 0 17.060328516775598 0.97449875599522784 0 0 0 0 40.881316990236428 22.550764304688073 0 22.550764304688073 -3.4117784023026161 0 0 0 0 39.124783070090018 18.185575582603633 0 18.185575582603633 -1.677917360308129 0 0 0 0 42.857973671596255 18.329993603995035 0 18.329993603995035 -1.091474278389569 0 0 0 0 43.925445515843194 21.976713139266849 0 21.976713139266849 0.077190366169816116 0 0 0 0 22.319720033775752 -48.79010398990826 0 -48.79010398990826 10.166666091336992 0 0 0 0 1.271839946826276 3.9432871292822256 0 3.9432871292822256 -5.3645996651357564 0 0 0 0 7.1620334305021061 25.755687801189879 0 25.755687801189879 43.79433191901262 0 0 0 0 15.328423346865748 -16.035500409109318 0 -16.035500409109318 48.933727694880417 0 0 0 0 25.957785975506226 6.8147160681178889 0 6.8147160681178889 9.1987206190706274 0 0 0 0 23.892736343312208 -4.1966644515323424 0 -4.1966644515323424 21.363688795289377 0 0 0 0 50.308510108507079 25.137798152295183 0 25.137798152295183 15.202331386202331 0 0 0 0 52.551830701501785 -7.7823812674521378 0 -7.7823812674521378 11.759105981593166 0 0 0 0 -2.6471348563525225 -6.2498273126230686 0 -6.2498273126230686 5.3943770564710576 0 0 0 0 4.0319836940498135 13.736928645880653 0 13.736928645880653 5.1336849571875973 0 0 0 0 -0.26103137469370985 -0.26706896204930075 0 -0.26706896204930075 0.76184787015857847 0 0 0 0 19.764156188075503 13.390752015401404 0 13.390752015401404 12.619432654340926 0 0 0 0 11.06412027885176 -19.747948403386999 0 -19.747948403386999 -44.806136469465628 0 0 0 0 12.11207449065045 -6.0301325688337686 0 -6.0301325688337686 1.44487062385695 0 0 0 0 6.3041222282436138 -70.941045271931443 0 -70.941045271931443 -25.432370070462184 0 0 0 0 48.195555997499454 22.356049582784117 0 22.356049582784117 -36.785465847361593 0 0 0 0 46.405124620130209 -9.4187311418545505 0 -9.4187311418545505 -46.653767205687473 0 0 0 0 23.578077918153667 -12.571151465712319 0 -12.571151465712319 -46.081610446233356 0 0 0 0 7.6925155975050075 1.692354731159412 0 1.692354731159412 3.4164834792732108 0 0 0 0 11.802939919166617 -4.1410991381550142 0 -4.1410991381550142 0.82524865587380525 0 0 0 0 11.16714289780964 14.273342412465183 0 14.273342412465183 -38.457081983768603 0 0 0 0 31.648350553511591 -2.5004770152518176 0 -2.5004770152518176 -6.0808580473230904 0 0 0 0 5.5916971297547731 -1.1840281855450394 0 -1.1840281855450394 -2.7124811847774142 0 0 0 0 31.70819992276256 -2.8849400970566421 0 -2.8849400970566421 -3.6162726328439021 0 0 0 0 30.073625233225812 -5.1868397131129313 0 -5.1868397131129313 -7.6120862046459479 0 0 0 0 33.086750979722638 -3.556308369436465 0 -3.556308369436465 -7.5512021241897855 0 0 0 0 33.536911087901899 -5.0103039027430896 0 -5.0103039027430896 -6.2148764305093209 0 0 0 0 32.449013414244746 1.4548790463718433 0 1.4548790463718433 -7.025731610175626 0 0 0 0 33.212066670140985 -5.6685548361239171 0 -5.6685548361239171 -0.67422735579293658 0 0 0 0 59.048934302787984 -23.586409470503213 0 -23.586409470503213 -6.2971662118033009 0 0 0 0 -41.07923663113661 64.497535724189902 0 64.497535724189902 -45.027256070386102 0 0 0 0 -0.40722166687672345 -0.54718876413234963 0 -0.54718876413234963 -0.15476067245340897 0 0 0 0 6.1735111351348451 -27.656617655530908 0 -27.656617655530908 74.79980400739214 0 0 0 0 -20.272952640666517 42.158520673918474 0 42.158520673918474 21.151848680726289 0 0 0 0 42.729648318827913 -9.0054669295363965 0 -9.0054669295363965 39.843459534771 0 0 0 0 58.06121596467392 -14.934131050702717 0 -14.934131050702717 19.20802580216025 0 0 0 0 48.085172901364558 -13.58401164447298 0 -13.58401164447298 19.545442182231 0 0 0 0 0.65584305818142097 -0.65317031177656704 0 -0.65317031177656704 0.84156479362122028 0 0 0 0 91.244895204342697 -70.98196049995363 0 -70.98196049995363 49.585899580269597 0 0 0 0 168.99215975174036 -3.0436972119790653 0 -3.0436972119790653 -4.3271888425788347 0 0 0 0 113.239399012381 60.177256863879165 0 60.177256863879165 -67.350235334168701 0 0 0 0 114.32848316479168 -74.544222220744658 0 -74.544222220744658 -15.742944587998863 0 0 0 0 3.069173196464817 -55.957563372955974 0 -55.957563372955974 76.694539342073767 0 0 0 0 -10.477447621091869 -21.069988628267083 0 -21.069988628267083 -12.817702326068854 0 0 0 0 -5.6902635826739925 -4.4290525398196223 0 -4.4290525398196223 4.7505232842067926 0 0 0 0 -7.1334432486314654 10.854304572898855 0 10.854304572898855 51.625688790490017 0 0 0 0 -13.435356870138094 -6.6183613104947199 0 -6.6183613104947199 16.48061224796038 0 0 0 0 -11.626550917827672 -19.644104624819875 0 -19.644104624819875 0.90827906463164254 0 0 0 0 11.024226805773075 -7.8226740659580223 0 -7.8226740659580223 2.1732101845469476 0 0 0 0 -23.885947934167461 -34.464731697253228 0 -34.464731697253228 -0.8117066698605413 0 0 0 0 -26.885626411593421 -21.836361082842132 0 -21.836361082842132 14.614851963750425 0 0 0 0 9.5191706119826147 -12.10507928250523 0 -12.10507928250523 4.2178441952563821 0 0 0 0 -83.452821260553264 -35.599083713780828 0 -35.599083713780828 15.298333980393863 0 0 0 0 -23.847063690064374 9.489887376814238 0 9.489887376814238 5.4689741234269604 0 0 0 0 -10.055811216281462 -8.629749708959455 0 -8.629749708959455 1.2159308033037259 0 0 0 0 47.528462769802218 -14.312807707920342 0 -14.312807707920342 6.1848647189744952 0 0 0 0 -0.87856709301489611 -2.3348778240363783 0 -2.3348778240363783 2.695167023690507 0 0 0 0 -7.9855173629314322 -6.8087224653741032 0 -6.8087224653741032 4.9401276515693837 0 0 0 0 9.1328651738806457 -15.122591755564827 0 -15.122591755564827 -13.548191387973702 0 0 0 0 2.9487486540397407 -1.6282796486535709 0 -1.6282796486535709 0.74353613610814762 0 0 0 0 35.597231595994117 -3.7823150264630385 0 -3.7823150264630385 5.6769111650871764 0 0 0 0 -0.10270405323252696 -0.089045909792446309 0 -0.089045909792446309 0.36384760478935085 0 0 0 0 114.05700799766691 -32.586851670988608 0 -32.586851670988608 6.6720582873734742 0 0 0 0 101.49760951283042 -1.2376556505573717 0 -1.2376556505573717 5.5197628621158401 0 0 0 0 89.458383005176529 -4.1930575155616907 0 -4.1930575155616907 -1.1276360398246652 0 0 0 0 64.516783478136858 -28.314704715191738 0 -28.314704715191738 6.3929102537377389 0 0 0 0 65.131535339579386 1.8544605278677864 0 1.8544605278677864 -2.9387863469053457 0 0 0 0 88.673578772579731 -14.038867597497301 0 -14.038867597497301 -5.1666328521455398 0 0 0 0 87.193981189622718 -15.158502395757921 0 -15.158502395757921 10.343429262295103 0 0 0 0 73.490260839878829 -5.9031790115432159 0 -5.9031790115432159 4.9000113566899017 0 0 0 0 90.523015458433463 -0.062521151953063736 0 -0.062521151953063736 6.839864163751372 0 0 0 0 87.144186217765309 -0.05060926428654966 0 -0.05060926428654966 9.5562068416718375 0 0 0 0 88.938625829366629 -6.651499042815999 0 -6.651499042815999 3.7064789773073699 0 0 0 0 93.768927646864128 9.4615080943323076 0 9.4615080943323076 18.597907724786182 0 0 0 0 93.640551567569688 4.8534480194096101 0 4.8534480194096101 2.1246753847044602 0 0 0 0 80.055713967580232 3.3309798009926226 0 3.3309798009926226 65.90232009612896 0 0 0 0 82.525971853088549 20.773190430321392 0 20.773190430321392 36.232078840215081 0 0 0 0 82.210150973194686 12.630659407904886 0 12.630659407904886 0.99974528259977546 0 0 0 0 84.887377806424865 29.732779151366344 0 29.732779151366344 16.234227167244171 0 0 0 0 81.813065368811806 12.462697997182815 0 12.462697997182815 -18.75700012031939 0 0 0 0 82.824579278478723 4.700912872887784 0 4.700912872887784 12.746689643341483 0 0 0 0 9.175723509645195 29.777622158389136 0 29.777622158389136 -22.521653097295257 0 0 0 0 36.003437609631874 2.0729249678196311 0 2.0729249678196311 2.3947734865375878 0 0 0 0 45.890088188774712 -6.9382410937205918 0 -6.9382410937205918 -16.34142103590716 0 0 0 0 23.772780347621108 -13.185214796934048 0 -13.185214796934048 -17.955145310773787 0 0 0 0 85.091708807235023 29.674334654062136 0 29.674334654062136 26.127348859655513 0 0 0 0 -0.92412076327582326 -62.017504112409142 0 -62.017504112409142 -16.805696884082593 0 0 0 0 77.837345541297964 -0.47989756951699292 0 -0.47989756951699292 -25.734215203554641 0 0 0 0 -22.256306300654046 -4.9215163118033161 0 -4.9215163118033161 -9.1843193310398874 0 0 0 0 12.291307940273034 -11.773631209761533 0 -11.773631209761533 3.7166429055777206 0 0 0 0 8.6113625628772752 -15.54037272291805 0 -15.54037272291805 5.2979228063754817 0 0 0 0 46.929195407560428 25.534146863249589 0 25.534146863249589 16.857782400773885 0 0 0 0 46.285079318483895 27.442505934883002 0 27.442505934883002 23.125966919894381 0 0 0 0 44.363365104162199 28.085275665094343 0 28.085275665094343 30.507105017582035 0 0 0 0 43.041854489282741 22.701109252758442 0 22.701109252758442 17.679796670434939 0 0 0 0 31.44374324330397 33.884757722557879 0 33.884757722557879 30.840036647084162 0 0 0 0 8.3825353408017236 4.8415469501055668 0 4.8415469501055668 22.038986783268427 0 0 0 0 12.823167433764866 25.899552864159432 0 25.899552864159432 19.268916074539163 0 0 0 0 17.326054858672478 25.681665855767278 0 25.681665855767278 16.598044268481516 0 0 0 0 21.765737602268359 19.943257624382113 0 19.943257624382113 16.134318824837464 0 0 0 0 39.964384219442536 31.167030735102571 0 31.167030735102571 16.010246174440454 0 0 0 0 32.292503157142619 36.258922556493872 0 36.258922556493872 9.6083095407684596 0 0 0 0 36.567852231478014 30.595974494403208 0 30.595974494403208 16.122833933650327 0 0 0 0 34.337426781449267 22.260103735456596 0 22.260103735456596 3.9378633410178736 0 0 0 0 42.657566516363204 32.471443351789048 0 32.471443351789048 10.652481886091664 0 0 0 0 48.055315123289574 26.343378836402053 0 26.343378836402053 11.199275422977735 0 0 0 0 47.719933242916341 26.147691041777989 0 26.147691041777989 12.358235994177079 0 0 0 0 52.899987098272959 28.715433114256371 0 28.715433114256371 12.235016049820388 0 0 0 0 53.853249790994823 16.955599433612861 0 16.955599433612861 13.128930849907192 0 0 0 0 54.783327811809158 19.318308693221979 0 19.318308693221979 9.5298478059892204 0 0 0 0 51.943935110760322 5.241229408176423 0 5.241229408176423 15.003757455608138 0 0 0 0 76.395820872652394 3.0583556566170955 0 3.0583556566170955 12.179480820690969 0 0 0 0 93.169731986696661 14.56141209656198 0 14.56141209656198 10.600987467184723 0 0 0 0 66.637389618930683 9.322446289354275 0 9.322446289354275 10.791086636404771 0 0 0 0 71.069192439554399 19.154537924179294 0 19.154537924179294 11.507355887778544 0 0 0 0 60.563234396640382 28.818859660120324 0 28.818859660120324 17.300482127084251 0 0 0 0 59.598673986916765 22.933174173017846 0 22.933174173017846 16.55855329078986 0 0 0 0 70.535416143131556 41.208586317005199 0 41.208586317005199 28.694369167140849 0 0 0 0 35.746658885998613 40.748380102013471 0 40.748380102013471 41.391502955363421 0 0 0 0 82.644232294925132 25.897702856662022 0 25.897702856662022 16.573891298760373 0 0 0 0 79.570978357159447 21.659778485071286 0 21.659778485071286 16.22368228438836 0 0 0 0 121.13226184287714 -2.711851727005353 0 -2.711851727005353 22.853070097809052 0 0 0 0 138.62825004858018 34.173387013268893 0 34.173387013268893 18.858322129786643 0 0 0 0 102.27400141544024 75.196414283558397 0 75.196414283558397 57.138872633981009 0 0 0 0 0.98793000254260299 -0.26322773743164712 0 -0.26322773743164712 -0.077426920977139435 0 0 0 0 35.034100575789822 23.190869802681522 0 23.190869802681522 33.47395979221028 0 0 0 0 2.5298872959820105 -0.52159288126342951 0 -0.52159288126342951 0.028273803916968543 0 0 0 0 39.965745282123635 24.904540691260308 0 24.904540691260308 17.586485199155732 0 0 0 0 -0.020657805389860506 0.034740789133985928 0 0.034740789133985928 0.39604953748516492 0 0 0 0 9.0067040790250488 14.505935411790553 0 14.505935411790553 55.851457242136348 0 0 0 0 1.6312814672427294 -0.54299603809630526 0 -0.54299603809630526 -12.527436572719807 0 0 0 0 13.773291597562547 1.807700513153577 0 1.807700513153577 -15.650963072278955 0 0 0 0 10.66280787086589 -11.768025071405873 0 -11.768025071405873 -27.201829328592453 0 0 0 0 10.93013926231572 7.747457129428426 0 7.747457129428426 8.3507226404184394 0 0 0 0 20.125392656362351 -0.10301510758624488 0 -0.10301510758624488 13.666771978191832 0 0 0 0 24.724939747639837 20.4130875980469 0 20.4130875980469 21.932645999392662 0 0 0 0 13.72753554546091 19.577041640167266 0 19.577041640167266 17.923587890647013 0 0 0 0 54.586238096984061 1.1987041502299576 0 1.1987041502299576 9.8186270788903585 0 0 0 0 19.343874447007693 6.2477549312267229 0 6.2477549312267229 -15.544032236073264 0 0 0 0 4.7652305219214668 -40.90116672061253 0 -40.90116672061253 14.684625987060485 0 0 0 0 90.940908674827028 6.1408568758717053 0 6.1408568758717053 29.885545043892307 0 0 0 0 81.422687463699503 -36.747503733968642 0 -36.747503733968642 5.4033202663303541 0 0 0 0 61.681799594369522 -31.216921265175813 0 -31.216921265175813 20.65685811415824 0 0 0 0 61.466727313977344 -36.242679435957598 0 -36.242679435957598 17.216447024698368 0 0 0 0 31.637586568817028 -16.413329851736876 0 -16.413329851736876 21.310705737004696 0 0 0 0 62.665392924366415 -33.12644419111669 0 -33.12644419111669 9.479777978810489 0 0 0 0 28.503198385008545 -3.6536082132147953 0 -3.6536082132147953 5.9211528140243956 0 0 0 0 62.630557195260963 -31.033184681630956 0 -31.033184681630956 -2.2956040234000739 0 0 0 0 85.651900317445325 -36.933607700519872 0 -36.933607700519872 12.008741449827767 0 0 0 0 71.706581249176907 -10.81620821020914 0 -10.81620821020914 34.800402002338728 0 0 0 0 106.63783405684262 14.195803603319007 0 14.195803603319007 56.854481101767078 0 0 0 0 83.371581096176214 -21.060698371255739 0 -21.060698371255739 4.8969290601644389 0 0 0 0 85.161631719075558 -38.94767312450432 0 -38.94767312450432 50.652381921155772 0 0 0 0 160.97890016072506 -5.43880587755649 0 -5.43880587755649 -20.031697061415571 0 0 0 0 6.7204185912589764 -8.3404302760571056 0 -8.3404302760571056 19.868975206322858 0 0 0 0 -0.37745098813775257 1.5660038306056094 0 1.5660038306056094 2.7781466694896153 0 0 0 0 74.065400225443 30.953400654719928 0 30.953400654719928 9.3863931303449988 0 0 0 0 -0.051252058796701583 0.12797943083930424 0 0.12797943083930424 0.17124772209429706 0 0 0 0 84.55812888985929 -46.186812432267374 0 -46.186812432267374 28.990641398180003 0 0 0 0 0.6943207976129635 -0.055123069183885598 0 -0.055123069183885598 0.11452374218905026 0 0 0 0 0.1113474360997273 -0.032985713913263659 0 -0.032985713913263659 0.37229927508003746 0 0 0 0 2.1954104102701422 5.1407442386640128 0 5.1407442386640128 26.941359308611027 0 0 0 0 8.2210422933853806 -8.1475623123286596 0 -8.1475623123286596 7.685363601739482 0 0 0 0 112.3969574624648 -18.553350686893452 0 -18.553350686893452 15.611968222200403 0 0 0 0 49.324961936502973 -3.5889118074157125 0 -3.5889118074157125 13.860986383513023 0 0 0 0 0.27274347060053294 -0.24903274636042427 0 -0.24903274636042427 0.2867688145310332 0 0 0 0 95.475205217670691 0.030901517837889969 0 0.030901517837889969 44.957569151746839 0 0 0 0 1.8618604578887243 11.728590695739655 0 11.728590695739655 34.305318027641533 0 0 0 0 41.383785647481091 -63.317762400660285 0 -63.317762400660285 34.919016284985673 0 0 0 0 67.431734789688562 -5.3559084477755619 0 -5.3559084477755619 44.119287625040897 0 0 0 0 111.90665749737946 -8.7447746013674532 0 -8.7447746013674532 49.534707794948986 0 0 0 0 81.752597652965278 57.532593936946171 0 57.532593936946171 66.729482565763874 0 0 0 0 133.53822146355446 37.668507524648106 0 37.668507524648106 40.715012258051729 0 0 0 0 78.708533549166077 26.32123002321373 0 26.32123002321373 38.374783138959174 0 0 0 0 83.567912090402842 41.234498928638743 0 41.234498928638743 52.388941277601589 0 0 0 0 47.366021142566979 14.14492916211384 0 14.14492916211384 65.711588198805444 0 0 0 0 52.140958593863616 42.560587481530831 0 42.560587481530831 63.458141434970742 0 0 0 0 44.081960477976509 -6.5845635978627399 0 -6.5845635978627399 -15.081559607256054 0 0 0 0 -10.858891699820106 21.577111024301189 0 21.577111024301189 -0.64299325604689272 0 0 0 0 0.91657554063502999 1.1666407104618557 0 1.1666407104618557 1.4164214646058069 0 0 0 0 53.017651581998734 9.5108486772966216 0 9.5108486772966216 6.4365028500269545 0 0 0 0 0.37033629409641211 0.43343310219125986 0 0.43343310219125986 0.65237508498349905 0 0 0 0 -27.240393263441092 29.335973057404203 0 29.335973057404203 66.109308065544667 0 0 0 0 200.89063669994539 22.804173879990941 0 22.804173879990941 2.6962842514524255 0 0 0 0 96.079252724927301 64.204797102772773 0 64.204797102772773 49.933102485837722 0 0 0 0 74.064484164415717 2.7587001985093593 0 2.7587001985093593 -0.11431751449043759 0 0 0 0 114.58942135393136 34.494622797775719 0 34.494622797775719 3.9456209320717335 0 0 0 0 91.501876613667719 56.477188946897172 0 56.477188946897172 21.78775410786352 0 0 0 0 84.137385761455789 51.437917739126704 0 51.437917739126704 18.357080799432879 0 0 0 0 64.818577307920577 37.314506564550641 0 37.314506564550641 28.071600762500225 0 0 0 0 76.140296084556212 35.936519446485363 0 35.936519446485363 5.3066090795152832 0 0 0 0 75.788748472846379 15.518598173746671 0 15.518598173746671 2.6258648141465528 0 0 0 0 86.787799341162099 35.666390918363135 0 35.666390918363135 9.8324276543803535 0 0 0 0 77.945084734381453 43.460867167427978 0 43.460867167427978 22.917472430503608 0 0 0 0 68.742983409197677 17.264952364878809 0 17.264952364878809 0.90069637188062757 0 0 0 0 64.221585505008079 20.004653202298471 0 20.004653202298471 3.1100645754252128 0 0 0 0 63.50553819548395 23.444286353455993 0 23.444286353455993 -2.0263119282177513 0 0 0 0 53.149423912062616 5.3565090170184249 0 5.3565090170184249 -3.4439428255320763 0 0 0 0 39.96033208019162 11.621542507336414 0 11.621542507336414 -1.4732359833408282 0 0 0 0 23.859063189750032 -3.4851471510301053 0 -3.4851471510301053 3.1401481394633493 0 0 0 0 45.162939486397136 -3.512391342319205 0 -3.512391342319205 -1.1557097039134305 0 0 0 0 12.37613184619795 1.0551104326282257 0 1.0551104326282257 6.5800789431738167 0 0 0 0 9.1074674641023421 8.2933747803954816 0 8.2933747803954816 3.5733931514798769 0 0 0 0 17.835068783925635 4.3355697306121215 0 4.3355697306121215 -0.80912731070611699 0 0 0 0 1.0560549265309875 1.5537948875412737 0 1.5537948875412737 1.639314413296892 0 0 0 0 3.6097391544515176 -0.94213798733511567 0 -0.94213798733511567 3.9183750590437967 0 0 0 0 -0.36825936832815387 5.7500703632176737 0 5.7500703632176737 0.81164792322326917 0 0 0 0 33.708194494211511 5.7459369399919638 0 5.7459369399919638 -2.9513943697589156 0 0 0 0 21.793107415603572 13.116661040818713 0 13.116661040818713 0.32456163134565941 0 0 0 0 44.241025373127513 22.05951456193921 0 22.05951456193921 -6.5204170127801717 0 0 0 0 55.91298219635928 22.180881186017473 0 22.180881186017473 -9.2710683796612443 0 0 0 0 54.214003240297188 27.851403381273428 0 27.851403381273428 -10.469012095585754 0 0 0 0 59.711590013362184 15.439416542927177 0 15.439416542927177 -5.8792584827865539 0 0 0 0 70.346312613678492 29.960848359744261 0 29.960848359744261 -10.247615627405025 0 0 0 0 117.64426875665697 -41.501798011017108 0 -41.501798011017108 4.9432585950335124 0 0 0 0 43.869676671789421 -36.677131294658068 0 -36.677131294658068 45.434483346002111 0 0 0 0 80.021464232517701 20.54272115859311 0 20.54272115859311 -16.951137981307625 0 0 0 0 0.82679448808553158 -0.16667956951251411 0 -0.16667956951251411 0.042933940658196529 0 0 0 0 -7.3893705557406975 6.7564234240390988 0 6.7564234240390988 7.6321028138443125 0 0 0 0 78.116856967388458 -12.826819430482317 0 -12.826819430482317 6.480415462216456 0 0 0 0 111.41449120702737 -20.301446399724568 0 -20.301446399724568 -13.688771037773108 0 0 0 0 94.198889513712857 -1.4356425140358908 0 -1.4356425140358908 -20.191013844103054 0 0 0 0 127.77613949966644 -7.035960137057657 0 -7.035960137057657 -24.464085145669401 0 0 0 0 116.37394334976716 -7.7764798968625684 0 -7.7764798968625684 -11.137592983764989 0 0 0 0 68.457312933904632 3.4714363065423868 0 3.4714363065423868 -18.797033520782463 0 0 0 0 78.523919419154936 -18.566488986310958 0 -18.566488986310958 -7.6116227752135615 0 0 0 0 2.7620678283733469 4.2987744878549279 0 4.2987744878549279 -6.675201669794097 0 0 0 0 27.00638475493497 -8.7600594094797941 0 -8.7600594094797941 -5.9552453158182175 0 0 0 0 0.54253072107522904 0.44076931800510621 0 0.44076931800510621 -0.0041021977208937077 0 0 0 0 18.764006979957571 -17.816989209552432 0 -17.816989209552432 25.342962156494764 0 0 0 0 44.058031631243921 11.642026449880376 0 11.642026449880376 -2.0236203794094365 0 0 0 0 45.724706951970802 3.0404365470432708 0 3.0404365470432708 40.597245619039811 0 0 0 0 2.7421442963324125 5.0224698908756693 0 5.0224698908756693 -0.963198950273636 0 0 0 0 0.82398158843694702 1.3169261684687732 0 1.3169261684687732 1.7405520637973209 0 0 0 0 0.41498302336702508 0.48025749954166086 0 0.48025749954166086 -0.51616522669006804 0 0 0 0 5.1033230851599001 0.49657406351462896 0 0.49657406351462896 0.018464780135403203 0 0 0 0 0.38632363583341167 0.44357407714542152 0 0.44357407714542152 0.71384843998177461 0 0 0 0 126.89718979502254 -1.2693533315903096 0 -1.2693533315903096 -7.9397946813069673 0 0 0 0 108.19591288124911 -11.918557282813111 0 -11.918557282813111 -8.4603678613699458 0 0 0 0 103.77440279638478 -32.407418329410135 0 -32.407418329410135 11.017322009541886 0 0 0 0 50.466206702472618 -5.5488188146980235 0 -5.5488188146980235 15.665639863965225 0 0 0 0 68.599583795203671 -5.1524367910903379 0 -5.1524367910903379 12.270467680578122 0 0 0 0 18.165740575843301 1.7307150281193913 0 1.7307150281193913 13.178466082090125 0 0 0 0 4.3948375107379434 -6.618540401493334 0 -6.618540401493334 16.990363518971321 0 0 0 0 -23.464207956353675 -4.1354358828260729 0 -4.1354358828260729 9.4539278848856725 0 0 0 0 1.1925628702099402 -0.27094896640164734 0 -0.27094896640164734 4.4108985261356111 0 0 0 0 -0.47744538297547479 6.2461425091130707 0 6.2461425091130707 22.934213149294806 0 0 0 0 -3.7677926062967799 0.25704107647521823 0 0.25704107647521823 14.491851094105414 0 0 0 0 5.9749141557392704 8.6291456475507289 0 8.6291456475507289 16.152716011669071 0 0 0 0 -3.0241922071713816 -2.3930390763888738 0 -2.3930390763888738 36.704110281471728 0 0 0 0 36.7700332155448 -21.431815702470956 0 -21.431815702470956 22.480239368023149 0 0 0 0 6.5150763661935143 -4.5896762678945437 0 -4.5896762678945437 1.4084058236569543 0 0 0 0 15.40982402109239 8.4877056350136399 0 8.4877056350136399 -11.974979754220669 0 0 0 0 -2.342962480134247 13.558817224863333 0 13.558817224863333 -11.930688270810776 0 0 0 0 -33.353237681139944 -15.869524593966901 0 -15.869524593966901 4.6360511507535875 0 0 0 0 7.5131125429506938 -26.717049845828228 0 -26.717049845828228 6.8389091827990001 0 0 0 0 -12.911726075391925 -32.548385071314215 0 -32.548385071314215 1.0233114157233558 0 0 0 0 -22.709177236163669 -21.230044805740135 0 -21.230044805740135 0.14452795748408676 0 0 0 0 0.16111062456237324 -0.40475988692891063 0 -0.40475988692891063 0.59351765643965271 0 0 0 0 -8.0821232809585126 -4.3023999521034284 0 -4.3023999521034284 -6.8377034051379866 0 0 0 0 -12.761481556268791 2.7447466780432421 0 2.7447466780432421 15.493448194909718 0 0 0 0 -11.943900522923627 0.16439837098925381 0 0.16439837098925381 26.65769692136837 0 0 0 0 19.223051148467221 -7.80677863934838 0 -7.80677863934838 -12.834526325586751 0 0 0 0 0.070282830909851768 -0.18201364258898867 0 -0.18201364258898867 0.32465336171103032 0 0 0 0 -13.184878713607304 5.2696490478806766 0 5.2696490478806766 17.335996047172614 0 0 0 0 -10.394933566589771 -5.2672784390150014 0 -5.2672784390150014 21.019941891817496 0 0 0 0 2.2032412790815279 -1.4071790230615138 0 -1.4071790230615138 0.40462011997415842 0 0 0 0 -9.7154600528377273 -10.376616763803398 0 -10.376616763803398 34.238913279738881 0 0 0 0 2.5751703207256842 -0.48799713468548872 0 -0.48799713468548872 0.33960477410753037 0 0 0 0 -9.5604628978410346 -4.6882280683066853 0 -4.6882280683066853 18.637324950397328 0 0 0 0 1.8593587235345694 -5.5660759384125527 0 -5.5660759384125527 1.7481028682515571 0 0 0 0 1.8100080955321118 -0.54277456600313201 0 -0.54277456600313201 3.0737909256277476 0 0 0 0 -0.44195343685430188 -0.079977110736968449 0 -0.079977110736968449 0.61492969986281443 0 0 0 0 0.19618448832534341 -8.1669938091575318 0 -8.1669938091575318 -1.0552450880457513 0 0 0 0 0.45997818278738123 -3.3081039111823429 0 -3.3081039111823429 6.6071770609020746 0 0 0 0 0.091706660102949478 0.0068636101745465083 0 0.0068636101745465083 -0.036013591800740097 0 0 0 0 1.7655840219736092 -3.3605846131459032 0 -3.3605846131459032 4.485962280202159 0 0 0 0 1.828120193428731 -2.4163586922432501 0 -2.4163586922432501 5.1262595719991779 0 0 0 0 0.30598649214789475 -2.0844695268218629 0 -2.0844695268218629 2.3004512256064231 0 0 0 0 0.43465124477001638 -0.18844585490422272 0 -0.18844585490422272 0.18457469353582173 0 0 0 0 2.3163617094531901 -1.8664093128163195 0 -1.8664093128163195 2.1774236845473638 0 0 0 0 1.3401843187662053 -2.6922699407941764 0 -2.6922699407941764 5.1891764029667797 0 0 0 0 2.1992524104080076 -9.1465905048228819 0 -9.1465905048228819 -16.836839230028488 0 0 0 0 2.7117648494572677 5.8957567021494128 0 5.8957567021494128 14.047788883383816 0 0 0 0 1.9502320359493792 -0.39874993056731511 0 -0.39874993056731511 0.026060190406979475 0 0 0 0 3.3339063115258796 4.8427772402983749 0 4.8427772402983749 15.82961201738695 0 0 0 0 1.2094922135108845 -0.48896338154796126 0 -0.48896338154796126 -1.4485452399721908 0 0 0 0 -8.071433887744206 -5.1018898288786545 0 -5.1018898288786545 7.8112371820927819 0 0 0 0 -5.6250752879045649 0.26825516308758779 0 0.26825516308758779 15.043678843878411 0 0 0 0 -11.127886586924888 -15.473950885553791 0 -15.473950885553791 4.2788837124929842 0 0 0 0 0.45714930829149125 4.8759894674263364 0 4.8759894674263364 11.928378287629442 0 0 0 0 1.0944178966279061 -0.11615782817364351 0 -0.11615782817364351 0.044785577461826653 0 0 0 0 0.75685150764456921 -0.508846145040593 0 -0.508846145040593 -2.2562520334675469 0 0 0 0 1.0637225682254083 0.20871366995907903 0 0.20871366995907903 -0.10666817166185061 0 0 0 0 0.58708330806985032 -0.3767784143674362 0 -0.3767784143674362 -1.8614564311029653 0 0 0 0 0.76804386441964656 -0.091354676678025659 0 -0.091354676678025659 0.30308120338616973 0 0 0 0 0.81023743947186233 -1.3691811656453321 0 -1.3691811656453321 0.8288384510330945 0 0 0 0 0.85519010551968755 0.021406717555802035 0 0.021406717555802035 0.19290962211457036 0 0 0 0 2.2541477972299617 -3.380827694307925 0 -3.380827694307925 3.7785895548579447 0 0 0 0 4.1818591296987506 -1.4995341438420837 0 -1.4995341438420837 -5.4123762630831607 0 0 0 0 -0.0048439638990203093 1.5076186091927184 0 1.5076186091927184 3.2348248419652919 0 0 0 0 -0.49842734647018005 5.333000132701045 0 5.333000132701045 18.940025221508449 0 0 0 0 -1.1872905864966015 -2.0930501557675143 0 -2.0930501557675143 14.502090564092441 0 0 0 0 1.428985428739189 -0.35256369230748086 0 -0.35256369230748086 0.16452599998272555 0 0 0 0 5.2413407655858464 0.35033944044880627 0 0.35033944044880627 -4.1266110924632358 0 0 0 0 2.7548909019271832 -0.77174092152199592 0 -0.77174092152199592 1.9520847146909546 0 0 0 0 0.70660048586585589 0.074448071734785293 0 0.074448071734785293 -0.17206693452714927 0 0 0 0 4.2471026806988448 -1.3001798923602337 0 -1.3001798923602337 0.15665111808488064 0 0 0 0 0.55703545532469434 4.7042593992996444 0 4.7042593992996444 4.1210775155390706 0 0 0 0 1.939973622357229 1.3657629207602895 0 1.3657629207602895 7.6223292577999473 0 0 0 0 1.5381140905969914 3.0036928701497345 0 3.0036928701497345 7.1400348056603775 0 0 0 0 2.5141998037188387 3.0253666618031048 0 3.0253666618031048 8.1090610502537288 0 0 0 0 0.77593415505907615 -1.7322490985704917 0 -1.7322490985704917 5.413845992439974 0 0 0 0 -1.1182020569473252 -0.84947982678122003 0 -0.84947982678122003 9.9176081963030356 0 0 0 0 -3.0568591501796618 0.73461076693382665 0 0.73461076693382665 8.726452796766516 0 0 0 0 -1.4294462288667091 -0.37471863005686146 0 -0.37471863005686146 1.3174350322517512 0 0 0 0 0.44248062819406186 -0.06389869986787744 0 -0.06389869986787744 0.24162471369351124 0 0 0 0 0.90903397071042402 -0.40487153833468537 0 -0.40487153833468537 0.39217155951451321 0 0 0 0 -0.18428583048903313 0.33368648642137089 0 0.33368648642137089 0.72179494606569983 0 0 0 0 1.0307293592413771 3.1920246740448874 0 3.1920246740448874 7.1308585455163893 0 0 0 0 1.4163040028097384 -2.8388150458289942 0 -2.8388150458289942 0.99931687385651458 0 0 0 0 1.570345107371395 -2.9438964684961775 0 -2.9438964684961775 0.95824262168167706 0 0 0 0 0.49025587727010134 -0.39757772154825943 0 -0.39757772154825943 6.4955074872951961 0 0 0 0 4.4234723039824075 0.2534169016994241 0 0.2534169016994241 1.384843798111433 0 0 0 0 3.7249930664368094 -0.78219590273573658 0 -0.78219590273573658 -4.0481651534646943 0 0 0 0 1.3611183697594242 -0.62837774648420464 0 -0.62837774648420464 1.6849942411141683 0 0 0 0 1.5436454242499167 -2.7801411779029763 0 -2.7801411779029763 -0.13607050770035301 0 0 0 0 2.2567068599851154 -0.30912988544977082 0 -0.30912988544977082 -1.8067132373861341 0 0 0 0 0.47588308162903559 -1.8843410393724014 0 -1.8843410393724014 2.2377932685316893 0 0 0 0 2.1073947016612986 -0.42183484470478305 0 -0.42183484470478305 0.067886764187270077 0 0 0 0 8.4349901232994853 -2.9220637150938558 0 -2.9220637150938558 -1.2778657148706429 0 0 0 0 15.554988011884006 -0.3238845641452599 0 -0.3238845641452599 -7.2229997493669771 0 0 0 0 0.26253977821768748 0.054082355310275276 0 0.054082355310275276 -0.087127542583905981 0 0 0 0 -3.3555980773071497 0.77716074397733337 0 0.77716074397733337 0.99465916758802564 0 0 0 0 1.8919059910316971 -0.49990515131134605 0 -0.49990515131134605 0.070482164738019853 0 0 0 0 -6.2862379029273825 0.37176576254017846 0 0.37176576254017846 2.810417413421078 0 0 0 0 0.74416135330443467 1.1697302815603052 0 1.1697302815603052 13.559308428208169 0 0 0 0 -0.26255177770849514 3.0193002203798187 0 3.0193002203798187 10.862586854156234 0 0 0 0 -0.48047962359578378 3.5774179383171258 0 3.5774179383171258 9.4442292531621206 0 0 0 0 0.14794410586898721 1.0215946684717778 0 1.0215946684717778 10.448472882168517 0 0 0 0 -0.17744859179083505 2.3277717986307778 0 2.3277717986307778 8.6221553059040161 0 0 0 0 0.24645497271285421 0.81518493425744509 0 0.81518493425744509 9.789854578683844 0 0 0 0 -0.22670568075136543 1.9864287629543469 0 1.9864287629543469 9.3449337836653115 0 0 0 0 -0.13821011810119899 1.4823381640097182 0 1.4823381640097182 12.166154533856115 0 0 0 0 1.2984379336005532 0.51845845110790378 0 0.51845845110790378 10.65367147873485 0 0 0 0 0.54097284219005815 -0.16184813892391503 0 -0.16184813892391503 11.752047696519071 0 0 0 0 1.4008678214754582 0.11906717240094622 0 0.11906717240094622 7.8277738247447815 0 0 0 0 2.0168674968153937 -1.4249317441995117 0 -1.4249317441995117 10.764817536972259 0 0 0 0 -0.49941295143889874 0.020720876385439624 0 0.020720876385439624 7.8485792989311562 0 0 0 0 0.92824446100667046 -1.5667847595211697 0 -1.5667847595211697 5.745000081715034 0 0 0 0 1.6208482489641938 0.043576810452123027 0 0.043576810452123027 7.3331436032551665 0 0 0 0 0.36395019545807372 -0.55899400867588156 0 -0.55899400867588156 9.6615351041664326 0 0 0 0 -5.626258543233547 7.0786648262949114 0 7.0786648262949114 16.919908065772006 0 0 0 0 7.162183741071658 11.692590264935347 0 11.692590264935347 10.126632244498296 0 0 0 0 11.010852453421649 -3.3318266643861989 0 -3.3318266643861989 9.282385660897944 0 0 0 0 3.8532405368528089 -2.2740394848606229 0 -2.2740394848606229 13.699505483487869 0 0 0 0 3.4997062648244537 -0.078785860413518094 0 -0.078785860413518094 6.1193578080760744 0 0 0 0 6.3700045497205338 6.2330042583669183 0 6.2330042583669183 2.9813818058344168 0 0 0 0 4.8443420049200085 0.87674972554430042 0 0.87674972554430042 6.4525979746554185 0 0 0 0 15.560746810069304 3.5353927526060147 0 3.5353927526060147 3.7621249620647177 0 0 0 0 0.86588751732117197 1.3305042506822673 0 1.3305042506822673 0.3422384722435266 0 0 0 0 4.3757879629055765 6.6195982463348741 0 6.6195982463348741 -5.3413905624815925 0 0 0 0 5.3502823298393878 3.0409050580980193 0 3.0409050580980193 -1.0614800349552524 0 0 0 0 0.3194024978138299 0.1030981215562381 0 0.1030981215562381 0.017135549827451413 0 0 0 0 10.264299039115713 -1.0944717383857778 0 -1.0944717383857778 -10.653660594600979 0 0 0 0 -2.0406425397745807 -3.5392813569172858 0 -3.5392813569172858 0.97495290954600478 0 0 0 0 3.0814748302988733 0.52316972651884441 0 0.52316972651884441 4.0699279425980421 0 0 0 0 3.5305948967397853 0.96748832100286108 0 0.96748832100286108 3.4501143817976754 0 0 0 0 -4.2229357438218358 3.3287142410852084 0 3.3287142410852084 3.0201655092147632 0 0 0 0 16.704535278027379 5.9643611875594615 0 5.9643611875594615 -3.6109738243662832 0 0 0 0 3.3745740188776097 -1.3904252846504193 0 -1.3904252846504193 2.1912453302238646 0 0 0 0 8.4386647845690277 7.2363034947145479 0 7.2363034947145479 5.2162102461165318 0 0 0 0 22.230249375826702 15.455666405182342 0 15.455666405182342 3.7173252873069487 0 0 0 0 4.6008272335257061 11.166856912075787 0 11.166856912075787 8.4878960123321576 0 0 0 0 9.8455460264035537 13.859447168289194 0 13.859447168289194 9.5029633903879471 0 0 0 0 10.183867067177289 21.675950808075754 0 21.675950808075754 19.616830079498939 0 0 0 0 7.2794376903373177 12.822356587266654 0 12.822356587266654 15.585880422323498 0 0 0 0 5.2194917055094265 9.8488390701227218 0 9.8488390701227218 19.414542779259591 0 0 0 0 5.8226993540700391 8.454856353239677 0 8.454856353239677 12.958129779818819 0 0 0 0 1.3427296065616474 1.8385932008744703 0 1.8385932008744703 9.2810621580119914 0 0 0 0 3.1813986456327257 5.2102710182999772 0 5.2102710182999772 11.237611078945292 0 0 0 0 2.1395635061007852 1.7793117492851707 0 1.7793117492851707 8.2522226388471154 0 0 0 0 1.8593364741776099 0.90966056778498228 0 0.90966056778498228 7.5594042565890049 0 0 0 0 8.5676294186273481 2.1060598558285619 0 2.1060598558285619 4.5399847917960869 0 0 0 0 5.6884445347897667 7.5319835274870854 0 7.5319835274870854 7.0604250316614525 0 0 0 0 2.8025830775786882 -0.36243244963309185 0 -0.36243244963309185 0.26831806310876427 0 0 0 0 3.3353564557120166 0.57874781803850439 0 0.57874781803850439 0.57820246726972202 0 0 0 0 7.6515151243288528 -0.21611478050118649 0 -0.21611478050118649 -2.3428686525047908 0 0 0 0 6.4547235280548421 0.071748940618704182 0 0.071748940618704182 -0.8948082757578959 0 0 0 0 6.1101622974373981 0.40511838461176808 0 0.40511838461176808 0.4917496027389916 0 0 0 0 2.9319038089880229 0.066828973871403408 0 0.066828973871403408 -0.27268235415285846 0 0 0 0 6.2719835890070499 -2.1173317658403334 0 -2.1173317658403334 0.52540176149904028 0 0 0 0 3.8643378075903203 -0.4586728032136469 0 -0.4586728032136469 -0.38856889563870478 0 0 0 0 3.6903815043695696 -0.53692643165586262 0 -0.53692643165586262 -0.034316923451566561 0 0 0 0 5.0295225723239128 -0.047360399869944558 0 -0.047360399869944558 -0.26702399614893579 0 0 0 0 5.6201776521506872 -1.4411151944759411 0 -1.4411151944759411 -1.4302129128237766 0 0 0 0 5.7023338073759078 0.12185908298963 0 0.12185908298963 0.91582938973118644 0 0 0 0 0.72486371418680218 -0.77598206203493425 0 -0.77598206203493425 -0.29827148304038376 0 0 0 0 -1.3119557261361479 -3.0306094318248142 0 -3.0306094318248142 2.2842228224676546 0 0 0 0 3.3562434430915875 -0.93918368850301648 0 -0.93918368850301648 0.12230072314002882 0 0 0 0 5.0949578211610742 -1.107231357245837 0 -1.107231357245837 -0.045531485555784457 0 0 0 0 3.8082439555417134 -0.77454695913465887 0 -0.77454695913465887 -0.035454779886347487 0 0 0 0 6.7666992680096882 -1.0829282458431635 0 -1.0829282458431635 -1.2693560809827886 0 0 0 0 6.0893092722865276 0.10253300153863165 0 0.10253300153863165 0.81897048638847991 0 0 0 0 4.0853540877438927 -0.60826564050065479 0 -0.60826564050065479 0.26720752040520424 0 0 0 0 4.4997611679405862 0.092005378720878939 0 0.092005378720878939 -0.049809583210549846 0 0 0 0 2.6897570412563567 -0.12180076817730878 0 -0.12180076817730878 -0.18610410758719809 0 0 0 0 1.1156575999921188 -0.7612731539370543 0 -0.7612731539370543 -0.7382185510018644 0 0 0 0 1.0486590535696156 -0.37591720606745116 0 -0.37591720606745116 0.48513199903639437 0 0 0 0 4.9380404159556859 -0.41242067710689834 0 -0.41242067710689834 -0.046927332128501309 0 0 0 0 3.9077972508302707 -0.67620280197240845 0 -0.67620280197240845 0.19101651340997705 0 0 0 0 3.9148070155334924 -0.5287803988610642 0 -0.5287803988610642 -0.011281071617244454 0 0 0 0 6.6733802499558124 0.058528258029127755 0 0.058528258029127755 0.38694958241285349 0 0 0 0 4.2176322656617149 0.24075954857274695 0 0.24075954857274695 -0.086945696609509238 0 0 0 0 4.5173507541148865 0.14676560337591127 0 0.14676560337591127 -0.21636202138370209 0 0 0 0 5.4362910495190704 -1.2074587140871245 0 -1.2074587140871245 -0.060713678893648648 0 0 0 0 5.3984878919310404 -0.71747869676050868 0 -0.71747869676050868 0.076490633842468014 0 0 0 0 4.9814766762546201 -0.38666227206898651 0 -0.38666227206898651 0.14934377743747351 0 0 0 0 4.0961334531396432 -1.0639827301093869 0 -1.0639827301093869 0.19934789458937274 0 0 0 0 9.7101940929660486 -2.6466070696412771 0 -2.6466070696412771 0.55922378497024283 0 0 0 0 1.912288784413025 0.052765601337645407 0 0.052765601337645407 -0.024952652595827018 0 0 0 0 2.3217947000175627 -1.6448771687473709 0 -1.6448771687473709 -5.9551639820620039 0 0 0 0 12.194723183165024 1.6896594247787959 0 1.6896594247787959 -0.72520480295725065 0 0 0 0 6.186018777033496 -6.6809959576991673 0 -6.6809959576991673 -17.508189309779482 0 0 0 0 5.4280066192128373 0.23530065456649485 0 0.23530065456649485 -0.071613687177761842 0 0 0 0 5.8476581448023808 -0.56843804927859765 0 -0.56843804927859765 0.87811962107099362 0 0 0 0 6.4560890474051575 0.18580754772392538 0 0.18580754772392538 0.3686375089739613 0 0 0 0 -1.9378988085063611 -15.676588173909977 0 -15.676588173909977 -8.7460614040022051 0 0 0 0 2.2954004512332062 2.9495836806278248 0 2.9495836806278248 0.55562205930993969 0 0 0 0 6.1808697314709207 -1.8571963333820349 0 -1.8571963333820349 -0.66033196786725057 0 0 0 0 3.9795025354891322 4.3337836757464174 0 4.3337836757464174 3.5739809088754555 0 0 0 0 4.757030378656089 1.1864175764322042 0 1.1864175764322042 0.23698321398753777 0 0 0 0 2.3307073796744362 1.7551623566261014 0 1.7551623566261014 2.3122945966632642 0 0 0 0 58.802133761189452 5.4062621366804251 0 5.4062621366804251 -44.78843961049165 0 0 0 0 3.8255701655831715 1.0116894852578453 0 1.0116894852578453 0.34343444966424364 0 0 0 0 -0.045055191572572539 -2.555192673885017 0 -2.555192673885017 -0.41979774693459149 0 0 0 0 2.503556100592732 3.7356884617078094 0 3.7356884617078094 3.4015592195421505 0 0 0 0 -6.5964587947099176 -0.22185369669523425 0 -0.22185369669523425 10.912354822743964 0 0 0 0 3.060935645620134 -1.2910348565364416 0 -1.2910348565364416 1.8422931923520309 0 0 0 0 2.6980467356669351 1.1799866658831775 0 1.1799866658831775 2.7568965651369126 0 0 0 0 3.8528514829313956 -0.76582395710185647 0 -0.76582395710185647 0.20614187246734961 0 0 0 0 -2.9674899466770057 0.84725078422107458 0 0.84725078422107458 4.0168986159060296 0 0 0 0 6.9762606803315066 0.22460904173439644 0 0.22460904173439644 -4.3413133325066298 0 0 0 0 1.1104912570784768 0.22595587502624026 0 0.22595587502624026 -0.30390161495300017 0 0 0 0 4.2755760269260463 -2.4555660109222117 0 -2.4555660109222117 -4.9926352328776318 0 0 0 0 2.4717824237323955 -0.60511101551743562 0 -0.60511101551743562 0.1157514369515722 0 0 0 0 -5.7146029863627064 1.0965262225414563 0 1.0965262225414563 3.5393781481221822 0 0 0 0 2.8677797639986977 -0.58730240673476131 0 -0.58730240673476131 0.098332699775158752 0 0 0 0 9.9143615745610987 -3.1982787151059711 0 -3.1982787151059711 -3.2754929865513134 0 0 0 0 2.5205569212744194 -1.8781974040695388 0 -1.8781974040695388 -1.2087531502896809 0 0 0 0 5.1458101213299869 -0.74000888453153379 0 -0.74000888453153379 -0.75826226836215938 0 0 0 0 6.9486388262835135 -2.6029281222675422 0 -2.6029281222675422 0.99991805360468788 0 0 0 0 2.9265304637142435 -3.0669145860790366 0 -3.0669145860790366 1.9031641917678712 0 0 0 0 5.7572596989027716 0.63119054372833716 0 0.63119054372833716 -0.98257420052630096 0 0 0 0 4.9618439179216693 1.681219887646904 0 1.681219887646904 -2.2162298663543538 0 0 0 0 2.0574518597057621 -1.6479439687333231 0 -1.6479439687333231 -0.032362565876589255 0 0 0 0 7.0929650514788136 0.75022245729373438 0 0.75022245729373438 1.3040816227661693 0 0 0 0 5.597992528762461 0.33540659300349773 0 0.33540659300349773 -1.1972078144219864 0 0 0 0 0.82327615289891387 -0.068991866902358367 0 -0.068991866902358367 0.020766998634987877 0 0 0 0 5.2849164727272182 1.3497715457406798 0 1.3497715457406798 -0.50828030372549904 0 0 0 0 3.2557951513176704 -2.0071545440830079 0 -2.0071545440830079 -1.9520296352638198 0 0 0 0 3.2535706387307073 -0.38511844932395434 0 -0.38511844932395434 0.93374677890938074 0 0 0 0 5.6009011714204462 -0.97647015132415049 0 -0.97647015132415049 -1.4356037022867554 0 0 0 0 3.6433239427951074 0.0098779817823473337 0 0.0098779817823473337 -0.67226128898509918 0 0 0 0 3.5533077282029168 -0.37085507014368974 0 -0.37085507014368974 -0.22743237872586813 0 0 0 0 5.02583520765711 -0.081363130051130383 0 -0.081363130051130383 -0.42009670032513213 0 0 0 0 3.692978542468154 -0.26428308792606003 0 -0.26428308792606003 -0.33328036184184384 0 0 0 0 5.7652388525007154 0.56170664315230567 0 0.56170664315230567 -0.68329032517783617 0 0 0 0 3.6228589226002077 -1.1877387406440674 0 -1.1877387406440674 -0.72991840351664805 0 0 0 0 7.5019061546195189 0.057821716600699347 0 0.057821716600699347 -0.71104596565191969 0 0 0 0 3.384532877865067 -1.1555028789905997 0 -1.1555028789905997 -0.40180348791685283 0 0 0 0 6.303195995792521 -1.8362255427621221 0 -1.8362255427621221 -2.7699246936088002 0 0 0 0 6.6705657743032134 -0.19398830748069429 0 -0.19398830748069429 0.25376801500792112 0 0 0 0 5.1221921294445565 -0.61084948862847455 0 -0.61084948862847455 1.1810878250704206 0 0 0 0 5.2657618014536638 -1.3444681393842757 0 -1.3444681393842757 -0.6507488952994116 0 0 0 0 4.639550165044966 0.32035701999640054 0 0.32035701999640054 2.1373365413749852 0 0 0 0 4.8032442600997456 0.63936843377263131 0 0.63936843377263131 2.2787932775006823 0 0 0 0 4.9036945842271962 1.2750554581292022 0 1.2750554581292022 1.9907537817352647 0 0 0 0 5.0646479145134435 0.38023103896773591 0 0.38023103896773591 3.1047145548079698 0 0 0 0 5.8135647244526467 0.61647467831473701 0 0.61647467831473701 3.4435932799221618 0 0 0 0 5.8440731381633668 0.74294656243723978 0 0.74294656243723978 2.0921964154554189 0 0 0 0 5.728539403288778 1.6943930357874279 0 1.6943930357874279 7.3427985862499554 0 0 0 0 10.132800560904343 -0.0014863467017800502 0 -0.0014863467017800502 -0.90818338385447817 0 0 0 0 10.346362255310396 -0.43891921905910891 0 -0.43891921905910891 0.31266480495389715 0 0 0 0 7.8679898478303585 0.27796617355505759 0 0.27796617355505759 0.32607578306021878 0 0 0 0 7.6990474687463575 0.37869070202654598 0 0.37869070202654598 0.51146085714549372 0 0 0 0 7.797828001488142 0.29633268490924536 0 0.29633268490924536 0.57719259390444222 0 0 0 0 7.6912548918471657 -0.15074318245513041 0 -0.15074318245513041 1.1153244163730278 0 0 0 0 6.0944609747066352 0.86041820254062884 0 0.86041820254062884 0.84038472646902562 0 0 0 0 7.1878547062287907 -1.405740027131543 0 -1.405740027131543 3.6676302788077901 0 0 0 0 6.4545136504111724 0.07202194240728943 0 0.07202194240728943 1.5088670252461043 0 0 0 0 6.4811685678832873 -0.1202278735992337 0 -0.1202278735992337 1.6718055778795247 0 0 0 0 1.8288434545033851 -2.1561990756406715 0 -2.1561990756406715 6.9050855196508394 0 0 0 0 3.0243423326937773 -2.2051824883749305 0 -2.2051824883749305 2.2069494297734451 0 0 0 0 5.1250348466937794 -4.7161366190750869 0 -4.7161366190750869 4.9594977248069085 0 0 0 0 6.0944850951564149 -2.1583308063822884 0 -2.1583308063822884 1.7885633488942858 0 0 0 0 4.1222577341522992 -5.688818984198349 0 -5.688818984198349 12.216391724305254 0 0 0 0 6.7505584469581663 -4.8156624585231498 0 -4.8156624585231498 12.012875340226856 0 0 0 0 3.4103896693837514 -2.1548092884802177 0 -2.1548092884802177 0.73010528439539135 0 0 0 0 11.553598433985371 -6.5745000819783286 0 -6.5745000819783286 5.1130113875355789 0 0 0 0 7.7729306355204244 1.6654339189884979 0 1.6654339189884979 -0.52657533087261754 0 0 0 0 12.160848026832355 -0.60790481963186949 0 -0.60790481963186949 -0.30963930572755771 0 0 0 0 6.3366395299271687 -0.64647840179628124 0 -0.64647840179628124 -0.57439412850042781 0 0 0 0 7.8101076908315008 1.1190884332330882 0 1.1190884332330882 0.036525331684671869 0 0 0 0 6.5944901773400488 0.5707980779529862 0 0.5707980779529862 -0.21064361439539425 0 0 0 0 4.3581046928317164 -1.9428993275093589 0 -1.9428993275093589 1.6841519056321204 0 0 0 0 8.5603561442194405 -5.2091386558026898 0 -5.2091386558026898 4.4516244186967242 0 0 0 0 4.8320671183800687 -1.9883974428790392 0 -1.9883974428790392 2.913398042910472 0 0 0 0 48.304157018075784 9.2418491608020759 0 9.2418491608020759 32.090738396954748 0 0 0 0 0.83008131568395704 -1.3183567069332489 0 -1.3183567069332489 1.2896608708000508 0 0 0 0 4.6503968935771809 -3.2098978574697981 0 -3.2098978574697981 3.398469454088449 0 0 0 0 0.12462593239416631 0.28964450483500304 0 0.28964450483500304 -0.22090228085385197 0 0 0 0 4.9142847840997579 -0.91037680672605648 0 -0.91037680672605648 -0.18078126960113153 0 0 0 0 6.8294700873473015 8.3988677956164803 0 8.3988677956164803 -2.5463240756936898 0 0 0 0 6.0558643354361266 -2.6052960088923101 0 -2.6052960088923101 1.7458668190086541 0 0 0 0 13.319630041348546 -4.1886370341081047 0 -4.1886370341081047 2.4073515505319278 0 0 0 0 6.5241731164597496 -5.9101813020819645 0 -5.9101813020819645 3.563803854487686 0 0 0 0 26.367017017329999 -45.828628083353152 0 -45.828628083353152 -19.242996254041117 0 0 0 0 8.9915726648087002 -3.1837185692208365 0 -3.1837185692208365 4.9214031661556881 0 0 0 0 12.948128800704353 -5.252824108872872 0 -5.252824108872872 3.1318191501067076 0 0 0 0 8.602617271739291 -4.4397640334151447 0 -4.4397640334151447 6.5266148112910969 0 0 0 0 7.5909028475976168 0.0003371082008207793 0 0.0003371082008207793 -0.85837127966282278 0 0 0 0 10.200087645949793 -3.1781712368497672 0 -3.1781712368497672 2.0455605932364449 0 0 0 0 12.028602292130927 -4.6512221681813912 0 -4.6512221681813912 2.9275916598588054 0 0 0 0 8.7114048687949435 -5.4171581868654215 0 -5.4171581868654215 1.8685171548116557 0 0 0 0 12.026976750206813 -3.5153806599547011 0 -3.5153806599547011 2.2245888884934502 0 0 0 0 6.7622305907025293 1.9239106008097906 0 1.9239106008097906 0.23066369485025007 0 0 0 0 6.768358123564667 0.3752411609667945 0 0.3752411609667945 1.1117488031581502 0 0 0 0 7.2701727149583348 0.5679625388728482 0 0.5679625388728482 0.79195180769551143 0 0 0 0 5.5546657666683572 1.7345185828183687 0 1.7345185828183687 -0.10682958664024467 0 0 0 0 6.7674652936447011 0.23644844420734434 0 0.23644844420734434 0.95831451110598209 0 0 0 0 9.7209872662606358 1.6067986966812668 0 1.6067986966812668 -1.8880435186373461 0 0 0 0 1.7555640742119287 0.15973183190245521 0 0.15973183190245521 -0.52336026402742841 0 0 0 0 9.0557298406765767 -1.1736671630299043 0 -1.1736671630299043 -0.32422302908207712 0 0 0 0 9.4721179089350329 -0.98619430284892351 0 -0.98619430284892351 -0.015750060361544804 0 0 0 0 5.2717767119296237 1.0051356339604105 0 1.0051356339604105 0.66978289966060078 0 0 0 0 13.250244285781719 -6.080061136173498 0 -6.080061136173498 4.6377062140124394 0 0 0 0 7.8057815073771053 0.66569362804068533 0 0.66569362804068533 0.71823718562563954 0 0 0 0 9.0037583280263789 -2.6426863826867901 0 -2.6426863826867901 6.6239369464230364 0 0 0 0 7.7822343718216871 1.4108788028715935 0 1.4108788028715935 -1.0643644050419425 0 0 0 0 1.2608709010503736 -0.15975657530706044 0 -0.15975657530706044 -0.49683894371500714 0 0 0 0 6.4483594822468113 -0.64176931937615311 0 -0.64176931937615311 -1.1829710709563672 0 0 0 0 10.202791496370082 -3.1938731510411174 0 -3.1938731510411174 1.4624075718405152 0 0 0 0 12.607019065391796 -5.1546724026759421 0 -5.1546724026759421 5.6594993381695531 0 0 0 0 9.3051001862474898 -2.7929840264997345 0 -2.7929840264997345 1.1057516020817224 0 0 0 0 13.770911240957503 -8.6909254111349554 0 -8.6909254111349554 -37.085095385675729 0 0 0 0 10.047230664712004 1.791544962342555 0 1.791544962342555 -0.47051557208128458 0 0 0 0 6.851101055070103 -0.69963135846467139 0 -0.69963135846467139 -1.4573868002861445 0 0 0 0 11.52162294086574 2.2003284743500497 0 2.2003284743500497 1.8090068410241207 0 0 0 0 8.671351751014031 0.22425243021117769 0 0.22425243021117769 1.1669851638102924 0 0 0 0 12.473767564912123 1.9968216205874114 0 1.9968216205874114 2.2592621899748337 0 0 0 0 8.0029994564883964 3.8853651017564346 0 3.8853651017564346 -1.3461780867843345 0 0 0 0 8.7311644290704091 -0.31334295009190427 0 -0.31334295009190427 0.61327758594908166 0 0 0 0 1.9705111821262449 -15.681797217610219 0 -15.681797217610219 -18.66146877663877 0 0 0 0 5.5669685347123163 74.222736586024624 0 74.222736586024624 -42.808403404991026 0 0 0 0 55.228230077074841 -46.128360626343323 0 -46.128360626343323 13.009750755956958 0 0 0 0 18.095848844659486 -8.3225085669289598 0 -8.3225085669289598 -16.211540031460814 0 0 0 0 13.809520977111873 -14.322036620862939 0 -14.322036620862939 -16.406172431367651 0 0 0 0 -0.20634893681926769 -11.531788719324936 0 -11.531788719324936 5.1207045357108143 0 0 0 0 19.1665817967924 -24.533342941470131 0 -24.533342941470131 -14.028079764288435 0 0 0 0 -4.7285096425948723 -1.7484145215022409 0 -1.7484145215022409 4.6904679720946989 0 0 0 0 17.664041132862621 -23.825843230696023 0 -23.825843230696023 13.049049552301454 0 0 0 0 3.2074862568446179 -0.47241198636537973 0 -0.47241198636537973 0.24108234506465315 0 0 0 0 -8.1494491913072125 -4.3948830116686395 0 -4.3948830116686395 34.227082387794269 0 0 0 0 34.141842582786921 -20.852722446112779 0 -20.852722446112779 14.205203540742104 0 0 0 0 87.660265633259769 7.8956897365521286 0 7.8956897365521286 21.147094080106143 0 0 0 0 19.612314112566764 -13.376721013284543 0 -13.376721013284543 49.355013333514961 0 0 0 0 12.764131252995867 -5.2425518988420663 0 -5.2425518988420663 1.748585454620013 0 0 0 0 7.2487786562217629 -1.568443430596643 0 -1.568443430596643 -0.98566203446168144 0 0 0 0 12.447061879132889 -5.9860004353201504 0 -5.9860004353201504 0.90743269011720296 0 0 0 0 -2.8383158006149642 -15.242092261195801 0 -15.242092261195801 4.3097487406842561 0 0 0 0 13.430982598762057 -2.7325666091680887 0 -2.7325666091680887 2.0008483730011335 0 0 0 0 9.8115296132671794 -4.6455161762032473 0 -4.6455161762032473 1.5982185812832921 0 0 0 0 32.133827924208163 29.605371353534345 0 29.605371353534345 -32.64657179586743 0 0 0 0 6.8092505947752215 -40.498643659488579 0 -40.498643659488579 2.2142271916702043 0 0 0 0 8.9408485959051376 -3.9089589807213585 0 -3.9089589807213585 0.4364254235194811 0 0 0 0 6.556551518512606 -8.7661526421022984 0 -8.7661526421022984 1.3100447042193082 0 0 0 0 30.215145053309243 -1.5698914377409778 0 -1.5698914377409778 -24.534256053585437 0 0 0 0 -3.1441128566043517 13.761916880823769 0 13.761916880823769 23.680626293609293 0 0 0 0 0.48712341729923736 -0.05399361229175792 0 -0.05399361229175792 -0.0013493746831406694 0 0 0 0 43.214064694140689 -15.822627941984138 0 -15.822627941984138 -16.926078334586009 0 0 0 0 31.566634550648814 -15.393812670453002 0 -15.393812670453002 -6.9084446933011918 0 0 0 0 26.820606688361295 -7.9250639492107666 0 -7.9250639492107666 -15.218159348505253 0 0 0 0 2.9408035606138583 4.282603170639959 0 4.282603170639959 -13.353996151283582 0 0 0 0 14.448530971108994 -3.6682683138502057 0 -3.6682683138502057 -3.8669796020494971 0 0 0 0 26.193511943158228 -8.2966544711490826 0 -8.2966544711490826 -7.1017949656167048 0 0 0 0 4.570556968674282 -6.9543122303045948 0 -6.9543122303045948 -2.7905508425581047 0 0 0 0 -8.8190725852282412 -14.470949739349436 0 -14.470949739349436 -6.4091427932418128 0 0 0 0 19.255255670805127 44.108522453393391 0 44.108522453393391 -21.463204099003406 0 0 0 0 90.750228307055295 -29.277988328193487 0 -29.277988328193487 13.528446490069502 0 0 0 0 0.57637319588882008 0.5118105720792574 0 0.5118105720792574 0.12228136742237061 0 0 0 0 -0.54913455858104498 33.928652098229044 0 33.928652098229044 -6.7515072781569643 0 0 0 0 20.089515835004022 -30.766948474913946 0 -30.766948474913946 -2.4844810880810542 0 0 0 0 -9.0952665308486758 -11.768400524600139 0 -11.768400524600139 2.0968028150374494 0 0 0 0 31.60675476043798 -3.489179040820801 0 -3.489179040820801 2.2892461330036156 0 0 0 0 24.576630933353954 20.620437930574298 0 20.620437930574298 -2.9508913124157061 0 0 0 0 51.305679680339381 39.121143051611142 0 39.121143051611142 -20.69061572121791 0 0 0 0 0.37386412107531442 -0.16974124493826448 0 -0.16974124493826448 0.036160831435508523 0 0 0 0 66.626707560528303 24.911706668261274 0 24.911706668261274 -3.1465738085610298 0 0 0 0 41.75015551265551 40.544037677089904 0 40.544037677089904 20.061815305603886 0 0 0 0 19.691209724562214 -20.901177933989601 0 -20.901177933989601 -1.7599811924944788 0 0 0 0 73.478351708627088 -4.4278495464522223 0 -4.4278495464522223 -9.3763603642620978 0 0 0 0 36.81661795414584 0.4450845411804778 0 0.4450845411804778 28.178795776007036 0 0 0 0 55.65547572889227 11.916794464956638 0 11.916794464956638 12.810338080345559 0 0 0 0 53.07086831639117 -14.85839836057108 0 -14.85839836057108 6.3413520506688883 0 0 0 0 19.30712385645711 -11.453149642212566 0 -11.453149642212566 8.5883457384438771 0 0 0 0 23.352507758256252 -4.6902926084385967 0 -4.6902926084385967 7.8598517176069365 0 0 0 0 7.3358634069618347 -11.500169639399417 0 -11.500169639399417 3.7365027101242276 0 0 0 0 5.8828428703054669 -6.9944519191057566 0 -6.9944519191057566 7.8477523340109201 0 0 0 0 12.222541393512074 -8.1534196445230691 0 -8.1534196445230691 7.7080884838992461 0 0 0 0 22.313541702867951 -4.6916069116436461 0 -4.6916069116436461 10.036625291639396 0 0 0 0 6.332151655728012 -10.963377741899791 0 -10.963377741899791 12.327707296990866 0 0 0 0 12.39239141098551 -9.4555501748237702 0 -9.4555501748237702 13.599535196001852 0 0 0 0 31.888385850624218 -10.879005138657178 0 -10.879005138657178 10.490305725731901 0 0 0 0 21.79027007859986 -3.8009022114666209 0 -3.8009022114666209 17.036322365143349 0 0 0 0 44.753068554480706 -6.0608117279448663 0 -6.0608117279448663 3.0557712270576758 0 0 0 0 51.254920366816805 -14.965590712913439 0 -14.965590712913439 4.1760468443739001 0 0 0 0 -1.4379563478032651 -8.4189780257925975 0 -8.4189780257925975 16.939583387545696 0 0 0 0 14.099052032347572 -11.269274577337626 0 -11.269274577337626 12.425622973005432 0 0 0 0 -11.74400478592429 0.57691376704086395 0 0.57691376704086395 10.584112112108983 0 0 0 0 2.2593081717550376 -1.5519947534836547 0 -1.5519947534836547 -1.0182987914697037 0 0 0 0 -0.0062197332255315985 0.038149878059321907 0 0.038149878059321907 0.051103848131149432 0 0 0 0 50.821117728701211 -29.276762165837624 0 -29.276762165837624 6.0019435297589325 0 0 0 0 23.506541939846784 -24.646594445030104 0 -24.646594445030104 11.07163027273657 0 0 0 0 70.647785840546021 -19.321895908859702 0 -19.321895908859702 -3.2159701641868992 0 0 0 0 63.180980197732424 -0.33165896076377521 0 -0.33165896076377521 1.1871435828000898 0 0 0 0 60.073889846107704 -5.4645172418006212 0 -5.4645172418006212 -7.2907174789446572 0 0 0 0 36.103510396465936 2.1012905655435929 0 2.1012905655435929 2.5773910357585237 0 0 0 0 34.972294176013747 -2.3981837978460021 0 -2.3981837978460021 -3.0393691294234202 0 0 0 0 11.067859305536331 -2.148268755870987 0 -2.148268755870987 3.1038018680268067 0 0 0 0 13.278674516838691 -1.1027260764543598 0 -1.1027260764543598 0.88982133710166522 0 0 0 0 10.960769188094218 -1.6851516666051083 0 -1.6851516666051083 1.1172039731110885 0 0 0 0 10.57814790591874 -0.13202718887396259 0 -0.13202718887396259 0.66602140899732376 0 0 0 0 6.999369961238699 -0.2683909868161436 0 -0.2683909868161436 2.2805617852642968 0 0 0 0 10.580887564190562 -0.046308949014530754 0 -0.046308949014530754 1.2033733869976686 0 0 0 0 6.93857566587576 -2.1455678801167437 0 -2.1455678801167437 5.1238147039007913 0 0 0 0 2.1558609884468751 -3.4258432595934778 0 -3.4258432595934778 5.1335072098809178 0 0 0 0 3.9020884000110527 0.65911000155222155 0 0.65911000155222155 2.5345748800417596 0 0 0 0 4.6558831189940975 -3.8997835869034816 0 -3.8997835869034816 11.082114846794013 0 0 0 0 5.1754210284943838 -2.3429607109763424 0 -2.3429607109763424 5.465822592006873 0 0 0 0 5.5926143635060726 -2.4688034965649877 0 -2.4688034965649877 5.046204283050713 0 0 0 0 7.4246932249188831 -4.0553443164547502 0 -4.0553443164547502 5.60436076109238 0 0 0 0 5.6074778077436349 -9.1067209805865019 0 -9.1067209805865019 6.2624447001724093 0 0 0 0 8.9637270813927898 -6.9215943251567467 0 -6.9215943251567467 5.400880202661142 0 0 0 0 4.6596257684523152 -8.303667029012729 0 -8.303667029012729 10.340136836871977 0 0 0 0 3.8594273254202562 -7.500516756360355 0 -7.500516756360355 13.433979799195185 0 0 0 0 4.0406854632637987 -6.4534846889592927 0 -6.4534846889592927 8.7823574382956622 0 0 0 0 4.8771690857574868 -8.649312485823458 0 -8.649312485823458 8.6700846643296927 0 0 0 0 4.6940245115292782 -11.672155324068626 0 -11.672155324068626 7.3712089885849537 0 0 0 0 4.7974423732775904 -12.843567366543482 0 -12.843567366543482 3.1873794359253225 0 0 0 0 4.9236766566646111 -12.489302489810314 0 -12.489302489810314 4.1735494831141295 0 0 0 0 2.8631184111982293 -9.0171003790650275 0 -9.0171003790650275 4.3923507545521261 0 0 0 0 9.0219828101762687 -10.194725260721128 0 -10.194725260721128 3.0127563771558243 0 0 0 0 8.2019761160117923 -9.7288589873373326 0 -9.7288589873373326 6.3986469944080682 0 0 0 0 6.1336800927674631 -11.06005492666759 0 -11.06005492666759 3.5831429866906035 0 0 0 0 12.813895756156853 -9.4201507188257096 0 -9.4201507188257096 2.6118746211523387 0 0 0 0 13.47255342027529 -7.9409423055468551 0 -7.9409423055468551 3.5597836176789883 0 0 0 0 10.530514136495746 -5.4563514933405521 0 -5.4563514933405521 0.68488716767456825 0 0 0 0 12.237052937463886 -4.0520234469945322 0 -4.0520234469945322 1.8567329001559756 0 0 0 0 21.420289167277588 -4.3436723656656966 0 -4.3436723656656966 0.99974771051398648 0 0 0 0 15.67458235129925 2.8369639892004699 0 2.8369639892004699 -0.65355392236995158 0 0 0 0 14.14058430899604 -3.3118136755783212 0 -3.3118136755783212 1.7335808445199632 0 0 0 0 6.7243112177424127 -5.5115905141014494 0 -5.5115905141014494 -0.24484742107058177 0 0 0 0 8.6489000386172403 -2.8476538623670242 0 -2.8476538623670242 -0.93422018066990598 0 0 0 0 14.72590150549081 -3.6080869092081826 0 -3.6080869092081826 0.067481792408216279 0 0 0 0 14.677314172451815 -3.4792138751560628 0 -3.4792138751560628 2.1015267151540797 0 0 0 0 14.578747435683599 -5.0236493145555503 0 -5.0236493145555503 -0.53206211103283219 0 0 0 0 40.278091812932416 -3.5056669257621706 0 -3.5056669257621706 -19.110813968500565 0 0 0 0 -14.697523559549609 -39.286474387533076 0 -39.286474387533076 -39.718118669281012 0 0 0 0 3.7741955892236092 0.78895012345600968 0 0.78895012345600968 -0.94083053689959906 0 0 0 0 11.505153619450539 -21.263746509891689 0 -21.263746509891689 -30.020548747215798 0 0 0 0 16.105226099149149 -10.670226472101575 0 -10.670226472101575 1.1551967315042475 0 0 0 0 6.6663592854471858 -43.606392388953708 0 -43.606392388953708 -9.0990217747742008 0 0 0 0 12.098910080953141 -5.4331983745846202 0 -5.4331983745846202 -0.57773088966022912 0 0 0 0 -18.806291192009212 -14.044475386692852 0 -14.044475386692852 -13.749242015781817 0 0 0 0 35.02604167256959 -18.535823859500169 0 -18.535823859500169 -17.622741265256479 0 0 0 0 6.857333936098712 -14.760781697534611 0 -14.760781697534611 -12.704999847694467 0 0 0 0 26.491012795820097 -22.179885105210104 0 -22.179885105210104 -10.752657743985765 0 0 0 0 14.533034777638477 -27.390570541014057 0 -27.390570541014057 -18.353101355315403 0 0 0 0 24.140600315422489 -24.071300547923784 0 -24.071300547923784 -41.844246329227175 0 0 0 0 4.8949229947229469 -15.581618337222153 0 -15.581618337222153 -19.376350705198831 0 0 0 0 0.46131938919279492 -12.449009137624444 0 -12.449009137624444 1.8353733944641135 0 0 0 0 3.0440308359320625 -13.536528116698975 0 -13.536528116698975 -8.722595065358405 0 0 0 0 5.8751277962364838 -11.847622744679711 0 -11.847622744679711 1.2064551349996009 0 0 0 0 1.5115393272899382 -11.116268871186946 0 -11.116268871186946 1.7931587470154682 0 0 0 0 4.3311536469373095 -5.649220193764279 0 -5.649220193764279 -13.748004712825832 0 0 0 0 12.581836586343343 -6.2171499225365778 0 -6.2171499225365778 -2.4729584805676836 0 0 0 0 12.905980269355496 -9.8793285860355695 0 -9.8793285860355695 2.1217739634483053 0 0 0 0 12.719613294086294 -5.0525865398261995 0 -5.0525865398261995 0.64881473398747813 0 0 0 0 16.298501205208595 -6.8975637598805406 0 -6.8975637598805406 0.84929919743490245 0 0 0 0 2.2618540362634647 0.65902655837905755 0 0.65902655837905755 -1.6265673989601619 0 0 0 0 -8.7238885530277912 -13.153767311404977 0 -13.153767311404977 -0.13341860034029196 0 0 0 0 8.9265669735468691 -14.696030975793747 0 -14.696030975793747 -6.1580581127352616 0 0 0 0 9.2987509046579362 -12.46210398549178 0 -12.46210398549178 0.48588019823512241 0 0 0 0 12.643762024739772 -8.934154503008358 0 -8.934154503008358 0.082790791736556457 0 0 0 0 11.683526831053314 -4.5897810382296029 0 -4.5897810382296029 1.2384018792967026 0 0 0 0 0.66718754155058235 -1.4369642599862118 0 -1.4369642599862118 0.59265897161123404 0 0 0 0 -13.694363087619422 -18.207393110400552 0 -18.207393110400552 6.2817688643740439 0 0 0 0 13.098743484897568 -8.2298402880224444 0 -8.2298402880224444 -3.1068363383160431 0 0 0 0 10.127702213891414 -3.655342364167554 0 -3.655342364167554 0.72514121717994984 0 0 0 0 11.211669024914954 -1.8203499810308585 0 -1.8203499810308585 -2.979803180122933 0 0 0 0 14.128547240418811 -6.113539952336339 0 -6.113539952336339 3.1289471713107559 0 0 0 0 -21.826434252776835 -7.3937993187657014 0 -7.3937993187657014 0.67153310943641031 0 0 0 0 7.9333134788244593 -6.731919683756578 0 -6.731919683756578 0.66837781835182986 0 0 0 0 -25.191156161754407 -27.735289719599336 0 -27.735289719599336 11.180600459822585 0 0 0 0 16.992980767154222 -1.6776128036900388 0 -1.6776128036900388 -0.91032774458182075 0 0 0 0 -8.8138386119926508 -24.160485694055467 0 -24.160485694055467 -18.484082280891471 0 0 0 0 -4.8475577582748883 -3.8497008688386245 0 -3.8497008688386245 -18.956931003690102 0 0 0 0 9.0427431297104484 -7.0364287515021982 0 -7.0364287515021982 0.92032838331942113 0 0 0 0 15.238935225429486 0.26600738036050586 0 0.26600738036050586 2.8058689008771132 0 0 0 0 -4.8563962716333151 -3.7422755094913152 0 -3.7422755094913152 -4.4750219056708147 0 0 0 0 -8.8370660715456353 -23.430519556577877 0 -23.430519556577877 9.7060749486779514 0 0 0 0 3.3565648409036424 -2.5620386610045731 0 -2.5620386610045731 -0.8368971496986467 0 0 0 0 15.526676851394768 -32.190275275708075 0 -32.190275275708075 19.277325055183098 0 0 0 0 14.10155602212626 -26.567305395293829 0 -26.567305395293829 23.906467452388142 0 0 0 0 0.046333418521513181 -0.20164489567046706 0 -0.20164489567046706 0.33225318486091204 0 0 0 0 -22.1844074877514 -7.6842870817340696 0 -7.6842870817340696 12.695554629588173 0 0 0 0 7.8625197932365154 -50.294417784988525 0 -50.294417784988525 34.966409733851378 0 0 0 0 8.107149486309936 -4.8061559981937876 0 -4.8061559981937876 -15.677150910727732 0 0 0 0 15.792575837075219 -32.735154370789985 0 -32.735154370789985 -7.1420408580873982 0 0 0 0 14.057974285521141 -20.61031234114472 0 -20.61031234114472 20.616665430424902 0 0 0 0 26.296346284890888 -24.535270362615769 0 -24.535270362615769 3.8604009374814723 0 0 0 0 25.508757020037478 -19.766963440897612 0 -19.766963440897612 40.205343140516447 0 0 0 0 20.024167935032438 -17.78901862360425 0 -17.78901862360425 7.4779949332080378 0 0 0 0 50.93934499970851 -20.892396083769711 0 -20.892396083769711 6.8508547594724405 0 0 0 0 104.37728967232692 14.609993260409567 0 14.609993260409567 -5.8906496918303901 0 0 0 0 87.670873234362034 27.952779036746108 0 27.952779036746108 37.665397583613867 0 0 0 0 43.881175966605497 -23.269117834116969 0 -23.269117834116969 68.59858379918478 0 0 0 0 -5.7069643237396122 4.106080847427279 0 4.106080847427279 41.598438763046033 0 0 0 0 26.175944682325735 48.542524569113596 0 48.542524569113596 47.064890693684163 0 0 0 0 5.4167165289961758 25.299250932242884 0 25.299250932242884 4.8848380573958821 0 0 0 0 24.927630908709034 40.590307964861836 0 40.590307964861836 6.8172768814800406 0 0 0 0 5.7522852600789065 23.256177197547572 0 23.256177197547572 15.763981020080109 0 0 0 0 23.096439081790322 7.6079533428942909 0 7.6079533428942909 -6.2589585007696371 0 0 0 0 40.613477900376893 16.214455035002004 0 16.214455035002004 -27.921566859980544 0 0 0 0 15.978949881831795 9.8987130228672982 0 9.8987130228672982 -25.320419462655792 0 0 0 0 9.4623501179717096 23.146735272002104 0 23.146735272002104 -11.384975946670693 0 0 0 0 9.6301108268371536 19.212982148311028 0 19.212982148311028 -9.986027862073712 0 0 0 0 11.09092561615762 17.77077940778392 0 17.77077940778392 -15.322006404302556 0 0 0 0 8.630091704843494 5.0177179622621537 0 5.0177179622621537 -17.04540062329761 0 0 0 0 7.5465008238223845 -3.8087419991520619 0 -3.8087419991520619 -30.730789563290045 0 0 0 0 6.4426979445943289 7.1958557479744627 0 7.1958557479744627 -12.453895944865167 0 0 0 0 6.7079289992539088 5.9692365124735716 0 5.9692365124735716 -16.048272784077085 0 0 0 0 -11.079585659623262 52.340993658344246 0 52.340993658344246 -12.803635946780958 0 0 0 0 -2.1594325100979859 -42.8561170326374 0 -42.8561170326374 -62.169006745044612 0 0 0 0 -7.7438715410808072 -11.496185732368531 0 -11.496185732368531 -33.465760015893949 0 0 0 0 22.315845045397737 7.7598448514970642 0 7.7598448514970642 -39.545356563053019 0 0 0 0 -11.247134521055159 -0.78192226695381351 0 -0.78192226695381351 -17.472151278514502 0 0 0 0 -23.119338270148546 -11.060833873761453 0 -11.060833873761453 -22.183313781544143 0 0 0 0 46.521343135299958 25.491118914744249 0 25.491118914744249 -21.667703981959562 0 0 0 0 0.040549647481969764 0.047759448688108996 0 0.047759448688108996 -0.24782378663582039 0 0 0 0 13.080673992308675 -6.2313760716129707 0 -6.2313760716129707 -31.711702730825891 0 0 0 0 7.7425969317168697 -1.8856377716956247 0 -1.8856377716956247 0.1379654070779448 0 0 0 0 18.872948019857404 -23.060449729289275 0 -23.060449729289275 -39.545270907814597 0 0 0 0 14.195398226594989 -17.535697009212555 0 -17.535697009212555 -45.929654255134324 0 0 0 0 39.004546028961613 16.68768363497918 0 16.68768363497918 -35.44380537695065 0 0 0 0 42.453503771435862 -21.774224630942115 0 -21.774224630942115 -24.298614586792041 0 0 0 0 29.127995068097448 -12.280250941916876 0 -12.280250941916876 -78.16855914263374 0 0 0 0 38.434725064750182 31.788830930309842 0 31.788830930309842 15.237737423700537 0 0 0 0 53.261850956866283 26.494465187460889 0 26.494465187460889 0.097411698186533613 0 0 0 0 50.693583331158834 31.507293788035696 0 31.507293788035696 0.46825614835927354 0 0 0 0 29.635563058507614 20.582803652263806 0 20.582803652263806 -4.841395972223097 0 0 0 0 46.906356525227693 25.123962779407236 0 25.123962779407236 -4.9978205087944616 0 0 0 0 25.9407653034541 24.560951283996133 0 24.560951283996133 4.749857660665441 0 0 0 0 32.44898285952786 21.195693169332856 0 21.195693169332856 0.88275192145323444 0 0 0 0 21.384450196089801 16.215179209885633 0 16.215179209885633 -7.453605669979197 0 0 0 0 -3.1057507639866344 16.611978789662516 0 16.611978789662516 8.1281022764094359 0 0 0 0 26.613227747008864 26.48348836439807 0 26.48348836439807 -2.4508538137411051 0 0 0 0 6.8435499099477966 7.0869609234390794 0 7.0869609234390794 14.937063923777487 0 0 0 0 0.0041700857014310699 -0.060424215730438213 0 -0.060424215730438213 -0.29559899105693077 0 0 0 0 0.043524550443635235 25.885516160171818 0 25.885516160171818 8.2305111009775942 0 0 0 0 9.4773486739827035 27.575369205680943 0 27.575369205680943 2.4987871582540038 0 0 0 0 6.4903798649465898 16.559351724764667 0 16.559351724764667 -3.1514403306581187 0 0 0 0 5.831359858261294 15.789955002924131 0 15.789955002924131 -3.8760360467327928 0 0 0 0 6.3717595515799346 9.8979839424137026 0 9.8979839424137026 -0.096220876052598214 0 0 0 0 5.1021830497666087 2.8030372126085012 0 2.8030372126085012 -5.8865495250765605 0 0 0 0 3.7620791216786529 5.7455727134996266 0 5.7455727134996266 8.0202732538213084 0 0 0 0 13.062160809877241 18.244846909666364 0 18.244846909666364 7.3257882286295057 0 0 0 0 5.576365851020455 14.405951786281946 0 14.405951786281946 9.1232227098182648 0 0 0 0 12.509553068867717 19.107414013458595 0 19.107414013458595 5.417793939202511 0 0 0 0 12.62050901748637 20.140882978685916 0 20.140882978685916 14.515443319159203 0 0 0 0 18.844436116891757 13.753509876397175 0 13.753509876397175 8.533487028630816 0 0 0 0 36.220644586077469 16.669185850536962 0 16.669185850536962 9.6039366027349899 0 0 0 0 23.772311770766009 23.977002027963948 0 23.977002027963948 18.264979849502879 0 0 0 0 31.418097070078488 23.71626765208503 0 23.71626765208503 29.530932360418262 0 0 0 0 58.499445910256782 33.371185969507124 0 33.371185969507124 16.065166441318127 0 0 0 0 37.72723383019229 15.951991141342972 0 15.951991141342972 12.694320014893378 0 0 0 0 15.582496697619717 3.4751847826017155 0 3.4751847826017155 18.522473285531362 0 0 0 0 27.170979322163021 4.3415424840388326 0 4.3415424840388326 8.7417767881748816 0 0 0 0 15.952242298619751 5.2104658963746466 0 5.2104658963746466 9.9333686635270197 0 0 0 0 34.957009313113531 12.272523154920307 0 12.272523154920307 21.132484081348991 0 0 0 0 34.133109213119496 15.157126795822847 0 15.157126795822847 12.633300702149427 0 0 0 0 16.086314994843633 12.473273589060341 0 12.473273589060341 17.829274794897515 0 0 0 0 18.453127893978944 10.731911221202409 0 10.731911221202409 1.5855065145063918 0 0 0 0 10.614119451671286 -2.0887051750985393 0 -2.0887051750985393 5.5302854322208645 0 0 0 0 16.224130881584188 6.6592241516165913 0 6.6592241516165913 7.7087052955096738 0 0 0 0 14.607533469303235 -3.5174244587590771 0 -3.5174244587590771 6.7036693589739649 0 0 0 0 3.2516892850089789 -4.8966664290187154 0 -4.8966664290187154 -1.9628721481537674 0 0 0 0 1.2770830300551097 -4.3446302222251987 0 -4.3446302222251987 5.1981203382773806 0 0 0 0 2.7108599132939162 -3.8480343487726145 0 -3.8480343487726145 0.84996739760441642 0 0 0 0 7.3716428268089658 0.41612932712865813 0 0.41612932712865813 3.7681644750929451 0 0 0 0 5.0107669994499702 0.9764291914781893 0 0.9764291914781893 9.6976127501912117 0 0 0 0 4.9785986757069622 1.7816254330035228 0 1.7816254330035228 3.7701994402464436 0 0 0 0 0.21811021094067229 -0.27665680562896533 0 -0.27665680562896533 0.19140045958968455 0 0 0 0 0.54417054318628288 2.0091608103971765 0 2.0091608103971765 -2.7298503494293946 0 0 0 0 7.8729597804117475 6.3791296465677334 0 6.3791296465677334 -2.1680926523081325 0 0 0 0 3.2803104779188743 -0.51374384107314341 0 -0.51374384107314341 -4.3466798688850758 0 0 0 0 6.1606093266836979 1.9350973398545364 0 1.9350973398545364 -5.6488699927498374 0 0 0 0 3.3580228153141807 -0.72216023252629835 0 -0.72216023252629835 -0.46221160218642088 0 0 0 0 2.081748379385381 -0.41084812379729518 0 -0.41084812379729518 -0.3716778926571313 0 0 0 0 2.5573848775395618 -0.56504646158168015 0 -0.56504646158168015 -1.1833042619569483 0 0 0 0 -0.59212538089741429 -2.6851528043046358 0 -2.6851528043046358 0.4501356121131721 0 0 0 0 1.3664031190574821 -1.8830752837348372 0 -1.8830752837348372 -0.027008052004488525 0 0 0 0 6.8562586825319158 -1.1730895553098293 0 -1.1730895553098293 -0.85165060993617203 0 0 0 0 5.7534437784097463 -0.69844542960265699 0 -0.69844542960265699 0.090596120823079218 0 0 0 0 4.8180202291114256 0.063619006890998975 0 0.063619006890998975 -0.14547955272530544 0 0 0 0 2.8934763185612447 -0.45442511846795064 0 -0.45442511846795064 0.29758714111301404 0 0 0 0 5.110551655589461 -0.85151122235872556 0 -0.85151122235872556 0.1845289258301861 0 0 0 0 5.0948674965178498 -0.67387338053070334 0 -0.67387338053070334 0.35799648402189632 0 0 0 0 2.6248655344842646 -1.7015096370506715 0 -1.7015096370506715 -0.062293759472699939 0 0 0 0 4.3664626300187592 -2.146677191862949 0 -2.146677191862949 -0.97670782310919435 0 0 0 0 3.0660731541884161 -1.4318533518215588 0 -1.4318533518215588 0.56960441970230136 0 0 0 0 5.7628669994516315 -1.1097085807707687 0 -1.1097085807707687 -0.10431034009684481 0 0 0 0 5.2423469573022885 -1.0750506206551265 0 -1.0750506206551265 0.30059268103475567 0 0 0 0 4.8400487311193512 -2.2884080509965172 0 -2.2884080509965172 -0.27347012572971785 0 0 0 0 -0.60450868483258091 -8.7057166447233278 0 -8.7057166447233278 -0.49406394531783349 0 0 0 0 5.3378711783827839 -1.2684290120136108 0 -1.2684290120136108 -0.040540174404100071 0 0 0 0 -1.6122504738686985 -1.6917575398045082 0 -1.6917575398045082 0.65676229314825463 0 0 0 0 8.5466457072361663 -4.8657252747762882 0 -4.8657252747762882 1.1198911217075889 0 0 0 0 8.0288497858063579 1.7598851507696494 0 1.7598851507696494 2.4926820251804216 0 0 0 0 7.5261354809699696 -5.2465481622130028 0 -5.2465481622130028 2.2687881658601228 0 0 0 0 7.4245187805149726 -2.0662574610322224 0 -2.0662574610322224 -7.0096339003731885 0 0 0 0 3.7706905096065384 -11.163915525790628 0 -11.163915525790628 -5.1049906957555109 0 0 0 0 6.1814690071569203 -3.0764047192756827 0 -3.0764047192756827 -0.71241511130921253 0 0 0 0 5.0030461710938443 -2.0231070785965564 0 -2.0231070785965564 -0.45790391219126181 0 0 0 0 -0.07289629906256323 -0.43937299838596999 0 -0.43937299838596999 3.0732076376800705 0 0 0 0 14.649611516588266 3.7007445405487829 0 3.7007445405487829 -4.8324151514153471 0 0 0 0 18.676470738122134 -0.92141474491020858 0 -0.92141474491020858 -9.2513250258045332 0 0 0 0 16.931943138158204 -1.2554902617641517 0 -1.2554902617641517 -1.2128371850213711 0 0 0 0 16.935721867483153 -0.16750885855807951 0 -0.16750885855807951 -2.7817324542110562 0 0 0 0 16.722804702593294 -0.39566597765851697 0 -0.39566597765851697 0.49109467044476673 0 0 0 0 19.159832529253435 -2.7943625626469384 0 -2.7943625626469384 2.3905595740750556 0 0 0 0 3.0908338296410669 -0.33199195769885748 0 -0.33199195769885748 -0.046308943014189641 0 0 0 0 10.833826917308443 -3.0776100463429792 0 -3.0776100463429792 0.268951472539257 0 0 0 0 11.405929726249269 -1.9868143172051242 0 -1.9868143172051242 -0.10839746259116301 0 0 0 0 10.426856878756098 -3.3999965799450891 0 -3.3999965799450891 0.031662338029292414 0 0 0 0 10.871496863815992 0.10952549836561648 0 0.10952549836561648 2.2365764187371293 0 0 0 0 11.014309497792965 -3.9063213464586255 0 -3.9063213464586255 3.0452987315584892 0 0 0 0 6.0740348798429231 -3.9486255595850848 0 -3.9486255595850848 -0.74853581765130262 0 0 0 0 7.5643261516752318 -2.8346183544914538 0 -2.8346183544914538 1.6214562164360018 0 0 0 0 10.383233833766099 -0.14378646756685498 0 -0.14378646756685498 -2.6467355552451863 0 0 0 0 9.9874812585912878 -4.3135153481307924 0 -4.3135153481307924 -2.1499190074399053 0 0 0 0 9.2887234870650381 -0.99082041649807506 0 -0.99082041649807506 -0.2231852003143745 0 0 0 0 14.714945811011603 -5.4722611518542408 0 -5.4722611518542408 -32.107279607662349 0 0 0 0 10.102281864612451 -6.2198829470589772 0 -6.2198829470589772 -31.753477806555111 0 0 0 0 5.8093177493437906 9.3868478521417558 0 9.3868478521417558 -0.25457847599636807 0 0 0 0 25.401828862201455 10.212335119230005 0 10.212335119230005 -14.366929859734228 0 0 0 0 1.5584195189046297 0.028548580460022954 0 0.028548580460022954 -0.27868295521625597 0 0 0 0 37.507687563791478 -36.230743754374885 0 -36.230743754374885 44.810779457542651 0 0 0 0 2.3594566976620444 0.40973527552930689 0 0.40973527552930689 -0.70187156261241856 0 0 0 0 11.322382834471 -2.4294956275053607 0 -2.4294956275053607 0.4979201646688125 0 0 0 0 9.7052314528761237 -2.5453993496253844 0 -2.5453993496253844 0.14684531567861775 0 0 0 0 10.357353193590825 -2.0344245441107347 0 -2.0344245441107347 1.5121879980396926 0 0 0 0 0.89403494677170059 0.46537138462544769 0 0.46537138462544769 -0.67041749445417353 0 0 0 0 0.96246466665888875 -3.6617476282103496 0 -3.6617476282103496 -17.690847324531646 0 0 0 0 2.3099474483906306 -5.1919754250477865 0 -5.1919754250477865 -17.126389173955932 0 0 0 0 2.4385808116239787 -2.2384290959746522 0 -2.2384290959746522 -6.6669208130915081 0 0 0 0 4.3727665294027247 -1.9726474408942636 0 -1.9726474408942636 -14.150239400048832 0 0 0 0 4.1578326728349797 -1.5306725826938874 0 -1.5306725826938874 0.080845575937776748 0 0 0 0 2.4560795295847129 -1.9758942364287009 0 -1.9758942364287009 -5.7768262943338193 0 0 0 0 5.6178602811050951 -0.31430361138621521 0 -0.31430361138621521 0.95200145521892665 0 0 0 0 9.8622953464841885 -2.0281257971760152 0 -2.0281257971760152 0.013166219213360364 0 0 0 0 4.3904056636127997 -1.9341949848368412 0 -1.9341949848368412 0.065868885974622371 0 0 0 0 6.8639500747976854 -3.1104929284508955 0 -3.1104929284508955 0.48020540897960018 0 0 0 0 4.5009875539599307 0.78202049493944514 0 0.78202049493944514 -0.11703831945531817 0 0 0 0 1.4518041075256078 -0.1998650431459561 0 -0.1998650431459561 0.025825849580596083 0 0 0 0 9.3780099387545306 -2.7428095469106424 0 -2.7428095469106424 1.0282113631851075 0 0 0 0 9.1193894221801202 -2.3648018497227383 0 -2.3648018497227383 -0.4450303466159653 0 0 0 0 1.3891627497193202 -0.58606833433976746 0 -0.58606833433976746 -0.28676307558267405 0 0 0 0 4.4311846969958424 -0.93723874227898418 0 -0.93723874227898418 -0.051876642338739121 0 0 0 0 7.9243353011133877 -1.2940106266983449 0 -1.2940106266983449 -0.059750868567363558 0 0 0 0 7.2519015334655705 -1.6230788754818946 0 -1.6230788754818946 0.1421216766150053 0 0 0 0 2.2981379161985345 -1.5183289254314651 0 -1.5183289254314651 -0.24078368521759363 0 0 0 0 2.4582107677707619 -0.020847035090600485 0 -0.020847035090600485 -0.25369159763510707 0 0 0 0 5.1723403536868773 -1.7170755702020308 0 -1.7170755702020308 0.10546850490032966 0 0 0 0 6.4120563346587005 -0.94606231826754517 0 -0.94606231826754517 -0.35607415426293088 0 0 0 0 3.5623433540172051 -0.55232061408929578 0 -0.55232061408929578 -0.88801857701432529 0 0 0 0 4.6504998663840524 -1.3707934459193041 0 -1.3707934459193041 -0.093801548205163954 0 0 0 0 2.5100448132324251 -1.1871337808207407 0 -1.1871337808207407 -0.26350989692872895 0 0 0 0 3.4187415313444944 -0.70419634502037809 0 -0.70419634502037809 -0.34747198208390273 0 0 0 0 2.8427006521844582 0.086825825994253591 0 0.086825825994253591 -0.33810411781091632 0 0 0 0 3.5403521494899906 -1.9143489659313548 0 -1.9143489659313548 -1.4383597287840599 0 0 0 0 3.5989038653467773 -1.4370472182818457 0 -1.4370472182818457 -0.76212367595322039 0 0 0 0 10.230729645768861 -0.82138646218979972 0 -0.82138646218979972 -0.34365689964305091 0 0 0 0 4.789693324116957 -1.7320899529554019 0 -1.7320899529554019 -0.41637229788353702 0 0 0 0 7.4924059166619372 -2.2424650861108777 0 -2.2424650861108777 -0.19251825279332735 0 0 0 0 9.5391578300150286 -3.162427419981924 0 -3.162427419981924 0.17624477574969433 0 0 0 0 5.7019249823659077 -3.9127673496135547 0 -3.9127673496135547 -1.102029704898623 0 0 0 0 13.262313314625544 -4.1231265684044125 0 -4.1231265684044125 0.15134201151653315 0 0 0 0 15.317730422775639 4.0999387500585271 0 4.0999387500585271 1.1376557136534302 0 0 0 0 -1.5297618956775203 -1.744628381867976 0 -1.744628381867976 0.95639838997431736 0 0 0 0 13.837164862359714 -2.7795403156774796 0 -2.7795403156774796 0.41313445832145135 0 0 0 0 6.0437079659093254 -0.10528186347548463 0 -0.10528186347548463 0.57923155756492795 0 0 0 0 6.6547047158621773 -3.5617991633434878 0 -3.5617991633434878 -0.39692319492841399 0 0 0 0 8.5035809948569749 -3.1220009192448295 0 -3.1220009192448295 0.22902146288436143 0 0 0 0 11.053284319447812 -0.54700671738075357 0 -0.54700671738075357 0.97811307896938615 0 0 0 0 13.704315997447338 1.7276527752657245 0 1.7276527752657245 1.158771228489119 0 0 0 0 6.8226139455119235 -4.5754055003741563 0 -4.5754055003741563 -1.4109961197733438 0 0 0 0 12.246994848666873 -3.3799825061214364 0 -3.3799825061214364 -0.31059536177622249 0 0 0 0 15.491464455011737 -2.3392926081522774 0 -2.3392926081522774 -0.0076415258933764107 0 0 0 0 3.2141333371664338 -0.19376337654775 0 -0.19376337654775 -0.17520207446725822 0 0 0 0 13.082783701027438 -0.14969745613859686 0 -0.14969745613859686 -3.8097037266956022 0 0 0 0 4.3776456370114829 7.2049189763401671 0 7.2049189763401671 -0.5920107227977951 0 0 0 0 -0.043079191842592124 -0.097697363118992797 0 -0.097697363118992797 0.14852889508397138 0 0 0 0 28.958103364920134 -4.465290214966501 0 -4.465290214966501 -0.48906199097439185 0 0 0 0 1.8330776651273482 10.666694292198571 0 10.666694292198571 -0.096216451528562175 0 0 0 0 16.68900453459446 0.52787082163484911 0 0.52787082163484911 -1.0696452721090282 0 0 0 0 12.105595079150589 16.753490500979638 0 16.753490500979638 -0.15576513536689163 0 0 0 0 60.747042397137193 -2.6948535661559845 0 -2.6948535661559845 -25.427735052411663 0 0 0 0 6.3934402056202089 -12.530134584322269 0 -12.530134584322269 -17.023096164103549 0 0 0 0 12.901994280415238 65.987692003023994 0 65.987692003023994 76.928573774414531 0 0 0 0 2.7398171194219714 -0.35481321973400881 0 -0.35481321973400881 -0.64800185994164172 0 0 0 0 16.046249229497334 -0.43828626149013417 0 -0.43828626149013417 -3.781695551868097 0 0 0 0 5.5997336255758796 -3.8481270920467914 0 -3.8481270920467914 -1.3658973650154849 0 0 0 0 4.1095804839692871 -0.092069627826568023 0 -0.092069627826568023 -1.121130428801308 0 0 0 0 11.065360560163754 -0.85855324701745772 0 -0.85855324701745772 -0.59531738801248935 0 0 0 0 10.840998215035142 -0.10642781441180915 0 -0.10642781441180915 -0.66085631251485477 0 0 0 0 1.6904510549650873 -0.12160695514713105 0 -0.12160695514713105 -0.73450337545504207 0 0 0 0 5.0908893386376803 -1.6271528394420329 0 -1.6271528394420329 -0.61653405953921947 0 0 0 0 5.90566331640116 -0.80563753464412002 0 -0.80563753464412002 -2.2095113736610301 0 0 0 0 3.6716734730149057 -1.5243560934072917 0 -1.5243560934072917 -0.73944760389169883 0 0 0 0 5.4475077083679935 -1.2670051690093374 0 -1.2670051690093374 -0.26124086041596684 0 0 0 0 2.7129548333016515 -2.7515453640825314 0 -2.7515453640825314 -0.56607973637008258 0 0 0 0 6.7349700125378149 -2.5040827112260331 0 -2.5040827112260331 -1.0364100069693478 0 0 0 0 0.91083031519427626 -2.3584676292088798 0 -2.3584676292088798 -1.6523206333216307 0 0 0 0 8.2438649224459368 -2.3553777421083737 0 -2.3553777421083737 -1.9611158443232171 0 0 0 0 8.0163282940729914 -20.244065462836716 0 -20.244065462836716 -12.711087711080495 0 0 0 0 6.7358515377007961 -2.5015578247556598 0 -2.5015578247556598 -1.626164227917215 0 0 0 0 5.3772514295233123 -3.2473781569142375 0 -3.2473781569142375 -1.1496515764739428 0 0 0 0 4.3325641684607774 -2.699987427322494 0 -2.699987427322494 -1.2825970062532834 0 0 0 0 9.7536369467310919 0.086118990596469658 0 0.086118990596469658 -0.46979640279732848 0 0 0 0 9.3742371612479474 -0.72412871904595022 0 -0.72412871904595022 -1.0971888668367455 0 0 0 0 8.5508529639337212 -0.088147134889140943 0 -0.088147134889140943 0.64895534158716828 0 0 0 0 9.7884879636474693 1.0068522876878454 0 1.0068522876878454 0.14157412346708043 0 0 0 0 8.5927589045891182 -1.267891090659198 0 -1.267891090659198 -1.0987050129931504 0 0 0 0 -4.1456254501117655 -1.6641200335148767 0 -1.6641200335148767 -11.788562487966914 0 0 0 0 28.287343391946706 1.7989076633881442 0 1.7989076633881442 0.74459184366945363 0 0 0 0 6.2599611367340913 -1.5360665736478296 0 -1.5360665736478296 -1.0560478454880808 0 0 0 0 9.1639202632086381 -1.0869817232164678 0 -1.0869817232164678 -1.0001418881721804 0 0 0 0 3.0299772448387974 -1.9384443743905972 0 -1.9384443743905972 -1.6613089504387089 0 0 0 0 3.3553278287255068 -3.0337368837349459 0 -3.0337368837349459 -1.1571505559138722 0 0 0 0 28.67140754018692 1.7008799444879212 0 1.7008799444879212 -0.53020631511379435 0 0 0 0 0.089443243985660947 0.16747942103936175 0 0.16747942103936175 -0.079453913628587558 0 0 0 0 17.832331671790598 -3.4417888361358564 0 -3.4417888361358564 -6.3002271307464071 0 0 0 0 2.290995361717155 -0.11637907362447919 0 -0.11637907362447919 -0.52109413667631133 0 0 0 0 19.931639835222086 -1.5125646173114262 0 -1.5125646173114262 -1.6500163847099287 0 0 0 0 2.7080376250421438 0.48455685520671743 0 0.48455685520671743 -0.37633142782394202 0 0 0 0 13.169151768262964 -38.953117592391905 0 -38.953117592391905 30.617148398165398 0 0 0 0 4.3701483175863913 -5.3543326061689918 0 -5.3543326061689918 -2.4870036552860668 0 0 0 0 8.0043848119676113 -0.80134595062020253 0 -0.80134595062020253 -0.87714079201725781 0 0 0 0 12.67273921195374 -1.3115831347831772 0 -1.3115831347831772 -1.6723550306022048 0 0 0 0 18.861451405351545 -12.261455809293409 0 -12.261455809293409 -0.91909762646150739 0 0 0 0 7.8521256006335989 0.57171669057142793 0 0.57171669057142793 -0.64183606345329736 0 0 0 0 7.58189335228235 0.25985725725638531 0 0.25985725725638531 -0.47381280988872732 0 0 0 0 -15.841260630670149 -13.693781019875104 0 -13.693781019875104 6.8177981260780598 0 0 0 0 -7.0204648107537651 -24.783828732861593 0 -24.783828732861593 10.17749540046475 0 0 0 0 0.79691651639804206 0.3425401198295166 0 0.3425401198295166 0.10074812956499146 0 0 0 0 -13.664752042896907 -5.7098374515436632 0 -5.7098374515436632 -1.8727523796061405 0 0 0 0 -2.904759641029159 16.070166837851957 0 16.070166837851957 -0.16472933540138524 0 0 0 0 3.0904851755331038 0.35859810147758253 0 0.35859810147758253 -0.085692584156845442 0 0 0 0 41.807318706725709 -23.118591035580437 0 -23.118591035580437 2.1208040620601309 0 0 0 0 47.524883212907298 -51.855086085705693 0 -51.855086085705693 -20.007060641329417 0 0 0 0 0.12510569195471177 0.037124699218050949 0 0.037124699218050949 0.035242976869516607 0 0 0 0 8.1887528266324807 -2.7223216887240369 0 -2.7223216887240369 0.56394780151552482 0 0 0 0 3.6357785725340364 -1.5551504519270338 0 -1.5551504519270338 -0.49694484319962839 0 0 0 0 1.2997871896609272 0.10393138946962566 0 0.10393138946962566 -0.14596427278867541 0 0 0 0 3.5917572565995002 -1.6273189702234907 0 -1.6273189702234907 0.021597936361202441 0 0 0 0 1.7081988553823066 -0.59647610411236229 0 -0.59647610411236229 -0.67599247970497345 0 0 0 0 2.7422183273889909 -1.0139487270227479 0 -1.0139487270227479 -0.58362715530102482 0 0 0 0 15.098582603106024 5.5505027577244448 0 5.5505027577244448 -1.2996844249046262 0 0 0 0 6.3907921572244959 -3.7884618316881529 0 -3.7884618316881529 -0.90423125573522611 0 0 0 0 9.0232105896830035 -4.3637055883245921 0 -4.3637055883245921 -2.6821672232772471 0 0 0 0 0.25966193318958819 -0.13234344004741505 0 -0.13234344004741505 -0.13394180475453488 0 0 0 0 -0.920842875128983 2.8040281730335437 0 2.8040281730335437 9.4382441808136264 0 0 0 0 4.7930924643690318 -1.8152802009990188 0 -1.8152802009990188 -0.72610976095435009 0 0 0 0 5.5160557567200144 -1.2297141850644233 0 -1.2297141850644233 -0.067834855138194872 0 0 0 0 6.7271214138438609 -0.83398138012318057 0 -0.83398138012318057 1.2501708848384681 0 0 0 0 4.0990250453007775 -0.84932206740634797 0 -0.84932206740634797 1.3578583055467277 0 0 0 0 7.0688217527404049 -2.1533762450704046 0 -2.1533762450704046 -0.96505504995378999 0 0 0 0 14.141173219324628 2.1234369544712166 0 2.1234369544712166 -5.871974880451944 0 0 0 0 0.93949501064687269 0.24591365040534363 0 0.24591365040534363 0.065772576219417012 0 0 0 0 2.2371623257906776 -0.60506890427147653 0 -0.60506890427147653 -1.5498468053853571 0 0 0 0 0.42893526657167058 -7.1288034143613057 0 -7.1288034143613057 3.202693123336644 0 0 0 0 3.4962994426499492 -1.414403808235801 0 -1.414403808235801 -0.15093183149617673 0 0 0 0 8.8322204875985335 -0.080760063601104548 0 -0.080760063601104548 -0.12489036566654477 0 0 0 0 2.8892543510843893 -1.2583603593655059 0 -1.2583603593655059 0.34952624027729867 0 0 0 0 3.5496150430271882 -1.0964580106010544 0 -1.0964580106010544 -0.88019615906716808 0 0 0 0 5.0125511701335199 -4.1557275267791169 0 -4.1557275267791169 -6.2112908070007506 0 0 0 0 6.2097577708846075 -0.44060950746364824 0 -0.44060950746364824 -4.2501031039833492 0 0 0 0 4.0873834859027056 -1.3113138574492798 0 -1.3113138574492798 0.0025996835118501371 0 0 0 0 4.9141836564849655 0.71350370545957276 0 0.71350370545957276 -1.8253902308044871 0 0 0 0 -0.40191036238866928 -0.30905802519796843 0 -0.30905802519796843 0.31002135029159561 0 0 0 0 15.222451394542077 2.0208785065994022 0 2.0208785065994022 0.092866501704264692 0 0 0 0 4.7276597176960422 -0.2581357380442455 0 -0.2581357380442455 0.35181148500657855 0 0 0 0 7.1313143742008833 3.5514857000903817 0 3.5514857000903817 0.92266725066815169 0 0 0 0 9.107197337461912 -5.0489506425692809 0 -5.0489506425692809 1.1583635803593211 0 0 0 0 14.435810259810751 -7.6148294218516988 0 -7.6148294218516988 2.8570817734117782 0 0 0 0 -39.244808212193561 -3.0711660872276179 0 -3.0711660872276179 11.758823187913265 0 0 0 0 11.125940967947827 -30.218910973902283 0 -30.218910973902283 -6.7096423708308066 0 0 0 0 -14.896781491586808 -22.011946426239547 0 -22.011946426239547 0.11425921905322411 0 0 0 0 11.492807372665993 -21.312738792394086 0 -21.312738792394086 -13.119871561584127 0 0 0 0 3.8171398267477343 -26.152444542482613 0 -26.152444542482613 0.53560766709976093 0 0 0 0 -0.58946605679602726 -11.065162244086315 0 -11.065162244086315 -1.0034282281177695 0 0 0 0 -14.364778950350228 -10.469051566104696 0 -10.469051566104696 -1.0247265262441569 0 0 0 0 17.845916247631067 -13.907357429817985 0 -13.907357429817985 -7.4229232064330546 0 0 0 0 3.0434229253223748 1.7310235172575794 0 1.7310235172575794 -1.9096547217788356 0 0 0 0 7.3599581182666043 1.8998541054046676 0 1.8998541054046676 4.4816902789321773 0 0 0 0 5.7954146123502142 -2.0306953317323888 0 -2.0306953317323888 -2.7556994173935552 0 0 0 0 -2.347101405612193 -4.0080565461948368 0 -4.0080565461948368 -2.8040030324315142 0 0 0 0 3.7676115870499416 -3.9242802130113574 0 -3.9242802130113574 4.1110616418616246 0 0 0 0 2.8843257977123358 -6.9378046352382938 0 -6.9378046352382938 2.9475424728370854 0 0 0 0 5.2742521619238687 -6.5839116996714893 0 -6.5839116996714893 8.7030742756736146 0 0 0 0 6.9050188436794997 -3.6236642004001851 0 -3.6236642004001851 1.557322256705767 0 0 0 0 3.9761004596248313 -8.1154181582425835 0 -8.1154181582425835 4.2095379432342952 0 0 0 0 1.0502003070832107 -0.12408501327983146 0 -0.12408501327983146 -0.42228531056214713 0 0 0 0 -1.613828275771084 0.53901610771431763 0 0.53901610771431763 15.125483017958089 0 0 0 0 5.2921954761945926 -4.8232014479504883 0 -4.8232014479504883 -3.6507924571244672 0 0 0 0 5.6621942010933708 -9.0497876484719626 0 -9.0497876484719626 0.614565183622517 0 0 0 0 8.761734551059817 -2.7454072803742555 0 -2.7454072803742555 1.2836677428801195 0 0 0 0 1.6745131691541246 1.0160440592801763 0 1.0160440592801763 -2.0785676826990169 0 0 0 0 -0.033845775699106184 0.087877020051525534 0 0.087877020051525534 -0.25653321356652181 0 0 0 0 9.0745659524391158 -1.4899208261819865 0 -1.4899208261819865 -0.083034394218543639 0 0 0 0 0.081947195538656814 -2.1407777994965027 0 -2.1407777994965027 0.7864441804480693 0 0 0 0 7.8401578734110444 -1.8134744809657093 0 -1.8134744809657093 0.62259511786839994 0 0 0 0 9.6612958735865959 -2.3209269038683757 0 -2.3209269038683757 -0.10354816582264448 0 0 0 0 -4.5698762411209373 1.4089820318907393 0 1.4089820318907393 1.6435719806333964 0 0 0 0 -0.65552852224604141 -2.3913855952239462 0 -2.3913855952239462 -0.039160941670652649 0 0 0 0 12.501667574315093 -2.4580434864570533 0 -2.4580434864570533 -0.34751363276984648 0 0 0 0 -0.63549022929858978 -2.3377102354413584 0 -2.3377102354413584 0.45183566171330736 0 0 0 0 8.5003615219975472 -2.0028376794361833 0 -2.0028376794361833 0.49586990803967979 0 0 0 0 0.095994820166783512 0.12547771895310156 0 0.12547771895310156 -0.15228300107732951 0 0 0 0 13.516059723412582 -5.6229315290250952 0 -5.6229315290250952 -4.7080508106572836 0 0 0 0 -3.9315328906345712 -7.5704662997675882 0 -7.5704662997675882 -2.6800913820597998 0 0 0 0 -6.1774008497236537 -5.1637309285349957 0 -5.1637309285349957 -2.4542378946769645 0 0 0 0 0.96586627616397891 0.42015202983023414 0 0.42015202983023414 0.26231113490010216 0 0 0 0 2.6254586071574799 -2.5788512177002438 0 -2.5788512177002438 -0.56838117894195583 0 0 0 0 23.074587934450392 20.337050894803333 0 20.337050894803333 -14.332879279837869 0 0 0 0 -3.895335519386208 -8.4469303761393064 0 -8.4469303761393064 -6.0069496194529037 0 0 0 0 2.1149476162627252 -4.540929409758462 0 -4.540929409758462 -2.9943703224940919 0 0 0 0 -0.096843382853727178 0.068410048383929833 0 0.068410048383929833 0.19941079195826256 0 0 0 0 23.824236025087885 7.0555520447420434 0 7.0555520447420434 9.6835395320072166 0 0 0 0 -2.5208391827791274 -2.8064766258836613 0 -2.8064766258836613 -7.106108269816815 0 0 0 0 1.5937340525514188 0.30673565844302253 0 0.30673565844302253 0.30447089448270492 0 0 0 0 -0.60148128081823415 -4.8364068361842953 0 -4.8364068361842953 -2.0972057688942414 0 0 0 0 3.7104805962534773 -4.4761884613211222 0 -4.4761884613211222 -2.4127104472814462 0 0 0 0 22.226623989639847 2.7162203771068789 0 2.7162203771068789 0.18964314515388381 0 0 0 0 -2.1019140188843721 -10.731171199589173 0 -10.731171199589173 -3.8762301040550255 0 0 0 0 20.5697601864631 0.78285159526842563 0 0.78285159526842563 -2.3558709184891313 0 0 0 0 0.41343045463241745 1.4363409667902012 0 1.4363409667902012 -0.08693720727381038 0 0 0 0 21.783791498767641 3.0216699071525284 0 3.0216699071525284 0.1662476764670977 0 0 0 0 0.31129846599590572 -0.58661566192495762 0 -0.58661566192495762 0.55829374131545673 0 0 0 0 4.302318333191506 -4.4495903584133902 0 -4.4495903584133902 -2.0796600957506683 0 0 0 0 16.766608878760962 10.172375467702182 0 10.172375467702182 2.4446309215611564 0 0 0 0 -9.5040279251816173 -12.65605113363425 0 -12.65605113363425 -10.10717493716038 0 0 0 0 -9.7356094945471341 -4.5541702654981577 0 -4.5541702654981577 -3.3355153428736148 0 0 0 0 -1.0422367702576594 -4.3838986243198974 0 -4.3838986243198974 -4.6546113810637735 0 0 0 0 1.9835518072252221 -0.46751425730530727 0 -0.46751425730530727 1.0625157415381135 0 0 0 0 3.0906931245757736 -2.3517696653982192 0 -2.3517696653982192 -0.34344783076500662 0 0 0 0 20.391133709730639 6.436493836496993 0 6.436493836496993 5.4170243671378557 0 0 0 0 -1.4795815027713388 -5.3580119987611425 0 -5.3580119987611425 1.0925167012053976 0 0 0 0 3.9905467603320552 -3.4601360057208712 0 -3.4601360057208712 0.77392678661494396 0 0 0 0 20.093863225869427 -0.86519609193060631 0 -0.86519609193060631 10.649196909033208 0 0 0 0 2.702729491124046 -8.8988596424263164 0 -8.8988596424263164 0.45557549622833449 0 0 0 0 7.5620062220432374 -7.6260209839875301 0 -7.6260209839875301 -1.4935033606275283 0 0 0 0 4.6185584815475522 -8.9499622244258887 0 -8.9499622244258887 -0.20257080579614239 0 0 0 0 -0.06065809688571866 -3.0176775284505943 0 -3.0176775284505943 -0.65414145459577822 0 0 0 0 -0.78373714457347887 -4.6393579144100272 0 -4.6393579144100272 -3.598454568230693 0 0 0 0 -13.047524051901291 -12.79270644485517 0 -12.79270644485517 9.2902313138423551 0 0 0 0 29.913811707282548 -15.849722838474463 0 -15.849722838474463 -3.8746977075668383 0 0 0 0 5.3097897423258473 -30.997959853744277 0 -30.997959853744277 7.4224285016065323 0 0 0 0 -19.254487938609827 10.373846891144282 0 10.373846891144282 5.8198970305898001 0 0 0 0 -4.1057673645464092 -11.421703750304459 0 -11.421703750304459 -6.8123001433953618 0 0 0 0 1.7400043076937344 -1.3724815478307022 0 -1.3724815478307022 1.1389963554790463 0 0 0 0 -7.5558780108555084 -17.214260672019304 0 -17.214260672019304 6.6798833061882306 0 0 0 0 0.57384638711836899 -0.45147333133211198 0 -0.45147333133211198 0.4293054331721069 0 0 0 0 -8.7463887229620241 -4.5209531128060831 0 -4.5209531128060831 -2.3452469707051478 0 0 0 0 7.0849907976589748 -2.104681638459283 0 -2.104681638459283 -8.632827369682218 0 0 0 0 9.4659195099811768 0.67457947118009542 0 0.67457947118009542 -2.1227529725134673 0 0 0 0 4.4156825784557441 -3.6729766296266462 0 -3.6729766296266462 -0.60429709593017833 0 0 0 0 13.423879217096328 5.0621803607747324 0 5.0621803607747324 6.6557621944793937 0 0 0 0 -3.9239371327221306 -8.0317042238602312 0 -8.0317042238602312 1.496447386650857 0 0 0 0 4.9715392504741258 -2.6969876282789684 0 -2.6969876282789684 -1.8843258681541928 0 0 0 0 45.310491455595184 3.7310400388823268 0 3.7310400388823268 -16.477944245074355 0 0 0 0 -0.30773920732132964 -0.19953118111390822 0 -0.19953118111390822 -0.0020206195852501274 0 0 0 0 0.81202801430531979 1.6795161657680922 0 1.6795161657680922 0.33540784286571368 0 0 0 0 13.104854051348184 1.2306141732038967 0 1.2306141732038967 6.1102964342535415 0 0 0 0 -0.26995405659304472 -0.47182643632362797 0 -0.47182643632362797 -1.4284401540183258 0 0 0 0 22.730208511990895 0.14878971288356979 0 0.14878971288356979 -6.8239739598827782 0 0 0 0 5.750435750132965 0.13301048239497959 0 0.13301048239497959 -2.2117055387686833 0 0 0 0 16.54470856083276 -3.1407090886270339 0 -3.1407090886270339 -5.7130536304830457 0 0 0 0 2.5487412280263868 -2.4430642055681115 0 -2.4430642055681115 1.6296412069237016 0 0 0 0 15.988205926769297 -1.3368423771036646 0 -1.3368423771036646 -1.1063362170536735 0 0 0 0 6.7940698111439133 -7.568348253126743 0 -7.568348253126743 -5.1467509278716079 0 0 0 0 1.110591990535847 -0.7901039860794441 0 -0.7901039860794441 -2.4655447741808318 0 0 0 0 6.9832035519102647 1.294943784977022 0 1.294943784977022 3.8562329388846592 0 0 0 0 -1.5883292889599261 -14.155785375377164 0 -14.155785375377164 -19.512148051670579 0 0 0 0 4.0068348669783518 -2.1418287478890132 0 -2.1418287478890132 -0.2853200862980394 0 0 0 0 12.727722940523563 -2.1862737887881849 0 -2.1862737887881849 -2.0931028849795439 0 0 0 0 1.3249311694211263 -0.57311515866597418 0 -0.57311515866597418 0.022029262070257349 0 0 0 0 22.386742806993425 -4.1342896609917261 0 -4.1342896609917261 -23.459697923784347 0 0 0 0 -9.5617289034537407 -9.2698772302524617 0 -9.2698772302524617 -1.2261820619373793 0 0 0 0 24.647013148563701 8.2135503059794672 0 8.2135503059794672 0.033438764341553906 0 0 0 0 16.377101344040057 -1.5393980038525115 0 -1.5393980038525115 -2.2087075959455689 0 0 0 0 30.404765637153105 7.8896207799915032 0 7.8896207799915032 2.7230227207369353 0 0 0 0 29.014426553316298 9.7317135262984493 0 9.7317135262984493 -5.7746564894296171 0 0 0 0 30.999576889924356 19.577620348101163 0 19.577620348101163 13.732354018292995 0 0 0 0 30.036335192353363 15.675227045475992 0 15.675227045475992 7.6232170762058331 0 0 0 0 20.361643422441375 11.003575867675295 0 11.003575867675295 5.5990119807636347 0 0 0 0 31.723851345383991 9.990633988284003 0 9.990633988284003 4.9005548561958676 0 0 0 0 19.932091201982985 12.958808748862396 0 12.958808748862396 4.4961838155584246 0 0 0 0 34.868854201460636 16.708493300508849 0 16.708493300508849 3.8374065741546701 0 0 0 0 10.66488580083751 18.787586231096839 0 18.787586231096839 18.916514313553307 0 0 0 0 6.1294841975577583 14.145180085644199 0 14.145180085644199 9.1417403581054941 0 0 0 0 13.032897488123126 8.9244486284197819 0 8.9244486284197819 -1.5347545283657382 0 0 0 0 0.016003598737256652 0.034823466621872967 0 0.034823466621872967 -0.12800185036991696 0 0 0 0 5.0235311501091928 2.1718232220792402 0 2.1718232220792402 11.172978513679936 0 0 0 0 -5.3222575280142337 3.4794962409310983 0 3.4794962409310983 -0.66838231124165759 0 0 0 0 14.089948674301922 2.7119457710705888 0 2.7119457710705888 10.531813901874983 0 0 0 0 13.623153659997115 8.4110913899606885 0 8.4110913899606885 10.05595738644206 0 0 0 0 20.181176340360025 9.0825858727038131 0 9.0825858727038131 8.6308087433444598 0 0 0 0 23.053253989413861 3.7439451309077185 0 3.7439451309077185 10.306169748197476 0 0 0 0 33.690538079843463 14.502790109325815 0 14.502790109325815 17.271763615124314 0 0 0 0 27.528287871902648 -11.850909163134929 0 -11.850909163134929 8.1047713959063685 0 0 0 0 -10.344193421433374 -2.3876196870826334 0 -2.3876196870826334 15.042461286483785 0 0 0 0 -7.8838730683173708 -0.37354217958215941 0 -0.37354217958215941 5.9652538318823645 0 0 0 0 -23.704643672564998 19.364504174768683 0 19.364504174768683 2.4487474579132709 0 0 0 0 -45.180201579294589 -11.851751094069527 0 -11.851751094069527 21.910491488942057 0 0 0 0 1.2874619834805614 0.87743157485819623 0 0.87743157485819623 0.57391415104414456 0 0 0 0 109.52006498569608 41.437869856038333 0 41.437869856038333 -0.64391302241631365 0 0 0 0 54.71325468604573 -70.411826897796743 0 -70.411826897796743 -30.379121797062453 0 0 0 0 9.7524566403371864 -5.3144692623694141 0 -5.3144692623694141 -0.63693515309182658 0 0 0 0 11.636289644043245 4.3272629144873918 0 4.3272629144873918 -6.2218520394152392 0 0 0 0 7.543547818555453 -1.9725918040387569 0 -1.9725918040387569 8.5200052056894133 0 0 0 0 6.699169516477923 -8.1214376332068809 0 -8.1214376332068809 -1.0007426486466215 0 0 0 0 -5.2715379623996341 -6.3831025261682441 0 -6.3831025261682441 19.371301935493079 0 0 0 0 13.317130612575056 -16.252915870511458 0 -16.252915870511458 9.0133196287837052 0 0 0 0 2.6074352985833684 8.3561759331967664 0 8.3561759331967664 39.46898344391775 0 0 0 0 43.150245377777537 42.819038786234955 0 42.819038786234955 46.117426732784679 0 0 0 0 0.42471319376173966 0.28613193111617896 0 0.28613193111617896 0.23630796776143126 0 0 0 0 40.581551077888435 23.922553639620901 0 23.922553639620901 20.68062670543577 0 0 0 0 65.54949069963186 1.830502274487344 0 1.830502274487344 5.1168983038146507 0 0 0 0 10.495964114117669 13.504527835928911 0 13.504527835928911 17.193365404483188 0 0 0 0 32.69861020017197 5.772542155763972 0 5.772542155763972 5.920248601531739 0 0 0 0 32.688866639127809 4.5466030165396205 0 4.5466030165396205 2.7541494191366382 0 0 0 0 11.264121665959465 15.219396311007017 0 15.219396311007017 15.412565512169991 0 0 0 0 -3.9572717619735158 7.6175471825894192 0 7.6175471825894192 11.765071915505814 0 0 0 0 19.557209288690501 7.1917949470353051 0 7.1917949470353051 -3.2084428371241529 0 0 0 0 18.500986460905551 8.0231956102516051 0 8.0231956102516051 1.9325900869199018 0 0 0 0 11.897251488637266 4.4006206781704122 0 4.4006206781704122 -1.5060586343071805 0 0 0 0 26.870210037142897 -0.15898370461860623 0 -0.15898370461860623 -0.12560010615857209 0 0 0 0 15.464603225009341 -7.8727705805160895 0 -7.8727705805160895 1.1301520828009188 0 0 0 0 17.761599984842178 -5.7892048184627356 0 -5.7892048184627356 2.8638446102920625 0 0 0 0 24.786447753114771 -8.5010677806196782 0 -8.5010677806196782 0.98918248031645817 0 0 0 0 21.539514367699667 -5.4942623823189365 0 -5.4942623823189365 3.547896171109187 0 0 0 0 27.845895826343622 -3.4026813329592187 0 -3.4026813329592187 4.23506811650293 0 0 0 0 30.412475113185792 -9.8218317685763168 0 -9.8218317685763168 2.0866905408157095 0 0 0 0 22.441039935689332 -9.1209557210825096 0 -9.1209557210825096 2.1750886907556151 0 0 0 0 23.61997732132113 -12.906314839118153 0 -12.906314839118153 -0.5423650557545443 0 0 0 0 20.321862408320158 -13.61317034251897 0 -13.61317034251897 1.7746656312258438 0 0 0 0 20.3460407537641 -14.692539189194918 0 -14.692539189194918 -1.1343170425470817 0 0 0 0 21.51754042704124 -15.089134567447672 0 -15.089134567447672 -3.2263837589766808 0 0 0 0 23.677046750897716 -14.334981306155328 0 -14.334981306155328 -3.3760399149773548 0 0 0 0 20.977020243072729 -5.6136072167938664 0 -5.6136072167938664 -8.9203310041884833 0 0 0 0 25.672512167555396 -9.298752402944956 0 -9.298752402944956 -6.0306268076524248 0 0 0 0 10.506397252061106 3.72401634517513 0 3.72401634517513 -11.633820277146469 0 0 0 0 18.558672984127043 -7.1352223682334852 0 -7.1352223682334852 4.029418501333339 0 0 0 0 21.475445383890474 -12.386031261035669 0 -12.386031261035669 -0.35780427026753614 0 0 0 0 21.492876174843786 -11.837783444014228 0 -11.837783444014228 -5.9332534487311932 0 0 0 0 15.37921250936779 -7.3324400892380481 0 -7.3324400892380481 -0.53599576787303249 0 0 0 0 8.8757211299271148 0.58870065303699448 0 0.58870065303699448 8.0382438950041433 0 0 0 0 18.520509109910336 -7.6570735352386308 0 -7.6570735352386308 -1.6464899868456087 0 0 0 0 2.078228276615846 -0.82251104217129978 0 -0.82251104217129978 10.244581299393303 0 0 0 0 0.7629645825982152 -6.9870952966883522 0 -6.9870952966883522 8.4985961191869137 0 0 0 0 -14.678432763044839 5.3815878033042281 0 5.3815878033042281 5.8912923846123704 0 0 0 0 -3.4640641064397641 -1.4325576459815466 0 -1.4325576459815466 15.765383940973493 0 0 0 0 7.6287719208739873 -5.39218388326276 0 -5.39218388326276 6.5708968333016173 0 0 0 0 13.335904283880154 -7.3168480725572635 0 -7.3168480725572635 21.937991804629746 0 0 0 0 23.931741856446024 -14.113058295253381 0 -14.113058295253381 32.86584361302269 0 0 0 0 29.145367893090224 -7.4230820278872898 0 -7.4230820278872898 13.09115228732162 0 0 0 0 50.961264139987179 -23.585872836120643 0 -23.585872836120643 17.613999869510337 0 0 0 0 38.360117342599551 -10.288431600854892 0 -10.288431600854892 8.7408824990129688 0 0 0 0 21.898200327639643 -12.203359262602476 0 -12.203359262602476 10.959633476416911 0 0 0 0 19.215587610530747 -1.3446429260811783 0 -1.3446429260811783 11.321840403817077 0 0 0 0 61.577783269432075 -6.915807588849475 0 -6.915807588849475 -16.448259925499656 0 0 0 0 49.360052510954119 -16.414586738329604 0 -16.414586738329604 -3.1035496810723657 0 0 0 0 37.606793255483353 -1.8924837926498981 0 -1.8924837926498981 -0.2615533591249033 0 0 0 0 0.42950947708143516 -0.66519343966523081 0 -0.66519343966523081 0.65414491250396889 0 0 0 0 -17.629390514226969 -26.550821533807994 0 -26.550821533807994 7.5726946634256365 0 0 0 0 -17.982686788564024 -2.0026356633887872 0 -2.0026356633887872 13.516368071214742 0 0 0 0 -57.941425359509594 -44.221669088809904 0 -44.221669088809904 2.2745312051188193 0 0 0 0 21.4170943444351 13.216571286024163 0 13.216571286024163 -13.982762171763056 0 0 0 0 -42.918439160839625 1.3710483920252727 0 1.3710483920252727 -8.7457747200304539 0 0 0 0 0.22529255290634609 -0.47724010113969229 0 -0.47724010113969229 0.58325162982507894 0 0 0 0 -37.894284809710371 -21.555804604437185 0 -21.555804604437185 -20.598040673270845 0 0 0 0 -18.50264839260808 -13.189415727632863 0 -13.189415727632863 9.7650347365824928 0 0 0 0 -0.32096937605456333 -9.3853114263795305 0 -9.3853114263795305 -7.5764463468658505 0 0 0 0 0.21492824098661245 -0.26752268121 0 -0.26752268121 0.2934787856125407 0 0 0 0 67.29816168493744 -4.2106211130131328 0 -4.2106211130131328 -12.186524383129779 0 0 0 0 54.767790978421544 3.8594142171019712 0 3.8594142171019712 -17.322500950189152 0 0 0 0 69.280680337607464 -16.346855605616447 0 -16.346855605616447 -4.1196912760151463 0 0 0 0 63.21479146531874 -13.02586248059967 0 -13.02586248059967 -14.853718479895065 0 0 0 0 67.761402818836359 -9.3099039837628084 0 -9.3099039837628084 -11.865080667169423 0 0 0 0 25.513410881912932 -51.149654348450525 0 -51.149654348450525 14.805387197058081 0 0 0 0 0.33239543354259382 -0.54023026155011067 0 -0.54023026155011067 0.66812715718514815 0 0 0 0 -12.110183912009234 -0.91143074114486922 0 -0.91143074114486922 4.3419691626703525 0 0 0 0 1.8796831665313221 9.1330000748390603 0 9.1330000748390603 -4.4862539754405333 0 0 0 0 5.8043308704827723 -0.84088147819011283 0 -0.84088147819011283 -5.4902535555635268 0 0 0 0 24.50351836443042 9.5158342174537438 0 9.5158342174537438 -4.3042276609397234 0 0 0 0 43.550893782900857 17.239829420275015 0 17.239829420275015 -2.4388442178562855 0 0 0 0 78.215513821622153 12.29053576369364 0 12.29053576369364 -13.035875099582881 0 0 0 0 0.012611523071873521 0.16477067649159594 0 0.16477067649159594 0.026377075056095212 0 0 0 0 13.044820346300185 14.082359627537244 0 14.082359627537244 40.310371319404709 0 0 0 0 55.207918161130692 26.727112124661801 0 26.727112124661801 5.4419089569960875 0 0 0 0 -3.3798322736993214 -4.5314411463938882 0 -4.5314411463938882 14.263916918295649 0 0 0 0 18.490360365529341 15.292647104189541 0 15.292647104189541 17.172178567514351 0 0 0 0 14.69400077147111 2.5995430987613872 0 2.5995430987613872 2.5054611162836409 0 0 0 0 1.7727499550628636 6.3458270977808695 0 6.3458270977808695 10.657665565715206 0 0 0 0 26.786153482029476 8.5516430797931093 0 8.5516430797931093 3.2043584988224438 0 0 0 0 16.477585797206302 17.515433429144366 0 17.515433429144366 2.7372009051074428 0 0 0 0 17.942105061580151 14.820254280853646 0 14.820254280853646 2.9557316947360466 0 0 0 0 -0.064074555708375946 0.32123672041685936 0 0.32123672041685936 -0.0046723175455083421 0 0 0 0 1.7203595650260013 1.9326278068134783 0 1.9326278068134783 -1.1716887725101515 0 0 0 0 15.500014066669792 15.629492991374775 0 15.629492991374775 3.7105769124659673 0 0 0 0 23.570368028416851 9.9912926437571912 0 9.9912926437571912 4.7140522993823879 0 0 0 0 8.4294197873823578 -5.736504990185324 0 -5.736504990185324 5.5143986531178939 0 0 0 0 20.038812487406176 15.504381840073876 0 15.504381840073876 -1.0172473197528689 0 0 0 0 -5.9806492939369491 -6.878127317317194 0 -6.878127317317194 11.398425193238381 0 0 0 0 0.21581900856260461 -0.22053040547119451 0 -0.22053040547119451 0.30158953655685705 0 0 0 0 137.32105931532442 0.42051166084456781 0 0.42051166084456781 -16.88035713553711 0 0 0 0 17.190772870225373 14.485999920722122 0 14.485999920722122 4.046974952869391 0 0 0 0 25.814182069795606 16.13054828350252 0 16.13054828350252 17.213996141335087 0 0 0 0 107.42979727509737 0.062851773096809893 0 0.062851773096809893 15.833168167510564 0 0 0 0 52.20195874165438 -20.882816694630534 0 -20.882816694630534 14.766814652929838 0 0 0 0 66.371600077000039 -40.805813322453389 0 -40.805813322453389 59.398237587376741 0 0 0 0 134.29818913245526 -3.5649142026574623 0 -3.5649142026574623 -10.422534026255221 0 0 0 0 41.238202435657513 -17.493129783849781 0 -17.493129783849781 29.222970899535184 0 0 0 0 56.501045835933837 -16.730547134610447 0 -16.730547134610447 7.8325503625753186 0 0 0 0 58.254836246811465 -15.440552934188652 0 -15.440552934188652 6.7942468888599024 0 0 0 0 57.915011449239159 -25.108626716761851 0 -25.108626716761851 14.942745051194947 0 0 0 0 68.118732233875562 -22.831772612416813 0 -22.831772612416813 10.049323828625887 0 0 0 0 69.274512600155219 -5.5113034585011604 0 -5.5113034585011604 -10.854686032089603 0 0 0 0 0.86582648251803107 -0.57918423978549782 0 -0.57918423978549782 0.31629082618087034 0 0 0 0 0.11808862766959827 0.26293719904379387 0 0.26293719904379387 -0.27670890194768338 0 0 0 0 2.691530109213204 -0.39254629719397371 0 -0.39254629719397371 -2.3277338797617517 0 0 0 0 -8.8944364180570119 0.47185148324317083 0 0.47185148324317083 22.924916930757036 0 0 0 0 24.38885721225779 8.9712565636593808 0 8.9712565636593808 1.4751291157379001 0 0 0 0 32.876577189956151 12.512338985590588 0 12.512338985590588 -8.7988326341547918 0 0 0 0 1.7053064390111103 -4.0766855614712654 0 -4.0766855614712654 17.114298229186801 0 0 0 0 0.28186705178922722 -0.17744587785094268 0 -0.17744587785094268 0.078265410321849194 0 0 0 0 -4.4685875028236524 -3.2153224747895237 0 -3.2153224747895237 0.38504320218362409 0 0 0 0 0.27758494695352898 -0.06116882304567639 0 -0.06116882304567639 -0.047267543542077517 0 0 0 0 0.29814589517593504 0.049461745222700193 0 0.049461745222700193 0.031953715623785683 0 0 0 0 0.36327280567093112 -4.8167430502033142 0 -4.8167430502033142 -2.4412077852490768 0 0 0 0 5.7339989535112181 -2.6371192531016732 0 -2.6371192531016732 -4.7584826876612283 0 0 0 0 5.8475690972245502 -1.991027244069187 0 -1.991027244069187 -0.14109579860848953 0 0 0 0 5.6432469382109502 0.5371704385430327 0 0.5371704385430327 2.0707870544774778 0 0 0 0 10.34343044905836 0.90025513033171478 0 0.90025513033171478 -0.98153772969163811 0 0 0 0 19.218363389730257 3.1100589579285156 0 3.1100589579285156 0.64329071391318848 0 0 0 0 16.307080321485046 1.1345214657420115 0 1.1345214657420115 0.30813330206035516 0 0 0 0 10.949625356386605 -0.57816951806898942 0 -0.57816951806898942 2.4520848448700576 0 0 0 0 15.381969810610826 -2.8987195538194328 0 -2.8987195538194328 1.1725713182904656 0 0 0 0 12.7640065452415 -2.1739289209176604 0 -2.1739289209176604 1.8422385097537273 0 0 0 0 5.2975727493158047 -1.6861278006605005 0 -1.6861278006605005 -0.12205488963040523 0 0 0 0 12.016956035229214 0.49039872163076836 0 0.49039872163076836 -5.5373129489624375 0 0 0 0 27.816505651248917 9.965274361397654 0 9.965274361397654 -2.6595514434818597 0 0 0 0 0.17691374023731754 -0.14809752263099973 0 -0.14809752263099973 0.12919468001970991 0 0 0 0 20.822423929472279 -12.879155069333251 0 -12.879155069333251 -22.982217289605728 0 0 0 0 1.6363458239503075 0.94344061820861036 0 0.94344061820861036 0.45440841228730711 0 0 0 0 37.147469743555121 25.601319111439125 0 25.601319111439125 10.805198380683578 0 0 0 0 93.03878594953494 58.062338351976564 0 58.062338351976564 -14.823518786674185 0 0 0 0 -13.749502122757804 -3.7356679918706277 0 -3.7356679918706277 14.174817603845497 0 0 0 0 -0.99294697464029014 -9.432019153178544 0 -9.432019153178544 -0.43258335644792112 0 0 0 0 3.7199374322317453 -1.9941289704871394 0 -1.9941289704871394 -2.4142144592725003 0 0 0 0 1.8583599229850734 0.88042425696727378 0 0.88042425696727378 0.045384745913622737 0 0 0 0 0.55522730235067286 -0.38988891673919923 0 -0.38988891673919923 0.26834716625861654 0 0 0 0 1.8482546837642975 -3.1989774333003878 0 -3.1989774333003878 -3.1783632360480851 0 0 0 0 7.0673878109964434 0.73940984746727634 0 0.73940984746727634 -0.62870843280195765 0 0 0 0 38.164119971599348 17.420570403522163 0 17.420570403522163 7.8584654323478356 0 0 0 0 2.8361821570251777 0.40859080802501546 0 0.40859080802501546 0.4709863411212673 0 0 0 0 156.93412560702291 259.81171841557835 0 259.81171841557835 258.28786911076816 0 0 0 0 189.5883199392598 -90.598773162385612 0 -90.598773162385612 -15.782687892031104 0 0 0 0 498.73185287884553 -330.26007230939877 0 -330.26007230939877 139.00654722355208 0 0 0 0 187.37708668665508 -52.168056561598746 0 -52.168056561598746 -6.7393268270409372 0 0 0 0 111.06223803709509 -83.165776924421351 0 -83.165776924421351 36.873572164664147 0 0 0 0 44.266209829760101 -16.86169796459447 0 -16.86169796459447 35.365862508705249 0 0 0 0 1.3749848886438294 0.89154603502283969 0 0.89154603502283969 -1.2595422944756249 0 0 0 0 3.7620770980443012 -0.37418957058261526 0 -0.37418957058261526 -0.85597701962177553 0 0 0 0 3.2360922970374304 -0.65837000784742372 0 -0.65837000784742372 -0.76443739411878653 0 0 0 0 2.3974362556364213 -0.48638875727203867 0 -0.48638875727203867 -0.43309711819904351 0 0 0 0 2.5617193076459461 -0.90414330594882175 0 -0.90414330594882175 -0.81044642398716582 0 0 0 0 2.4105597006623611 0.21879172929806145 0 0.21879172929806145 -5.3616803394171768 0 0 0 0 1.4990717597706862 0.55539888934433179 0 0.55539888934433179 0.3114802984570133 0 0 0 0 0.27358080444400912 -0.34532053881159186 0 -0.34532053881159186 -1.0657472707725901 0 0 0 0 0.96749719249846833 -2.3187746646448857 0 -2.3187746646448857 -2.749930402532927 0 0 0 0 0.61654832452586561 -3.3581420366981263 0 -3.3581420366981263 -1.6887172916841848 0 0 0 0 1.8608145754178622 -1.0097771594501523 0 -1.0097771594501523 -2.7064289794726619 0 0 0 0 5.600263297436868 -3.5938272568750449 0 -3.5938272568750449 0.40025592156257517 0 0 0 0 1.7294398692908999 -1.3677774770745827 0 -1.3677774770745827 0.46610728259224743 0 0 0 0 5.1889774211458644 -4.6396368942384356 0 -4.6396368942384356 -0.4827939096947631 0 0 0 0 7.1959329265450833 -3.5547150545831698 0 -3.5547150545831698 -3.549642667837702 0 0 0 0 1.6507927283878416 -1.3230208744370202 0 -1.3230208744370202 -2.6137148762844618 0 0 0 0 7.6782204550636379 -4.4728724235877735 0 -4.4728724235877735 -7.464192804174786 0 0 0 0 7.3520314176821557 -6.5236037826334048 0 -6.5236037826334048 -1.1010867909700437 0 0 0 0 -0.36373723441471301 -2.3248087823442209 0 -2.3248087823442209 -1.245393314801607 0 0 0 0 -3.2807394149797346 -0.089015749002967937 0 -0.089015749002967937 -2.2413493110630043 0 0 0 0 166.40439499965441 49.434013127951722 0 49.434013127951722 2.6943015130794379 0 0 0 0 53.250266795649168 -6.6726774014322654 0 -6.6726774014322654 44.946285959622415 0 0 0 0 293.55152793332809 100.21114752079987 0 100.21114752079987 -8.9583136877449121 0 0 0 0 499.13220082685029 232.93124506995392 0 232.93124506995392 -12.327487210827991 0 0 0 0 289.4610868913399 119.51436522552747 0 119.51436522552747 -57.333700992467321 0 0 0 0 500.06361569267665 98.24599560333526 0 98.24599560333526 -83.544677144380344 0 0 0 0 361.51312901014512 36.034950402005911 0 36.034950402005911 -59.69042205290517 0 0 0 0 314.18463934653641 18.846251793437162 0 18.846251793437162 -24.904481060427486 0 0 0 0 362.7186000703536 30.311594682628403 0 30.311594682628403 -32.791488390814166 0 0 0 0 350.18591996300199 -15.719848669714711 0 -15.719848669714711 -9.3178661357943042 0 0 0 0 370.1658297400445 -27.363699496670446 0 -27.363699496670446 -8.4375921322975671 0 0 0 0 -0.89583623459023443 -0.49883675247320025 0 -0.49883675247320025 0.37290753269698573 0 0 0 0 408.85373118670577 20.537518605530295 0 20.537518605530295 -61.133280000093471 0 0 0 0 499.83491262540019 -15.819125456867654 0 -15.819125456867654 -70.572215918820262 0 0 0 0 412.19441781019702 -53.761926104506003 0 -53.761926104506003 -49.228918106236215 0 0 0 0 389.32871488186993 -67.267168269198805 0 -67.267168269198805 -50.8815101145616 0 0 0 0 309.76305763366645 -41.809649621029848 0 -41.809649621029848 -7.6998731845672737 0 0 0 0 408.55173961882883 -3.6402304965309042 0 -3.6402304965309042 -23.166288908520755 0 0 0 0 296.43970093756133 -49.249190738990912 0 -49.249190738990912 -11.132381462287931 0 0 0 0 369.16469578916059 -77.999566256708363 0 -77.999566256708363 -18.091741628768773 0 0 0 0 500.04045790645381 -120.14013939034658 0 -120.14013939034658 -56.797295620010317 0 0 0 0 1.7472349604356623 -3.4935800613073358 0 -3.4935800613073358 -2.5995484679716014 0 0 0 0 0.74251352830435646 -1.656977951789139 0 -1.656977951789139 -1.8964925586678461 0 0 0 0 1.9133725455321837 -2.2552473237579136 0 -2.2552473237579136 0.29147167517680828 0 0 0 0 4.7831969092585496 -3.686375738390268 0 -3.686375738390268 -2.8720602973148175 0 0 0 0 1.97727689346425 -12.159077010470341 0 -12.159077010470341 -18.27742801092603 0 0 0 0 0.76245661971734102 -1.2953164449738577 0 -1.2953164449738577 -1.4317735282797746 0 0 0 0 2.7906542936005216 -2.2810654584771011 0 -2.2810654584771011 0.43180735631267508 0 0 0 0 10.911581378374649 1.6744022745439793 0 1.6744022745439793 -8.5976202132205923 0 0 0 0 5.475074804288397 3.8783501233817788 0 3.8783501233817788 1.3599457696683999 0 0 0 0 5.4100038107908404 -4.3312103672299145 0 -4.3312103672299145 -9.146146791566828 0 0 0 0 3.1560352228487742 -1.2882190187578668 0 -1.2882190187578668 -0.44652546683937411 0 0 0 0 0.99411243013853756 -0.18831509699020399 0 -0.18831509699020399 -0.49136423371979776 0 0 0 0 5.8660374466558096 -4.2405582707878011 0 -4.2405582707878011 1.0375045174039315 0 0 0 0 -0.66460625640547732 -6.2334104982205645 0 -6.2334104982205645 2.3422878267963938 0 0 0 0 0.31723090227667872 -2.9167414349667409 0 -2.9167414349667409 -0.7233648845522489 0 0 0 0 -1.4494408644218311 -9.0357252521806117 0 -9.0357252521806117 23.503507373050056 0 0 0 0 -5.6943270452211436 23.766101208112431 0 23.766101208112431 61.108993992361889 0 0 0 0 281.56251010012204 -59.33960257762638 0 -59.33960257762638 10.386415486068287 0 0 0 0 38.642302341621871 44.186735021043319 0 44.186735021043319 -7.8403047674428024 0 0 0 0 0.28365184968689761 -0.12169038629941586 0 -0.12169038629941586 0.064052448756340641 0 0 0 0 0.94688526440950227 -18.865633426366568 0 -18.865633426366568 4.082516398059056 0 0 0 0 5.8686778928286003 -4.9784070524104891 0 -4.9784070524104891 -15.49327296652109 0 0 0 0 9.0195042781560915 -5.7866922950375113 0 -5.7866922950375113 -1.0810551328054316 0 0 0 0 6.3091436689569491 -8.0669069098479866 0 -8.0669069098479866 -0.35382506957739679 0 0 0 0 7.1612129310697128 -9.792332302102011 0 -9.792332302102011 3.8655562603519229 0 0 0 0 5.7056017468221398 -7.0599499165752064 0 -7.0599499165752064 4.6558875406196876 0 0 0 0 -0.12420245030893717 -2.1224347234124634 0 -2.1224347234124634 -0.73852156718929929 0 0 0 0 2.931795974689976 -6.5697106175752822 0 -6.5697106175752822 3.9891101154056514 0 0 0 0 -0.69214868479592706 -0.36552564643918384 0 -0.36552564643918384 -0.00025265385051853606 0 0 0 0 -8.3893838780013539 -2.9116544074142894 0 -2.9116544074142894 2.7186773305450345 0 0 0 0 2.7072256054793797 -8.0173709177721122 0 -8.0173709177721122 -0.24707448622575612 0 0 0 0 -3.1966367859013189 -9.8211879619694287 0 -9.8211879619694287 -3.1743589362950502 0 0 0 0 -0.05406824682415845 -0.48252267521862535 0 -0.48252267521862535 -0.35695688379428248 0 0 0 0 2.1442406923767194 -1.5223566775562345 0 -1.5223566775562345 -0.57319829223197405 0 0 0 0 0.95525609695960156 -0.60208507795698551 0 -0.60208507795698551 -0.71183942744089812 0 0 0 0 10.080915075397456 -2.2138484191757044 0 -2.2138484191757044 -0.81376141012941616 0 0 0 0 1.8354515627487837 -0.84404396619826194 0 -0.84404396619826194 -1.2247211848566593 0 0 0 0 0.65095344046255832 -2.0507674194324821 0 -2.0507674194324821 -1.5488215670994805 0 0 0 0 1.1098804958774702 0.16562401797341675 0 0.16562401797341675 -2.6538596041378133 0 0 0 0 7.2373694405428068 -2.4240719196887994 0 -2.4240719196887994 -5.2793981394461298 0 0 0 0 7.054759870781254 0.48700182737690056 0 0.48700182737690056 -2.723466105645457 0 0 0 0 3.7968491748415545 0.056854046864600605 0 0.056854046864600605 -4.4208894841706865 0 0 0 0 8.6479935643183126 -0.34479535304785713 0 -0.34479535304785713 -2.6143935866020911 0 0 0 0 3.0786088842062469 -2.282617894995262 0 -2.282617894995262 -0.12192371406697944 0 0 0 0 3.5591494997004247 -11.787239018637806 0 -11.787239018637806 -9.5772290495968946 0 0 0 0 7.6267886668483698 -2.6487663192335162 0 -2.6487663192335162 -5.4852322922488383 0 0 0 0 6.9758402837078393 -3.0322219482200126 0 -3.0322219482200126 -5.6524891185817978 0 0 0 0 8.4915179385679949 -2.2545909397056221 0 -2.2545909397056221 -7.6036973173925162 0 0 0 0 9.4189460370926099 1.4218894733671732 0 1.4218894733671732 -3.4681574766835865 0 0 0 0 15.994171892088389 -7.4976574262275051 0 -7.4976574262275051 -12.340357515677852 0 0 0 0 10.76740647832662 1.3442274986431926 0 1.3442274986431926 -4.4406049849708324 0 0 0 0 9.8897353918446242 1.7195388075194842 0 1.7195388075194842 -3.6095129481077493 0 0 0 0 3.1957539618692863 -7.8414552014670562 0 -7.8414552014670562 -1.5193587347656603 0 0 0 0 0.9417448832491111 -0.99540394864866522 0 -0.99540394864866522 -0.027584585774699022 0 0 0 0 9.7310331206617775 2.0126437995791093 0 2.0126437995791093 -3.0851747880269613 0 0 0 0 4.832437824167755 3.1481192175265278 0 3.1481192175265278 1.0601745812496119 0 0 0 0 2.0771864436694614 0.74998813698130107 0 0.74998813698130107 -2.4758289415131003 0 0 0 0 3.358651602259215 -0.5841118429100618 0 -0.5841118429100618 -1.8590662822298327 0 0 0 0 -0.024357835948360496 -0.23214009679987591 0 -0.23214009679987591 0.065215253319924837 0 0 0 0 0.58625227774246014 -2.6857920685979479 0 -2.6857920685979479 -1.2435219856693038 0 0 0 0 2.1565161790952505 -0.92115820612236821 0 -0.92115820612236821 -2.0029430554497365 0 0 0 0 0.10420710857555626 0.036549864993889791 0 0.036549864993889791 -0.33341819241225412 0 0 0 0 11.281720014292659 -0.55586793178781591 0 -0.55586793178781591 -2.3271546411660893 0 0 0 0 10.27058378730726 1.6082846244025859 0 1.6082846244025859 -3.5055209552251654 0 0 0 0 9.5722727438133006 1.4719285697983651 0 1.4719285697983651 -2.618399216844864 0 0 0 0 9.6074632711706727 1.7547184227000798 0 1.7547184227000798 -3.3502949713847556 0 0 0 0 85.350219857087268 -64.364423475341027 0 -64.364423475341027 40.015591499137003 0 0 0 0 3.4303512854873759 -16.595839757249276 0 -16.595839757249276 -6.8848203162557411 0 0 0 0 27.057711570543177 23.034258667519417 0 23.034258667519417 4.1819845730772158 0 0 0 0 32.118951678433405 -9.2182504562406393 0 -9.2182504562406393 -9.3844312341313696 0 0 0 0 0.72717616452095513 13.511428641235561 0 13.511428641235561 3.4820882406019109 0 0 0 0 0.80068211288455871 -0.011689127911115094 0 -0.011689127911115094 0.19510142249720275 0 0 0 0 3.4191590862290209 -2.3791439095276208 0 -2.3791439095276208 0.46156914584684472 0 0 0 0 -4.7494369880378144 -19.832054376084102 0 -19.832054376084102 1.9499844416812664 0 0 0 0 -3.5314002877780695 -5.4136812432758461 0 -5.4136812432758461 -4.6679627324275543 0 0 0 0 21.913431357535046 -1.5619967465044624 0 -1.5619967465044624 -9.5007641553070243 0 0 0 0 4.7862366308679949 -2.647658680302051 0 -2.647658680302051 0.66387693741709008 0 0 0 0 -7.4483848525319445 -6.7657759491965521 0 -6.7657759491965521 13.28538815282559 0 0 0 0 -0.15448864862823264 -0.47628815100647681 0 -0.47628815100647681 0.12552824542579155 0 0 0 0 42.62778113725949 8.6282813277112496 0 8.6282813277112496 -1.8865363766442442 0 0 0 0 29.552787009472922 -9.5035565954875807 0 -9.5035565954875807 -3.3259932920116171 0 0 0 0 24.818154932070684 1.2192789623791782 0 1.2192789623791782 -1.283557114944891 0 0 0 0 8.3872399654019318 -0.75091475871971625 0 -0.75091475871971625 2.7795345206744457 0 0 0 0 21.229933774127403 -7.1940654755889 0 -7.1940654755889 -2.1808426351514072 0 0 0 0 49.523859976672611 -9.7473754110498874 0 -9.7473754110498874 -3.5348142183511868 0 0 0 0 33.9864371545425 -4.0353085649619516 0 -4.0353085649619516 -0.78596315172001141 0 0 0 0 36.464121258274361 -8.9069545993763359 0 -8.9069545993763359 6.9261618050666698 0 0 0 0 36.34467389611774 -10.13396304869023 0 -10.13396304869023 -0.3132391635156182 0 0 0 0 13.495208264908797 -11.104274052063658 0 -11.104274052063658 7.7805993077259075 0 0 0 0 3.9746503659448535 0.47081735296295335 0 0.47081735296295335 4.0240489964147628 0 0 0 0 10.085737315584993 -9.3658850142498693 0 -9.3658850142498693 3.2866960991353835 0 0 0 0 26.374100641343375 -10.63650331261357 0 -10.63650331261357 1.2810778295838077 0 0 0 0 15.707993605521096 -3.6154948425700866 0 -3.6154948425700866 4.1851438329331359 0 0 0 0 -0.32379806746212125 1.6980824403122483 0 1.6980824403122483 0.43507987630784228 0 0 0 0 9.0142651834335084 -5.8924503674941207 0 -5.8924503674941207 -1.7316440986151633 0 0 0 0 12.131923875528173 -5.6686825430434169 0 -5.6686825430434169 -2.1020108733397649 0 0 0 0 -0.97984470004786806 -1.8781659190441049 0 -1.8781659190441049 0.11061986199391383 0 0 0 0 11.00690826363666 -1.5701008093492419 0 -1.5701008093492419 -0.49162175705441769 0 0 0 0 8.2642404213463578 -6.5095397766314278 0 -6.5095397766314278 2.0440463465737366 0 0 0 0 0.78432989657010665 -0.14897656518724123 0 -0.14897656518724123 -0.20732768590603379 0 0 0 0 15.303618582633135 -9.665388933309714 0 -9.665388933309714 4.6564407602733127 0 0 0 0 15.569682597014207 -9.3940143015256155 0 -9.3940143015256155 4.3541870870258208 0 0 0 0 8.4034594412323713 -1.2606583051563121 0 -1.2606583051563121 1.1733790684323537 0 0 0 0 -14.60845696160186 -1.7047607673340792 0 -1.7047607673340792 6.02499316513439 0 0 0 0 1.0174238770205193 -3.4228434198979016 0 -3.4228434198979016 -1.0181398770091619 0 0 0 0 -0.37749349546353606 0.05667733800446495 0 0.05667733800446495 -0.0019166085092070517 0 0 0 0 -11.638061061160442 5.5855411067305454 0 5.5855411067305454 1.8452533136384801 0 0 0 0 -1.7652578213254584 -1.3273286530681663 0 -1.3273286530681663 0.60963963483342454 0 0 0 0 5.6065959782106347 -8.3777239276852669 0 -8.3777239276852669 7.5385228766970158 0 0 0 0 7.4088811156955217 -9.1642808273944354 0 -9.1642808273944354 4.0135356333796608 0 0 0 0 1.9440205051605517 -4.3804520180137843 0 -4.3804520180137843 3.7821983671663943 0 0 0 0 1.9618115278235564 0.4193605669668159 0 0.4193605669668159 -0.41991021360221481 0 0 0 0 5.7356951921719883 -3.4407203367069314 0 -3.4407203367069314 -3.1037165474479025 0 0 0 0 8.6852581372450004 -4.7329639016491143 0 -4.7329639016491143 0.092776670138846384 0 0 0 0 5.4088387276187859 -2.417551054697924 0 -2.417551054697924 3.063542336833919 0 0 0 0 2.5974102372994494 -0.74508841504404777 0 -0.74508841504404777 -0.29730231555821068 0 0 0 0 2.1214425595280773 -0.66117677499303795 0 -0.66117677499303795 -0.13170881880859042 0 0 0 0 6.4213313266818659 0.729567649177568 0 0.729567649177568 -8.140289287334781 0 0 0 0 2.6418464927919558 -1.5002879810119225 0 -1.5002879810119225 -1.1809834345013428 0 0 0 0 2.7046998590853502 -0.97890422541093147 0 -0.97890422541093147 -0.29697023180084337 0 0 0 0 5.5529398162759662 -4.5991600377225552 0 -4.5991600377225552 -1.1647281587795533 0 0 0 0 -8.4991456984835168 8.5355226186455297 0 8.5355226186455297 1.7163690044434929 0 0 0 0 -1.6296269124693321 -0.93020152712720439 0 -0.93020152712720439 1.0217002985568573 0 0 0 0 -1.6559416951331514 3.7406970873833814 0 3.7406970873833814 -17.027890459530909 0 0 0 0 0.13918179121896834 -0.55505715862504523 0 -0.55505715862504523 0.13489258432698781 0 0 0 0 26.992264540076576 -5.127655703408891 0 -5.127655703408891 -10.338875993842976 0 0 0 0 26.304281967163661 -12.715578042583672 0 -12.715578042583672 9.6637561439816864 0 0 0 0 -7.3140055698218021 -1.4531601675555663 0 -1.4531601675555663 5.9239776732924838 0 0 0 0 13.61950337131384 -11.962825046926923 0 -11.962825046926923 3.0477682821354222 0 0 0 0 27.638259122066302 -1.6506491423810132 0 -1.6506491423810132 4.6212907588612779 0 0 0 0 38.100820036736877 -17.159650088811077 0 -17.159650088811077 7.9671071089268253 0 0 0 0 36.178158075894316 -5.5445908548881278 0 -5.5445908548881278 12.61211268990678 0 0 0 0 29.198601296294328 -15.468488628724003 0 -15.468488628724003 6.5610604448850154 0 0 0 0 4.7968486124723313 -7.1805011611479301 0 -7.1805011611479301 1.5402602936715084 0 0 0 0 15.003068907102715 -1.0694181106125598 0 -1.0694181106125598 3.5997829805567392 0 0 0 0 0.60583534918714577 7.4075285933505484 0 7.4075285933505484 -1.9205156106415302 0 0 0 0 95.281141018304993 2.2015510533681715 0 2.2015510533681715 27.398032973680813 0 0 0 0 123.04387557181099 5.6375915710761149 0 5.6375915710761149 7.1202563615374856 0 0 0 0 94.590573399142613 -10.445830645030838 0 -10.445830645030838 -2.6507175125288427 0 0 0 0 64.682234531460381 -0.71033157105460987 0 -0.71033157105460987 15.106994100220277 0 0 0 0 62.909494903927225 -10.690175134944724 0 -10.690175134944724 -0.67496724664670182 0 0 0 0 61.672879757679766 -6.0179612192968079 0 -6.0179612192968079 -1.9466803138518287 0 0 0 0 63.078764164821678 -11.725673194918585 0 -11.725673194918585 12.482983669956866 0 0 0 0 134.53568012955793 16.860729112777364 0 16.860729112777364 3.6604350147009939 0 0 0 0 134.74312862074521 26.30553167158223 0 26.30553167158223 42.463462803312495 0 0 0 0 153.13519196466586 16.085476862678263 0 16.085476862678263 20.668182146128032 0 0 0 0 161.34442386336013 12.329547232424716 0 12.329547232424716 25.753681666354595 0 0 0 0 154.47425122898989 23.901234195040857 0 23.901234195040857 15.176878445584094 0 0 0 0 0.56907081280400362 -0.18882865710943975 0 -0.18882865710943975 0.039825288186864038 0 0 0 0 35.192667492758574 -4.6008561804672752 0 -4.6008561804672752 9.4909140008369377 0 0 0 0 123.00293614855491 3.6071038683984114 0 3.6071038683984114 42.861596447869772 0 0 0 0 165.11911524952893 -4.2998740162625211 0 -4.2998740162625211 3.1991024179280032 0 0 0 0 128.19224374876922 16.869303106323798 0 16.869303106323798 3.398721711604594 0 0 0 0 162.29942890233633 78.023636704613693 0 78.023636704613693 36.722627266776442 0 0 0 0 72.113684938635288 32.731082963091438 0 32.731082963091438 13.997306528411173 0 0 0 0 105.18274930860446 20.182240261619391 0 20.182240261619391 -3.7461375732304987 0 0 0 0 96.073615341734694 0.70404181528883214 0 0.70404181528883214 2.1285250583908919 0 0 0 0 100.35056464883996 2.0457898169156863 0 2.0457898169156863 -8.6784094292704026 0 0 0 0 84.030996809146927 -17.089262995947138 0 -17.089262995947138 2.2970128175455322 0 0 0 0 86.156177612677311 -1.699467411609092 0 -1.699467411609092 1.9147321700418729 0 0 0 0 102.49050472245472 -18.004502018105768 0 -18.004502018105768 14.39962917069245 0 0 0 0 67.623563531698892 -21.772144511509566 0 -21.772144511509566 10.984163171045658 0 0 0 0 61.454559649658222 -10.860616799017862 0 -10.860616799017862 1.0743502387553008 0 0 0 0 67.658243589116637 -4.3096296869718884 0 -4.3096296869718884 -4.3411625164768566 0 0 0 0 61.112123411496214 -14.651114963158136 0 -14.651114963158136 -1.749165051176675 0 0 0 0 75.920866749441302 -12.72361526511412 0 -12.72361526511412 -6.4483560975911871 0 0 0 0 57.300489472686877 -0.81323945405664233 0 -0.81323945405664233 -7.9898684353521503 0 0 0 0 83.229687008541987 -3.5607435052241385 0 -3.5607435052241385 -10.37357901334974 0 0 0 0 75.02630976153705 -5.4002082453784794 0 -5.4002082453784794 -4.6277032977629915 0 0 0 0 76.343142920252603 -6.4065859371051772 0 -6.4065859371051772 -8.5033974981508891 0 0 0 0 75.065851659594045 -7.0250821264028218 0 -7.0250821264028218 -10.097581342631941 0 0 0 0 88.791953692186325 9.6012762239697054 0 9.6012762239697054 -6.9588382329720275 0 0 0 0 82.658514790761728 -18.305897822593124 0 -18.305897822593124 2.0282396897516151 0 0 0 0 69.63536700672546 -4.9036816279336364 0 -4.9036816279336364 1.6631395865424565 0 0 0 0 69.396002937732476 -4.3324850827636325 0 -4.3324850827636325 26.010009104396886 0 0 0 0 92.872299806795127 15.008648255694709 0 15.008648255694709 13.347308662768569 0 0 0 0 120.77691746026539 -30.143963550273384 0 -30.143963550273384 4.6290407481680802 0 0 0 0 44.496657925902582 11.639723418173077 0 11.639723418173077 3.4336428010652753 0 0 0 0 56.612692350321026 9.0674819918551108 0 9.0674819918551108 1.8948186671301528 0 0 0 0 60.290142475349057 -0.0086382877250912316 0 -0.0086382877250912316 11.726580824560926 0 0 0 0 61.302000794979904 3.7704225712608945 0 3.7704225712608945 1.3156450755841433 0 0 0 0 71.432119163173866 -5.4899635625528731 0 -5.4899635625528731 1.8232763423426377 0 0 0 0 69.806261548897055 2.4695725952648218 0 2.4695725952648218 -3.202974228062061 0 0 0 0 55.495469637567112 5.3375786331723702 0 5.3375786331723702 2.8269427078347462 0 0 0 0 65.854837147311343 6.1766500582724131 0 6.1766500582724131 -6.6593095388908523 0 0 0 0 66.377229708294294 11.797764345217278 0 11.797764345217278 -2.6889238288638353 0 0 0 0 86.178841771344651 4.2376570379333884 0 4.2376570379333884 -7.6312514525254045 0 0 0 0 81.300156296489604 -2.6741664940624901 0 -2.6741664940624901 -7.6191899773497767 0 0 0 0 71.751748910287915 15.753333721036611 0 15.753333721036611 -4.3103131694672925 0 0 0 0 72.034859529536334 16.03826213343811 0 16.03826213343811 -5.0131970746107299 0 0 0 0 43.076195333149371 25.669900363706745 0 25.669900363706745 11.845248172298454 0 0 0 0 36.471856891821972 10.181852668094706 0 10.181852668094706 -1.456812404772478 0 0 0 0 1.0598463114194399 -0.43068777154203985 0 -0.43068777154203985 -0.088926449947523523 0 0 0 0 35.34647486590984 20.021269431501821 0 20.021269431501821 1.9115075974168576 0 0 0 0 51.282648285084633 15.47301347722123 0 15.47301347722123 -3.7137473848219429 0 0 0 0 52.00145744528254 17.083281927590633 0 17.083281927590633 -2.243950250338429 0 0 0 0 49.071742104110854 16.651146235608905 0 16.651146235608905 0.8868117363139163 0 0 0 0 48.585837725047895 13.597467588532254 0 13.597467588532254 0.58180779895209866 0 0 0 0 44.867887931252199 13.223186678825982 0 13.223186678825982 2.6992329207748753 0 0 0 0 40.347669293072613 19.608158311287525 0 19.608158311287525 0.20908342834633231 0 0 0 0 35.02853775188396 12.379935109737531 0 12.379935109737531 3.0865598810403299 0 0 0 0 41.860688610392344 15.832485479790989 0 15.832485479790989 4.4973772279521427 0 0 0 0 38.820075191183605 16.744194651158381 0 16.744194651158381 4.2783638067762126 0 0 0 0 63.131630341059463 26.350116196300803 0 26.350116196300803 -8.8526751168352789 0 0 0 0 55.50942179378103 20.745144898817955 0 20.745144898817955 -6.1773338259193906 0 0 0 0 55.179361370327115 19.907289116909794 0 19.907289116909794 -1.7934858155661857 0 0 0 0 55.432835606056415 4.8927575400322496 0 4.8927575400322496 -9.2338541150527362 0 0 0 0 85.00135361158118 24.043124610590894 0 24.043124610590894 -7.0645044348264463 0 0 0 0 59.396493777380556 38.012733900976599 0 38.012733900976599 21.717276546538073 0 0 0 0 77.953083679756219 12.848414003652522 0 12.848414003652522 17.20992590203041 0 0 0 0 8.6319681376166955 -10.161835958410904 0 -10.161835958410904 -7.0759706475100117 0 0 0 0 0.52728891494585817 -0.13752438402890999 0 -0.13752438402890999 -0.11609237501274583 0 0 0 0 79.71963664359555 44.236371922059874 0 44.236371922059874 19.365757806093995 0 0 0 0 108.53193151378559 71.420055153033118 0 71.420055153033118 33.915324830241389 0 0 0 0 54.388462646733615 30.091899510885384 0 30.091899510885384 20.526808003509984 0 0 0 0 12.239055144558733 -0.56204118966704542 0 -0.56204118966704542 15.049784063699967 0 0 0 0 18.649475143079144 16.830352340089 0 16.830352340089 35.484830110618127 0 0 0 0 80.425519026442544 77.296358441551547 0 77.296358441551547 49.188593584246746 0 0 0 0 8.8922390236211868 39.399705731879784 0 39.399705731879784 59.817366195503702 0 0 0 0 44.658909520009502 46.107766738870268 0 46.107766738870268 29.315364171124884 0 0 0 0 76.491656609364441 35.599494555163844 0 35.599494555163844 6.2792761966285866 0 0 0 0 114.4618066357998 45.604538001456859 0 45.604538001456859 6.876517238022287 0 0 0 0 72.105308717441858 32.641610806223966 0 32.641610806223966 13.098896162227305 0 0 0 0 1.1057033325743184 -0.49829814106775938 0 -0.49829814106775938 0.034222714234169005 0 0 0 0 34.01339256044821 0.81935351108894849 0 0.81935351108894849 39.106098240547965 0 0 0 0 131.17415218946371 59.239118679278533 0 59.239118679278533 14.818501605713095 0 0 0 0 76.585390077779266 78.563204387876311 0 78.563204387876311 40.580113302431137 0 0 0 0 36.296465822842492 19.510541128200416 0 19.510541128200416 9.9579415499168906 0 0 0 0 0.56846041998142027 14.505147410643929 0 14.505147410643929 -7.7367278458129078 0 0 0 0 13.929518592168279 5.318598293826664 0 5.318598293826664 -13.197085200395357 0 0 0 0 6.0516082521035059 2.3039175625458199 0 2.3039175625458199 -3.3785532911977043 0 0 0 0 9.7689843880216358 5.7000327425184878 0 5.7000327425184878 -4.5563040405427273 0 0 0 0 16.087906017986825 3.3019095442705293 0 3.3019095442705293 -7.0043050982431225 0 0 0 0 11.351196327348134 0.22966758085541983 0 0.22966758085541983 1.6802885818026425 0 0 0 0 19.178822221619011 6.2191025997075373 0 6.2191025997075373 5.7141788831455784 0 0 0 0 -33.006440699408017 3.3129725339095839 0 3.3129725339095839 28.856439661537237 0 0 0 0 0.10957361297095858 0.22131416035094276 0 0.22131416035094276 0.93320854091528682 0 0 0 0 4.505256095018467 -2.9201680594249417 0 -2.9201680594249417 -1.742613724080833 0 0 0 0 -1.7279520802303523 4.1899740972576751 0 4.1899740972576751 6.1397181341117175 0 0 0 0 3.9712824062626169 10.483079253543679 0 10.483079253543679 4.6303944167519262 0 0 0 0 0.75531517557622063 0.9818318291175725 0 0.9818318291175725 2.9534136269689468 0 0 0 0 0.54931420204411552 -1.6899813618534836 0 -1.6899813618534836 -0.94392091844024151 0 0 0 0 -1.327149776195256 -0.58740055649683853 0 -0.58740055649683853 0.082880764649317484 0 0 0 0 5.7607243706879672 4.4121686446779904 0 4.4121686446779904 6.6401994588786692 0 0 0 0 0.78526911837335511 -0.75455509666716036 0 -0.75455509666716036 -0.58030113422563034 0 0 0 0 2.1708215742316508 -0.18746987639023605 0 -0.18746987639023605 -0.49662006040528395 0 0 0 0 5.743471679812501 8.4329147220778395 0 8.4329147220778395 10.213376786957042 0 0 0 0 0.80757787977110507 0.0070260921361544604 0 0.0070260921361544604 0.10863201054042104 0 0 0 0 1.5958992308633988 -1.3147289784016527 0 -1.3147289784016527 -0.41045243563683109 0 0 0 0 7.1163635033481114 1.5058639984954425 0 1.5058639984954425 -1.555736670510214 0 0 0 0 1.7353681353317825 -1.7788732997715826 0 -1.7788732997715826 -0.96531897520685561 0 0 0 0 18.387577549235175 10.41272938843619 0 10.41272938843619 -1.0645844686027885 0 0 0 0 14.617527720292287 4.0165861878190228 0 4.0165861878190228 -6.0439223302983009 0 0 0 0 6.1733248454793284 9.1075832518378377 0 9.1075832518378377 6.6165996052020546 0 0 0 0 12.230891143847657 1.5125618340730398 0 1.5125618340730398 -4.2360674638375713 0 0 0 0 0.081615874272747302 0.6133928795347412 0 0.6133928795347412 2.3192583157758202 0 0 0 0 -18.245791811976233 7.8105669082457325 0 7.8105669082457325 3.6616986417034241 0 0 0 0 5.9895594672437511 0.17444837485719944 0 0.17444837485719944 -6.451811227557755 0 0 0 0 23.864286230342827 23.173574283161006 0 23.173574283161006 23.944885109909507 0 0 0 0 91.986287517532674 87.08169588769681 0 87.08169588769681 59.810946519513095 0 0 0 0 -15.846746830021857 14.756445904910464 0 14.756445904910464 43.107293441043566 0 0 0 0 0.43069061360605598 0.46889788497906437 0 0.46889788497906437 0.58557954565209203 0 0 0 0 18.175981616049739 0.92434305706923681 0 0.92434305706923681 -8.903290082227187 0 0 0 0 9.3402643342710689 -9.008578639927542 0 -9.008578639927542 5.7873298944654508 0 0 0 0 4.2998268322944568 -0.45980067177136874 0 -0.45980067177136874 0.26453180119908382 0 0 0 0 -3.4930443201310482 8.0441690374129529 0 8.0441690374129529 -4.6851189590958455 0 0 0 0 0.79862263275591605 1.1748516871632404 0 1.1748516871632404 1.5600998841802751 0 0 0 0 73.310387326416503 22.128082103320793 0 22.128082103320793 6.4701951822020192 0 0 0 0 25.950322742188973 -10.384517970707009 0 -10.384517970707009 6.320172194379893 0 0 0 0 79.581691033708921 3.7618135581438992 0 3.7618135581438992 -2.9714271633290252 0 0 0 0 1.0508575258942585 1.5429663739846058 0 1.5429663739846058 2.0756953403401779 0 0 0 0 5.9741367231272307 1.9287660700105276 0 1.9287660700105276 -1.6642086022333684 0 0 0 0 6.4016747611090068 18.804533601963684 0 18.804533601963684 12.142727337226461 0 0 0 0 1.7701821806522275 4.5514231080629521 0 4.5514231080629521 1.3128389196944461 0 0 0 0 1.2269487461186523 -0.14891508653216334 0 -0.14891508653216334 -0.26741525320793813 0 0 0 0 0.71474189516708542 0.25050252511305438 0 0.25050252511305438 -0.0090530254130814503 0 0 0 0 3.4563380440113178 1.410792400185926 0 1.410792400185926 0.9405262519071016 0 0 0 0 1.3348502478248472 -0.53832774625486657 0 -0.53832774625486657 0.069304028480190003 0 0 0 0 6.5229381350677613 3.2842502678992851 0 3.2842502678992851 1.6830186619194336 0 0 0 0 2.3794722168208899 -0.42696751868720639 0 -0.42696751868720639 -1.8845956776389934 0 0 0 0 3.8151452396068635 -0.94913734518263482 0 -0.94913734518263482 -2.8276730151228548 0 0 0 0 4.5724304672908147 0.35414127993856681 0 0.35414127993856681 2.5514028630793035 0 0 0 0 -1.9345852365649989 3.0848679759979483 0 3.0848679759979483 0.20319103288339591 0 0 0 0 2.6728187304543098 -0.079729258466400665 0 -0.079729258466400665 -0.21335959292198936 0 0 0 0 4.3211225052327791 1.671054214883938 0 1.671054214883938 -0.73428966761893122 0 0 0 0 -0.34529201168252399 -0.43433650770198762 0 -0.43433650770198762 0.01735876238289713 0 0 0 0 -0.31618956049351254 -0.13883756318699625 0 -0.13883756318699625 0.23659262962961236 0 0 0 0 2.1786900347669871 1.3655026684524643 0 1.3655026684524643 -0.26097524538278094 0 0 0 0 6.001011614700019 -1.1740176754138787 0 -1.1740176754138787 -1.778881682959387 0 0 0 0 3.9623901294198731 2.0363841138424021 0 2.0363841138424021 -3.4750625101219015 0 0 0 0 -10.341496457788992 3.7477925168067099 0 3.7477925168067099 2.6997544923879957 0 0 0 0 4.0929451023434922 1.398201999340813 0 1.398201999340813 0.05939043304638858 0 0 0 0 0.45933780813150626 0.46763971811179594 0 0.46763971811179594 0.97039820661965215 0 0 0 0 4.2454546094550096 -1.175563710830744 0 -1.175563710830744 -0.08842351513700919 0 0 0 0 1.7766633090523101 -0.24674717639349808 0 -0.24674717639349808 2.4820598003410055 0 0 0 0 0.065202450757246844 0.14711058966616086 0 0.14711058966616086 0.37661690915805135 0 0 0 0 -0.056991741640012528 0.072966991429753492 0 0.072966991429753492 -0.0086487589360626504 0 0 0 0 8.6289800463555366 -1.895424295850944 0 -1.895424295850944 -6.0424478303555134 0 0 0 0 -10.130206722352796 -4.5151026117478779 0 -4.5151026117478779 11.982130030323447 0 0 0 0 -13.250659867679133 -46.358311282813474 0 -46.358311282813474 37.571841135383153 0 0 0 0 -1.9048250040868879 -42.927963031187915 0 -42.927963031187915 -12.001045449629657 0 0 0 0 -8.4250579542916739 0.69040132171032553 0 0.69040132171032553 50.749038384680034 0 0 0 0 -6.8859389921071852 -8.6287671108067343 0 -8.6287671108067343 0.68012063310649751 0 0 0 0 -11.2263929174228 8.53535619769184 0 8.53535619769184 39.841420543476715 0 0 0 0 18.606514591811901 10.521727319272372 0 10.521727319272372 9.3720050637049894 0 0 0 0 1.834344082419193 -10.838783964347925 0 -10.838783964347925 33.980283309290485 0 0 0 0 24.983524359377952 -12.513535554479915 0 -12.513535554479915 0.66517035589777151 0 0 0 0 -32.820785335658002 -0.1717057717245325 0 -0.1717057717245325 -0.10968528992282245 0 0 0 0 -10.446257230588344 -28.452632638515368 0 -28.452632638515368 -45.415990475383381 0 0 0 0 29.63241085278969 9.1735784403570335 0 9.1735784403570335 0.84693686218281528 0 0 0 0 -34.223928045480534 -58.763762171962298 0 -58.763762171962298 1.6127192949954576 0 0 0 0 0.040007026900365616 -0.080653958505611634 0 -0.080653958505611634 0.061654488648833716 0 0 0 0 15.764142917385584 14.495067017145601 0 14.495067017145601 35.783776786674366 0 0 0 0 8.0519855752199874 -19.736656122346915 0 -19.736656122346915 7.217333854328956 0 0 0 0 -5.5151712978349678 -2.3720758931008561 0 -2.3720758931008561 -6.7715277498051165 0 0 0 0 -17.474125619501592 -15.121788485191871 0 -15.121788485191871 1.7368710478355354 0 0 0 0 -5.9603901775954 -0.61466649780550142 0 -0.61466649780550142 -0.10959246531730571 0 0 0 0 6.0754994356730094 15.070321884190832 0 15.070321884190832 34.274217227634693 0 0 0 0 -8.9251592951391103 0.20476111426977894 0 0.20476111426977894 40.548486389839923 0 0 0 0 0.08808957598872702 -0.10748688186523747 0 -0.10748688186523747 0.021594876090483162 0 0 0 0 26.602232510287195 -14.672955746487418 0 -14.672955746487418 2.0406056896177915 0 0 0 0 17.93826544562171 24.077559612754953 0 24.077559612754953 14.282800985321501 0 0 0 0 -0.98157641846501065 -0.38189299942195021 0 -0.38189299942195021 4.8996986133034852 0 0 0 0 1.6175562548833113 2.4813910006288324 0 2.4813910006288324 4.6358220772567655 0 0 0 0 20.174070683890022 6.2634912634764532 0 6.2634912634764532 -5.0734121273219444 0 0 0 0 -9.4997498813622769 -11.96292750792648 0 -11.96292750792648 9.6832047782361315 0 0 0 0 0.38389888879620493 0.25600797358959149 0 0.25600797358959149 0.3672224544670899 0 0 0 0 73.14073467361959 12.602537415350866 0 12.602537415350866 -4.0961745585364611 0 0 0 0 20.065736481001295 5.413626868079632 0 5.413626868079632 8.3263987597865707 0 0 0 0 73.052046754530238 11.988484855158561 0 11.988484855158561 7.8969585905610131 0 0 0 0 138.32564228897309 31.473449395762458 0 31.473449395762458 17.251564945454277 0 0 0 0 125.1229791748267 48.884569379417577 0 48.884569379417577 38.395650423147231 0 0 0 0 41.295093230225575 13.241541572820665 0 13.241541572820665 42.514701383511465 0 0 0 0 119.78037793790725 27.643182976989742 0 27.643182976989742 -1.2837203712548444 0 0 0 0 59.872233945293374 2.8932630670770152 0 2.8932630670770152 27.531343232040797 0 0 0 0 82.752090698560096 38.482065968318324 0 38.482065968318324 72.478532550795251 0 0 0 0 145.73085255281012 -5.4549026601964385 0 -5.4549026601964385 -2.6351077668053904 0 0 0 0 93.224870089290562 -24.121706975330881 0 -24.121706975330881 40.976208364954346 0 0 0 0 49.558906978908453 -3.9881033693768302 0 -3.9881033693768302 31.893461540589016 0 0 0 0 55.480549038831214 -10.840783266846955 0 -10.840783266846955 -0.74914516258735375 0 0 0 0 131.84577499645366 80.607116869310204 0 80.607116869310204 16.558985668128571 0 0 0 0 185.00063329660588 128.59773445292399 0 128.59773445292399 1.2359433151038957 0 0 0 0 134.7901121514634 40.560965659681948 0 40.560965659681948 -1.7881150831515811 0 0 0 0 237.38332897892542 -12.749957873868269 0 -12.749957873868269 12.655030815847297 0 0 0 0 170.06093754260746 105.57779096543914 0 105.57779096543914 171.36506115076412 0 0 0 0 42.686297739768634 125.44952778678567 0 125.44952778678567 122.54999241804472 0 0 0 0 300.21413398019604 -27.927451123893249 0 -27.927451123893249 -10.921261627330637 0 0 0 0 1.3917016258852115 1.0847693337714697 0 1.0847693337714697 0.92780458052239734 0 0 0 0 199.86350600976402 17.703552420353219 0 17.703552420353219 -27.892482965327758 0 0 0 0 199.55276726481679 53.617979917740428 0 53.617979917740428 -15.277666592553601 0 0 0 0 101.68537513131105 -17.257061459506474 0 -17.257061459506474 -11.460809248064379 0 0 0 0 118.94251831107431 28.433422992549296 0 28.433422992549296 -7.4646702328025185 0 0 0 0 110.34403732969986 45.163668323444654 0 45.163668323444654 5.8592294252216561 0 0 0 0 40.147584214714698 46.181895875624605 0 46.181895875624605 23.785213355323151 0 0 0 0 -11.514274438710345 -32.225664094022818 0 -32.225664094022818 9.1906138893664888 0 0 0 0 0.7179413655944451 -0.51034489312516307 0 -0.51034489312516307 0.16557098346564469 0 0 0 0 147.04904028581268 90.91135404611407 0 90.91135404611407 40.927542110928698 0 0 0 0 199.16414627548329 17.423764562933769 0 17.423764562933769 6.6975185817810825 0 0 0 0 204.21714339901655 39.701017451382086 0 39.701017451382086 -6.2248410139629904 0 0 0 0 183.29968350659829 36.470145060838007 0 36.470145060838007 -11.752228486336776 0 0 0 0 147.76910688674877 19.373560661941234 0 19.373560661941234 -9.7611646112987955 0 0 0 0 158.69648791184136 42.942813483287068 0 42.942813483287068 -13.454425153019315 0 0 0 0 96.713526441219983 36.909415759655985 0 36.909415759655985 9.5647029078235626 0 0 0 0 115.37052940920648 -8.7870100095058206 0 -8.7870100095058206 -4.3450577000157864 0 0 0 0 150.9353423990824 49.29872764864956 0 49.29872764864956 10.353991679328828 0 0 0 0 159.89938839119077 32.520665464663523 0 32.520665464663523 -13.048879700875432 0 0 0 0 157.98353666783441 29.597761217771676 0 29.597761217771676 22.265158306683134 0 0 0 0 151.30007771199143 41.887499729562876 0 41.887499729562876 17.980581883445439 0 0 0 0 147.65506426027105 44.56903802491172 0 44.56903802491172 38.68812254315992 0 0 0 0 151.42915734533835 49.662329255174939 0 49.662329255174939 36.357830501719164 0 0 0 0 240.26382233488584 31.810039249620786 0 31.810039249620786 8.3651107517547132 0 0 0 0 153.41928383778009 56.78600474042193 0 56.78600474042193 91.388752380443918 0 0 0 0 152.34683615484377 41.068624274574844 0 41.068624274574844 20.808318825582433 0 0 0 0 114.50379486494421 17.828632466865059 0 17.828632466865059 18.686062600616367 0 0 0 0 148.87673727897675 31.362224550383569 0 31.362224550383569 7.7271754569662221 0 0 0 0 41.35085347817585 -4.6172247804154267 0 -4.6172247804154267 12.611904740168981 0 0 0 0 119.05612204178942 5.4446155437875632 0 5.4446155437875632 -2.0700553096550891 0 0 0 0 68.358176504023277 -20.802945807972051 0 -20.802945807972051 6.6545084721505532 0 0 0 0 21.924387817321985 -22.51707909118079 0 -22.51707909118079 0.95910069024904487 0 0 0 0 130.34220890608265 -17.358418362696867 0 -17.358418362696867 -3.5197652879226098 0 0 0 0 160.40245295791669 21.233994077082485 0 21.233994077082485 53.756291568805977 0 0 0 0 164.50143631123228 60.208379114727222 0 60.208379114727222 38.758576639885518 0 0 0 0 0.18930597921735171 -4.1864677244075779 0 -4.1864677244075779 5.8194107629364566 0 0 0 0 6.1378624177599477 -5.225492830095618 0 -5.225492830095618 0.17272592711071866 0 0 0 0 30.249468155613613 13.921833327382274 0 13.921833327382274 4.3840334853142053 0 0 0 0 9.3475045321529251 8.453021732285606 0 8.453021732285606 7.788829531911432 0 0 0 0 26.309307509899554 15.013301309204508 0 15.013301309204508 7.9782188534852594 0 0 0 0 -3.692574350256109 1.6669457709625135 0 1.6669457709625135 4.5189335088824691 0 0 0 0 38.143523899580146 7.05252388607461 0 7.05252388607461 0.20572611890304415 0 0 0 0 0.13604055678887583 0.025149415844005318 0 0.025149415844005318 -0.12830551005756297 0 0 0 0 49.963891047971174 6.3676411308924941 0 6.3676411308924941 0.48482880846859189 0 0 0 0 22.469706500458415 -12.111990582693466 0 -12.111990582693466 -1.216740819150548 0 0 0 0 -4.9126845569890065 7.6349752470798649 0 7.6349752470798649 5.4318485609859408 0 0 0 0 0.46802592725244274 -0.33067815538009793 0 -0.33067815538009793 -0.012610391951050515 0 0 0 0 -8.5087726752744857 1.5525554823275343 0 1.5525554823275343 0.16232777619917726 0 0 0 0 1.5796229209990997 1.8764312985423999 0 1.8764312985423999 -2.9340523893479258 0 0 0 0 8.9489047704373661 0.16221375953648476 0 0.16221375953648476 -3.6440827379198026 0 0 0 0 3.7194247629713573 -3.7228636258268466 0 -3.7228636258268466 0.44691624360677906 0 0 0 0 2.1994610083902444 -2.2574653319490494 0 -2.2574653319490494 -0.96393018863483348 0 0 0 0 2.5160736440337814 -1.8835004165052069 0 -1.8835004165052069 -0.69434413990632038 0 0 0 0 2.1935211957526235 -2.1372976269045409 0 -2.1372976269045409 0.42738428188772559 0 0 0 0 2.4799024823573745 -1.0835250249872388 0 -1.0835250249872388 -0.1237723657846459 0 0 0 0 0.5124968776208334 -1.1575954792123184 0 -1.1575954792123184 1.5875975752393288 0 0 0 0 2.3776668814052755 -0.45594464633657594 0 -0.45594464633657594 -0.00055781880212180113 0 0 0 0 2.0498544134916301 -0.23054273283305804 0 -0.23054273283305804 0.023363976941993769 0 0 0 0 8.0036588478114936 10.0979807662913 0 10.0979807662913 -12.441108487423662 0 0 0 0 1.3255580571893528 0.32280235122061463 0 0.32280235122061463 0.10833945327393524 0 0 0 0 1.6416196589507308 -0.15582148574642929 0 -0.15582148574642929 0.74691846623261426 0 0 0 0 -3.5475720198840008 -6.789051902952167 0 -6.789051902952167 1.4308707008892725 0 0 0 0 0.40963196944903757 -0.0016983577502855951 0 -0.0016983577502855951 0.73946974310257474 0 0 0 0 -1.1026755938946735 -0.79731674157574162 0 -0.79731674157574162 1.5248736815102575 0 0 0 0 4.9104975882964936 -3.4852118458803147 0 -3.4852118458803147 -5.5369859566310424 0 0 0 0 -3.59367851485149 -1.605228999628082 0 -1.605228999628082 -0.21089583893990493 0 0 0 0 9.6038269394002782 3.8586290321628667 0 3.8586290321628667 2.0495802149171709 0 0 0 0 -4.0532001373412072 9.114417303623334 0 9.114417303623334 5.0427000333122578 0 0 0 0 6.6215392131603039 -2.5478104894597493 0 -2.5478104894597493 3.142711284510824 0 0 0 0 6.1124052326622405 -3.044873548162883 0 -3.044873548162883 2.694139516526775 0 0 0 0 8.4481735589179152 -2.558111319917316 0 -2.558111319917316 0.12413638636007818 0 0 0 0 1.0871696846389476 -0.30351036248497554 0 -0.30351036248497554 -0.1657636812787775 0 0 0 0 6.2780440160195212 -2.4650162376470917 0 -2.4650162376470917 -0.8892466888575683 0 0 0 0 10.748212653146766 3.7795692979923388 0 3.7795692979923388 -0.18924438952331002 0 0 0 0 8.181340768298508 3.8115224168919841 0 3.8115224168919841 0.814894676616293 0 0 0 0 0.5913541211439215 -0.038584297527285649 0 -0.038584297527285649 -0.046233463535420238 0 0 0 0 4.3971644722062155 -3.8471652492750961 0 -3.8471652492750961 -5.073247371482231 0 0 0 0 15.436145551478148 -1.6863709926795423 0 -1.6863709926795423 -21.688916433653617 0 0 0 0 -18.32877899831351 -31.535373643312312 0 -31.535373643312312 23.154034012467037 0 0 0 0 2.5548694826284191 7.7263082519897921 0 7.7263082519897921 4.2894422176277658 0 0 0 0 7.1126305936525398 4.0983272899534731 0 4.0983272899534731 1.8715908776857721 0 0 0 0 6.3934215634590146 3.3957574849949879 0 3.3957574849949879 3.9567471063578239 0 0 0 0 26.930456050628209 91.273194292604842 0 91.273194292604842 45.126311861085014 0 0 0 0 5.2324553463186021 0.44922875835572995 0 0.44922875835572995 -3.5136277016690372 0 0 0 0 13.275764697501245 2.8959115313895296 0 2.8959115313895296 -18.897849007079913 0 0 0 0 9.8648297386889681 -2.9163082793406829 0 -2.9163082793406829 -14.276271244459224 0 0 0 0 6.6025651856098193 11.711738633025902 0 11.711738633025902 5.3010287614170011 0 0 0 0 17.280441734905253 11.090777258210892 0 11.090777258210892 -5.0158603520209795 0 0 0 0 15.392653626270658 -1.1350635737312018 0 -1.1350635737312018 2.1941641266946874 0 0 0 0 -1.5631412205980268 11.453876279752308 0 11.453876279752308 7.0267196960885485 0 0 0 0 0.50727662998491319 0.10713746039231875 0 0.10713746039231875 0.001895775948603351 0 0 0 0 57.040695072879316 29.511107308420833 0 29.511107308420833 -16.963571224967041 0 0 0 0 30.383413366890636 18.595777925561038 0 18.595777925561038 10.32201169871945 0 0 0 0 31.704431027795181 16.014907475598193 0 16.014907475598193 6.0407744823583016 0 0 0 0 -33.007493704026274 22.74457218470161 0 22.74457218470161 41.928114035188742 0 0 0 0 25.549417880049987 -10.306266870953664 0 -10.306266870953664 6.3075310674144021 0 0 0 0 2.6721240095453069 -0.15201472541343009 0 -0.15201472541343009 0.62755822550155038 0 0 0 0 11.038120698802231 7.5026541868966206 0 7.5026541868966206 33.073619702191536 0 0 0 0 66.337586048203775 7.0463714652082672 0 7.0463714652082672 11.379615909773179 0 0 0 0 44.76635362291654 20.455714841792542 0 20.455714841792542 18.313787953063553 0 0 0 0 43.631040970908543 14.84922852784365 0 14.84922852784365 -4.135728189524059 0 0 0 0 3.9819997074141007 2.6717528105367805 0 2.6717528105367805 1.943205705538948 0 0 0 0 6.6598587916953367 16.199483628890391 0 16.199483628890391 -26.618642249785353 0 0 0 0 24.192309206069694 20.161390967107423 0 20.161390967107423 -26.60250011775744 0 0 0 0 12.221022472867389 5.1766505012765833 0 5.1766505012765833 -10.404241811954307 0 0 0 0 21.485706554339231 11.809645080326845 0 11.809645080326845 -11.947334863444212 0 0 0 0 2.1821468664847998 31.111811217056939 0 31.111811217056939 33.806477238913999 0 0 0 0 32.038975314127129 19.004037534122915 0 19.004037534122915 -8.5534935306327498 0 0 0 0 17.659508410710259 25.236313155965803 0 25.236313155965803 31.340274009214113 0 0 0 0 42.95506605234641 48.772314817622316 0 48.772314817622316 14.386582001652158 0 0 0 0 58.732595596815372 67.270221196302572 0 67.270221196302572 33.625617963467249 0 0 0 0 59.77990163404138 98.830995723535153 0 98.830995723535153 75.251798209006751 0 0 0 0 21.177986485414294 -17.504638187631713 0 -17.504638187631713 -25.140254150977 0 0 0 0 21.730034303125649 -18.233433765255143 0 -18.233433765255143 -33.032631867270993 0 0 0 0 51.614816194527521 -6.0085657108284636 0 -6.0085657108284636 -40.570555153941655 0 0 0 0 27.145558156596962 -23.635164384928146 0 -23.635164384928146 -46.222018817408525 0 0 0 0 48.553593371524585 12.162232980879505 0 12.162232980879505 -16.45940947028646 0 0 0 0 51.345563255781599 35.5232388365839 0 35.5232388365839 -3.2413438594165314 0 0 0 0 53.975432115206786 31.514964829211976 0 31.514964829211976 1.9730248944181312 0 0 0 0 45.874103447487869 7.0213832648103107 0 7.0213832648103107 -23.329199289608482 0 0 0 0 33.504073264941781 -4.7360232042968562 0 -4.7360232042968562 -15.256867121891446 0 0 0 0 20.485078541901203 2.0259324591406767 0 2.0259324591406767 -8.7062842280624864 0 0 0 0 28.059603066163618 9.6131178893755305 0 9.6131178893755305 -1.5064049452196855 0 0 0 0 27.44097616770523 1.5088001648223326 0 1.5088001648223326 -12.818179993353851 0 0 0 0 17.837007578704288 -15.927037558170923 0 -15.927037558170923 -12.548506655308074 0 0 0 0 13.040136805644579 -9.0285524260727925 0 -9.0285524260727925 -15.21981624985308 0 0 0 0 28.001691541785476 -6.4915991341641757 0 -6.4915991341641757 -13.20850714673179 0 0 0 0 28.738456612170694 -16.231506497221403 0 -16.231506497221403 -24.532023784326611 0 0 0 0 19.72584144195207 -19.212993176830878 0 -19.212993176830878 -24.415029495791714 0 0 0 0 21.856507426429744 -21.562379213840813 0 -21.562379213840813 -27.290005160131045 0 0 0 0 16.430826102954597 -16.961370241010172 0 -16.961370241010172 -14.820032631521372 0 0 0 0 9.7009856612639851 -23.337110529146912 0 -23.337110529146912 -20.598363795176738 0 0 0 0 16.652401649949979 -19.470359141290899 0 -19.470359141290899 -18.485871337255048 0 0 0 0 8.7165549206620199 -21.490429952400063 0 -21.490429952400063 -14.992281623533017 0 0 0 0 15.213866204598162 -17.633889045102478 0 -17.633889045102478 -12.799560309826802 0 0 0 0 15.160979721287731 -18.446764739985838 0 -18.446764739985838 -14.920691984088592 0 0 0 0 8.5068087146901235 -16.671502640128892 0 -16.671502640128892 -8.70725333194423 0 0 0 0 17.884737894240175 -11.798829180623372 0 -11.798829180623372 -15.711526680261841 0 0 0 0 11.676571921711002 -13.519481854991227 0 -13.519481854991227 -8.4686558561661514 0 0 0 0 18.778062188663171 -5.1146344887404211 0 -5.1146344887404211 1.0698619673867142 0 0 0 0 19.924551431508007 -7.3051154184554434 0 -7.3051154184554434 -12.328023686297001 0 0 0 0 15.508621669451259 -18.399350543212108 0 -18.399350543212108 -37.245661729134554 0 0 0 0 33.280839669463603 3.6854161335074878 0 3.6854161335074878 -33.088785284824098 0 0 0 0 29.295329465026043 15.876907505156595 0 15.876907505156595 -1.746636516966646 0 0 0 0 15.319921850217725 10.77655463600837 0 10.77655463600837 -32.027145068898108 0 0 0 0 -5.6151090192124684 -4.9191253636431611 0 -4.9191253636431611 -14.067571159149907 0 0 0 0 10.153541560360736 46.021832966744398 0 46.021832966744398 6.3057486254897412 0 0 0 0 6.7200692318271358 -4.5113385657630998 0 -4.5113385657630998 -37.781767775816888 0 0 0 0 32.626235034552337 -26.8855064140987 0 -26.8855064140987 -29.008549766394992 0 0 0 0 1.5400127198913403 1.4349146944714972 0 1.4349146944714972 0.043172092954535835 0 0 0 0 2.2368231348400514 29.675418733726929 0 29.675418733726929 48.426632208159617 0 0 0 0 38.93843123263423 14.627723918649508 0 14.627723918649508 -12.904433054561423 0 0 0 0 0.74105095615309935 -0.61191397699091743 0 -0.61191397699091743 -1.2210849824013832 0 0 0 0 33.784486688537072 6.9836251730956747 0 6.9836251730956747 2.8966203571715141 0 0 0 0 31.933484793746175 18.340887956035431 0 18.340887956035431 -16.193836514859413 0 0 0 0 33.376119183494666 15.739106307008569 0 15.739106307008569 -63.384182984015979 0 0 0 0 -9.4156988696440749 8.2918855325095393 0 8.2918855325095393 -13.384713155461355 0 0 0 0 10.663396861631677 -2.6086752734869885 0 -2.6086752734869885 -1.7975181443906041 0 0 0 0 1.2969013800331934 0.46719522058468144 0 0.46719522058468144 -0.84577105484959025 0 0 0 0 1.3970015687547797 0.28207337837971025 0 0.28207337837971025 -5.1068836808667823 0 0 0 0 9.5875341310220392 6.3770839434433242 0 6.3770839434433242 -32.587333889461206 0 0 0 0 76.779851025192329 30.061163797222257 0 30.061163797222257 -32.501458098134492 0 0 0 0 18.833023504577795 18.015211521488396 0 18.015211521488396 -22.030233956118451 0 0 0 0 6.1273534607180409 -9.3062507496869102 0 -9.3062507496869102 16.318023517794813 0 0 0 0 63.781978799241188 -48.162192321864921 0 -48.162192321864921 23.01012614600803 0 0 0 0 34.615260354716156 -3.1004916143726433 0 -3.1004916143726433 3.7142997941789417 0 0 0 0 38.331987531779305 -27.597933396197945 0 -27.597933396197945 25.032513193949981 0 0 0 0 86.059728327676567 -36.762641051516574 0 -36.762641051516574 24.283257406702006 0 0 0 0 42.600461517609801 40.389454293071594 0 40.389454293071594 36.803830383338209 0 0 0 0 -2.7178373022215965 21.380103166262792 0 21.380103166262792 -5.1619536463813915 0 0 0 0 4.3372915154177463 5.7534726239463225 0 5.7534726239463225 0.50264182608214014 0 0 0 0 33.613787353231601 -6.4401895882058682 0 -6.4401895882058682 -3.9789554196919568 0 0 0 0 16.729296483869803 10.434475113811246 0 10.434475113811246 -13.681142398380189 0 0 0 0 19.31382905053897 19.137617429152563 0 19.137617429152563 -32.333908439363881 0 0 0 0 20.581946050053375 -24.027571542262933 0 -24.027571542262933 -12.838302719861687 0 0 0 0 27.002988203531004 -0.21926163620180361 0 -0.21926163620180361 -38.543574831617207 0 0 0 0 28.924953884707065 -13.164574436795817 0 -13.164574436795817 -5.7752060714082489 0 0 0 0 37.356898281195754 -11.097614342735255 0 -11.097614342735255 -7.1931647272503767 0 0 0 0 19.343015999241288 -21.292086120787332 0 -21.292086120787332 24.369807551344707 0 0 0 0 7.4945115479658853 -1.1963707369745862 0 -1.1963707369745862 13.282831149875165 0 0 0 0 2.9467238791330601 -6.5146852703874174 0 -6.5146852703874174 10.596152195683317 0 0 0 0 0.024114680979698377 -0.035765180120682416 0 -0.035765180120682416 -2.6605980773203517 0 0 0 0 -0.032547915862367383 -0.31003650299753716 0 -0.31003650299753716 -0.4816969906603763 0 0 0 0 -41.593038792052539 47.661377702994969 0 47.661377702994969 89.818085843338849 0 0 0 0 -3.9395186978106267 -26.075111297886878 0 -26.075111297886878 -14.816094426305881 0 0 0 0 8.6511772538406149 -35.879562465495368 0 -35.879562465495368 -50.701914137858921 0 0 0 0 -3.2859169617659063 -13.798739714751946 0 -13.798739714751946 2.1077120733016272 0 0 0 0 -4.5666744195705178 -18.924470995060119 0 -18.924470995060119 -3.3017313880864094 0 0 0 0 9.4596780889551155 -20.423771127051069 0 -20.423771127051069 30.395191619127104 0 0 0 0 7.7043398198638897 -18.30422296236577 0 -18.30422296236577 -10.199134289203357 0 0 0 0 7.3204282682272606 -18.740149817251677 0 -18.740149817251677 -10.132064007529095 0 0 0 0 0.76337081194287748 -25.166424257325389 0 -25.166424257325389 -15.424495757047225 0 0 0 0 9.3659972699824721 -22.217042603759637 0 -22.217042603759637 -18.579883261449254 0 0 0 0 3.3731321437153383 -26.753946100777625 0 -26.753946100777625 -22.011896553866109 0 0 0 0 7.5289526761152956 -9.7981829078943576 0 -9.7981829078943576 44.150396888646242 0 0 0 0 49.592162893881323 19.624850801458038 0 19.624850801458038 0.82908912792153444 0 0 0 0 16.011143310350235 9.899401896508536 0 9.899401896508536 26.58378428379703 0 0 0 0 47.935589365253691 -17.008282383572656 0 -17.008282383572656 39.661288168156915 0 0 0 0 33.758911292648918 -8.6515062309252215 0 -8.6515062309252215 41.260369194037743 0 0 0 0 64.597210412171989 -25.429596391688833 0 -25.429596391688833 27.712169703408062 0 0 0 0 23.014137806492727 -26.7597681221147 0 -26.7597681221147 35.884014385742034 0 0 0 0 36.65011079551914 -19.421636901935585 0 -19.421636901935585 22.706954410251512 0 0 0 0 34.974343275732281 -22.646160413724687 0 -22.646160413724687 30.959576969412637 0 0 0 0 84.752736050115345 -24.194539780927201 0 -24.194539780927201 19.355793173529001 0 0 0 0 67.436481896897021 -36.257399601519843 0 -36.257399601519843 17.423666857974183 0 0 0 0 62.614878487314854 -28.633075321614584 0 -28.633075321614584 35.64998947316419 0 0 0 0 90.840724607410152 -72.211949087222678 0 -72.211949087222678 56.135258435386532 0 0 0 0 207.43514800607409 -100.72783754764588 0 -100.72783754764588 13.044826392326563 0 0 0 0 136.77964664373576 -47.671459899315771 0 -47.671459899315771 -4.0984191871752529 0 0 0 0 127.58212667150656 -48.706754727816715 0 -48.706754727816715 22.201596730597181 0 0 0 0 84.274546637374442 7.5365148320939852 0 7.5365148320939852 4.309327430493056 0 0 0 0 258.35956656956387 -63.377723020972532 0 -63.377723020972532 -28.807165418071577 0 0 0 0 153.68216908816385 -2.7128284237036233 0 -2.7128284237036233 -23.911082053472285 0 0 0 0 193.08016280746597 -80.75874523633189 0 -80.75874523633189 5.5030956614276008 0 0 0 0 -36.8630634703743 -80.471572552745229 0 -80.471572552745229 -122.57860228285858 0 0 0 0 -61.437973374269859 -43.476556393664822 0 -43.476556393664822 -16.738705500435998 0 0 0 0 0.25157641795481034 -0.27085282517744602 0 -0.27085282517744602 -0.89317850346044803 0 0 0 0 231.01273205847156 -35.65122469673932 0 -35.65122469673932 -16.083740627955407 0 0 0 0 12.168826501143485 -9.684381001994268 0 -9.684381001994268 -35.530069352952069 0 0 0 0 12.62777464556666 -8.8311893239532111 0 -8.8311893239532111 -50.395948513121311 0 0 0 0 2.9814080821008702 -30.560198242212174 0 -30.560198242212174 -32.316402615816514 0 0 0 0 10.093706253998789 -27.051339543815899 0 -27.051339543815899 -46.736300212699007 0 0 0 0 16.859422529923904 -24.248895134345048 0 -24.248895134345048 -40.096519377326672 0 0 0 0 12.813714734678797 -24.537228018710493 0 -24.537228018710493 -28.40933301289715 0 0 0 0 10.892694514797768 -23.240043491596452 0 -23.240043491596452 -31.146082504230435 0 0 0 0 12.900284269884196 -24.803567542982222 0 -24.803567542982222 -32.560946438378323 0 0 0 0 362.3431914494447 -92.444777650522838 0 -92.444777650522838 -84.972452359166653 0 0 0 0 500.14293830695624 -178.39415228132384 0 -178.39415228132384 -71.609173625881454 0 0 0 0 322.83930523614617 -140.29528606874828 0 -140.29528606874828 -16.933556219070965 0 0 0 0 206.3978349295885 -106.11125335977449 0 -106.11125335977449 -12.719149695515808 0 0 0 0 312.37713648072804 -172.7776716587116 0 -172.7776716587116 12.75623358697937 0 0 0 0 311.77096063792669 -182.76784638527218 0 -182.76784638527218 -31.410658202222749 0 0 0 0 499.11194330514581 -296.59815081761946 0 -296.59815081761946 32.13840160638798 0 0 0 0 36.741030948086518 -34.462760118244432 0 -34.462760118244432 51.006596350155434 0 0 0 0 112.15441486986902 -135.61352903180938 0 -135.61352903180938 124.29796549888198 0 0 0 0 72.256872680377455 -45.764073287619766 0 -45.764073287619766 -16.721851923913391 0 0 0 0 8.4055822665580582 -1.1507103496117403 0 -1.1507103496117403 0.36730050132983816 0 0 0 0 144.44202501244467 -282.79268861726518 0 -282.79268861726518 370.50918482163974 0 0 0 0 225.06814501286681 263.03828764332854 0 263.03828764332854 225.58681395649984 0 0 0 0 3.394191230434302 -0.55388728237002471 0 -0.55388728237002471 0.59765161128402722 0 0 0 0 499.22602801933164 200.93697667012091 0 200.93697667012091 -11.098066603842978 0 0 0 0 251.90661596137215 101.51746136855364 0 101.51746136855364 -45.346580930235938 0 0 0 0 499.87379810764998 20.691943212431518 0 20.691943212431518 -106.5731998826688 0 0 0 0 316.47572239055717 99.265155320517962 0 99.265155320517962 -48.272125851830978 0 0 0 0 167.96031766286796 7.2417385969140611 0 7.2417385969140611 -21.488903169158718 0 0 0 0 266.87067086319348 17.777008339073433 0 17.777008339073433 -40.789547806763039 0 0 0 0 121.37460535723312 62.320826242853641 0 62.320826242853641 5.5090066392226476 0 0 0 0 27.789133866675684 36.078927595085311 0 36.078927595085311 67.848946108272401 0 0 0 0 236.66294420471286 98.53533501023314 0 98.53533501023314 7.5372110839695878 0 0 0 0 5.2171027144981963 -23.817269570925607 0 -23.817269570925607 21.240019091314004 0 0 0 0 0.23019738332391171 -10.771296589587175 0 -10.771296589587175 4.7206773091156933 0 0 0 0 11.301523632079807 -13.919111239294988 0 -13.919111239294988 -26.081864911859583 0 0 0 0 4.7413000907363312 -2.794786975516061 0 -2.794786975516061 -6.2076410910215714 0 0 0 0 7.6692945488184705 -8.5642180378619273 0 -8.5642180378619273 -1.2638821500938491 0 0 0 0 -0.24212900453676411 -3.8334156782741218 0 -3.8334156782741218 1.4109751301530622 0 0 0 0 0.75351349362913567 -1.4222280138061469 0 -1.4222280138061469 -1.6616178757625584 0 0 0 0 1.7362842598022326 1.4263062757887042 0 1.4263062757887042 -5.27398755493968 0 0 0 0 79.643686829055014 -20.057918165397478 0 -20.057918165397478 -8.2803126877169291 0 0 0 0 35.487187972009451 14.46759765796331 0 14.46759765796331 12.765020009634938 0 0 0 0 167.06927719723353 17.746899455180468 0 17.746899455180468 -19.308484301108358 0 0 0 0 77.401686385506082 -21.962025922236904 0 -21.962025922236904 15.18903196698102 0 0 0 0 -0.33250805466150268 -1.7625088033892151 0 -1.7625088033892151 -0.94112176255580948 0 0 0 0 116.01870466970286 11.328250798835604 0 11.328250798835604 -2.6708282763098623 0 0 0 0 0.048939475038398905 -0.33562910776609378 0 -0.33562910776609378 -0.18845600058677381 0 0 0 0 54.58386703035103 8.4216675777249179 0 8.4216675777249179 -4.5408579617182596 0 0 0 0 5.4863353200562415 -1.1691614833408721 0 -1.1691614833408721 -8.9481096155778062 0 0 0 0 1.7923676200861092 0.70550565622972838 0 0.70550565622972838 -0.27553031109311721 0 0 0 0 1.13696490539769 3.0225014792752063 0 3.0225014792752063 -7.4018156093638368 0 0 0 0 -0.066302780866053013 -0.53066936586827129 0 -0.53066936586827129 -1.1031122230458541 0 0 0 0 3.2626102600956983 -0.072342548106149707 0 -0.072342548106149707 -0.39456848441164993 0 0 0 0 2.5260749235192179 0.15477718099783999 0 0.15477718099783999 -0.45212705730045855 0 0 0 0 146.72994859785808 -47.629022173094945 0 -47.629022173094945 -2.9333843754923805 0 0 0 0 0.036713211851663985 0.097698170297497722 0 0.097698170297497722 -0.36434023830300827 0 0 0 0 1.2142261258132261 0.078761952673243485 0 0.078761952673243485 -1.9694868478630696 0 0 0 0 123.01650903354948 30.106191396505739 0 30.106191396505739 -50.707902814357425 0 0 0 0 113.34169026611801 -14.749227310545164 0 -14.749227310545164 -1.9424031318768016 0 0 0 0 170.81874322627846 -53.047679240437454 0 -53.047679240437454 -5.8967243140838423 0 0 0 0 195.39876253556849 -24.300274959115228 0 -24.300274959115228 -20.316672787239042 0 0 0 0 194.06559291245685 -32.268790115458827 0 -32.268790115458827 -10.982650599543064 0 0 0 0 230.3132912757942 -27.820472075020618 0 -27.820472075020618 -30.225485483641421 0 0 0 0 278.74862286457756 -112.22814504998104 0 -112.22814504998104 -11.510097066835208 0 0 0 0 500.24562452242435 -84.400944343615777 0 -84.400944343615777 -96.591676863011926 0 0 0 0 316.3642940753889 2.0232328547570333 0 2.0232328547570333 -104.50672014246338 0 0 0 0 300.06118516587435 -43.473484741291358 0 -43.473484741291358 -39.408648654636011 0 0 0 0 220.75964053361622 13.34206380974183 0 13.34206380974183 -28.446511780528674 0 0 0 0 154.12999437618282 -10.739546058523281 0 -10.739546058523281 -2.6884624572390408 0 0 0 0 174.43726964273901 -33.778147109541486 0 -33.778147109541486 -16.722894056249032 0 0 0 0 498.63977405039259 -44.254539835163186 0 -44.254539835163186 -22.118264542653716 0 0 0 0 2.0409423751261109 1.2343969424440218 0 1.2343969424440218 0.94394001885743295 0 0 0 0 172.37371198167057 -47.671033928836735 0 -47.671033928836735 -21.436872920085811 0 0 0 0 1.7256386995268898 0.43466174360125276 0 0.43466174360125276 0.049285436492988458 0 0 0 0 499.38046433403525 89.868151147184562 0 89.868151147184562 -32.757090583128608 0 0 0 0 106.3521793844393 61.841124909864497 0 61.841124909864497 12.792855516533397 0 0 0 0 -32.064892450591287 18.42131520083057 0 18.42131520083057 98.39964020032744 0 0 0 0 -32.034072321092935 6.4809759417410646 0 6.4809759417410646 -0.82160835992302594 0 0 0 0 0.073651440492540132 119.22929452681018 0 119.22929452681018 -69.293154490793654 0 0 0 0 3.9323089691265558 2.1380353546827884 0 2.1380353546827884 0.81049592352926536 0 0 0 0 14.109790252092353 -117.32562977277092 0 -117.32562977277092 14.092705850873756 0 0 0 0 243.29898467313615 -54.779901296719686 0 -54.779901296719686 -30.088676021212656 0 0 0 0 201.54142193357802 -111.47407189982154 0 -111.47407189982154 -48.735792952895849 0 0 0 0 252.96808371734278 -96.10046226190417 0 -96.10046226190417 -2.3977614902123605 0 0 0 0 159.6391256729712 -42.224900309980569 0 -42.224900309980569 4.7018312985135253 0 0 0 0 112.44871702197634 -54.769135032356985 0 -54.769135032356985 -86.076795969571918 0 0 0 0 94.78828377688933 8.3968972705185649 0 8.3968972705185649 135.81447782842156 0 0 0 0 187.72709960273187 -61.54210359151611 0 -61.54210359151611 136.81137951033452 0 0 0 0 253.76661029758316 41.258257467079147 0 41.258257467079147 265.32101557769795 0 0 0 0 250.08940031338352 -132.82976063467217 0 -132.82976063467217 285.98703790792956 0 0 0 0 196.29224207479001 -32.345695485067516 0 -32.345695485067516 235.94957958044733 0 0 0 0 66.155683094541928 6.1022161743921259 0 6.1022161743921259 230.15340784660481 0 0 0 0 262.64439863412008 104.28249679896183 0 104.28249679896183 222.3680320976014 0 0 0 0 89.686528779680884 85.05591148622949 0 85.05591148622949 221.14582549846932 0 0 0 0 122.61674390585813 63.218468362016921 0 63.218468362016921 217.5440567594473 0 0 0 0 -93.394291346764476 -52.793709760955892 0 -52.793709760955892 172.56063048991578 0 0 0 0 0.65473222865102798 194.04952280240494 0 194.04952280240494 252.17937692266375 0 0 0 0 252.67138743841133 268.01034896188861 0 268.01034896188861 239.35145630181052 0 0 0 0 303.96848773860165 88.975854745470912 0 88.975854745470912 76.226286167746707 0 0 0 0 498.88343895533671 198.59172084334841 0 198.59172084334841 109.36095142244744 0 0 0 0 320.95495483291506 63.185498316782478 0 63.185498316782478 80.264704368642327 0 0 0 0 318.28192652490998 6.5630438644333289 0 6.5630438644333289 103.68628942072799 0 0 0 0 181.36067941687907 6.7453824075978446 0 6.7453824075978446 133.60849986946687 0 0 0 0 248.88807117706347 -53.836446468125004 0 -53.836446468125004 55.642845868549756 0 0 0 0 500.13950161265348 12.017923751006263 0 12.017923751006263 -10.860976529773801 0 0 0 0 352.27627702132031 -40.548900344491045 0 -40.548900344491045 -29.538980678007768 0 0 0 0 350.72073789862384 -35.252061294061889 0 -35.252061294061889 -21.620812447536231 0 0 0 0 499.76277440846479 -91.53158442517892 0 -91.53158442517892 -86.056387968485609 0 0 0 0 36.287006899766311 -60.898597005007829 0 -60.898597005007829 -59.32032419684387 0 0 0 0 274.66090164537673 -109.16390468325127 0 -109.16390468325127 -61.608312609855929 0 0 0 0 228.86722121169259 -43.607541026309889 0 -43.607541026309889 -42.044871667766145 0 0 0 0 143.56093879068885 -45.568213203177322 0 -45.568213203177322 38.900787587935255 0 0 0 0 175.97888126516546 0.16662971765786594 0 0.16662971765786594 -36.434968220319575 0 0 0 0 189.1416159422979 -42.438796395855967 0 -42.438796395855967 120.36207163784673 0 0 0 0 249.83865628288004 -43.929585680209684 0 -43.929585680209684 35.369052914389862 0 0 0 0 209.59357792363608 -47.141177499912473 0 -47.141177499912473 119.92422638491759 0 0 0 0 372.91151591774178 32.992489118524645 0 32.992489118524645 30.543416017005285 0 0 0 0 105.37692870588216 56.91615474689435 0 56.91615474689435 42.857953370592327 0 0 0 0 124.93631716967229 81.116195435975641 0 81.116195435975641 53.994367162946347 0 0 0 0 247.55951429139122 11.97886670287455 0 11.97886670287455 25.787524176519248 0 0 0 0 96.320988134442814 29.493024317658154 0 29.493024317658154 32.506284721107804 0 0 0 0 122.29050022351657 42.253822272431215 0 42.253822272431215 -2.8550700843626089 0 0 0 0 78.024117155198837 64.602253553514501 0 64.602253553514501 18.087772599556775 0 0 0 0 90.905108885146092 80.791799925486103 0 80.791799925486103 38.190422084130986 0 0 0 0 76.011928936903132 27.532768093504544 0 27.532768093504544 -24.78981341756846 0 0 0 0 68.818641447847654 57.735599463661543 0 57.735599463661543 21.85142392488487 0 0 0 0 66.867372614706255 29.821857497077552 0 29.821857497077552 -2.2888277461956363 0 0 0 0 87.445228648432021 14.044872343274548 0 14.044872343274548 -44.525037072806569 0 0 0 0 82.746130121058741 69.146722504802341 0 69.146722504802341 21.913352984534654 0 0 0 0 82.74004473502896 68.68702706675424 0 68.68702706675424 14.490294643924528 0 0 0 0 75.182196379979587 74.699826372148209 0 74.699826372148209 42.380241238121556 0 0 0 0 57.232358913261578 19.770652671130605 0 19.770652671130605 28.344005823492125 0 0 0 0 35.147195065447704 49.660213538281653 0 49.660213538281653 42.106126041856264 0 0 0 0 68.563970611878631 89.601714910752392 0 89.601714910752392 67.633676087005426 0 0 0 0 51.394810157397842 10.176651710545485 0 10.176651710545485 40.252230765143167 0 0 0 0 -6.460607764498036 -10.874611615823156 0 -10.874611615823156 32.741500762962346 0 0 0 0 -30.430556898181635 6.0422665687448003 0 6.0422665687448003 -18.441888663034888 0 0 0 0 -43.802984345149525 90.69307704746268 0 90.69307704746268 -74.048543788587381 0 0 0 0 9.6367009463657496 3.4679043613905245 0 3.4679043613905245 0.68906086914830489 0 0 0 0 19.622750345056829 23.45443663416836 0 23.45443663416836 -48.294773151859886 0 0 0 0 -15.358905597527155 15.918153735790781 0 15.918153735790781 54.392921781681494 0 0 0 0 43.184205579294485 168.07448264950267 0 168.07448264950267 47.454504193335879 0 0 0 0 3.6142245713481103 1.1280928490427717 0 1.1280928490427717 0.47112006961502728 0 0 0 0 500.11778579952352 -115.40594554798903 0 -115.40594554798903 76.858577381947669 0 0 0 0 360.73533517884061 -319.78769797612267 0 -319.78769797612267 284.41454766307402 0 0 0 0 159.80766253665456 -139.90157603988843 0 -139.90157603988843 144.92224951077048 0 0 0 0 276.37439750220983 -156.83395560772573 0 -156.83395560772573 71.003674857558622 0 0 0 0 305.94929550600955 -100.02115333349826 0 -100.02115333349826 3.9430386624538301 0 0 0 0 229.31369475362408 -104.44530208830383 0 -104.44530208830383 99.689964653962761 0 0 0 0 257.12865189807053 -88.543514817646042 0 -88.543514817646042 16.080608577774683 0 0 0 0 254.56984933426338 -105.24913096727133 0 -105.24913096727133 -41.30921539766473 0 0 0 0 269.47822263934404 -54.049214631702284 0 -54.049214631702284 8.9554990180645291 0 0 0 0 261.5496437788679 -67.577811375890704 0 -67.577811375890704 -10.391705759625367 0 0 0 0 264.65452579747307 -75.356104047909866 0 -75.356104047909866 -12.895758583790069 0 0 0 0 190.82905608805777 -93.178296592076151 0 -93.178296592076151 54.324744297740494 0 0 0 0 204.05967253801282 -108.2949876526954 0 -108.2949876526954 48.315649105382988 0 0 0 0 263.2336942054244 -75.990290858175229 0 -75.990290858175229 29.416318290581273 0 0 0 0 160.36965919167869 -121.00887317555208 0 -121.00887317555208 72.452936037089216 0 0 0 0 148.48863767998046 -101.72985028708938 0 -101.72985028708938 59.624640442141107 0 0 0 0 118.83802096798172 -101.56787523165001 0 -101.56787523165001 63.914917598439558 0 0 0 0 81.008807027030343 -61.880616241471671 0 -61.880616241471671 71.942800791973752 0 0 0 0 84.775642581707871 -62.589702281174439 0 -62.589702281174439 46.545368989468216 0 0 0 0 120.92119495655425 -95.841185568397933 0 -95.841185568397933 38.365201041853311 0 0 0 0 161.84949446107021 -133.03405528559932 0 -133.03405528559932 130.43303723192582 0 0 0 0 96.893748458125629 -94.503861116724408 0 -94.503861116724408 111.82337481963248 0 0 0 0 9.9037703790800151 -36.189224510992403 0 -36.189224510992403 6.3599767568089192 0 0 0 0 -54.96369193513965 155.18825976807466 0 155.18825976807466 -101.94413060143528 0 0 0 0 20.084989105402201 56.366916347448637 0 56.366916347448637 -113.70473270443178 0 0 0 0 13.991895168625948 5.1777400272760508 0 5.1777400272760508 0.77437632235455989 0 0 0 0 -114.82219520181388 69.632953315707709 0 69.632953315707709 64.001837128302498 0 0 0 0 27.987367194968101 -15.929748084621139 0 -15.929748084621139 27.440535030463366 0 0 0 0 54.712238052929024 -57.508486006886841 0 -57.508486006886841 46.222437575520701 0 0 0 0 161.84042612664462 39.583286309009026 0 39.583286309009026 -170.42796292095187 0 0 0 0 15.88481425752687 5.9178804662500957 0 5.9178804662500957 0.78248190154085862 0 0 0 0 55.671930066928326 13.546435842598001 0 13.546435842598001 -19.436744741284329 0 0 0 0 4.4145671458227298 -48.39366445770861 0 -48.39366445770861 71.830341451085587 0 0 0 0 38.817656314912711 -29.385813602491339 0 -29.385813602491339 -41.056153512335527 0 0 0 0 17.843276559653077 -11.896221489442382 0 -11.896221489442382 -47.563879463954663 0 0 0 0 24.578917175676906 -36.182321341443867 0 -36.182321341443867 11.692893590841663 0 0 0 0 6.0481720883394843 -0.52145210667801178 0 -0.52145210667801178 -1.225247378892931 0 0 0 0 -10.62346069333671 -20.771384880396113 0 -20.771384880396113 -13.397909619721986 0 0 0 0 60.034685303814513 50.542539571465454 0 50.542539571465454 -102.40113634910847 0 0 0 0 1.355325616794353 0.57083462974577825 0 0.57083462974577825 0.20270403449493801 0 0 0 0 45.518849725603559 -49.993187653549228 0 -49.993187653549228 39.031485523769788 0 0 0 0 24.579448904187302 -15.910773542809238 0 -15.910773542809238 -13.236976569726778 0 0 0 0 13.18874390435758 -4.9616640347157954 0 -4.9616640347157954 -20.224075774767471 0 0 0 0 -17.807483912295311 -35.73761851877245 0 -35.73761851877245 40.219536462244946 0 0 0 0 0.98556984033277217 -0.59617920787281697 0 -0.59617920787281697 0.30402180897612308 0 0 0 0 163.82784364721192 43.509556210073868 0 43.509556210073868 5.9263169685735875 0 0 0 0 154.40792119404614 -35.47364962168183 0 -35.47364962168183 4.9098489509847809 0 0 0 0 144.68218372243609 -5.9551698013452778 0 -5.9551698013452778 -68.545952850423987 0 0 0 0 119.46498318147746 26.338691659047782 0 26.338691659047782 -1.3300361239130325 0 0 0 0 37.525525321801979 13.228046627062724 0 13.228046627062724 -24.151900296661552 0 0 0 0 40.507447292910001 -37.51942629710868 0 -37.51942629710868 45.10840486940296 0 0 0 0 44.279101117369464 -4.2114828660959773 0 -4.2114828660959773 13.195968794234204 0 0 0 0 118.30929448900361 -12.359493943284463 0 -12.359493943284463 -7.2188175758338957 0 0 0 0 75.286558581528425 -26.307874980466181 0 -26.307874980466181 4.7009528649788308 0 0 0 0 88.450251177776948 4.2434442661887175 0 4.2434442661887175 -15.721325186978959 0 0 0 0 80.547971099164897 7.8316065924583427 0 7.8316065924583427 -6.2579686615814438 0 0 0 0 88.683249725492715 8.7470162090626005 0 8.7470162090626005 16.894160887351877 0 0 0 0 66.693449771909627 25.22876042441305 0 25.22876042441305 7.5129601022644295 0 0 0 0 113.88040931219939 44.134579841273933 0 44.134579841273933 6.0210520167934281 0 0 0 0 109.30609240575905 22.076713186810867 0 22.076713186810867 -16.541503805057154 0 0 0 0 104.30544450396746 25.005759596699789 0 25.005759596699789 -7.5863150788787266 0 0 0 0 103.87646190572104 19.468023647138139 0 19.468023647138139 -16.039683294584279 0 0 0 0 90.8426489434205 -0.57886302512076071 0 -0.57886302512076071 -20.987028956739021 0 0 0 0 65.293918919634052 9.6199439016452963 0 9.6199439016452963 -14.550194854733824 0 0 0 0 49.056166446396446 -28.132289745743993 0 -28.132289745743993 -31.00346244500642 0 0 0 0 31.52407496532669 10.070335750450326 0 10.070335750450326 -3.4734820041367698 0 0 0 0 79.222597050206787 -3.7280323409946448 0 -3.7280323409946448 -20.074985166666494 0 0 0 0 74.260253156593535 33.566825805483518 0 33.566825805483518 5.4568997884546171 0 0 0 0 2.1975986944613393 -1.6560694714279229 0 -1.6560694714279229 1.052798085223065 0 0 0 0 -2.6565004420608602 -16.085801405776976 0 -16.085801405776976 -22.454958641159124 0 0 0 0 40.623309429830897 -3.0418278043998583 0 -3.0418278043998583 -4.9791183360887317 0 0 0 0 -0.56449736432750797 -5.6947980184630751 0 -5.6947980184630751 -8.3268784443696404 0 0 0 0 -1.3670218133356684 -6.667078978827476 0 -6.667078978827476 -9.4190595277926832 0 0 0 0 0.47792394185580633 -4.0568813305595768 0 -4.0568813305595768 -9.3498910361614378 0 0 0 0 1.0033425875008106 -7.5531451307450652 0 -7.5531451307450652 -8.4729959113740847 0 0 0 0 2.7056231457654576 -6.1983178047193519 0 -6.1983178047193519 -7.4865255703601861 0 0 0 0 0.28051373700327531 -7.9157406156853085 0 -7.9157406156853085 -4.2686858313619496 0 0 0 0 0.30837441270796262 -7.8528799383437899 0 -7.8528799383437899 -7.9587460542647648 0 0 0 0 4.135655159133421 -18.99869755151396 0 -18.99869755151396 -1.8051684408111512 0 0 0 0 2.8257989634236367 -2.3786196288036789 0 -2.3786196288036789 1.8748614875276184 0 0 0 0 -7.6581954836856312 -11.852047255205107 0 -11.852047255205107 -1.445191656039218 0 0 0 0 3.6205961648954634 -3.1591009556131233 0 -3.1591009556131233 2.0496732795999093 0 0 0 0 -6.6068774708178353 -6.4384916845247702 0 -6.4384916845247702 10.141149072330563 0 0 0 0 3.6315975737043118 -4.3477293041166831 0 -4.3477293041166831 -1.644330174707477 0 0 0 0 -0.54767167088815327 -0.2488254634990214 0 -0.2488254634990214 0.35797887991713517 0 0 0 0 15.454716035165234 -34.69239203930546 0 -34.69239203930546 -52.498227873165263 0 0 0 0 -10.990123278495048 11.633409261877986 0 11.633409261877986 -4.4762186274717948 0 0 0 0 0.77978197288848605 -1.0245057827308415 0 -1.0245057827308415 0.79762540003226001 0 0 0 0 3.6067816992850936 -2.7626327455243098 0 -2.7626327455243098 0.96012846465924961 0 0 0 0 6.1010841627198715 1.1230831645752346 0 1.1230831645752346 -7.6725470995045839 0 0 0 0 0.75382050137459089 -0.18424632867714585 0 -0.18424632867714585 -0.79024493584415112 0 0 0 0 3.9778745137757028 -6.7469943487628896 0 -6.7469943487628896 -4.5518048473079489 0 0 0 0 2.8753520298587318 -5.1811662563654295 0 -5.1811662563654295 -0.16458993785364839 0 0 0 0 3.6167656062330025 -5.9207425184899876 0 -5.9207425184899876 -5.5849096631552584 0 0 0 0 1.1365500791052909 -5.5914975485127343 0 -5.5914975485127343 -4.922050299592911 0 0 0 0 3.5463935236098223 -6.0089303853524143 0 -6.0089303853524143 -6.3934786064874061 0 0 0 0 2.8934788014648802 -6.9333234142398794 0 -6.9333234142398794 -5.5523974194388757 0 0 0 0 5.256841397350053 -3.0968411428726412 0 -3.0968411428726412 -3.3009047694780511 0 0 0 0 3.5322864199970354 -6.3936006812547248 0 -6.3936006812547248 -4.7343180736189652 0 0 0 0 3.086225044483399 -7.3858624360810268 0 -7.3858624360810268 -6.2997399864711952 0 0 0 0 5.1854843715173047 -5.8055046829887829 0 -5.8055046829887829 -8.8113200053888363 0 0 0 0 5.7792794518387094 -2.9019650623395119 0 -2.9019650623395119 -3.7939406562584503 0 0 0 0 -1.9287284326028384 -9.0225201901213339 0 -9.0225201901213339 -3.8078284681425316 0 0 0 0 5.5626313061411565 -4.4440685103977557 0 -4.4440685103977557 -5.6907688749261069 0 0 0 0 9.6106614023960901 -4.8472690169959591 0 -4.8472690169959591 -4.2488740816806825 0 0 0 0 4.5951108763028614 -2.7342956505253544 0 -2.7342956505253544 -1.2538536272876106 0 0 0 0 5.8638076331681077 -1.4308390723327165 0 -1.4308390723327165 -2.3611048781184802 0 0 0 0 8.5378172422206262 0.29181513152506255 0 0.29181513152506255 -3.0906760138985874 0 0 0 0 11.977912182836008 -2.9996062900059997 0 -2.9996062900059997 -8.9743768279128044 0 0 0 0 11.78087083210994 2.3240907494492262 0 2.3240907494492262 -9.4783850155728722 0 0 0 0 -10.691765064570518 -8.5954581638453647 0 -8.5954581638453647 2.7085015043016938 0 0 0 0 8.1243553257905496 -4.1207757692591986 0 -4.1207757692591986 -4.130759300756389 0 0 0 0 2.3475917448363361 -6.3154505029636425 0 -6.3154505029636425 -7.9568144973580957 0 0 0 0 0.5004057522340446 -1.6429836566939793 0 -1.6429836566939793 -0.66040184910542177 0 0 0 0 0.44660061053246736 0.14972727433335464 0 0.14972727433335464 0.13165792420761824 0 0 0 0 0.88719442973251716 -4.1938399374733706 0 -4.1938399374733706 -14.405298816574032 0 0 0 0 2.5891125892821947 -0.49851663315905625 0 -0.49851663315905625 -10.638280538573724 0 0 0 0 -4.2176239191749119 -4.0182860797760895 0 -4.0182860797760895 38.757575203550914 0 0 0 0 5.2977192568400824 -31.033137402780369 0 -31.033137402780369 15.001887953376126 0 0 0 0 4.1551494995865141 -8.788053425582234 0 -8.788053425582234 -6.9175470716539849 0 0 0 0 28.168207085454924 -41.106863416019905 0 -41.106863416019905 -13.43734359562211 0 0 0 0 -6.04963673455768 -22.455815735651186 0 -22.455815735651186 -2.6473332527762921 0 0 0 0 6.8138738796490479 -4.3528894140264125 0 -4.3528894140264125 -4.1196485344770526 0 0 0 0 8.1136889554409208 -14.672311006447615 0 -14.672311006447615 -18.409792593802308 0 0 0 0 12.412259291110786 -11.317881860911655 0 -11.317881860911655 -17.419284588926701 0 0 0 0 8.7554048206691117 -3.4166281326824173 0 -3.4166281326824173 -4.7247418307774858 0 0 0 0 8.7844455332888174 4.3202252064581899 0 4.3202252064581899 -13.077160391855898 0 0 0 0 45.745598278924263 0.42959691682105472 0 0.42959691682105472 -11.622896698651971 0 0 0 0 -16.482221032219968 -8.5856246139240397 0 -8.5856246139240397 0.46023597079306455 0 0 0 0 -4.1853308690151607 34.400721784562961 0 34.400721784562961 17.253115203811717 0 0 0 0 6.4749403433961561 2.7664341677656239 0 2.7664341677656239 -4.5619833277960993 0 0 0 0 1.6253353338684526 -0.17516629620101121 0 -0.17516629620101121 -0.012148850845540293 0 0 0 0 31.680745010323335 -20.654209293978312 0 -20.654209293978312 2.3603061675410117 0 0 0 0 6.6755952259227342 1.3196683940534513 0 1.3196683940534513 2.5380193220958915 0 0 0 0 4.4459960158637841 -0.70589036472028965 0 -0.70589036472028965 -1.6524399876980169 0 0 0 0 6.0760786182217998 0.082284804375518661 0 0.082284804375518661 0.74389817694770954 0 0 0 0 2.5062396331172518 -2.1379365694010879 0 -2.1379365694010879 -1.4799013413954425 0 0 0 0 7.6963915871820063 2.3143502919378989 0 2.3143502919378989 -0.72869032468005912 0 0 0 0 9.5815148716092153 1.7910001832912741 0 1.7910001832912741 -1.3501001820175702 0 0 0 0 8.0745512272369524 3.9028469047137833 0 3.9028469047137833 3.2553475030837262 0 0 0 0 13.960320350123084 6.9589393101877199 0 6.9589393101877199 -2.1778553221935226 0 0 0 0 10.502806001835779 -0.46821942096784142 0 -0.46821942096784142 -0.66338828528284921 0 0 0 0 1.5128385261023887 -0.0010901734808363983 0 -0.0010901734808363983 -0.24477131432694166 0 0 0 0 2.4303028870871586 -1.2152281700633871 0 -1.2152281700633871 -0.46974582539853338 0 0 0 0 5.322677047457546 1.6616019934952746 0 1.6616019934952746 0.55729609418170867 0 0 0 0 2.323224262867825 0.50439614158469226 0 0.50439614158469226 2.7060992448182333 0 0 0 0 0.54670150531401873 -0.46347171682108268 0 -0.46347171682108268 0.17137845858358514 0 0 0 0 11.688735523641299 2.7862765828217562 0 2.7862765828217562 3.6058344797767745 0 0 0 0 15.86022814136777 -1.3735103849334962 0 -1.3735103849334962 -2.7398407152470554 0 0 0 0 20.734349507369188 5.3612934425366063 0 5.3612934425366063 2.0996956648270952 0 0 0 0 6.6154348843410844 -10.087561881113515 0 -10.087561881113515 2.4287240574375488 0 0 0 0 2.0224644371703349 -1.6722069459140663 0 -1.6722069459140663 -0.40118178042967401 0 0 0 0 4.1974910043541058 -2.5086346159010269 0 -2.5086346159010269 0.0042344936099552033 0 0 0 0 7.2896213037456619 -10.197122890499031 0 -10.197122890499031 2.4178527020510501 0 0 0 0 7.5450919002611272 2.9739752219603623 0 2.9739752219603623 2.2478013763929994 0 0 0 0 2.8007344477891607 0.15020806710456824 0 0.15020806710456824 0.3609973074153574 0 0 0 0 5.8578451852372382 0.25207106368611676 0 0.25207106368611676 -0.10429982018195005 0 0 0 0 5.8388511084589823 -1.7205167836748068 0 -1.7205167836748068 0.45243580657679061 0 0 0 0 9.0356974494770839 -0.65496680887417824 0 -0.65496680887417824 5.9212949877660321 0 0 0 0 8.8408712833971101 -3.9156820691503675 0 -3.9156820691503675 -0.88793426673874887 0 0 0 0 9.6146051849741738 0.78805927507488427 0 0.78805927507488427 0.31092233130563662 0 0 0 0 19.371498054935728 0.89016736643435479 0 0.89016736643435479 -7.0239014918175826 0 0 0 0 5.4236624771365314 4.4623381803693292 0 4.4623381803693292 -2.5344323283665631 0 0 0 0 12.915926474484877 -7.8272412551395973 0 -7.8272412551395973 10.161139638427699 0 0 0 0 25.392766385961295 -7.9161897220487276 0 -7.9161897220487276 -6.0415954441466511 0 0 0 0 30.122186751930712 3.7381489716609053 0 3.7381489716609053 -10.307858117503258 0 0 0 0 12.708527107313511 0.56592973897831556 0 0.56592973897831556 -1.7252857397803996 0 0 0 0 11.507771989647154 1.4961298112485792 0 1.4961298112485792 -0.12782305616462963 0 0 0 0 6.4961329677626054 7.2769439653466463 0 7.2769439653466463 2.6002768833391201 0 0 0 0 23.748906355622239 -3.9941423629572768 0 -3.9941423629572768 -4.1409447622855851 0 0 0 0 13.485947574350849 -6.2474076293416196 0 -6.2474076293416196 -3.322518778679501 0 0 0 0 54.636151217491715 -10.765852466789511 0 -10.765852466789511 -2.7104744467984574 0 0 0 0 3.453552627754938 -2.0743680888022205 0 -2.0743680888022205 -1.3124792581744877 0 0 0 0 27.657073426122224 14.359839299299267 0 14.359839299299267 12.675263114171116 0 0 0 0 16.409898815523775 21.678926423774158 0 21.678926423774158 2.8726001238603658 0 0 0 0 15.864653309581627 1.8170096017692003 0 1.8170096017692003 2.4359578147522996 0 0 0 0 15.757952295487485 8.5905553004404283 0 8.5905553004404283 2.2525460453658752 0 0 0 0 19.007249198304635 2.5706095642066202 0 2.5706095642066202 -0.69061455915243641 0 0 0 0 19.750230876335991 -5.4475201264264115 0 -5.4475201264264115 16.012392731349806 0 0 0 0 -1.4552150067438561 8.7083643808333875 0 8.7083643808333875 5.9480144290342878 0 0 0 0 8.2531749269764987 -4.2051031014772633 0 -4.2051031014772633 -2.2854420044559638 0 0 0 0 13.20305672800896 -6.7540757292397871 0 -6.7540757292397871 8.2078036697868413 0 0 0 0 2.8248329808411654 -4.5635993382529367 0 -4.5635993382529367 -1.5189786075352139 0 0 0 0 1.9316215823188614 -1.5277575860362944 0 -1.5277575860362944 0.94569176007127509 0 0 0 0 43.691927039882103 15.816537241554343 0 15.816537241554343 2.4727462623731071 0 0 0 0 51.07528625230043 1.1233541774166156 0 1.1233541774166156 5.6080416435094094 0 0 0 0 15.698862837454499 7.8677262715658429 0 7.8677262715658429 5.0174748780369782 0 0 0 0 37.958033179405902 13.401473067811111 0 13.401473067811111 1.5782840101446709 0 0 0 0 38.387218053894685 12.943267398980652 0 12.943267398980652 1.0253278199187434 0 0 0 0 1.2667075462910233 -0.91063225286940863 0 -0.91063225286940863 0.5414840111475282 0 0 0 0 46.488424425184348 19.181667574410056 0 19.181667574410056 0.33536009291355917 0 0 0 0 -2.6887874843869213 -7.129817841941211 0 -7.129817841941211 -5.2272827445700933 0 0 0 0 3.2114623175411907 0.035110205731786692 0 0.035110205731786692 -2.3800473361239547 0 0 0 0 9.5779416140703688 -0.44123029850629081 0 -0.44123029850629081 -1.2941398518410097 0 0 0 0 8.4030595573312894 -3.0019450600845428 0 -3.0019450600845428 -3.6755786462671858 0 0 0 0 7.8643361631002335 -2.8764843021885778 0 -2.8764843021885778 -0.32065860751592368 0 0 0 0 0.20991982507728579 -0.1926214481878965 0 -0.1926214481878965 -1.1896842633567171 0 0 0 0 11.309848081538803 -0.022020773624859658 0 -0.022020773624859658 -1.3160945831587014 0 0 0 0 0.34267973143808206 -0.23209030877552905 0 -0.23209030877552905 -0.2548101316637445 0 0 0 0 1.4964988786641094 0.38707378660952685 0 0.38707378660952685 -0.52370901627458077 0 0 0 0 10.148434137889126 -1.8316750046728316 0 -1.8316750046728316 -2.4129113345917972 0 0 0 0 11.632149718318033 -0.85030278310873086 0 -0.85030278310873086 -2.3812158639306062 0 0 0 0 11.059401380538475 -1.4051975503885785 0 -1.4051975503885785 -1.976354119524629 0 0 0 0 10.544207640126842 -1.3244600178826005 0 -1.3244600178826005 -0.84234347367447526 0 0 0 0 12.788183829853551 -0.70979065082065063 0 -0.70979065082065063 -0.16586239948352954 0 0 0 0 13.644590615285779 -1.2285667177505672 0 -1.2285667177505672 -0.92043179414083554 0 0 0 0 -0.029536380717322785 -0.15404820973935784 0 -0.15404820973935784 -0.66517699222277027 0 0 0 0 5.5861127875509737 1.3849844048869329 0 1.3849844048869329 -2.1714256900971538 0 0 0 0 6.6928564950358123 -0.017136323342477944 0 -0.017136323342477944 -2.7725377017716575 0 0 0 0 -0.0058993980560302361 -0.062722101903506911 0 -0.062722101903506911 -0.20310941268149704 0 0 0 0 -4.4200480688923562 6.6614804549153011 0 6.6614804549153011 -0.94542155866642474 0 0 0 0 32.093583227302588 3.8337309083895335 0 3.8337309083895335 -1.143684155648458 0 0 0 0 0.20670229436874621 -0.11468335181670852 0 -0.11468335181670852 -0.15737517131289774 0 0 0 0 16.237749921669092 -11.393213511744669 0 -11.393213511744669 -0.073962624886895867 0 0 0 0 12.072784925703672 6.9182854173123474 0 6.9182854173123474 -5.900898199709113 0 0 0 0 30.298793911691973 0.03344362164368464 0 0.03344362164368464 -3.8831610197424808 0 0 0 0 19.030035873503039 -4.9369531906686746 0 -4.9369531906686746 0.03199034494140654 0 0 0 0 19.283533208179506 37.103375744662735 0 37.103375744662735 10.747490482102357 0 0 0 0 0.10370404520432075 -0.034965680356499718 0 -0.034965680356499718 -0.04725791103164606 0 0 0 0 21.637553134183236 -12.515609117097878 0 -12.515609117097878 0.19128738528067996 0 0 0 0 26.260724323850809 -5.1020338675520769 0 -5.1020338675520769 -0.014757139107105957 0 0 0 0 17.73379616931561 -4.3541503396845256 0 -4.3541503396845256 0.0446663636804292 0 0 0 0 15.262077790857347 -5.5900482877485667 0 -5.5900482877485667 -0.30500285015234851 0 0 0 0 18.666835526001023 -9.4309169868335392 0 -9.4309169868335392 0.27341458159470378 0 0 0 0 15.623685669330371 -6.4777578485720797 0 -6.4777578485720797 -0.56260900224329902 0 0 0 0 7.9908463172741904 0.7660686344421741 0 0.7660686344421741 -3.6646706722180911 0 0 0 0 11.896808809417053 -7.2743021150066003 0 -7.2743021150066003 2.7006938113120711 0 0 0 0 5.4933682756945927 1.5410640748460391 0 1.5410640748460391 -2.3998670061016871 0 0 0 0 5.1924342115157174 -2.1868226911868072 0 -2.1868226911868072 -7.5933118666324599 0 0 0 0 2.9658422307402361 1.0387170659719283 0 1.0387170659719283 -2.3294241858102755 0 0 0 0 -3.1868609745029062 -18.842140943288928 0 -18.842140943288928 6.5617536542876866 0 0 0 0 0.52097201576818009 -0.28058441579899807 0 -0.28058441579899807 0.11368526868296483 0 0 0 0 78.978025120928578 59.308368524732387 0 59.308368524732387 16.162308173510574 0 0 0 0 65.707121059833526 -25.913531546263233 0 -25.913531546263233 -4.1146116191795272 0 0 0 0 -20.342284610711431 -25.472806930668582 0 -25.472806930668582 13.617919627604465 0 0 0 0 10.367185368922037 23.566901706264701 0 23.566901706264701 16.08680148130307 0 0 0 0 33.055171855374283 -23.853429711657068 0 -23.853429711657068 2.0708813487337769 0 0 0 0 53.663486358057526 0.24946493965842509 0 0.24946493965842509 -7.9263408963751196 0 0 0 0 15.702272451995668 -0.94365444386739361 0 -0.94365444386739361 -0.0040762639706139097 0 0 0 0 22.166044877090826 1.5431834286017136 0 1.5431834286017136 -7.903275627313338 0 0 0 0 -4.7153329445336567 -3.1326365100202667 0 -3.1326365100202667 0.0092978516251724305 0 0 0 0 1.3279925482115367 -0.59869660692833904 0 -0.59869660692833904 0.015099110871840425 0 0 0 0 4.6792031222366859 6.9830973135451142 0 6.9830973135451142 3.9012460740482924 0 0 0 0 159.23327949551776 -63.216522597038612 0 -63.216522597038612 19.441471231363622 0 0 0 0 1.9151377565870149 -1.5130789301601517 0 -1.5130789301601517 0.16231986924566161 0 0 0 0 -12.621071363975716 -7.5844796264047822 0 -7.5844796264047822 1.8166341404830617 0 0 0 0 0.76612095299651628 -4.6569848498258324 0 -4.6569848498258324 -5.7485444096802212 0 0 0 0 2.0042797320128329 -0.88427578519882744 0 -0.88427578519882744 0.33712695657254677 0 0 0 0 512.61334024511598 -8.4277803546620476 0 -8.4277803546620476 -66.37293696887059 0 0 0 0 -2.651914540278085 -7.5849263189476943 0 -7.5849263189476943 0.52713844465557713 0 0 0 0 129.96438561913601 196.13721687045609 0 196.13721687045609 176.32428231628569 0 0 0 0 286.56912222739993 38.080433958435151 0 38.080433958435151 -19.213516109072884 0 0 0 0 511.48317906408192 187.80127384100513 0 187.80127384100513 7.3891662161500449 0 0 0 0 384.53241139603233 -134.60936910391462 0 -134.60936910391462 -37.528083040799231 0 0 0 0 198.15039776370759 63.973952263762072 0 63.973952263762072 -10.915672970309579 0 0 0 0 132.73926314652272 9.5692572307488888 0 9.5692572307488888 -6.812768286169046 0 0 0 0 27.403363331010951 55.206037374294397 0 55.206037374294397 38.879734513745575 0 0 0 0 -27.389860821145334 -71.39577032608787 0 -71.39577032608787 -2.1476288999689359 0 0 0 0 1.8420284901787838 -2.362352457127745 0 -2.362352457127745 1.4491396254302051 0 0 0 0 -22.793996094405884 86.4171234519618 0 86.4171234519618 193.56027844363541 0 0 0 0 2.3147140732307108 -1.5529058225219963 0 -1.5529058225219963 -0.39310559801839462 0 0 0 0 41.382041953256703 19.887090028202834 0 19.887090028202834 19.13954398316362 0 0 0 0 52.171525098685379 17.608680385099319 0 17.608680385099319 -18.994126556591141 0 0 0 0 46.241214735706706 11.283188481341282 0 11.283188481341282 -5.2922899379532851 0 0 0 0 -11.858096565927553 2.004719284463647 0 2.004719284463647 -2.2027247002633885 0 0 0 0 -0.56182361055532226 -0.52191976188863975 0 -0.52191976188863975 0.016246364010631176 0 0 0 0 33.363967674204105 7.2817275980225986 0 7.2817275980225986 -0.48337017316947595 0 0 0 0 40.547055573031685 -7.2251649444564805 0 -7.2251649444564805 -23.796898809297467 0 0 0 0 -41.82374412621084 -16.579118861455854 0 -16.579118861455854 12.352712853673665 0 0 0 0 3.3281826205563618 -2.5780441606910323 0 -2.5780441606910323 0.34833923672917044 0 0 0 0 54.303121788461794 1.9625965194743031 0 1.9625965194743031 2.7138152806647611 0 0 0 0 9.9796485097613186 24.672295253676452 0 24.672295253676452 17.786340967415786 0 0 0 0 -17.676619584115542 0.57387857521873542 0 0.57387857521873542 1.2587593261478673 0 0 0 0 19.907451852719532 -29.238958667899112 0 -29.238958667899112 5.4843483157103066 0 0 0 0 5.4533997359968396 -0.79614873825090982 0 -0.79614873825090982 -0.84489528788945822 0 0 0 0 19.144008399086488 -2.7756105696451812 0 -2.7756105696451812 -3.7243951987571791 0 0 0 0 16.923335413826212 4.5686568296184689 0 4.5686568296184689 -0.18140097538821059 0 0 0 0 31.965288271237569 6.5128188614577311 0 6.5128188614577311 -45.216666552767151 0 0 0 0 1.6693571559603697 13.281366608307668 0 13.281366608307668 10.786338482566038 0 0 0 0 8.5519114167800581 26.474612270267492 0 26.474612270267492 -6.6789546591783626 0 0 0 0 62.487942867783204 -14.734068176892961 0 -14.734068176892961 -14.748250088111032 0 0 0 0 75.132307678726647 -1.5814397845720265 0 -1.5814397845720265 -14.707451816752211 0 0 0 0 113.96626262880818 -26.53187536245958 0 -26.53187536245958 -15.603274077571996 0 0 0 0 132.24117648920947 -77.713366484548231 0 -77.713366484548231 -20.810580474509806 0 0 0 0 113.03074703954189 -74.112852253662368 0 -74.112852253662368 13.080130897997044 0 0 0 0 101.19127457445211 -67.300964446927864 0 -67.300964446927864 11.273114137015938 0 0 0 0 174.19810264086183 -6.6678724678743091 0 -6.6678724678743091 -22.20513441439175 0 0 0 0 175.31391142893096 -81.754867529199061 0 -81.754867529199061 -22.838599196573057 0 0 0 0 75.005211509171204 23.92929835570331 0 23.92929835570331 -1.3514883327907938 0 0 0 0 150.17742993391403 -143.82077438326203 0 -143.82077438326203 -12.074504273308207 0 0 0 0 116.71056602765748 -148.98720933035437 0 -148.98720933035437 13.521505375683823 0 0 0 0 100.91252301479108 -134.90433045307128 0 -134.90433045307128 -4.999419471462005 0 0 0 0 187.16852237613602 -95.857439145503776 0 -95.857439145503776 -42.689409837674248 0 0 0 0 204.75906633461091 -139.59706677758089 0 -139.59706677758089 -26.036595118888613 0 0 0 0 152.10628178601792 -136.94827044892543 0 -136.94827044892543 -11.596592517691334 0 0 0 0 152.33412146252886 -105.02861232209324 0 -105.02861232209324 6.9538555211970561 0 0 0 0 142.16400001731927 -118.05243652439982 0 -118.05243652439982 -0.12423107480200457 0 0 0 0 107.62555992035095 -82.766400068976438 0 -82.766400068976438 25.591676897083659 0 0 0 0 154.70931081244089 -109.24145787312486 0 -109.24145787312486 33.318885769900604 0 0 0 0 136.64147463393601 -120.49771006909833 0 -120.49771006909833 40.360804608710176 0 0 0 0 139.36941395058602 -130.95663111859056 0 -130.95663111859056 16.239149839343451 0 0 0 0 186.21762860023955 -84.296178304590555 0 -84.296178304590555 53.589169234977518 0 0 0 0 215.97539844106723 -62.858167328487951 0 -62.858167328487951 25.848366688139322 0 0 0 0 178.22995721766347 -60.83700845071256 0 -60.83700845071256 65.45673868521861 0 0 0 0 149.6192809447457 -70.611020993193307 0 -70.611020993193307 93.383086383309063 0 0 0 0 195.23274836194969 -35.570799658156176 0 -35.570799658156176 89.421813733932396 0 0 0 0 198.29436682651431 -50.144393744287939 0 -50.144393744287939 70.872594645160802 0 0 0 0 172.71448781600611 -78.292518867996904 0 -78.292518867996904 71.754701825205927 0 0 0 0 156.61524773042584 -79.020379288966566 0 -79.020379288966566 83.804418967464926 0 0 0 0 138.77342736738743 -102.58014647806299 0 -102.58014647806299 37.553777672150574 0 0 0 0 136.87566864281325 -111.95089304077928 0 -111.95089304077928 57.698777605651358 0 0 0 0 290.28485152351254 -49.328947455954228 0 -49.328947455954228 -23.073870715226633 0 0 0 0 292.43644946610391 -30.515695748538697 0 -30.515695748538697 -2.8885361602453372 0 0 0 0 285.41501304375015 -26.59053587690358 0 -26.59053587690358 25.986030591797402 0 0 0 0 252.89169371589742 -29.357533795098725 0 -29.357533795098725 52.86572449463921 0 0 0 0 253.33454420782073 -30.938367931235966 0 -30.938367931235966 37.833181807697741 0 0 0 0 283.62360197696398 4.4652391724858091 0 4.4652391724858091 79.138050084308304 0 0 0 0 286.75419405895082 -26.495087422763163 0 -26.495087422763163 25.796780636455267 0 0 0 0 281.71017732679684 -34.924511348917065 0 -34.924511348917065 9.3865525725510679 0 0 0 0 232.78586180062848 -15.885602355904439 0 -15.885602355904439 99.726135900568522 0 0 0 0 200.25682370058348 -104.99891769904752 0 -104.99891769904752 94.780962779201104 0 0 0 0 165.74042274794192 -60.306682400271171 0 -60.306682400271171 159.91726507059707 0 0 0 0 200.38410206277331 -94.34609309580668 0 -94.34609309580668 237.67756885036346 0 0 0 0 242.43096769425756 -69.778878215459486 0 -69.778878215459486 176.06714426886822 0 0 0 0 362.50621520334244 -229.64767617428492 0 -229.64767617428492 296.75151005992979 0 0 0 0 232.99636297924371 -58.975655282778604 0 -58.975655282778604 435.7581258012076 0 0 0 0 292.47089483066247 -11.183451882108788 0 -11.183451882108788 68.204968502717236 0 0 0 0 233.71429145564343 -20.776744794687907 0 -20.776744794687907 102.51013964041601 0 0 0 0 281.5421520030286 48.226436740389431 0 48.226436740389431 198.10846285907124 0 0 0 0 290.22878175956885 -8.1832043726270669 0 -8.1832043726270669 40.819692922892557 0 0 0 0 309.86307409177243 51.185103555485966 0 51.185103555485966 198.62331919969756 0 0 0 0 293.37418208877352 -1.8413792353856593 0 -1.8413792353856593 72.937434683488505 0 0 0 0 313.513723694281 107.90891697767505 0 107.90891697767505 -20.026194395910068 0 0 0 0 124.27673630888421 146.88860039435207 0 146.88860039435207 -9.7897910393450047 0 0 0 0 521.5602137810456 -97.587915376401725 0 -97.587915376401725 14.514821781601995 0 0 0 0 318.20672644568549 18.572959178639394 0 18.572959178639394 -45.047184350798148 0 0 0 0 223.20195407185747 -13.43717079158364 0 -13.43717079158364 -55.127867085612394 0 0 0 0 297.87872795671865 -24.147081237789962 0 -24.147081237789962 -92.184554405833012 0 0 0 0 225.35304452815853 -122.32242877997112 0 -122.32242877997112 -26.527063796850484 0 0 0 0 187.70219887209896 -37.926684513482712 0 -37.926684513482712 -10.370259315985777 0 0 0 0 355.69611080451341 -141.046304274129 0 -141.046304274129 52.325210373916775 0 0 0 0 302.68656587803343 -109.95977910307596 0 -109.95977910307596 66.406665541724351 0 0 0 0 145.79180977300712 55.353705434066853 0 55.353705434066853 -117.67963285590398 0 0 0 0 130.17410955714877 -94.928009897023458 0 -94.928009897023458 -30.069238363635776 0 0 0 0 141.51977939666176 -115.69848857924121 0 -115.69848857924121 -3.0434528336588187 0 0 0 0 108.59425776507942 -122.15017406045502 0 -122.15017406045502 35.072489199157388 0 0 0 0 136.20124408420452 -128.50767605221336 0 -128.50767605221336 31.218149653467776 0 0 0 0 124.48453418443387 -99.812719792565503 0 -99.812719792565503 98.490223821508152 0 0 0 0 158.27870088027703 -69.006052845879509 0 -69.006052845879509 65.664789589493722 0 0 0 0 144.19360327486811 -55.086573504313364 0 -55.086573504313364 -146.04794558440261 0 0 0 0 74.16880442632646 -128.92361272385472 0 -128.92361272385472 -5.6058731402269757 0 0 0 0 29.017578652175871 -100.5963401114421 0 -100.5963401114421 -78.726367304398764 0 0 0 0 123.25357621752846 -114.09581026313776 0 -114.09581026313776 -90.789201193753911 0 0 0 0 -40.634882368372928 18.540270443195624 0 18.540270443195624 -104.05965830713643 0 0 0 0 11.948721258910709 1.2982879898013628 0 1.2982879898013628 -0.81048601975366896 0 0 0 0 126.17758132162817 92.863487095197442 0 92.863487095197442 -364.3733137487929 0 0 0 0 89.394827321553748 -30.147682582120737 0 -30.147682582120737 -222.13245129357648 0 0 0 0 71.060344166940922 -3.4995345369102147 0 -3.4995345369102147 -201.89676289477259 0 0 0 0 -17.887168743046459 5.5931372521732357 0 5.5931372521732357 -74.98080635302864 0 0 0 0 10.485537252421757 0.80756203237642588 0 0.80756203237642588 -0.82899815746632455 0 0 0 0 81.231735565263079 21.353942264941821 0 21.353942264941821 -353.90731891847463 0 0 0 0 116.17674665751656 -66.266954912757399 0 -66.266954912757399 -143.60874184196331 0 0 0 0 150.98606138696778 -158.68834838407358 0 -158.68834838407358 -14.081527738458419 0 0 0 0 93.220646338698316 -64.637194476636566 0 -64.637194476636566 -23.624792914279169 0 0 0 0 139.68873512163009 -128.10863521428172 0 -128.10863521428172 59.383591631001252 0 0 0 0 167.55973613977585 275.52077311296443 0 275.52077311296443 -275.58859964981269 0 0 0 0 4.340239504933642 0.341640878211523 0 0.341640878211523 -0.25797512137175971 0 0 0 0 506.42432189309682 -303.11937857129021 0 -303.11937857129021 138.76510687551342 0 0 0 0 481.48360395191639 116.56665494228469 0 116.56665494228469 -196.39570162562831 0 0 0 0 173.78177037100249 57.369443174727138 0 57.369443174727138 -77.139125722617621 0 0 0 0 -67.786167274182844 11.765806500635108 0 11.765806500635108 -82.850210660090113 0 0 0 0 32.763457226319588 24.0745198479949 0 24.0745198479949 18.517729524994422 0 0 0 0 217.60779179696149 23.851799226637986 0 23.851799226637986 12.068754061471111 0 0 0 0 152.09971049073101 74.190119300207499 0 74.190119300207499 52.834387075247591 0 0 0 0 220.60733194217573 155.07375424851003 0 155.07375424851003 54.216292854068101 0 0 0 0 327.91417763962636 138.18828523634721 0 138.18828523634721 -10.302597894843569 0 0 0 0 427.52396121385755 154.9670925242302 0 154.9670925242302 -10.765836142186654 0 0 0 0 142.40530967008999 22.576187925421266 0 22.576187925421266 40.988888983806589 0 0 0 0 257.75562082273245 29.023158504925583 0 29.023158504925583 26.919743965024942 0 0 0 0 310.16705170562636 -11.75481044182771 0 -11.75481044182771 0.19348536470667302 0 0 0 0 234.16933701520975 -52.422379655308276 0 -52.422379655308276 16.070269037538267 0 0 0 0 206.14486809941809 -27.08424336230226 0 -27.08424336230226 0.40161732805547257 0 0 0 0 165.22027995485769 -75.946042711205365 0 -75.946042711205365 8.4071147026853126 0 0 0 0 96.059796651888973 -45.270418593259528 0 -45.270418593259528 -5.194302770315673 0 0 0 0 113.52295624362796 -77.166520818622502 0 -77.166520818622502 -79.398515135457899 0 0 0 0 139.40431756059479 -16.583302849315565 0 -16.583302849315565 0.035473542229177195 0 0 0 0 181.02074819442714 -85.626300300723642 0 -85.626300300723642 -55.429734646476902 0 0 0 0 180.76797951243498 -138.97379994409607 0 -138.97379994409607 -23.160990136950481 0 0 0 0 185.45166503062933 -57.700336193105123 0 -57.700336193105123 -32.102050169070495 0 0 0 0 189.75047700069081 -79.859450527649926 0 -79.859450527649926 31.893267604946608 0 0 0 0 111.67757269049093 -130.08779851709252 0 -130.08779851709252 3.4237147130734229 0 0 0 0 38.659689929549131 -77.617724710490748 0 -77.617724710490748 33.805323423948792 0 0 0 0 187.5835122756007 72.30864896826607 0 72.30864896826607 -54.825605707753766 0 0 0 0 0.68905703973348409 0.026575114280175782 0 0.026575114280175782 -0.023114855110384209 0 0 0 0 0.75824755163328206 -0.17321046851585642 0 -0.17321046851585642 0.028737960511024181 0 0 0 0 151.64848363535521 -166.60504531652217 0 -166.60504531652217 55.770633332492736 0 0 0 0 412.26464896552716 -44.251596875730755 0 -44.251596875730755 0.1793112898242839 0 0 0 0 421.86038111862581 -51.080675033955501 0 -51.080675033955501 3.9548086820317265 0 0 0 0 499.39758298297784 -76.12031022484139 0 -76.12031022484139 -98.896101914367989 0 0 0 0 413.8372232562233 -30.759764417259689 0 -30.759764417259689 -59.372330188783323 0 0 0 0 368.37445458469483 -101.93902467429932 0 -101.93902467429932 -54.638703760271774 0 0 0 0 377.55160368608858 -135.06818736669467 0 -135.06818736669467 -72.213902336148251 0 0 0 0 500.36188526239675 -191.27795785185697 0 -191.27795785185697 4.9368372519270967 0 0 0 0 419.22337957443051 -111.89296867100013 0 -111.89296867100013 -71.136138051855369 0 0 0 0 570.8277898415763 -62.546174455964248 0 -62.546174455964248 198.45257192821038 0 0 0 0 377.88338305800335 -327.23908945710394 0 -327.23908945710394 208.05864517625201 0 0 0 0 370.94515291718017 -205.09902230706197 0 -205.09902230706197 -30.235156449066217 0 0 0 0 25.391661918705722 -63.295263116959063 0 -63.295263116959063 0.78302619910080296 0 0 0 0 -13.355120627142242 161.76403165275417 0 161.76403165275417 -240.30215105865949 0 0 0 0 9.5314942007472965 1.245100297123197 0 1.245100297123197 -0.39217903764295581 0 0 0 0 139.37655583211563 -62.296393048140885 0 -62.296393048140885 -96.877551953978966 0 0 0 0 87.732938123177519 -135.39285527540557 0 -135.39285527540557 85.75027430707641 0 0 0 0 -58.805812996120949 38.981961184355143 0 38.981961184355143 -79.620225046679423 0 0 0 0 -56.965694554908623 41.233776863165033 0 41.233776863165033 -98.055875417701799 0 0 0 0 -62.000540311034456 111.18166050370858 0 111.18166050370858 -79.929451321099435 0 0 0 0 -63.274268288258099 59.820608934131656 0 59.820608934131656 -89.246177567919986 0 0 0 0 -80.221765337872057 72.54741783248042 0 72.54741783248042 35.205389075454491 0 0 0 0 81.0300090385972 89.363368415693344 0 89.363368415693344 -86.242853837906765 0 0 0 0 0.42175675472977758 1.123568318106714 0 1.123568318106714 0.52511773169464715 0 0 0 0 24.74090948088633 106.5260626887619 0 106.5260626887619 31.947249014856794 0 0 0 0 2.3206691162745408 0.47470812240314331 0 0.47470812240314331 -0.39105901553594247 0 0 0 0 250.40161715989962 -56.527366075916575 0 -56.527366075916575 -16.548167252678212 0 0 0 0 0.63088756131583068 3.0993840870776808 0 3.0993840870776808 -2.6997548785506922 0 0 0 0 -23.234114620641776 156.68011945951361 0 156.68011945951361 -190.54579871081154 0 0 0 0 2.289480714710507 1.3240614004807698 0 1.3240614004807698 0.35439104161629192 0 0 0 0 0.64574579018071887 1.5705161104302305 0 1.5705161104302305 -0.13133772620299311 0 0 0 0 -64.835180275786115 57.591621086398547 0 57.591621086398547 -69.121676941810279 0 0 0 0 -39.241497173877178 166.31326563359957 0 166.31326563359957 -49.859075088915745 0 0 0 0 499.25314653082387 -128.91513856207382 0 -128.91513856207382 -134.2033889333965 0 0 0 0 123.73438776270723 -87.04416378261898 0 -87.04416378261898 -86.122988133806246 0 0 0 0 441.23577199058491 -187.58655893845054 0 -187.58655893845054 -166.96142336938047 0 0 0 0 589.44812466691656 -87.213103222345623 0 -87.213103222345623 -153.18134254981777 0 0 0 0 544.31022534009935 -281.03459320709197 0 -281.03459320709197 161.61171601122476 0 0 0 0 3.7440017824808365 0.35518425045857605 0 0.35518425045857605 0.054931836119319621 0 0 0 0 6.6822683808713919 135.8904174719016 0 135.8904174719016 -35.656411928878946 0 0 0 0 349.48753528993257 96.225971809140958 0 96.225971809140958 -84.646654307345244 0 0 0 0 0.48985768922962336 -0.078705582474931646 0 -0.078705582474931646 -0.099474527750832653 0 0 0 0 1.6726085649734159 0.30175862802218489 0 0.30175862802218489 0.12991157739293158 0 0 0 0 1.3928405823862704 0.39935340803623376 0 0.39935340803623376 1.1573371019175624 0 0 0 0 2.9319337473443738 1.1525457290184704 0 1.1525457290184704 0.31938193782963253 0 0 0 0 2.3434370132672484 0.34764824581736775 0 0.34764824581736775 0.40677762404855144 0 0 0 0 3.9039946429975316 2.6594882952126397 0 2.6594882952126397 2.0104805912537813 0 0 0 0 0.49074278486726541 -0.14696751754821236 0 -0.14696751754821236 0.03689683949518141 0 0 0 0 1.7728497668358614 0.69193614035140172 0 0.69193614035140172 0.06728257814393146 0 0 0 0 1.5415502555624698 0.40506783321870898 0 0.40506783321870898 0.099323354547095732 0 0 0 0 3.3653711278184346 0.24411243517033654 0 0.24411243517033654 -0.99432549675123028 0 0 0 0 3.6632862978185585 0.56808852405038124 0 0.56808852405038124 -0.65249681254434222 0 0 0 0 3.7874386800722277 0.42388653284189104 0 0.42388653284189104 -0.62173627723778679 0 0 0 0 2.4011233009150601 -0.47860147281048171 0 -0.47860147281048171 -0.76701028989828046 0 0 0 0 2.2414800791066583 0.5264092278895296 0 0.5264092278895296 -0.087542759510009005 0 0 0 0 3.7528159319335828 0.48228366054371463 0 0.48228366054371463 -1.5943484329022795 0 0 0 0 3.1145236825213942 1.0966022412245024 0 1.0966022412245024 -0.62371779514103309 0 0 0 0 5.4536777334615181 0.088948753911438416 0 0.088948753911438416 -0.021134487917720435 0 0 0 0 3.3664841803365562 1.1848611796671094 0 1.1848611796671094 1.0943083780695133 0 0 0 0 3.8084944511610956 1.9075793398327789 0 1.9075793398327789 2.2427498553670375 0 0 0 0 3.2678754054632009 0.34470653547720076 0 0.34470653547720076 0.684558358673371 0 0 0 0 4.0562665879442648 0.91691778633108356 0 0.91691778633108356 0.098069744515100865 0 0 0 0 3.154888373301219 1.304736369677812 0 1.304736369677812 0.33888198839969164 0 0 0 0 0.26716886051005417 -0.12474221034737099 0 -0.12474221034737099 0.017766385475880275 0 0 0 0 1.7310537555999872 -1.3096740702774383 0 -1.3096740702774383 0.7742550469207572 0 0 0 0 1.2730568166933196 -0.79821035433932508 0 -0.79821035433932508 -0.19960937015106106 0 0 0 0 4.9553900847477053 -1.040733279734269 0 -1.040733279734269 1.8977030850674055 0 0 0 0 3.2816472375234298 -0.98867574014261095 0 -0.98867574014261095 -0.12545100117142027 0 0 0 0 3.0879228744106513 0.98962644452041104 0 0.98962644452041104 0.22911560799968811 0 0 0 0 3.5929311844920448 0.67127938065662818 0 0.67127938065662818 0.32866860485933103 0 0 0 0 2.4849744533621561 0.47861835135643105 0 0.47861835135643105 0.76179060560417611 0 0 0 0 2.8001485084860178 -0.023420622812210468 0 -0.023420622812210468 0.37418300323744802 0 0 0 0 1.2636401396975998 -0.031509086334580161 0 -0.031509086334580161 0.80600751275679272 0 0 0 0 2.3977687926162616 -0.10915168626354443 0 -0.10915168626354443 0.39110110610920401 0 0 0 0 1.083777078654542 0.51606409273789566 0 0.51606409273789566 0.089583286697537234 0 0 0 0 1.9097767876191938 0.59075524756246978 0 0.59075524756246978 0.078253964050361446 0 0 0 0 2.6850563979087383 -0.13326060800383743 0 -0.13326060800383743 -0.097100303040519975 0 0 0 0 3.1568197728483938 -0.28382053177986677 0 -0.28382053177986677 -0.053603572472596284 0 0 0 0 1.2435929967421337 0.24385150202806116 0 0.24385150202806116 0.037955251919072674 0 0 0 0 3.0888924890714407 -0.18716772802693527 0 -0.18716772802693527 0.11574865250372568 0 0 0 0 2.8397925575245822 -0.55560092412924256 0 -0.55560092412924256 -0.12416893953616059 0 0 0 0 2.9922604508392396 -0.45925828851916606 0 -0.45925828851916606 -0.379604665486454 0 0 0 0 2.5787078244214925 -0.64668824249527113 0 -0.64668824249527113 -0.072901673336627115 0 0 0 0 3.4924548264025361 -2.8950338392618278 0 -2.8950338392618278 -9.0265825687169468 0 0 0 0 3.112421008315323 -0.64033480654146047 0 -0.64033480654146047 -0.26559481567812782 0 0 0 0 -4.5479863263826701 -3.8530112866905597 0 -3.8530112866905597 -6.5104994479526965 0 0 0 0 -7.6329047890721995 -11.135794343090481 0 -11.135794343090481 -6.0132175931228176 0 0 0 0 0.78243966465198156 0.12175878339458279 0 0.12175878339458279 -0.42853626696298375 0 0 0 0 3.8077581364159414 -0.39073762466114204 0 -0.39073762466114204 -0.48744161333712555 0 0 0 0 3.3800585108128871 0.11024959852070992 0 0.11024959852070992 -0.46246207275009965 0 0 0 0 32.954707640226843 2.3667998671974146 0 2.3667998671974146 -1.8692464807801912 0 0 0 0 7.1795780100728734 -4.8853206765875257 0 -4.8853206765875257 12.345564068516296 0 0 0 0 -2.6519155284513545 -3.0859717699339626 0 -3.0859717699339626 -9.497857849537354 0 0 0 0 8.5214948956886474 -9.0413475926716913 0 -9.0413475926716913 -6.4741794574191545 0 0 0 0 -25.553588208764268 -22.326321915130166 0 -22.326321915130166 -13.053576701117663 0 0 0 0 -6.0570063340564957 -21.533891430444896 0 -21.533891430444896 -8.4498876926793542 0 0 0 0 2.9969728704891168 -0.59712047300462245 0 -0.59712047300462245 -0.6702803801088919 0 0 0 0 2.6963838285100792 -0.98450685733180876 0 -0.98450685733180876 -0.52593099135299326 0 0 0 0 1.9894136856438891 -0.91055679396334455 0 -0.91055679396334455 -0.22842704696793925 0 0 0 0 7.6720658773356263 -9.1836098202556684 0 -9.1836098202556684 1.7719458198168923 0 0 0 0 2.0588288306666982 -0.73908123177098162 0 -0.73908123177098162 -10.781193748585792 0 0 0 0 5.5434158424959605 -8.0975964575560511 0 -8.0975964575560511 -12.661419714642662 0 0 0 0 4.3379758675325775 4.0088933367011848 0 4.0088933367011848 -17.577548325091357 0 0 0 0 1.8732917454890412 -1.1373905332405627 0 -1.1373905332405627 -0.81228510222808836 0 0 0 0 2.080481222572633 -0.6210434774968121 0 -0.6210434774968121 -0.67656268814252885 0 0 0 0 2.194562345115628 -0.59046849393203615 0 -0.59046849393203615 -0.35357682478911556 0 0 0 0 3.0925677891827945 -0.91095185844710613 0 -0.91095185844710613 -0.40250417537731664 0 0 0 0 2.197569941614347 -0.20703455635521095 0 -0.20703455635521095 -0.63631106574320029 0 0 0 0 2.192697821843467 -0.29306708027178274 0 -0.29306708027178274 0.31941434612713238 0 0 0 0 10.485589996484862 8.7117548651695564 0 8.7117548651695564 -10.154592633580251 0 0 0 0 11.786680072280205 -13.383539148684296 0 -13.383539148684296 -11.50772314431515 0 0 0 0 1.8309138692993017 0.10426851159809658 0 0.10426851159809658 -0.98410127347352705 0 0 0 0 3.6888621967709696 0.080420703914128921 0 0.080420703914128921 -0.4726826793806822 0 0 0 0 4.2742109140945104 -1.1962318754735293 0 -1.1962318754735293 0.20806467816009899 0 0 0 0 4.7253899901916157 0.4597385581269009 0 0.4597385581269009 -0.46253238309520839 0 0 0 0 3.4521632841388055 -0.45923052883080118 0 -0.45923052883080118 -0.43107076391842014 0 0 0 0 3.1758746083669394 -0.81195028098946409 0 -0.81195028098946409 -0.44558324262663973 0 0 0 0 3.1485705186660198 -0.65143485464020046 0 -0.65143485464020046 0.20152653787079089 0 0 0 0 3.7194779138499143 0.021738971207867053 0 0.021738971207867053 0.42764144521839853 0 0 0 0 6.8831379556686443 -0.022013244027732526 0 -0.022013244027732526 -0.39998247930304842 0 0 0 0 4.8034194409528936 -1.6539394559272296 0 -1.6539394559272296 2.8842674687496128 0 0 0 0 6.0423666218612198 1.9254657120048364 0 1.9254657120048364 1.1353946846556653 0 0 0 0 3.8924632985022072 -0.1481202073914929 0 -0.1481202073914929 -0.77577906558394716 0 0 0 0 3.5705630302429654 1.1671272456076309 0 1.1671272456076309 0.67971367842358177 0 0 0 0 2.0931312175610266 1.1046622753381179 0 1.1046622753381179 -0.23748061242494733 0 0 0 0 -7.4761797378578194 9.5086014821252434 0 9.5086014821252434 -7.0083143530493999 0 0 0 0 -1.296209316689783 13.773248358300066 0 13.773248358300066 -5.6853012312268447 0 0 0 0 0.26676006815702635 0.42106079772324634 0 0.42106079772324634 -0.17701171313856712 0 0 0 0 -11.984681419024128 1.6658394416406281 0 1.6658394416406281 2.8024510903153441 0 0 0 0 -4.1489553652345421 3.0660216354531826 0 3.0660216354531826 2.1294551493415383 0 0 0 0 -9.450971664111421 0.18364882651349035 0 0.18364882651349035 1.9607248066305374 0 0 0 0 -8.0963742699223076 2.6604561243802749 0 2.6604561243802749 -3.1490587341775154 0 0 0 0 -11.527128963432915 -0.68461824198698196 0 -0.68461824198698196 -4.8387045777749336 0 0 0 0 -11.465182105202985 17.759410078795099 0 17.759410078795099 -4.0193075854959943 0 0 0 0 -14.759838308160397 3.9183866012192539 0 3.9183866012192539 2.0556416212298245 0 0 0 0 -9.894017348291527 2.6809173501021633 0 2.6809173501021633 0.82444579945695295 0 0 0 0 1.918971653081023 -0.093076967597067295 0 -0.093076967597067295 -0.078439055532517177 0 0 0 0 -16.347190755026531 -6.4407742509031323 0 -6.4407742509031323 -1.5754848286626384 0 0 0 0 2.587009631560889 -0.35198345528997077 0 -0.35198345528997077 -0.23064213065866745 0 0 0 0 1.9635888645480009 -0.27703969318832833 0 -0.27703969318832833 -0.54382959290023791 0 0 0 0 2.045125913800895 -0.57707996917378068 0 -0.57707996917378068 -0.24551166129295776 0 0 0 0 14.295736009271423 -10.759971070437643 0 -10.759971070437643 0.61236066997341254 0 0 0 0 -2.0268102906893546 14.400002704191706 0 14.400002704191706 6.9572853823783589 0 0 0 0 4.8330628295698261 -2.6443771748615745 0 -2.6443771748615745 5.8835228654486045 0 0 0 0 22.269233817571148 -5.8333233242722713 0 -5.8333233242722713 -2.242333972189158 0 0 0 0 84.591280227774405 -13.581785138197233 0 -13.581785138197233 -2.8794837419053465 0 0 0 0 21.838400223175995 7.1470730179987925 0 7.1470730179987925 16.808884458706302 0 0 0 0 21.061130536367273 3.2297981314605693 0 3.2297981314605693 -0.82212554692159756 0 0 0 0 -2.8973610469729465 6.7142997413856733 0 6.7142997413856733 5.2910649603450111 0 0 0 0 -8.193521662382409 1.6868416651749385 0 1.6868416651749385 8.6269893618054994 0 0 0 0 -0.74958012892329862 1.4421360750320673 0 1.4421360750320673 3.6630572304607085 0 0 0 0 1.8362149474160105 10.511716720009417 0 10.511716720009417 12.361202002700338 0 0 0 0 -1.5022843372280477 -3.8607255437335652 0 -3.8607255437335652 11.092216412828989 0 0 0 0 -1.340436111855297 -1.6389828891497302 0 -1.6389828891497302 -6.4215168953764987 0 0 0 0 4.5794705447933666 -4.7434400328889978 0 -4.7434400328889978 -17.300634141478895 0 0 0 0 23.363261843342116 -18.412916099881272 0 -18.412916099881272 7.3849481628519698 0 0 0 0 12.430836301612544 2.8616321478040163 0 2.8616321478040163 24.478849828347165 0 0 0 0 7.9514572601510736 -10.886360200460331 0 -10.886360200460331 -6.7768702650041632 0 0 0 0 49.929390917051023 -24.065446580086558 0 -24.065446580086558 27.114139580970118 0 0 0 0 43.604983510258535 -9.7674377888913 0 -9.7674377888913 3.7921562714373636 0 0 0 0 72.975325821145816 25.534789217339949 0 25.534789217339949 39.437070235593524 0 0 0 0 -24.799327054819059 -12.363831474645508 0 -12.363831474645508 -4.1210621369634737 0 0 0 0 -10.946213475159311 -0.38848404489294808 0 -0.38848404489294808 2.6982977448534484 0 0 0 0 -38.555362737213727 2.3946639438536295 0 2.3946639438536295 2.444687049721125 0 0 0 0 -31.826214380485908 -2.5159036835254938 0 -2.5159036835254938 -17.813801274330217 0 0 0 0 -18.895594969206286 20.614866734186734 0 20.614866734186734 -7.1950774682352403 0 0 0 0 -25.851959135652578 8.7559947375857519 0 8.7559947375857519 -65.81939361030436 0 0 0 0 -29.406331875331489 8.1426309156060483 0 8.1426309156060483 -31.996656985379104 0 0 0 0 0.46032016179242419 -0.1994222559144152 0 -0.1994222559144152 -0.19691258820353386 0 0 0 0 -14.835511441619019 -5.3903678282603096 0 -5.3903678282603096 -1.8451725096124392 0 0 0 0 -20.556413395217533 -6.0705572733778013 0 -6.0705572733778013 3.6344148842154027 0 0 0 0 48.787069473939482 -84.004043034215556 0 -84.004043034215556 23.491825982629962 0 0 0 0 0.63866421680919316 -0.60174477499161938 0 -0.60174477499161938 0.49992791057233688 0 0 0 0 -11.973704609643391 2.0329845741674575 0 2.0329845741674575 3.5305989838789174 0 0 0 0 -15.98504113087256 -1.9712305712798752 0 -1.9712305712798752 5.4630676714052697 0 0 0 0 -12.002017224032898 -0.57811797442741408 0 -0.57811797442741408 1.5041227445549339 0 0 0 0 -12.412707883617259 0.21184394707802312 0 0.21184394707802312 5.9383198030309359 0 0 0 0 -8.0949375243581017 1.1672308922693446 0 1.1672308922693446 4.695451640506235 0 0 0 0 -14.654334427206777 1.2149496213205566 0 1.2149496213205566 7.765761998612561 0 0 0 0 -17.554782808292657 -0.68141237848817582 0 -0.68141237848817582 7.4725588416434618 0 0 0 0 -13.860713788705652 -1.6270629750185321 0 -1.6270629750185321 4.91392448100396 0 0 0 0 -16.18915731002744 -3.1923493861377779 0 -3.1923493861377779 5.2943666468613628 0 0 0 0 -22.388592694391264 -2.1336225315856154 0 -2.1336225315856154 7.9283415338732084 0 0 0 0 -9.1546166929583705 5.4373664034181957 0 5.4373664034181957 6.2632447591520304 0 0 0 0 -15.321275635520578 1.2684364525243836 0 1.2684364525243836 6.9204094191016168 0 0 0 0 0.082252675503141859 -0.1957315166571405 0 -0.1957315166571405 0.18798376852886811 0 0 0 0 -103.74779259663774 33.371414464128065 0 33.371414464128065 -60.369808773545628 0 0 0 0 35.034840718330088 -14.956083994583878 0 -14.956083994583878 -6.8646578059569947 0 0 0 0 31.167676381159254 -30.920836268491485 0 -30.920836268491485 -0.33269481015668134 0 0 0 0 -2.8889101456297794 -29.944118860501703 0 -29.944118860501703 8.8486993506510316 0 0 0 0 2.8179270952823572 -24.413939582194416 0 -24.413939582194416 8.1760768347444355 0 0 0 0 18.291179084160831 -33.547346235103987 0 -33.547346235103987 7.765452926189937 0 0 0 0 -9.9974051268764015 7.1673819811078374 0 7.1673819811078374 -14.207216940709259 0 0 0 0 -24.217427280324046 0.027964192037529756 0 0.027964192037529756 5.635781645492898 0 0 0 0 -14.534929289664433 1.965932137573418 0 1.965932137573418 1.4769853342868373 0 0 0 0 -22.930252165024285 7.1859367392629565 0 7.1859367392629565 -1.7598043152580658 0 0 0 0 20.734444714718848 -23.335419980522033 0 -23.335419980522033 2.3196096187252806 0 0 0 0 29.363255054689944 -18.12152280173882 0 -18.12152280173882 -2.1151424389090607 0 0 0 0 17.885906880070252 -21.28669713540944 0 -21.28669713540944 1.3603772344681602 0 0 0 0 10.42802399321954 -12.143627978965242 0 -12.143627978965242 5.9310928688457807 0 0 0 0 13.243235777918017 -13.394253190235531 0 -13.394253190235531 1.9685721050554434 0 0 0 0 -6.0100480936489475 -6.3094712328573905 0 -6.3094712328573905 3.8797274432758968 0 0 0 0 5.6390314574673539 -18.246781022896755 0 -18.246781022896755 10.018682070982777 0 0 0 0 -21.024238135651103 -10.8746022853569 0 -10.8746022853569 8.2034028989660328 0 0 0 0 -3.821008335773513 -4.8149473225755628 0 -4.8149473225755628 4.8998711996059683 0 0 0 0 11.535611460752989 2.6288775130382191 0 2.6288775130382191 0.93841797742743438 0 0 0 0 -9.773971599754077 12.50010744603307 0 12.50010744603307 -3.2727870381772846 0 0 0 0 3.5721267059288948 -0.93530760434856575 0 -0.93530760434856575 1.3152780117911789 0 0 0 0 16.824164629995721 5.4419069055138607 0 5.4419069055138607 -4.0233102330190604 0 0 0 0 12.534216495798319 10.469033008200199 0 10.469033008200199 -3.4180859056082475 0 0 0 0 8.2211160190781811 11.550715219195581 0 11.550715219195581 -8.3500960595704328 0 0 0 0 4.1169904404177942 5.8682679194581056 0 5.8682679194581056 -1.9558342175029111 0 0 0 0 19.56938306513257 -4.1365174053286751 0 -4.1365174053286751 -9.2491380176003304 0 0 0 0 1.945839565636561 -0.34263323925256373 0 -0.34263323925256373 -2.1039341990752973 0 0 0 0 0.32050357985383471 0.13837214515492335 0 0.13837214515492335 0.0093107708458162047 0 0 0 0 27.50846603550599 12.266366446810935 0 12.266366446810935 -17.428207404270779 0 0 0 0 9.998454982018302 23.915878839790707 0 23.915878839790707 -12.993147114568671 0 0 0 0 11.620157167399157 11.219393886279022 0 11.219393886279022 -8.356694729448094 0 0 0 0 8.1028180492285173 17.825955175508057 0 17.825955175508057 -8.5989891898248061 0 0 0 0 26.195881684770029 7.6791826369659191 0 7.6791826369659191 -5.6500856242847703 0 0 0 0 7.4892639109766606 -8.1208324195868613 0 -8.1208324195868613 -14.519527155209232 0 0 0 0 -9.7424096744316557 -19.651921756394074 0 -19.651921756394074 2.8794495934470206 0 0 0 0 3.8874275331440913 8.7568417438451363 0 8.7568417438451363 -0.21149129963112046 0 0 0 0 2.542603558726114 1.2881763761093339 0 1.2881763761093339 5.5356743428235404 0 0 0 0 -1.89857538159049 6.2695214325353845 0 6.2695214325353845 18.88157807431514 0 0 0 0 1.9898505141009082 0.11829951399229799 0 0.11829951399229799 -1.9191686529011349 0 0 0 0 2.3748376549137902 -0.47039031815890553 0 -0.47039031815890553 -1.0191761854924835 0 0 0 0 1.8883947037802216 0.19200454419891466 0 0.19200454419891466 0.010613719180306042 0 0 0 0 2.3249280284326233 -0.28179015194109525 0 -0.28179015194109525 -0.7703602602744013 0 0 0 0 2.5357101594107974 -0.38025648680880586 0 -0.38025648680880586 -0.29576400493657895 0 0 0 0 0.043431500604079076 -0.22076755423590022 0 -0.22076755423590022 0.0066096433869515525 0 0 0 0 3.3062882638487281 -3.4790773440619205 0 -3.4790773440619205 0.95312445842307625 0 0 0 0 2.0237985227279367 -0.45740103550981104 0 -0.45740103550981104 -0.19540135910118561 0 0 0 0 2.1528789559408423 0.4014144911119959 0 0.4014144911119959 -0.10565183926146041 0 0 0 0 2.4290543466013332 1.852763825799002 0 1.852763825799002 -0.21259214765836987 0 0 0 0 2.834691080981429 0.90072808784384506 0 0.90072808784384506 -0.9078439893602166 0 0 0 0 1.8551018380603637 0.066530154266047248 0 0.066530154266047248 -0.66958897416475338 0 0 0 0 5.1358378945733421 1.988707651368145 0 1.988707651368145 -8.539647772675437 0 0 0 0 2.560701106101078 2.1074697513505498 0 2.1074697513505498 0.25527344978422661 0 0 0 0 2.3721075320779335 0.42934174048665952 0 0.42934174048665952 -0.18098360926771428 0 0 0 0 2.2137975592629999 0.013837518333779331 0 0.013837518333779331 -0.18712573064022703 0 0 0 0 1.1169107327923484 3.5141605399296765 0 3.5141605399296765 4.7045809353685399 0 0 0 0 2.055877512677398 1.8130046183641184 0 1.8130046183641184 0.273378595867527 0 0 0 0 2.1110772640699906 1.586496632207826 0 1.586496632207826 0.27694287073222768 0 0 0 0 2.1125067982648034 1.4723849701044855 0 1.4723849701044855 0.044093361415264098 0 0 0 0 -0.21086773058050312 4.6494905601496299 0 4.6494905601496299 1.8522575787224014 0 0 0 0 0.93247539917712174 0.16743002106841787 0 0.16743002106841787 0.011578573117296646 0 0 0 0 2.4294954533233977 4.1078724590541356 0 4.1078724590541356 -5.9485585229595568 0 0 0 0 2.7411415966726054 -1.0122117531303161 0 -1.0122117531303161 1.651175470636872 0 0 0 0 0.03352411217201734 -1.1681926710464268 0 -1.1681926710464268 -0.69990164107518016 0 0 0 0 0.37896676508898963 8.0581328299037978 0 8.0581328299037978 6.5192430242346973 0 0 0 0 -0.012145200954485347 0.048222682814643925 0 0.048222682814643925 -0.047618085324598658 0 0 0 0 2.3462561378837563 -1.8719141891928075 0 -1.8719141891928075 4.5729150468247042 0 0 0 0 1.5980911528249635 1.4600725941649699 0 1.4600725941649699 -0.47900781464198872 0 0 0 0 0.064191559798103981 0.22697608733966934 0 0.22697608733966934 -0.10496559819186357 0 0 0 0 -0.026928391436300103 0.24771781216527522 0 0.24771781216527522 -0.20895079789783666 0 0 0 0 0.35271452533059033 0.0053931007974696854 0 0.0053931007974696854 0.18429760698323205 0 0 0 0 36.282488192008714 24.970198063795507 0 24.970198063795507 11.014178404839413 0 0 0 0 -3.2486960970172731 1.1844497641126281 0 1.1844497641126281 0.52280928782465708 0 0 0 0 -2.4353965304762824 4.6252347248374122 0 4.6252347248374122 11.295211824081974 0 0 0 0 1.4737082062865312 0.431966772368505 0 0.431966772368505 -0.083255479728736551 0 0 0 0 3.0167291699435737 1.281832573785664 0 1.281832573785664 -2.6860145721250319 0 0 0 0 0.38528427563049394 1.0011766495597492 0 1.0011766495597492 -0.057801720312598004 0 0 0 0 0.42548735711568497 0.8665698481249855 0 0.8665698481249855 -0.25175629547862943 0 0 0 0 1.3395499481121078 0.93648928954462463 0 0.93648928954462463 0.061937206673292167 0 0 0 0 1.2087721653171357 0.84668405104262234 0 0.84668405104262234 -0.48725966434264389 0 0 0 0 1.1593254711951886 0.53182130063453315 0 0.53182130063453315 3.3745992088005821 0 0 0 0 1.3004981230697013 2.2495601237076244 0 2.2495601237076244 0.20429370399324398 0 0 0 0 1.0322149023995735 0.91179330950444637 0 0.91179330950444637 -0.16565858820422363 0 0 0 0 0.54776763240319681 1.0782776134254171 0 1.0782776134254171 -0.29681318582620708 0 0 0 0 -0.60439601619145833 1.4164274409150579 0 1.4164274409150579 -0.35740133983790656 0 0 0 0 0.28150435581545996 0.87879071327645519 0 0.87879071327645519 -0.088875995550314446 0 0 0 0 1.1093334191678039 1.3530617924385355 0 1.3530617924385355 -0.42938462510916831 0 0 0 0 9.8090253918198869 -3.0679395899160227 0 -3.0679395899160227 2.168655489498633 0 0 0 0 14.180609379720408 -0.23501215726139435 0 -0.23501215726139435 8.361246075516874 0 0 0 0 2.0885472273808361 -0.27749518376391968 0 -0.27749518376391968 -0.039175155619245006 0 0 0 0 -13.042009060503915 6.5830723893431013 0 6.5830723893431013 46.847806212560954 0 0 0 0 0.01509186614643454 0.3574184554379185 0 0.3574184554379185 0.011969557100415404 0 0 0 0 -0.61867624512160546 1.1520940552874208 0 1.1520940552874208 0.67443362356380021 0 0 0 0 29.171132088609738 20.540765159490206 0 20.540765159490206 10.215863596205182 0 0 0 0 19.557027832232052 28.764525719888354 0 28.764525719888354 20.969603750923397 0 0 0 0 28.514521871893521 39.787770617812157 0 39.787770617812157 34.534262235666802 0 0 0 0 34.836872621843213 32.00479670241657 0 32.00479670241657 16.521283768562739 0 0 0 0 33.152387164154788 28.18641641183865 0 28.18641641183865 8.1724284116255603 0 0 0 0 32.521808030622196 21.255356631814607 0 21.255356631814607 0.36797389375840339 0 0 0 0 20.768734333725661 -13.723365675477396 0 -13.723365675477396 -10.282549020740362 0 0 0 0 46.699979852524848 7.2142375655423621 0 7.2142375655423621 -19.709282578086231 0 0 0 0 16.566381394273776 9.3552247112982059 0 9.3552247112982059 -14.660106739896264 0 0 0 0 44.520409547603776 -8.97636177919901 0 -8.97636177919901 -11.281011014694286 0 0 0 0 38.733510599002329 -5.8016634246394005 0 -5.8016634246394005 -7.8492168589514222 0 0 0 0 82.754431520428625 45.796595145539186 0 45.796595145539186 8.0905884682167652 0 0 0 0 42.792913029230476 23.701887020865513 0 23.701887020865513 -3.8419290571453075 0 0 0 0 3.8861040103338382 -22.608513650616999 0 -22.608513650616999 -11.645459400126015 0 0 0 0 -5.8348809886156232 -11.924254778996499 0 -11.924254778996499 -4.4780629538181529 0 0 0 0 2.1362846076972346 -31.00103866902549 0 -31.00103866902549 11.578020426954936 0 0 0 0 -12.540067583920973 -4.3355767436059409 0 -4.3355767436059409 -8.489914365636082 0 0 0 0 -38.679827294012284 -17.822624877151156 0 -17.822624877151156 10.645193987240532 0 0 0 0 17.258639998068247 -15.138634795677831 0 -15.138634795677831 2.1897466220235628 0 0 0 0 -26.259422950195585 -22.302684748192789 0 -22.302684748192789 12.059087411767905 0 0 0 0 14.197419315660227 -40.288438708588956 0 -40.288438708588956 -2.2334577371057094 0 0 0 0 -23.499101261586929 -9.6850200474353088 0 -9.6850200474353088 -13.715416684834508 0 0 0 0 29.631056847392756 41.555717239235719 0 41.555717239235719 17.384813270131417 0 0 0 0 107.0165639072402 92.088550449941408 0 92.088550449941408 49.353778493022674 0 0 0 0 168.42470383274849 14.308004051323792 0 14.308004051323792 -9.9307298265450683 0 0 0 0 58.146440789361804 -51.092313597006239 0 -51.092313597006239 -3.3964893394002047 0 0 0 0 -4.4315410709787102 52.464602566351559 0 52.464602566351559 89.398000466185749 0 0 0 0 33.225370746447879 -25.147800825314562 0 -25.147800825314562 3.0001586870786241 0 0 0 0 -12.118119166309043 6.3862459886849479 0 6.3862459886849479 7.0852787810090376 0 0 0 0 174.68732213348085 110.41413222860086 0 110.41413222860086 88.599807509011612 0 0 0 0 0.93667666671618122 -0.11283971135859971 0 -0.11283971135859971 0.017723106920098042 0 0 0 0 117.29106354996111 -35.622350965976466 0 -35.622350965976466 -1.2140701535996641 0 0 0 0 33.633333995618159 -16.733137450315098 0 -16.733137450315098 8.1463818135260908 0 0 0 0 37.877077694629406 -13.213987995761499 0 -13.213987995761499 -1.0568306388936435 0 0 0 0 -29.59166455142622 -25.195611007262073 0 -25.195611007262073 -7.3591159827446404 0 0 0 0 -44.025696171785967 2.9875028800997825 0 2.9875028800997825 -9.4700735140907 0 0 0 0 241.55703402384097 62.705104953814953 0 62.705104953814953 87.821314355258437 0 0 0 0 0.96407145070717704 -0.4692871742052418 0 -0.4692871742052418 0.14126220201965412 0 0 0 0 301.71658620027483 103.42729656969004 0 103.42729656969004 -4.1644321316071 0 0 0 0 34.981246708019171 52.116290016337132 0 52.116290016337132 9.8087274265066071 0 0 0 0 93.466835587707465 65.675608154509632 0 65.675608154509632 -5.6440429394589842 0 0 0 0 74.266026071454689 23.857938808120366 0 23.857938808120366 2.2401322501984851 0 0 0 0 80.831455159050165 39.306528587859475 0 39.306528587859475 7.4015577014174596 0 0 0 0 86.693269651732408 28.999614816412134 0 28.999614816412134 -7.5914160106640338 0 0 0 0 51.17816586860863 34.819263474122181 0 34.819263474122181 7.0944112047985755 0 0 0 0 34.375704713856067 -7.7287132499672566 0 -7.7287132499672566 5.507751054702112 0 0 0 0 33.599521586169431 -10.337322894059326 0 -10.337322894059326 6.3255386570997416 0 0 0 0 157.63960309210961 18.475163134694981 0 18.475163134694981 -20.872262895697986 0 0 0 0 82.501867820377811 19.986701788365508 0 19.986701788365508 -20.85940444724892 0 0 0 0 86.176931754554971 -29.939108621306104 0 -29.939108621306104 3.9535402058589284 0 0 0 0 76.925403699649905 15.936681698583584 0 15.936681698583584 -5.2250392373666728 0 0 0 0 71.52873705163438 19.637208563216973 0 19.637208563216973 -0.78696355967258569 0 0 0 0 41.141184046013223 -6.1732799133287699 0 -6.1732799133287699 4.1953929019528005 0 0 0 0 25.847736545401858 -7.73894485544497 0 -7.73894485544497 5.2555314390656349 0 0 0 0 14.327715262814309 -7.6879532861598818 0 -7.6879532861598818 8.5778511652636098 0 0 0 0 62.776895512659394 -18.758056048479489 0 -18.758056048479489 4.7952060829687397 0 0 0 0 3.4228753688221332 -4.0722506814079225 0 -4.0722506814079225 9.913036714395389 0 0 0 0 5.8915815144573571 1.6624624558696723 0 1.6624624558696723 3.5942777032934146 0 0 0 0 0.12196670745374405 0.069500861075490139 0 0.069500861075490139 0.12250481545930814 0 0 0 0 18.274848778906744 -1.8972373647841323 0 -1.8972373647841323 4.4494387815859682 0 0 0 0 3.4957883605820825 -3.7603271592781766 0 -3.7603271592781766 9.7260740361909939 0 0 0 0 1.7885806279664394 3.7814606605384142 0 3.7814606605384142 6.2807662454474666 0 0 0 0 -2.8876070095502655 3.7702166364715595 0 3.7702166364715595 7.5869202242822666 0 0 0 0 -3.5088962960362551 3.7249051902008432 0 3.7249051902008432 7.6334588988246423 0 0 0 0 -5.3308442754350835 3.3342684449784201 0 3.3342684449784201 2.6621421926572566 0 0 0 0 -3.9701571187724767 4.7980288064933347 0 4.7980288064933347 -2.2186312636276853 0 0 0 0 -5.0307338243728736 6.0538198224091957 0 6.0538198224091957 5.3197892286889896 0 0 0 0 -3.3238103165786015 2.7359133775512419 0 2.7359133775512419 6.3476436447431297 0 0 0 0 -5.7267878446655232 4.3740970531196126 0 4.3740970531196126 6.1079113261932889 0 0 0 0 -3.3872126350252074 -0.47366919422893261 0 -0.47366919422893261 9.1088472604380968 0 0 0 0 -6.1755051547770563 3.3843795512984798 0 3.3843795512984798 6.9509419794501355 0 0 0 0 1.780199148975953 0.66317889936465235 0 0.66317889936465235 0.11521347746561617 0 0 0 0 0.30255704191960175 0.42592515784064133 0 0.42592515784064133 0.42479936425005005 0 0 0 0 -5.6190400413197494 3.2694066723609012 0 3.2694066723609012 4.601922608731229 0 0 0 0 2.2202464513447921 0.88864400289958212 0 0.88864400289958212 0.81425694707218099 0 0 0 0 1.4118146655132406 0.67401737765130809 0 0.67401737765130809 0.12955332964673882 0 0 0 0 2.749222776023089 0.93974933489778323 0 0.93974933489778323 0.30349996000236246 0 0 0 0 0.55828748968933795 0.12063718880090235 0 0.12063718880090235 -0.036456482408262714 0 0 0 0 2.7515640685669496 1.5259504666644261 0 1.5259504666644261 0.048467979408201245 0 0 0 0 2.931521147620515 0.93231947595347719 0 0.93231947595347719 -0.14522478499475255 0 0 0 0 1.1811832571320338 0.9249411504714935 0 0.9249411504714935 0.4343064150830287 0 0 0 0 0.42037375370019037 0.50550362527132719 0 0.50550362527132719 0.036701118060096238 0 0 0 0 1.8148697927390458 1.3716196563810854 0 1.3716196563810854 0.74595807752123022 0 0 0 0 2.3547365950394124 1.2891882972702788 0 1.2891882972702788 -3.2851982134943682 0 0 0 0 2.5550122853092034 0.92097462133722274 0 0.92097462133722274 -0.14534740385151679 0 0 0 0 0.18960487286348737 0.20979085157367194 0 0.20979085157367194 -0.083632531900181384 0 0 0 0 3.0676885212978959 2.0941432823750006 0 2.0941432823750006 0.53812289911179079 0 0 0 0 1.2755300890225953 0.67374773687716072 0 0.67374773687716072 -4.3525599488357329 0 0 0 0 -6.4031990051516914 19.348350862597385 0 19.348350862597385 -11.642422722047627 0 0 0 0 -7.3385224588346318 -8.4766338813235507 0 -8.4766338813235507 9.505541581077523 0 0 0 0 -10.189327025257171 13.344134106773588 0 13.344134106773588 0.80076162873160683 0 0 0 0 0.24358818732434884 4.8114088764980352 0 4.8114088764980352 -8.4674322393847206 0 0 0 0 1.8035402075711318 1.3655287929831275 0 1.3655287929831275 -1.0187202274214542 0 0 0 0 0.69134294556170062 -7.3694160910933988 0 -7.3694160910933988 -5.1180236457881847 0 0 0 0 4.8585257366388941 -3.7153258859068323 0 -3.7153258859068323 -3.4284852611657084 0 0 0 0 11.755923947865085 1.8118768607015525 0 1.8118768607015525 -6.6240739448194432 0 0 0 0 10.907916656036377 -6.9118805685119185 0 -6.9118805685119185 -12.638200796626279 0 0 0 0 1.2763671705115485 -6.3087004255706347 0 -6.3087004255706347 -4.3961224899120452 0 0 0 0 3.421695460271664 -3.2403637129045921 0 -3.2403637129045921 -0.32734903409625965 0 0 0 0 5.8879099186548611 -3.9376990410084751 0 -3.9376990410084751 -3.9617937550976641 0 0 0 0 1.180277667592236 -5.3734230671485648 0 -5.3734230671485648 -6.1781505852388818 0 0 0 0 52.886615098821494 14.151669145124316 0 14.151669145124316 -17.000401240756673 0 0 0 0 2.6452340550245026 -4.2315834189204153 0 -4.2315834189204153 -1.1426298622760669 0 0 0 0 24.84333358692129 -35.637423957089638 0 -35.637423957089638 -18.098406836197711 0 0 0 0 2.8991431297621517 -3.0683351798526619 0 -3.0683351798526619 -0.65657431363735053 0 0 0 0 0.20529666015759673 -0.2424808916276664 0 -0.2424808916276664 0.12911548063582146 0 0 0 0 1.7263355884178857 -4.9691075517700218 0 -4.9691075517700218 -0.46576020063583001 0 0 0 0 2.8197116060273402 -2.6858561012390396 0 -2.6858561012390396 -1.3726155930712594 0 0 0 0 -0.43145418072417741 -2.083048460186534 0 -2.083048460186534 0.44134512325176006 0 0 0 0 52.184260009627906 13.87588529902564 0 13.87588529902564 -14.530740891132382 0 0 0 0 50.924340392049999 17.418003560683928 0 17.418003560683928 -19.572794019883467 0 0 0 0 2.1529665730178262 0.13694134361242405 0 0.13694134361242405 -0.27043887717178283 0 0 0 0 -26.835370457318277 6.5505981663013273 0 6.5505981663013273 24.228813553195671 0 0 0 0 2.8656597452572896 -20.196957475247345 0 -20.196957475247345 -6.7600312709119237 0 0 0 0 3.7794648132057773 -18.659965789873119 0 -18.659965789873119 -5.5179797322561228 0 0 0 0 4.239200448648436 -4.6072465742386122 0 -4.6072465742386122 -1.8693562456823789 0 0 0 0 45.726577778369574 -37.809702796626652 0 -37.809702796626652 28.966870200184758 0 0 0 0 23.333442994629877 26.290952039083919 0 26.290952039083919 22.491123455886054 0 0 0 0 3.8706173438222322 -13.199724135735437 0 -13.199724135735437 20.365806138525954 0 0 0 0 0.19557966865130894 -0.20993596498634659 0 -0.20993596498634659 0.28771806059952132 0 0 0 0 -29.354849946000286 -14.060957276682593 0 -14.060957276682593 4.9113544597317116 0 0 0 0 1.1878146425703378 -0.51085030403463172 0 -0.51085030403463172 0.44330007182213071 0 0 0 0 27.237862601174129 19.520778670498885 0 19.520778670498885 -3.8436602939862254 0 0 0 0 5.7987448029998632 -0.30588164692579767 0 -0.30588164692579767 -4.079754883694136 0 0 0 0 0.90569316184495019 -0.22008214103667711 0 -0.22008214103667711 -0.73057983119310621 0 0 0 0 14.671568103294703 -12.445487974064577 0 -12.445487974064577 10.633785026271781 0 0 0 0 -3.3016871404938684 3.1227831257324112 0 3.1227831257324112 12.039344998538922 0 0 0 0 27.465653505336377 -12.12751075911882 0 -12.12751075911882 -11.365610743668412 0 0 0 0 -80.587250834130828 -37.884470350800029 0 -37.884470350800029 -3.2055665049572326 0 0 0 0 17.228733834679588 -8.5522605919240959 0 -8.5522605919240959 5.0907511877670686 0 0 0 0 -0.11688284898327739 -0.0012954132665861096 0 -0.0012954132665861096 -0.18973568329479873 0 0 0 0 37.586809470862931 23.932132325186195 0 23.932132325186195 15.48099303399249 0 0 0 0 2.0507788430464586 -1.3654827004747663 0 -1.3654827004747663 0.51172388651361111 0 0 0 0 -31.512867023287981 -29.161019994705498 0 -29.161019994705498 -33.875974468557615 0 0 0 0 -26.696885754128743 -38.190564370186053 0 -38.190564370186053 -17.499531518938284 0 0 0 0 14.789260047389689 -26.687472935983351 0 -26.687472935983351 -26.336969312251995 0 0 0 0 -0.025388196581843658 -4.8384071452558715 0 -4.8384071452558715 -10.224497824441869 0 0 0 0 12.373031098817592 -3.9326331637477097 0 -3.9326331637477097 -16.207709720837101 0 0 0 0 -21.503384091856788 -7.4571935153211371 0 -7.4571935153211371 -8.1897621085286687 0 0 0 0 6.2330535829605651 -13.880314974927614 0 -13.880314974927614 4.9971519173451941 0 0 0 0 4.2099000868511212 10.610841731246524 0 10.610841731246524 5.1269454572984614 0 0 0 0 9.5285974381695269 12.050780186650172 0 12.050780186650172 -12.908546634949289 0 0 0 0 4.7570376742369263 7.3325824611937378 0 7.3325824611937378 -7.1379976149996764 0 0 0 0 10.220423891169048 26.067806085413281 0 26.067806085413281 -19.341499513780491 0 0 0 0 27.90922110698375 12.993494360125283 0 12.993494360125283 -12.89570996562793 0 0 0 0 27.951606758633716 -10.674965076179092 0 -10.674965076179092 -10.888578957829168 0 0 0 0 17.325305551471502 -8.4462896694456759 0 -8.4462896694456759 -2.1072876677537806 0 0 0 0 37.590464967190201 -40.665703059422185 0 -40.665703059422185 28.460834181897866 0 0 0 0 14.775347885218252 -13.88206997093485 0 -13.88206997093485 1.8690100101571261 0 0 0 0 103.73181582032703 20.112015899197672 0 20.112015899197672 -41.451194167681024 0 0 0 0 4.5787288202564387 -4.3620063203229567 0 -4.3620063203229567 -1.9906000823381351 0 0 0 0 6.3528488600231867 10.413437809437816 0 10.413437809437816 -10.899936648732041 0 0 0 0 4.5070131981678969 4.8730326119546135 0 4.8730326119546135 -3.4866182363905409 0 0 0 0 8.4578982207676745 15.054932443277437 0 15.054932443277437 -2.8593746453152562 0 0 0 0 35.990830462687882 -8.4237329189888897 0 -8.4237329189888897 -3.6765455687918802 0 0 0 0 49.198597124130174 9.9908008578863701 0 9.9908008578863701 8.6886439765793284 0 0 0 0 -1.0663283861920192 -2.4829495269292137 0 -2.4829495269292137 -0.043588661765593506 0 0 0 0 5.297165389980016 -1.7093890945197758 0 -1.7093890945197758 -0.72876496500650578 0 0 0 0 5.5041780914316973 -9.3588466408216533 0 -9.3588466408216533 -4.6508416545636351 0 0 0 0 3.7378013289035152 -5.5565737002952318 0 -5.5565737002952318 4.6435060988953438 0 0 0 0 4.47760277641828 -3.8624792115844571 0 -3.8624792115844571 -7.6229604821036716 0 0 0 0 5.9274931847594416 -9.4242385475312815 0 -9.4242385475312815 -5.8349419121101178 0 0 0 0 6.3503335179048008 -8.3086511994867251 0 -8.3086511994867251 -8.6810304423644169 0 0 0 0 1.8721267084611366 -1.8990666395405036 0 -1.8990666395405036 -1.9341134707073213 0 0 0 0 2.8030033682164586 -1.5804013346489008 0 -1.5804013346489008 -2.4230844278556187 0 0 0 0 5.2367768504491323 -2.4913882796872286 0 -2.4913882796872286 -3.9849039988503563 0 0 0 0 23.308569545654791 6.3776953778754546 0 6.3776953778754546 -7.112651307475744 0 0 0 0 5.608207348293945 -7.8490536798536823 0 -7.8490536798536823 2.2174929951347622 0 0 0 0 2.4853107814324176 5.4184355152059425 0 5.4184355152059425 -0.0084322072804070558 0 0 0 0 5.4778695118875476 -12.461595312963254 0 -12.461595312963254 -10.13886285026183 0 0 0 0 32.579719601089892 13.855740074542211 0 13.855740074542211 3.5119383733961058 0 0 0 0 26.085280613404393 8.0529599287406768 0 8.0529599287406768 6.6385038045971214 0 0 0 0 2.724210032874975 -1.8781735507992003 0 -1.8781735507992003 0.76083791814216362 0 0 0 0 -12.176061007361113 -24.700934124728334 0 -24.700934124728334 -9.196564126153703 0 0 0 0 17.610404960552842 -12.956773728258867 0 -12.956773728258867 -17.916862702784101 0 0 0 0 -1.9046078837563982 -0.40250787522808196 0 -0.40250787522808196 -11.131771767421469 0 0 0 0 47.500606405159488 23.566291765366486 0 23.566291765366486 13.674223240273705 0 0 0 0 47.636647826715489 24.482492586641229 0 24.482492586641229 13.637752750126378 0 0 0 0 27.657865152644717 16.561443169049582 0 16.561443169049582 12.611787098502077 0 0 0 0 48.938636950933869 21.448796732476637 0 21.448796732476637 6.948331882869752 0 0 0 0 32.726429304706471 13.575487011128473 0 13.575487011128473 3.852979815564197 0 0 0 0 46.673597010991216 15.897742402197451 0 15.897742402197451 1.781375579544715 0 0 0 0 34.060474017278466 9.0552495830339694 0 9.0552495830339694 1.5381623542583824 0 0 0 0 42.379722325409602 16.822663133575332 0 16.822663133575332 2.1028688500972521 0 0 0 0 47.396634599754179 21.011518204968525 0 21.011518204968525 4.7030412673858706 0 0 0 0 44.820177543425871 14.703017050742147 0 14.703017050742147 3.5275708561889587 0 0 0 0 43.700291625722457 14.795093842019526 0 14.795093842019526 1.8094160244502859 0 0 0 0 33.164506925557362 7.7768617376457314 0 7.7768617376457314 -0.025124592918814415 0 0 0 0 30.394418456955464 9.2256419463510042 0 9.2256419463510042 1.6779260770771458 0 0 0 0 25.377818379707605 14.958540107170336 0 14.958540107170336 5.7676922128146089 0 0 0 0 3.0266049389747032 -2.1235173230714981 0 -2.1235173230714981 0.87640610728178903 0 0 0 0 12.485281314735403 2.0961485536309681 0 2.0961485536309681 3.7568567645466828 0 0 0 0 15.518147172097997 -4.3769690720815078 0 -4.3769690720815078 -2.2923572135985069 0 0 0 0 19.68557445150509 -0.26349194692897981 0 -0.26349194692897981 0.57247751942838931 0 0 0 0 23.660190684946429 5.6861855953534928 0 5.6861855953534928 0.39551946815159411 0 0 0 0 17.972930859530607 -8.2522829926424492 0 -8.2522829926424492 4.736542103486272 0 0 0 0 16.240788031216653 3.9754710335087964 0 3.9754710335087964 -3.4057619722482286 0 0 0 0 -0.82352854633791139 -7.5796820049222333 0 -7.5796820049222333 3.4170035033819204 0 0 0 0 -1.8648292104044231 -0.83672185235684537 0 -0.83672185235684537 6.0085798267317614 0 0 0 0 3.1710524136679297 -2.0345969082239304 0 -2.0345969082239304 0.95328740125011135 0 0 0 0 7.7375322003144902 -5.7193302974666835 0 -5.7193302974666835 -7.5463919948379043 0 0 0 0 7.9233812271295392 4.8965238205511525 0 4.8965238205511525 -0.099898945055429067 0 0 0 0 1.7716136193600676 -1.0868835403173414 0 -1.0868835403173414 -0.58874882583120125 0 0 0 0 1.3050652074034588 -4.6553887953886601 0 -4.6553887953886601 -1.0546204165686959 0 0 0 0 5.5651936469694192 1.2171766355938303 0 1.2171766355938303 0.8414204328530559 0 0 0 0 2.6497378934955123 -0.50007841644234929 0 -0.50007841644234929 -0.62590008960978594 0 0 0 0 1.2765607990577337 -0.8678338862892474 0 -0.8678338862892474 1.0837879187307635 0 0 0 0 0.52885269574613192 0.12812826062793548 0 0.12812826062793548 0.40528963758110326 0 0 0 0 5.5563126816086879 1.0282271285120146 0 1.0282271285120146 0.7271204360932586 0 0 0 0 2.6147095604137576 0.2302745278554994 0 0.2302745278554994 0.11596261295545673 0 0 0 0 1.7829102791438345 0.09321140023848784 0 0.09321140023848784 -0.29685789823884079 0 0 0 0 1.8417829836328892 -0.039801986725779948 0 -0.039801986725779948 -0.16674080237385369 0 0 0 0 2.8748490491234406 -0.67744465718340052 0 -0.67744465718340052 -1.7253574293312681 0 0 0 0 1.3357183418126439 -0.95786916567261304 0 -0.95786916567261304 -0.69480816503552179 0 0 0 0 2.834376737166167 -0.17081186143417426 0 -0.17081186143417426 -1.1933680415622803 0 0 0 0 1.8564569483678497 0.37806014516934283 0 0.37806014516934283 -0.3647098407775502 0 0 0 0 0.3494245514011709 -0.14900218447178304 0 -0.14900218447178304 -0.021140777803111632 0 0 0 0 1.041839159992584 -0.1057367775715008 0 -0.1057367775715008 0.14806674203773418 0 0 0 0 2.3866281475338273 0.38801147892620591 0 0.38801147892620591 0.08184832678148668 0 0 0 0 1.6210931685397902 0.29524484294717013 0 0.29524484294717013 -0.051078499296244972 0 0 0 0 1.2824917789908516 0.12230013927864292 0 0.12230013927864292 0.16261181355591914 0 0 0 0 -2.6279895910597588 1.4370943968602745 0 1.4370943968602745 3.9396587488904515 0 0 0 0 0.049941529981879285 -2.4357162998496733 0 -2.4357162998496733 -0.66706312318501659 0 0 0 0 0.1919451634385041 -3.8051535501319904 0 -3.8051535501319904 4.0979838540042692 0 0 0 0 -2.6722518091519305 -3.5906558531831934 0 -3.5906558531831934 -0.5226817880593444 0 0 0 0 -1.0248515646126179 -1.2498801633455514 0 -1.2498801633455514 2.0285560699364851 0 0 0 0 -0.3296617022138264 -0.50637259758547337 0 -0.50637259758547337 0.11887288632636961 0 0 0 0 -1.1747108592753648 -6.2524653681314248 0 -6.2524653681314248 -2.3794429314141325 0 0 0 0 7.8680687882642815 -1.1541902582565058 0 -1.1541902582565058 -2.0497281803859551 0 0 0 0 3.0073599018942332 -1.0387580186663854 0 -1.0387580186663854 -3.204067812963558 0 0 0 0 6.5668428360004327 -5.2449785375844158 0 -5.2449785375844158 1.5493825913351884 0 0 0 0 1.7829221382617106 -1.380339682968156 0 -1.380339682968156 3.7906553172226722 0 0 0 0 4.9705700361082563 -4.9435600246576996 0 -4.9435600246576996 7.7736895694761188 0 0 0 0 92.993133125026361 23.465705038536697 0 23.465705038536697 -5.1511246049554984 0 0 0 0 1.0023573825583298 9.8537055440354777 0 9.8537055440354777 1.5613051100252733 0 0 0 0 7.0406194731058349 1.4355419753794081 0 1.4355419753794081 -2.1949278981849147 0 0 0 0 13.703808794532961 -5.1739628725592866 0 -5.1739628725592866 0.81982314233437137 0 0 0 0 0.06457498362365155 0.059883988511543862 0 0.059883988511543862 0.0053188040578087126 0 0 0 0 35.572320605577261 -7.542845485245266 0 -7.542845485245266 0.31352713334490545 0 0 0 0 18.202623525081435 -9.6317341772632972 0 -9.6317341772632972 4.7883573239710131 0 0 0 0 13.287461888743564 -5.4272124794556476 0 -5.4272124794556476 0.81545361482270806 0 0 0 0 12.238860827070312 3.6714448532420647 0 3.6714448532420647 -3.4517933581871034 0 0 0 0 26.334762552723987 -0.67263651940606906 0 -0.67263651940606906 -2.2141992103844359 0 0 0 0 50.492721329010237 33.560186941359234 0 33.560186941359234 -8.7584017253439015 0 0 0 0 7.0584926893061493 -2.3002331311359967 0 -2.3002331311359967 -2.8492454355336463 0 0 0 0 81.050395618563925 12.604532929741936 0 12.604532929741936 2.7865094559384147 0 0 0 0 79.813716029333591 24.462942726293591 0 24.462942726293591 5.1946520232050943 0 0 0 0 76.716683392805862 31.028533090145856 0 31.028533090145856 4.8294337252992818 0 0 0 0 82.052019983373611 30.673601359296299 0 30.673601359296299 3.9495094889197162 0 0 0 0 73.399822889288771 24.088749296727315 0 24.088749296727315 5.5333731940081634 0 0 0 0 53.302933965147531 16.237268012760921 0 16.237268012760921 6.3364471013284174 0 0 0 0 50.136916897808987 15.755337545559371 0 15.755337545559371 2.2813736854310491 0 0 0 0 53.196488815041448 12.231383345870597 0 12.231383345870597 4.6547569905893624 0 0 0 0 0.0033974052001697341 0.19663616179564158 0 0.19663616179564158 0.070841687442850354 0 0 0 0 7.4447173063738319 0.87378046979765145 0 0.87378046979765145 -1.4400025311574609 0 0 0 0 6.4297754119106685 -1.1616561135382995 0 -1.1616561135382995 -1.0282120680984974 0 0 0 0 5.9968185397301568 -0.073251022195393034 0 -0.073251022195393034 -2.302244980466071 0 0 0 0 3.7599067650662619 -1.5228221844706695 0 -1.5228221844706695 -0.32480787376118769 0 0 0 0 9.0458020025671431 0.59792363343854049 0 0.59792363343854049 -1.8757460632550647 0 0 0 0 4.347172922698519 1.8063406689549879 0 1.8063406689549879 1.5719415736934934 0 0 0 0 53.531565748172284 14.645994567225493 0 14.645994567225493 -2.2124042570038682 0 0 0 0 47.921385218248361 13.645258748864521 0 13.645258748864521 0.27426919281117534 0 0 0 0 47.765394425852719 6.2649674849961343 0 6.2649674849961343 -8.7409432064107477 0 0 0 0 48.349862531420513 9.7473502098804943 0 9.7473502098804943 4.6301730458242787 0 0 0 0 -0.018992489563171233 0.0079856080466171875 0 0.0079856080466171875 0.17257977895254606 0 0 0 0 57.086488369059225 22.219053224087247 0 22.219053224087247 3.1642792235082311 0 0 0 0 11.388833858600265 8.0919939427920156 0 8.0919939427920156 17.793706778258183 0 0 0 0 11.459244497620602 1.7364377656738128 0 1.7364377656738128 -3.4847470184956251 0 0 0 0 47.158075213438678 21.054226153791802 0 21.054226153791802 12.590481915520513 0 0 0 0 1.752005034734605 -1.3643750749060821 0 -1.3643750749060821 -0.34633891868546507 0 0 0 0 7.683373937741635 -0.38247650856160931 0 -0.38247650856160931 -0.18987683618638584 0 0 0 0 0.77271050707419064 0.27202047228096404 0 0.27202047228096404 0.11527975380869537 0 0 0 0 5.7781900405461784 0.95140711251625021 0 0.95140711251625021 0.47791649249097645 0 0 0 0 3.75767341953906 1.0180215840643712 0 1.0180215840643712 1.1563238434846426 0 0 0 0 5.0552596838815589 0.27246763519164574 0 0.27246763519164574 0.81201628931137293 0 0 0 0 6.0520676560827269 1.0636579142802987 0 1.0636579142802987 0.096446132847404442 0 0 0 0 1.6074114054863138 -1.3090529610129629 0 -1.3090529610129629 -0.49613195328498305 0 0 0 0 6.9395621061594284 1.9667430496095619 0 1.9667430496095619 0.37005832067052324 0 0 0 0 3.1336189813828241 -2.4392538812053459 0 -2.4392538812053459 1.6713886855889086 0 0 0 0 1.589484687672666 1.577397771133235 0 1.577397771133235 0.90227317644109917 0 0 0 0 0.10838382973026484 -0.076522747640233035 0 -0.076522747640233035 -0.070332230075988988 0 0 0 0 0.011041166298127347 -0.0080475966154978096 0 -0.0080475966154978096 0.52208974085388649 0 0 0 0 0.58395255336654373 0.52640578914959235 0 0.52640578914959235 0.75277229629546127 0 0 0 0 0.29935867004057215 -0.024193812497603773 0 -0.024193812497603773 0.015286757086796499 0 0 0 0 3.8779459533107001 0.98701782384316061 0 0.98701782384316061 0.38843330121108011 0 0 0 0 3.6966085471394763 0.66606327228589635 0 0.66606327228589635 0.16238057678169326 0 0 0 0 3.0131396956221579 0.49121485234277884 0 0.49121485234277884 0.40032297051141086 0 0 0 0 3.3692809800622854 0.76073836884112467 0 0.76073836884112467 0.49216980554467682 0 0 0 0 3.522505954006192 0.51570508484928723 0 0.51570508484928723 0.12308756434651968 0 0 0 0 3.4117054494604417 0.43190137238353188 0 0.43190137238353188 0.19117170496195968 0 0 0 0 24.357987111225157 -20.368287791810758 0 -20.368287791810758 -9.7122593876786851 0 0 0 0 3.3652734106017306 0.27931199412472729 0 0.27931199412472729 0.40989098368982013 0 0 0 0 49.89181457869563 20.941351465400373 0 20.941351465400373 -8.4185571327369981 0 0 0 0 2.6986244676209026 -1.0857099003321764 0 -1.0857099003321764 -0.23052436507832086 0 0 0 0 0.049364698517306849 0.2931087736219169 0 0.2931087736219169 0.26269722018123021 0 0 0 0 3.4950512019586313 0.5679931592152343 0 0.5679931592152343 1.5807540794246506 0 0 0 0 5.757514011247622 1.1856446976221378 0 1.1856446976221378 0.54794386728497102 0 0 0 0 0.48887765237838465 -0.37589126446244236 0 -0.37589126446244236 0.39117876605984092 0 0 0 0 6.3981563316719985 0.25905348619309621 0 0.25905348619309621 0.88425360000746878 0 0 0 0 0.7624759565860233 -0.054607624973495916 0 -0.054607624973495916 0.030154825888666359 0 0 0 0 9.0729559808314661 1.6849537393859748 0 1.6849537393859748 -0.15768661860863631 0 0 0 0 3.869010924900067 -0.9465319009972859 0 -0.9465319009972859 4.9605581014272957 0 0 0 0 6.7273584316553752 -0.10318871461012691 0 -0.10318871461012691 -0.28861545190466131 0 0 0 0 1.5280598852252893 -1.193124230010806 0 -1.193124230010806 -0.21658487347301203 0 0 0 0 8.6803821877706469 1.3327386360066313 0 1.3327386360066313 -0.26739963116517629 0 0 0 0 1.473953273336619 -1.216548402525401 0 -1.216548402525401 -0.096137334411139808 0 0 0 0 3.3322272639197763 -0.12964148678443621 0 -0.12964148678443621 2.5286599049354663 0 0 0 0 0.62958641763796663 -0.0011849234393146446 0 -0.0011849234393146446 0.49571528404355925 0 0 0 0 9.7285632937800983 1.9633890737176358 0 1.9633890737176358 -1.5082268862494743 0 0 0 0 6.8400899432617734 2.648904046550058 0 2.648904046550058 0.35687495882251596 0 0 0 0 7.2479601679078769 1.3779187504104442 0 1.3779187504104442 3.0463998129008587 0 0 0 0 9.0415140458171663 0.36959608348288953 0 0.36959608348288953 0.82849667881555433 0 0 0 0 8.3438464534374361 1.0356522741231942 0 1.0356522741231942 0.25535100643728015 0 0 0 0 8.3414102395781811 0.97894811201224741 0 0.97894811201224741 1.2045651625438865 0 0 0 0 0.30560278069325975 -0.35759564533524113 0 -0.35759564533524113 0.21550919331679386 0 0 0 0 8.1582022203037923 1.1922062371334903 0 1.1922062371334903 1.0315018615068254 0 0 0 0 7.2732643004092097 2.2226613790708569 0 2.2226613790708569 -0.060790887659436521 0 0 0 0 16.208516805214458 4.9499102008180671 0 4.9499102008180671 -1.5402844642558478 0 0 0 0 10.431828006044611 4.5403751656604401 0 4.5403751656604401 1.3502109561098337 0 0 0 0 9.9275154767602771 -1.6775872919313874 0 -1.6775872919313874 -3.6490813867307281 0 0 0 0 -0.55948853494282957 -2.322524515959536 0 -2.322524515959536 0.84403801568227266 0 0 0 0 0.24296889966448632 -0.22858399712636057 0 -0.22858399712636057 0.073506937284832374 0 0 0 0 0.26323479939727967 -0.075980665164795624 0 -0.075980665164795624 -0.073822144790420444 0 0 0 0 0.43624814488434893 -0.29923032151527096 0 -0.29923032151527096 0.32212817053229703 0 0 0 0 3.8880916870184592 2.2197914600323472 0 2.2197914600323472 0.15772475011301212 0 0 0 0 -0.17046059491440246 -0.64696464530619835 0 -0.64696464530619835 -0.8578681660058578 0 0 0 0 -4.1967934307922405 -1.7477178236577045 0 -1.7477178236577045 0.84470883632026172 0 0 0 0 -0.56908580370873096 5.9358645966739516 0 5.9358645966739516 -2.1093024317881941 0 0 0 0 -5.4309670966795238 -2.2657666125489904 0 -2.2657666125489904 -0.50818100711555303 0 0 0 0 1.1038132678008061 -0.67615790481766425 0 -0.67615790481766425 -0.20738201051221711 0 0 0 0 3.4819538643569103 0.87744921983019886 0 0.87744921983019886 0.73865684767014361 0 0 0 0 1.2906489760880504 -1.4251683360268004 0 -1.4251683360268004 0.062166854775767888 0 0 0 0 3.7756772559314413 1.3573481923775006 0 1.3573481923775006 -0.16636090887497579 0 0 0 0 0.22826449411173177 0.34056235989254802 0 0.34056235989254802 0.56351419786588031 0 0 0 0 2.3874590312389046 -2.7167291439490668 0 -2.7167291439490668 1.2181956200079185 0 0 0 0 2.6833758149732603 1.3454423165043465 0 1.3454423165043465 -0.64575680588319528 0 0 0 0 1.192277699116751 0.65167196727847454 0 0.65167196727847454 -0.039942190407101119 0 0 0 0 9.8104912678263645 -8.0031747995033697 0 -8.0031747995033697 0.3091926472616251 0 0 0 0 0.13664570970831846 1.4577353157734763 0 1.4577353157734763 -0.12292647067613416 0 0 0 0 0.90457385981926564 -2.1152078198725164 0 -2.1152078198725164 8.0964239260206341 0 0 0 0 19.48417680588318 -10.378855123776361 0 -10.378855123776361 5.6186689599784359 0 0 0 0 30.644062098461291 1.8935518150530015 0 1.8935518150530015 -0.77483965780731978 0 0 0 0 54.162462253005287 7.8095962847035594 0 7.8095962847035594 -1.1846988048687308 0 0 0 0 1.9001407195974025 0.5591413871484292 0 0.5591413871484292 2.0349374449115913 0 0 0 0 0.40335165497943137 -0.069486041619203576 0 -0.069486041619203576 0.076714969506744612 0 0 0 0 63.967665109781592 4.7704675735847673 0 4.7704675735847673 9.8758501202389652 0 0 0 0 80.200959844696627 8.2539919943689597 0 8.2539919943689597 -2.5430036125694642 0 0 0 0 43.072045630173307 15.246454150416554 0 15.246454150416554 6.0362134642647334 0 0 0 0 47.081582006499957 13.773171554959731 0 13.773171554959731 1.0823946671463318 0 0 0 0 42.8435066185084 20.753468953720414 0 20.753468953720414 6.270167710691851 0 0 0 0 46.262468499415036 20.67318118937219 0 20.67318118937219 5.4865215927850386 0 0 0 0 52.140085005767105 16.474478681746149 0 16.474478681746149 3.4274488820747138 0 0 0 0 44.030306023243611 14.208701256322229 0 14.208701256322229 2.9285090475268589 0 0 0 0 25.452217252748596 14.256424155150683 0 14.256424155150683 10.793631358889684 0 0 0 0 57.440363243388674 23.066117732508232 0 23.066117732508232 1.4813540336240294 0 0 0 0 36.904155489077311 28.608035711335248 0 28.608035711335248 7.3001420474856786 0 0 0 0 2.9246731628063571 -1.4934968360962273 0 -1.4934968360962273 0.61367826712017859 0 0 0 0 1.339359694356137 -1.3026537729422962 0 -1.3026537729422962 0.65779482149831447 0 0 0 0 0.66211482207325645 -0.11546873515054656 0 -0.11546873515054656 -0.12657568496403282 0 0 0 0 52.999406822578749 13.49112119132684 0 13.49112119132684 -2.9667920880914096 0 0 0 0 19.387028392466163 -8.1894124831396198 0 -8.1894124831396198 25.717736057550496 0 0 0 0 9.652702249448339 -4.6807991419103843 0 -4.6807991419103843 -4.2974643601978642 0 0 0 0 7.7776618937205058 5.7077961146447507 0 5.7077961146447507 -2.6506331360128552 0 0 0 0 91.159589495684486 13.464599286358833 0 13.464599286358833 -7.2539391121036942 0 0 0 0 67.199454381323449 42.718771982227224 0 42.718771982227224 30.78189555969459 0 0 0 0 124.13722087926635 2.5897094927550484 0 2.5897094927550484 -2.5387418270564694 0 0 0 0 23.90668433539031 14.930814778850674 0 14.930814778850674 48.570682304283537 0 0 0 0 14.157056365618701 22.408503073143322 0 22.408503073143322 35.632749576321402 0 0 0 0 0.32583279901909989 0.22023507132647779 0 0.22023507132647779 -0.56084117884544038 0 0 0 0 0.25365382372665124 0.24626126363724055 0 0.24626126363724055 0.17431998879107602 0 0 0 0 80.680679686780877 30.385363855954836 0 30.385363855954836 2.6647403638067999 0 0 0 0 9.9992070228267949 1.4574094471803143 0 1.4574094471803143 -0.90619400904648728 0 0 0 0 5.3252826166935847 -0.579902747964951 0 -0.579902747964951 0.09071874758285503 0 0 0 0 5.5520644822154281 -0.15004801753491392 0 -0.15004801753491392 -0.40382336702907651 0 0 0 0 9.9633722904236492 -1.3528596859383129 0 -1.3528596859383129 -0.83426120321348662 0 0 0 0 91.049469499901534 35.408520039252785 0 35.408520039252785 2.2041547146284084 0 0 0 0 65.293806221478008 14.814628332076126 0 14.814628332076126 2.1193987876562943 0 0 0 0 0.12903554470312528 -0.051543446241016255 0 -0.051543446241016255 -0.28576984624271118 0 0 0 0 14.590972513191446 1.6158722605890503 0 1.6158722605890503 -1.0175319965631573 0 0 0 0 36.004233259633111 23.203968928752403 0 23.203968928752403 3.7625315293128239 0 0 0 0 0.81966903235845479 -0.66054488562090796 0 -0.66054488562090796 0.10588804045129743 0 0 0 0 -13.163242866840847 -9.0703782385934808 0 -9.0703782385934808 2.0170088044656627 0 0 0 0 0.38484262817837589 2.4934566360702917 0 2.4934566360702917 0.23659910346927404 0 0 0 0 67.999930006206341 16.492265293105618 0 16.492265293105618 -6.9363738364710628 0 0 0 0 1.2152780404827617 -1.1397594473932706 0 -1.1397594473932706 0.4150382447070663 0 0 0 0 7.1091305018508137 -10.345340578813911 0 -10.345340578813911 -5.0702565636417347 0 0 0 0 -3.8198063080044449 -4.6109239451812911 0 -4.6109239451812911 5.6136156445044492 0 0 0 0 -0.029351196408304858 -0.06835188722903851 0 -0.06835188722903851 -0.041709935674220155 0 0 0 0 9.3728772306294559 8.3471201406330948 0 8.3471201406330948 0.83476173033280254 0 0 0 0 12.249826228383199 -7.6633607944472768 0 -7.6633607944472768 -4.3410711723053055 0 0 0 0 28.973831129693281 -2.6482463885198371 0 -2.6482463885198371 -8.2778014081692444 0 0 0 0 10.76659141368873 -4.412637055321758 0 -4.412637055321758 0.90436683922513339 0 0 0 0 6.6965681996880448 1.9517405074945842 0 1.9517405074945842 1.4113732927959814 0 0 0 0 22.107819621296585 0.3426065830724947 0 0.3426065830724947 -3.6459106155628795 0 0 0 0 28.657502081767177 12.63953223812576 0 12.63953223812576 2.4017384731331219 0 0 0 0 28.651858184891115 5.8487656711270031 0 5.8487656711270031 -2.6543954504198375 0 0 0 0 10.246233623653097 -7.5565181209862944 0 -7.5565181209862944 0.020097642462749019 0 0 0 0 0.1498094615080845 2.2192467118568806 0 2.2192467118568806 -1.2219308042200154 0 0 0 0 3.0376254220750525 -8.1618944673643501 0 -8.1618944673643501 -3.5285825125828065 0 0 0 0 -9.2180923747109773 -6.9690202879248018 0 -6.9690202879248018 -0.0058994757578793048 0 0 0 0 115.37013711281907 54.850735156222456 0 54.850735156222456 6.3445518881501162 0 0 0 0 0.36507283791200251 -0.18064909065678236 0 -0.18064909065678236 -0.015864668985738697 0 0 0 0 35.491149543681786 4.2873333340790225 0 4.2873333340790225 6.2300295093549494 0 0 0 0 -0.029140383271088588 -0.040206088373551552 0 -0.040206088373551552 0.012579616948054602 0 0 0 0 3.5382781741609506 -0.24737950889874583 0 -0.24737950889874583 -1.3619524332501483 0 0 0 0 -7.6799428512549639 -2.1783352065004746 0 -2.1783352065004746 5.3861273977219604 0 0 0 0 3.8931491585044569 2.6032365948284673 0 2.6032365948284673 0.13324521618065788 0 0 0 0 0.37562360216361412 -2.3835460833987208 0 -2.3835460833987208 -1.2308840387516238 0 0 0 0 0.57185234723942813 0.63034520442064323 0 0.63034520442064323 1.2474921990363015 0 0 0 0 2.3560907704941201 -0.66439326883194294 0 -0.66439326883194294 -0.78414376221109805 0 0 0 0 5.6000049788071919 3.8862062858109283 0 3.8862062858109283 -0.89612940999951363 0 0 0 0 0.2563263270446825 -0.2544515459956429 0 -0.2544515459956429 0.1565894509460545 0 0 0 0 10.515256146345564 0.43044955626118764 0 0.43044955626118764 7.083659081170822 0 0 0 0 14.70370338400221 10.873056498277133 0 10.873056498277133 6.6203556819483538 0 0 0 0 0.12041124393676839 -0.086173616446764356 0 -0.086173616446764356 -0.009966322684395984 0 0 0 0 30.114002760322592 12.454027667376991 0 12.454027667376991 -3.234248498488256 0 0 0 0 -2.4966886821939624 -2.9664599466305948 0 -2.9664599466305948 2.7351602225881848 0 0 0 0 0.25000357315116162 -1.8339255252430036 0 -1.8339255252430036 -0.54321160158561987 0 0 0 0 0.5575266056075634 0.3329078585049825 0 0.3329078585049825 -0.52765997188881542 0 0 0 0 -0.89690055727260187 -1.8407034850473079 0 -1.8407034850473079 -0.32765280716585687 0 0 0 0 0.18388111546108377 -0.15194864819520504 0 -0.15194864819520504 0.068290714871817357 0 0 0 0 13.291018889469342 1.8939746405887536 0 1.8939746405887536 -1.3332530564316825 0 0 0 0 17.325842537598874 6.4276829543956957 0 6.4276829543956957 2.4047166428327635 0 0 0 0 -1.4387075738459316 -1.1525662094613438 0 -1.1525662094613438 -0.00065188020223478412 0 0 0 0 0.098301564876425829 -0.048997252355949428 0 -0.048997252355949428 0.010675315802537264 0 0 0 0 1.2566171100788779 -1.2104851966143457 0 -1.2104851966143457 0.0014859655707284321 0 0 0 0 0.057646762281365227 0.14263825540667288 0 0.14263825540667288 -0.12129451607284124 0 0 0 0 0.006070487154959725 -0.0075796773761176439 0 -0.0075796773761176439 0.020906999925553386 0 0 0 0 -1.347715025091361 5.5692188003997067 0 5.5692188003997067 5.5493429421344143 0 0 0 0 4.1655126053392451 0.23650904511735082 0 0.23650904511735082 -0.7832785151216064 0 0 0 0 1.3060069222210586 -1.0046591782144083 0 -1.0046591782144083 0.97670660420861122 0 0 0 0 2.4425889748395093 3.7318009487495267 0 3.7318009487495267 12.378797742003584 0 0 0 0 2.9158369168126228 3.5636957345720366 0 3.5636957345720366 -2.4049501618966409 0 0 0 0 5.2056838435782993 5.2874842573513625 0 5.2874842573513625 -0.0055704721464757455 0 0 0 0 13.729881602681417 3.1831094111223019 0 3.1831094111223019 -5.6053227958773144 0 0 0 0 12.552965476019381 9.8774133312934076 0 9.8774133312934076 1.7847051478577018 0 0 0 0 -1.2528477390187618 -0.96977860977684149 0 -0.96977860977684149 -1.766832539041312 0 0 0 0 5.0843674914412986 2.8043009507093339 0 2.8043009507093339 -0.005410464298668264 0 0 0 0 0.1704744245598917 0.050517567225850102 0 0.050517567225850102 0.0048879779251107033 0 0 0 0 7.4691547907259519 -0.57225537837926765 0 -0.57225537837926765 -7.3527772931527657 0 0 0 0 1.8007989104225999 12.139278880226735 0 12.139278880226735 16.13628368176138 0 0 0 0 19.884185198772684 7.141582253133004 0 7.141582253133004 2.8226741941912299 0 0 0 0 -1.3285413610537944 -1.5586187343498406 0 -1.5586187343498406 -3.4586725451210891 0 0 0 0 -1.6403216436065122 1.4465638400912506 0 1.4465638400912506 -3.004953574398503 0 0 0 0 -2.7082074670252041 -0.14123254157274931 0 -0.14123254157274931 0.0061130253020170913 0 0 0 0 0.43595514353167175 0.0754509743888368 0 0.0754509743888368 -0.014255024825028466 0 0 0 0 -0.2661576399787009 0.056191576200547821 0 0.056191576200547821 -6.4773946667451767 0 0 0 0 3.2475623735590489 14.530359884171718 0 14.530359884171718 -10.928499825772926 0 0 0 0 -2.0591442617242137 4.3908649198753853 0 4.3908649198753853 12.893340062461871 0 0 0 0 1.3635274749558448 1.7018137991059508 0 1.7018137991059508 5.5265556511028819 0 0 0 0 1.3728450014205009 2.5116954641125648 0 2.5116954641125648 11.17323205674802 0 0 0 0 1.0938504169625958 1.3287979711058533 0 1.3287979711058533 12.758187719247836 0 0 0 0 1.0245864136982163 2.0152299430744725 0 2.0152299430744725 14.900745353962019 0 0 0 0 5.2488029734995507 -5.4083432396927114 0 -5.4083432396927114 16.974473362163263 0 0 0 0 2.3966159586634603 2.5950690073696894 0 2.5950690073696894 3.8811889215982065 0 0 0 0 6.0872108409917018 3.7889016680862779 0 3.7889016680862779 3.0958627472235776 0 0 0 0 -2.136952327132434 8.0049724243456364 0 8.0049724243456364 11.89775970391776 0 0 0 0 4.8858593304976239 7.3323867086640266 0 7.3323867086640266 9.5857323773268135 0 0 0 0 3.5179201773808018 1.165275992839728 0 1.165275992839728 3.1453566650049822 0 0 0 0 2.1735129253720515 2.9157587736180304 0 2.9157587736180304 7.3039760867303247 0 0 0 0 3.1260878874099944 0.13912027106484892 0 0.13912027106484892 -0.42902779753689657 0 0 0 0 2.3821328457088384 0.36799010784341135 0 0.36799010784341135 4.078089415712177 0 0 0 0 2.4902141957081767 -2.6297653827332965 0 -2.6297653827332965 -2.0121816117628981 0 0 0 0 0.47149994268238515 -2.1344656565512015 0 -2.1344656565512015 0.63128880581697899 0 0 0 0 6.3867080797317612 -3.8766214317995065 0 -3.8766214317995065 -1.6158896937839984 0 0 0 0 1.8344519111678892 -6.0134710119992789 0 -6.0134710119992789 -2.4888311787183 0 0 0 0 2.2669953381182495 -4.6508092065141042 0 -4.6508092065141042 -0.8915602573414958 0 0 0 0 5.9226662532746559 -7.8927047800313801 0 -7.8927047800313801 -1.6276516502363734 0 0 0 0 2.2193343743920195 -2.8187318386019982 0 -2.8187318386019982 -2.06699295883584 0 0 0 0 0.15189381110030808 -4.279507824999726 0 -4.279507824999726 0.30989683088222364 0 0 0 0 2.4465534496622467 -2.2840019504454241 0 -2.2840019504454241 1.2723780164251934 0 0 0 0 1.9240377992864524 -2.1048826040273596 0 -2.1048826040273596 1.3172920072368939 0 0 0 0 1.3646287636083798 -0.61473511632720612 0 -0.61473511632720612 6.6779737305889597 0 0 0 0 3.1382115611813788 -2.4137328482302394 0 -2.4137328482302394 1.4572805261059045 0 0 0 0 3.0845328112063726 -0.60845590340614919 0 -0.60845590340614919 6.3387028134892702 0 0 0 0 2.5198042819483817 -2.7688336175982613 0 -2.7688336175982613 7.5562258837056113 0 0 0 0 10.182524247744368 -2.3322335891831436 0 -2.3322335891831436 -1.8466183762334225 0 0 0 0 2.8757800857038092 0.47907012488796141 0 0.47907012488796141 -2.6357178215065034 0 0 0 0 0.68501029699109495 -2.120414466996678 0 -2.120414466996678 1.4766278316256418 0 0 0 0 5.5440039128188801 -2.218533242853951 0 -2.218533242853951 -4.2111869182668755 0 0 0 0 2.1538499849675645 -3.9538155586403505 0 -3.9538155586403505 -7.8518466092729966 0 0 0 0 0.46193607063833042 -0.83056926959793032 0 -0.83056926959793032 -4.5696273469826423 0 0 0 0 1.4599484033969929 -0.32578769054670431 0 -0.32578769054670431 0.037848090924995859 0 0 0 0 1.1592490593496905 -0.25263735625016714 0 -0.25263735625016714 -0.009823463149626066 0 0 0 0 2.7489533631674021 -0.6615326266828454 0 -0.6615326266828454 -5.7139990738422739 0 0 0 0 1.8800606925215106 0.5714065369506045 0 0.5714065369506045 0.15728708162481553 0 0 0 0 2.6159163024203735 1.334947667041547 0 1.334947667041547 -0.99047030209373332 0 0 0 0 3.1810183080115166 0.44077312722739492 0 0.44077312722739492 -0.59942180665620981 0 0 0 0 0.70421566878772524 -0.18545187023803678 0 -0.18545187023803678 0.022870989538808506 0 0 0 0 2.6505996183532261 1.0594944058661611 0 1.0594944058661611 0.40267605811547469 0 0 0 0 1.1679666795154482 -0.86019064376680987 0 -0.86019064376680987 -0.15945533229030295 0 0 0 0 0.81771407568521681 -6.8138103404880042 0 -6.8138103404880042 -0.72425030377176824 0 0 0 0 1.2116039927941529 3.9146544178917679 0 3.9146544178917679 4.2732987075386291 0 0 0 0 0.28587010907089905 -0.024125158233163191 0 -0.024125158233163191 -0.032260939211420397 0 0 0 0 1.1690315034274086 -0.86850794653696184 0 -0.86850794653696184 -0.14796628490978969 0 0 0 0 -1.1951331610034686 -0.60621393603361184 0 -0.60621393603361184 -3.1547784436846698 0 0 0 0 -2.3672630651162763 -4.4208126988047667 0 -4.4208126988047667 -0.69997925609071387 0 0 0 0 -0.64391941962276178 -4.2702393599134041 0 -4.2702393599134041 6.0229847076741265 0 0 0 0 22.765150264523982 2.2560626587622608 0 2.2560626587622608 3.677431061412733 0 0 0 0 24.66365662142357 15.469695211397996 0 15.469695211397996 18.835023107987553 0 0 0 0 53.877735075278906 13.609808794759758 0 13.609808794759758 -2.8425204035169038 0 0 0 0 36.55146870344106 2.5157468526187898 0 2.5157468526187898 8.512170563944494 0 0 0 0 15.390911240545393 10.967721863992949 0 10.967721863992949 12.838826589047281 0 0 0 0 -4.1251743307620927 1.4759101128918815 0 1.4759101128918815 6.3235017711491537 0 0 0 0 12.755061125011252 -3.460291863133012 0 -3.460291863133012 5.3241037357508958 0 0 0 0 -1.9431104103387042 1.1847549197941305 0 1.1847549197941305 13.960716871029661 0 0 0 0 -1.0800530987235106 0.04566612796936198 0 0.04566612796936198 6.0775459926153985 0 0 0 0 -4.4860885124212473 -8.0093521792083919 0 -8.0093521792083919 -0.46080963392546437 0 0 0 0 -1.9565436116645287 -3.4558353078124497 0 -3.4558353078124497 2.0903875233290989 0 0 0 0 -7.6684678248675482 -3.3814020832721496 0 -3.3814020832721496 8.2324916369200309 0 0 0 0 -4.0069215604635247 -6.8654914417203941 0 -6.8654914417203941 -3.2553499508186405 0 0 0 0 0.17006078651916567 -0.38377531115825292 0 -0.38377531115825292 -0.095577191674233952 0 0 0 0 -1.9732736970017868 -3.2157940964396516 0 -3.2157940964396516 -0.47772472583896786 0 0 0 0 1.2806476818955161 1.8435921010638658 0 1.8435921010638658 -5.9100893698016819 0 0 0 0 4.4984226957585633 0.16402947948971303 0 0.16402947948971303 -5.4433891044856537 0 0 0 0 -4.2046770624183409 -3.2148956943624682 0 -3.2148956943624682 3.3114355129734179 0 0 0 0 -6.1682640288254333 7.1888228283650903 0 7.1888228283650903 4.4785893589225347 0 0 0 0 -3.2381760374573787 7.7897734780715275 0 7.7897734780715275 -5.7553815475919521 0 0 0 0 -0.14654189353797165 0.022055702378864339 0 0.022055702378864339 0.10088477532313544 0 0 0 0 6.3865135355445091 1.8890960049548795 0 1.8890960049548795 -5.2487750743055832 0 0 0 0 -9.3533674792779493 1.1602064285711329 0 1.1602064285711329 12.771869363348813 0 0 0 0 24.065605365518422 0.99038852354298079 0 0.99038852354298079 3.2690312333694393 0 0 0 0 2.6456113412486957 2.6698432518329618 0 2.6698432518329618 3.220556283713421 0 0 0 0 5.8112362739375385 15.357827852292203 0 15.357827852292203 6.1602750713774359 0 0 0 0 1.007258143825311 15.13255171571225 0 15.13255171571225 13.477076585174895 0 0 0 0 -2.6670983961848833 23.498070543364719 0 23.498070543364719 28.753211823092307 0 0 0 0 28.452278783892325 12.361142813920832 0 12.361142813920832 -4.4067703010171524 0 0 0 0 -0.0326990727144576 0.038356093910959288 0 0.038356093910959288 0.11650414106043591 0 0 0 0 -9.2576088562859695 10.784454261858709 0 10.784454261858709 26.207123510861805 0 0 0 0 29.772794153695031 6.7771015070155247 0 6.7771015070155247 13.987031877493962 0 0 0 0 52.558299851772972 15.651255601013439 0 15.651255601013439 -2.3263982077685341 0 0 0 0 5.3050574766330101 7.7561580707773921 0 7.7561580707773921 51.271362277264956 0 0 0 0 58.849472356820115 -11.836299567887629 0 -11.836299567887629 25.840436445132383 0 0 0 0 92.15152666069298 3.6184761134033456 0 3.6184761134033456 -7.5845127487233679 0 0 0 0 -10.560864565322845 15.087557611606503 0 15.087557611606503 11.814881684021856 0 0 0 0 8.1511369408451628 27.547136938909198 0 27.547136938909198 17.51041590386545 0 0 0 0 1.2006034081160308 0.12935752837169634 0 0.12935752837169634 -0.055530610991115448 0 0 0 0 34.59199181114127 18.718217486740514 0 18.718217486740514 -54.052265626753886 0 0 0 0 5.9524940223618614 1.9128035419216349 0 1.9128035419216349 -20.160398758248093 0 0 0 0 -10.980374398761342 -4.5866808278721436 0 -4.5866808278721436 -7.9546437820345375 0 0 0 0 44.584167761235221 16.239021252610318 0 16.239021252610318 6.0111448659953322 0 0 0 0 4.0219948382514303 35.223052251245186 0 35.223052251245186 10.828530314235437 0 0 0 0 32.340196006709448 -24.935432419162822 0 -24.935432419162822 -5.0516227652268597 0 0 0 0 0.5281437584011357 0.087090232071454388 0 0.087090232071454388 0.0059016479682677744 0 0 0 0 -3.5095492062064295 14.598065532881643 0 14.598065532881643 24.475746412771986 0 0 0 0 19.021629650633258 -16.642093221944428 0 -16.642093221944428 33.123427831361248 0 0 0 0 0.26576560599603738 0.0080835176906641493 0 0.0080835176906641493 -0.015958510070729352 0 0 0 0 15.336326643540815 8.3734380997554023 0 8.3734380997554023 -0.51527096904955827 0 0 0 0 48.648536363802123 -18.367506695104556 0 -18.367506695104556 -19.547931321331056 0 0 0 0 32.104453529488183 5.18760710309573 0 5.18760710309573 -5.0477043410092186 0 0 0 0 -2.2285435262540432 3.7645400936692832 0 3.7645400936692832 4.5745443937348593 0 0 0 0 14.350812212072924 0.60590905376586002 0 0.60590905376586002 -0.0092271007847612718 0 0 0 0 -3.023018842671263 1.1717815829783267 0 1.1717815829783267 -0.41721993695777204 0 0 0 0 2.1441109225215769 5.6641138382319465 0 5.6641138382319465 5.6759639602676391 0 0 0 0 8.4537786643868458 -2.0190387408932691 0 -2.0190387408932691 -0.00043079939197311883 0 0 0 0 35.194267134035726 -14.977544738037896 0 -14.977544738037896 1.1436068821851597 0 0 0 0 6.0290357044445955 -6.2178291070784262 0 -6.2178291070784262 -1.5521131123839678 0 0 0 0 -0.80862009932025103 -2.89920616716894 0 -2.89920616716894 0.0056790692087722999 0 0 0 0 3.2976077570101552 2.0696756147486619 0 2.0696756147486619 -21.861869731301901 0 0 0 0 19.207898070568262 12.191780182421873 0 12.191780182421873 -20.638924507340221 0 0 0 0 -4.3237651306062617 -2.420476143880764 0 -2.420476143880764 -2.8744539198081993 0 0 0 0 18.090067151953917 -4.3862204534859819 0 -4.3862204534859819 -0.0032645213507276256 0 0 0 0 7.850161700960598 3.0399663516621613 0 3.0399663516621613 -2.0884929758636854 0 0 0 0 31.738909067946224 0.60812743850675854 0 0.60812743850675854 -5.3368320173563131 0 0 0 0 42.402271735273644 -8.7284474670617858 0 -8.7284474670617858 -0.0070381740168815295 0 0 0 0 33.842123951822941 -13.381101477321184 0 -13.381101477321184 17.005067764020573 0 0 0 0 54.205992224247893 -13.86950171259172 0 -13.86950171259172 -4.9399526109600131 0 0 0 0 54.744577180067608 -18.230912016331803 0 -18.230912016331803 -18.420331000248254 0 0 0 0 23.051038837689703 3.8311489091807633 0 3.8311489091807633 14.485027700879382 0 0 0 0 34.217830509747728 13.493737695857925 0 13.493737695857925 -9.0913435354215935 0 0 0 0 0.76427929384328763 -0.139840577752679 0 -0.139840577752679 -0.053630219315057404 0 0 0 0 25.925557462793222 24.421406929153854 0 24.421406929153854 -42.681847110958046 0 0 0 0 -7.659115282145649 14.543749262030174 0 14.543749262030174 -9.0297304840444106 0 0 0 0 1.5137857077935806 -0.15380709134048365 0 -0.15380709134048365 -0.11688316606643036 0 0 0 0 26.219246694137837 -15.431757628926036 0 -15.431757628926036 -39.77692779845006 0 0 0 0 7.6446566503536815 -20.797067845419232 0 -20.797067845419232 -18.117836006361852 0 0 0 0 3.7272401986847399 -18.716393050159525 0 -18.716393050159525 2.5978770723754518 0 0 0 0 7.0485524771411292 -41.054854177557829 0 -41.054854177557829 39.948047298788993 0 0 0 0 1.1548027439959725 0.013248015165226779 0 0.013248015165226779 -0.076915202527969004 0 0 0 0 35.707517387540065 -7.0242480205763087 0 -7.0242480205763087 -46.206499198718127 0 0 0 0 5.7083175696152466 -25.794775656332902 0 -25.794775656332902 1.0243906503569491 0 0 0 0 0.48767818962053155 -0.04788093689291939 0 -0.04788093689291939 -0.022508352344660257 0 0 0 0 24.806213239668978 -46.793966558343477 0 -46.793966558343477 23.438699665132326 0 0 0 0 0.11487297064982371 -0.1336679299422272 0 -0.1336679299422272 0.10555611726781058 0 0 0 0 -1.2484675446658002 -0.98315630644283081 0 -0.98315630644283081 0.48859974009555523 0 0 0 0 -0.60352136396249989 -0.18123949417611934 0 -0.18123949417611934 0.00054320279457489981 0 0 0 0 0.90293134946750797 1.158141019287954 0 1.158141019287954 0.67181446930591393 0 0 0 0 10.402435581991085 8.3692839040620761 0 8.3692839040620761 3.1151652871726085 0 0 0 0 0.068653847104471311 -0.037020294581900259 0 -0.037020294581900259 0.013552593585830296 0 0 0 0 5.2890551805612631 -1.0826059719621242 0 -1.0826059719621242 0.27333957522507113 0 0 0 0 1.3270894825209325 1.5786287891938637 0 1.5786287891938637 -1.1103374224582723 0 0 0 0 0.43575831910129637 -6.1515402360213329 0 -6.1515402360213329 -1.7692719200019074 0 0 0 0 0.33738126801334545 -0.0088945728549951752 0 -0.0088945728549951752 -0.024102472432989436 0 0 0 0 4.1654678297654755 0.64627372359381852 0 0.64627372359381852 -0.072016031990848717 0 0 0 0 -2.7162316350832043 -6.7944100858521441 0 -6.7944100858521441 0.020584448960240982 0 0 0 0 10.501889819649023 1.1451454803733636 0 1.1451454803733636 -5.4549525704774062 0 0 0 0 11.372945012510172 -9.9694143104535229 0 -9.9694143104535229 -0.030939080612579904 0 0 0 0 49.036913941004968 -3.9132782576809002 0 -3.9132782576809002 2.7009058296397264 0 0 0 0 8.5559321073869796 4.1452546811633617 0 4.1452546811633617 1.1837485488679107 0 0 0 0 0.079928909050547503 -0.057180049129303967 0 -0.057180049129303967 -0.022594877621468126 0 0 0 0 0.020042891097340032 -0.03766959880682208 0 -0.03766959880682208 0.0019722402365018113 0 0 0 0 24.312338064813957 0.1471417664622825 0 0.1471417664622825 2.3592464763002639 0 0 0 0 0.030935756621666144 -0.10898763341474549 0 -0.10898763341474549 -0.042819119789216237 0 0 0 0 26.149585433531911 15.400918532671877 0 15.400918532671877 -22.590184321586801 0 0 0 0 30.565332720207152 -0.33114829205663376 0 -0.33114829205663376 -2.1138541416442891 0 0 0 0 32.576565217947064 -54.09406985843308 0 -54.09406985843308 35.078263059091491 0 0 0 0 34.072510201398472 9.5945788615505432 0 9.5945788615505432 -23.883102978906219 0 0 0 0 62.082009269506671 -6.7926235901019663 0 -6.7926235901019663 -34.943164115258654 0 0 0 0 4.0176193275356127 -27.88172582082499 0 -27.88172582082499 60.693119611516394 0 0 0 0 0.66720698158274239 -0.076242112400766615 0 -0.076242112400766615 -0.20377482407345723 0 0 0 0 0.99749146164211666 0.70296237207688606 0 0.70296237207688606 -0.049104399062713022 0 0 0 0 2.9630671513262996 -0.18394607701044152 0 -0.18394607701044152 0.019187636833834176 0 0 0 0 3.659510970395786 0.60086583590454978 0 0.60086583590454978 0.058683873731968816 0 0 0 0 2.7394333181091497 -0.35677773628789566 0 -0.35677773628789566 -0.11413254475127133 0 0 0 0 -3.1652432643386419 -3.5148451217448553 0 -3.5148451217448553 -2.5606545496658555 0 0 0 0 4.19065388249237 0.72474384727868202 0 0.72474384727868202 0.087575484924208524 0 0 0 0 0.27368413898070187 0.013367313651421853 0 0.013367313651421853 -0.075868930736723988 0 0 0 0 4.1072062323546561 -1.520707688887228 0 -1.520707688887228 -3.9341967019031969 0 0 0 0 1.6677472232513537 -1.9871933952754262 0 -1.9871933952754262 -0.80424419420450732 0 0 0 0 1.1868272220820977 -0.81724056136788903 0 -0.81724056136788903 -0.041260896258868474 0 0 0 0 -1.2852493178725126 -2.2423070913416154 0 -2.2423070913416154 -0.45316459801961173 0 0 0 0 2.9492280185615982 0.16939207890597308 0 0.16939207890597308 0.39532039024641108 0 0 0 0 2.8442449755930284 -0.19790082131292763 0 -0.19790082131292763 -0.38542525534234073 0 0 0 0 2.5277113405863929 -0.28798228830613937 0 -0.28798228830613937 0.07079903610178917 0 0 0 0 1.4583896038975936 -0.7871510702862814 0 -0.7871510702862814 -0.023849578832139284 0 0 0 0 2.6147646475037618 -0.56229092406752557 0 -0.56229092406752557 -0.15020360070850991 0 0 0 0 2.4929453448635286 -0.46565167609307423 0 -0.46565167609307423 -0.26008449519514443 0 0 0 0 2.7689065901477079 0.047961668323107887 0 0.047961668323107887 -0.14816125481010545 0 0 0 0 3.1229679057851172 -0.0119406783128575 0 -0.0119406783128575 -0.036714423769382165 0 0 0 0 5.0065856165192599 2.1356160671321609 0 2.1356160671321609 0.6108454281795872 0 0 0 0 2.968689845634799 -0.28723900735609931 0 -0.28723900735609931 0.30713210371499144 0 0 0 0 8.9396878274465053 3.4772399554707061 0 3.4772399554707061 -1.593012088766514 0 0 0 0 -6.0189537384540017 -6.7251753859104326 0 -6.7251753859104326 1.5224207139215196 0 0 0 0 0.49413875974169841 0.06528594549577349 0 0.06528594549577349 -0.095762853877685128 0 0 0 0 4.9589053842064459 -2.5200163441984529 0 -2.5200163441984529 -0.00061909262154813405 0 0 0 0 0.45449984012157074 -7.9740669929373666 0 -7.9740669929373666 0.681254674064391 0 0 0 0 2.1653388032692504 -0.10568247114088036 0 -0.10568247114088036 0.0013650780988300887 0 0 0 0 2.0723696997411025 -0.35612587594935974 0 -0.35612587594935974 0.060029286255613101 0 0 0 0 2.0940313536881447 -0.053920877573087722 0 -0.053920877573087722 -0.20460360011984324 0 0 0 0 7.0493017310345749 1.5598042731897124 0 1.5598042731897124 -6.7130395064821755 0 0 0 0 1.0037891812989983 -0.98579979663085737 0 -0.98579979663085737 -5.4293654278709482 0 0 0 0 3.6401951553270919 -4.0376291777978395 0 -4.0376291777978395 -8.6984609691219248 0 0 0 0 1.6732120841230937 -0.56059614749744036 0 -0.56059614749744036 0.02112881064660499 0 0 0 0 2.7269032151780266 0.062918414014305313 0 0.062918414014305313 -0.4844311869462814 0 0 0 0 1.0153674159707364 -0.99117205612972592 0 -0.99117205612972592 0.35612193741448184 0 0 0 0 1.2679961836911389 -0.96668111247554123 0 -0.96668111247554123 -0.9579099817172505 0 0 0 0 2.1363355822177255 -0.4026535499526176 0 -0.4026535499526176 -0.23672093436437081 0 0 0 0 0.4387800199758658 0.25884423356760244 0 0.25884423356760244 -0.33444221119910289 0 0 0 0 2.9810427950344547 -0.27149596176274837 0 -0.27149596176274837 -0.42380194950396799 0 0 0 0 3.030524008339853 -1.247622269210126 0 -1.247622269210126 -1.191010488171969 0 0 0 0 10.255097131550428 -4.3135051943492613 0 -4.3135051943492613 -4.5733099094615 0 0 0 0 5.5850674832327059 0.79233430582399933 0 0.79233430582399933 -5.3140668966369731 0 0 0 0 16.792029747446577 -1.4824759554302886 0 -1.4824759554302886 -4.8698619523742082 0 0 0 0 11.842543926355575 -6.4434896236016357 0 -6.4434896236016357 -0.038942012593679465 0 0 0 0 8.7141974591795588 -2.6834588477194075 0 -2.6834588477194075 -4.5529894060204548 0 0 0 0 -0.98541933831620554 -3.8801984988347442 0 -3.8801984988347442 3.899775625946404 0 0 0 0 6.4779246859252453 -8.9513516780442046 0 -8.9513516780442046 7.2115777171519539 0 0 0 0 21.999015948633314 -11.993818331091461 0 -11.993818331091461 6.4612301758706394 0 0 0 0 7.8185558516142919 -3.4552646717662938 0 -3.4552646717662938 1.4109735662990488 0 0 0 0 7.8556434904380694 4.3561648686552346 0 4.3561648686552346 0.73421078019237029 0 0 0 0 7.1816154731277493 1.2914953148068093 0 1.2914953148068093 2.5125640573184569 0 0 0 0 28.19183110177255 12.953224113014301 0 12.953224113014301 8.970562820884652 0 0 0 0 -0.069466864344576607 4.0513049716216756 0 4.0513049716216756 7.5180923167187643 0 0 0 0 -0.030498608790367143 4.0991146669836098 0 4.0991146669836098 0.793100943555892 0 0 0 0 6.779868489036744 -0.15752747715353621 0 -0.15752747715353621 -6.3303805520903325 0 0 0 0 9.4245886697390233 4.2155475582024451 0 4.2155475582024451 0.7445097337530342 0 0 0 0 -0.18716479775321204 4.2864552004070333 0 4.2864552004070333 -7.7326532524055551 0 0 0 0 2.6689870211213247 -0.037341272660204261 0 -0.037341272660204261 -0.12893630131944386 0 0 0 0 2.7940759085067839 -0.027020140804523862 0 -0.027020140804523862 -0.53275784426045902 0 0 0 0 9.4986619948467705 2.8791283638651066 0 2.8791283638651066 -9.0004988569489797 0 0 0 0 2.0238745395181468 0.067869182393735628 0 0.067869182393735628 -0.0072182150788364652 0 0 0 0 2.718437139058965 -0.099269863032017014 0 -0.099269863032017014 -0.29873503177887195 0 0 0 0 -44.146468578428539 46.448271726492713 0 46.448271726492713 -37.216012200366798 0 0 0 0 2.1923321862021368 0.40959204010232853 0 0.40959204010232853 -0.43353274891506244 0 0 0 0 1.842401238020102 0.011882980846621649 0 0.011882980846621649 -0.41805327171340423 0 0 0 0 1.4192498901338695 3.7868981083163646 0 3.7868981083163646 -7.8552344122565501 0 0 0 0 2.376163821861617 0.39495945117405773 0 0.39495945117405773 -1.0651650321226924 0 0 0 0 4.1988396834494779 -1.0465437862603721 0 -1.0465437862603721 -0.067782246639183086 0 0 0 0 1.0136201691963933 -0.30381468340383933 0 -0.30381468340383933 -0.18013683864686092 0 0 0 0 40.223512636988744 -28.970651906548412 0 -28.970651906548412 8.3920392517015685 0 0 0 0 2.1454941993388275 -1.7791372970660424 0 -1.7791372970660424 -4.2542805753611006 0 0 0 0 2.3303117825408819 0.19984580217146597 0 0.19984580217146597 -0.24582438031928208 0 0 0 0 70.119287337543938 -47.580764695012078 0 -47.580764695012078 -16.620231542272279 0 0 0 0 31.402062279092206 -14.19728279359823 0 -14.19728279359823 -0.29549668862118494 0 0 0 0 1.3162621762394338 3.9499091269393247 0 3.9499091269393247 -1.1663914009592418 0 0 0 0 1.2360452569055305 0.069980006235184078 0 0.069980006235184078 -0.95136523731643508 0 0 0 0 -0.67344373933519819 1.549997376261615 0 1.549997376261615 -2.5050795322381134 0 0 0 0 -3.0594496928515582 0.72809447823229334 0 0.72809447823229334 0.50468399535930075 0 0 0 0 0.64555029854390611 0.33555475227833043 0 0.33555475227833043 -0.66390221373688663 0 0 0 0 -0.13962898543910995 0.077190379222423999 0 0.077190379222423999 -0.11081985469757633 0 0 0 0 -1.2160580870076956 0.98710648697960934 0 0.98710648697960934 1.5456016409795694 0 0 0 0 3.5237634056247771 -4.1923599121690245 0 -4.1923599121690245 4.5950674698060539 0 0 0 0 1.4648883771569672 -2.1421879346101491 0 -2.1421879346101491 2.8050875608599313 0 0 0 0 6.4338513146594778 -3.0865077363633304 0 -3.0865077363633304 2.080066523706023 0 0 0 0 6.0307618148435722 -2.6213512049338306 0 -2.6213512049338306 2.0055790279050143 0 0 0 0 6.5370591221326322 -2.7012883690333638 0 -2.7012883690333638 1.7613084118115694 0 0 0 0 7.0166484799137834 -3.1002099142706356 0 -3.1002099142706356 1.7902611973761395 0 0 0 0 5.9768647564706043 -0.15908543667933372 0 -0.15908543667933372 0.69176863148408074 0 0 0 0 8.4214778893410767 -1.0887697712830402 0 -1.0887697712830402 0.34279552401130786 0 0 0 0 9.4050420801795553 -4.6844462330268186 0 -4.6844462330268186 2.3469407818360111 0 0 0 0 5.6458886610107584 -5.4069605679543429 0 -5.4069605679543429 5.1369859870466144 0 0 0 0 0.67696555634938704 -0.39942707323186255 0 -0.39942707323186255 -3.0319863654895585 0 0 0 0 2.8147963378614804 -6.2808221126568924 0 -6.2808221126568924 1.5990421572829518 0 0 0 0 -0.75707837526169897 -6.5072766732141076 0 -6.5072766732141076 29.340366336767374 0 0 0 0 20.369595379517705 -3.339815223766891 0 -3.339815223766891 -3.6410447947630189 0 0 0 0 1.987834189860223 1.3858224255016012 0 1.3858224255016012 9.0698993131850472 0 0 0 0 0.17985859677835236 -0.17732930192195795 0 -0.17732930192195795 0.14084616365771763 0 0 0 0 4.2225298901903443 -6.0959301117504765 0 -6.0959301117504765 14.471487878908789 0 0 0 0 0.63604063367165509 -1.2252787938947449 0 -1.2252787938947449 7.8833951241638864 0 0 0 0 6.3598908514923096 0.69182529245946967 0 0.69182529245946967 -0.39577643268802376 0 0 0 0 9.7397027926066357 -1.0156965342171294 0 -1.0156965342171294 0.21030139120733793 0 0 0 0 3.7749365331656008 1.5642566854265851 0 1.5642566854265851 0.5862097895752072 0 0 0 0 1.0196037410241843 0.5199790366036936 0 0.5199790366036936 0.30505598630890063 0 0 0 0 -0.065444853311419138 0.81195465188729088 0 0.81195465188729088 0.45645779665383657 0 0 0 0 1.8149343729573957 2.310471663729146 0 2.310471663729146 4.1672239556297654 0 0 0 0 -1.1723554493937627 -1.2499629073381513 0 -1.2499629073381513 3.7841162904242367 0 0 0 0 -0.058195617914861941 -2.7454630455852822 0 -2.7454630455852822 7.3796256372689868 0 0 0 0 -0.34961404098794446 -0.80967374076141141 0 -0.80967374076141141 2.2567109117123678 0 0 0 0 47.295714531568592 -18.167296151877352 0 -18.167296151877352 40.648517691772206 0 0 0 0 47.974339387777945 18.623445919608553 0 18.623445919608553 2.5852506460873919 0 0 0 0 30.80231932075003 7.7871752644642385 0 7.7871752644642385 6.0882392538873802 0 0 0 0 0.74985199475792541 -0.018081622972038414 0 -0.018081622972038414 -0.018144496055798872 0 0 0 0 66.039452427779679 15.943782482408526 0 15.943782482408526 1.4299621471099933 0 0 0 0 37.753471460331639 45.956886307054724 0 45.956886307054724 -29.301556600079472 0 0 0 0 -25.046603895356384 27.621273991157445 0 27.621273991157445 40.030692255598368 0 0 0 0 0.8031892918778496 -0.071873239868042393 0 -0.071873239868042393 0.044309134911649624 0 0 0 0 -20.929679634338754 -25.24229711709339 0 -25.24229711709339 86.116594457933886 0 0 0 0 74.505388397872593 -35.803217601674447 0 -35.803217601674447 -52.236043084664743 0 0 0 0 1.3129373253468657 -32.610236833329012 0 -32.610236833329012 23.366855095967722 0 0 0 0 -0.46243320378607677 -3.3825027716348988 0 -3.3825027716348988 3.8717586015553138 0 0 0 0 -0.37917208634098643 -3.2230877464549508 0 -3.2230877464549508 0.25877926943201146 0 0 0 0 53.725516635473468 -24.01745857839413 0 -24.01745857839413 3.7202360798748515 0 0 0 0 12.698590720992797 3.830954028039006 0 3.830954028039006 -8.6660493824764746 0 0 0 0 5.3875512233971676 -7.3070565069635425 0 -7.3070565069635425 11.021499254188484 0 0 0 0 12.183307649265771 0.72250718621454268 0 0.72250718621454268 -2.4413602484766557 0 0 0 0 1.3694840789825165 0.37389903041207972 0 0.37389903041207972 -0.14375012808658921 0 0 0 0 -1.3342304773241267 0.68567062344808427 0 0.68567062344808427 5.0726130807986323 0 0 0 0 -0.97354091362012696 -5.2167465876912402 0 -5.2167465876912402 -9.8203904764756373 0 0 0 0 -0.055982177055344806 -0.41414895321332068 0 -0.41414895321332068 -0.50483502509732125 0 0 0 0 -0.95227873108888161 -15.038420881994455 0 -15.038420881994455 4.5827172401050404 0 0 0 0 0.56242015122087707 0.17575722392664872 0 0.17575722392664872 0.086170990461844593 0 0 0 0 36.708445851267243 26.872376102875791 0 26.872376102875791 -8.5782259049574776 0 0 0 0 65.277254749998974 -34.923085419042863 0 -34.923085419042863 16.444843157607579 0 0 0 0 99.832170306020998 14.901349546420477 0 14.901349546420477 4.780562610776883 0 0 0 0 51.537363471192293 3.6277623478844845 0 3.6277623478844845 6.8607626049658492 0 0 0 0 39.83632485128237 12.429081439778173 0 12.429081439778173 34.110622391972697 0 0 0 0 96.917528880912869 -2.4857027013464403 0 -2.4857027013464403 5.8044274089420469 0 0 0 0 27.422939533145836 10.160975323781258 0 10.160975323781258 5.7369999172649955 0 0 0 0 99.354551223959788 35.826414942461383 0 35.826414942461383 -2.4817175234923639 0 0 0 0 122.17691685668524 9.9082321424481421 0 9.9082321424481421 -19.383899629836833 0 0 0 0 101.47748478662879 8.6700946629910902 0 8.6700946629910902 -19.45629559408161 0 0 0 0 44.823995351382109 -7.2468894029490514 0 -7.2468894029490514 19.626952742423228 0 0 0 0 146.40447037260492 23.278273627734634 0 23.278273627734634 10.486788937001052 0 0 0 0 -2.2296533319058653 32.021421174314185 0 32.021421174314185 5.1009391990800168 0 0 0 0 170.77853876220524 -17.687535755762994 0 -17.687535755762994 6.485028875300145 0 0 0 0 0.17052785966266626 0.18963225151072649 0 0.18963225151072649 0.33607218419229579 0 0 0 0 22.508528332378773 -2.2093838045306029 0 -2.2093838045306029 -15.536049702218634 0 0 0 0 1.2162786919594559 0.2610648203399677 0 0.2610648203399677 0.49218801309318572 0 0 0 0 37.812597179778095 7.3107956710456392 0 7.3107956710456392 2.5300528108037952 0 0 0 0 52.174397264760046 -9.6616459861672865 0 -9.6616459861672865 3.6158739852948472 0 0 0 0 62.421284097512398 -30.87953197337589 0 -30.87953197337589 7.2919993131980654 0 0 0 0 124.44237185809652 -6.412215021648592 0 -6.412215021648592 -17.913397606145963 0 0 0 0 0.34718450284591995 -0.21658581768015317 0 -0.21658581768015317 0.044685874557275795 0 0 0 0 124.9642356012904 -10.746231784777194 0 -10.746231784777194 -16.439308187124084 0 0 0 0 186.13662153132645 51.466654526151387 0 51.466654526151387 -0.36679492308881834 0 0 0 0 0.49925831529640163 -0.4076411803342026 0 -0.4076411803342026 0.45143794284279615 0 0 0 0 1.678007786646134 -1.2314033166225933 0 -1.2314033166225933 0.80211041039539843 0 0 0 0 64.941260697629332 16.195216049329474 0 16.195216049329474 -6.1507716364010321 0 0 0 0 0.68658950645058781 -0.12867599741432301 0 -0.12867599741432301 0.32296692080625578 0 0 0 0 2.0043581154659478 1.0929293703347867 0 1.0929293703347867 2.1838726114657874 0 0 0 0 23.569069040340764 25.969735351452528 0 25.969735351452528 -0.61497561210640583 0 0 0 0 2.7327008932770696 -1.8421836915754284 0 -1.8421836915754284 14.640203588635586 0 0 0 0 3.4254265604862439 7.8120432032388401 0 7.8120432032388401 9.1070327411555354 0 0 0 0 -0.19632133480990888 1.7517331041481157 0 1.7517331041481157 2.1006269573058489 0 0 0 0 -17.815803379073259 -2.4347984486815335 0 -2.4347984486815335 15.277326472641079 0 0 0 0 -5.0808571162742737 -8.3991401649578279 0 -8.3991401649578279 2.2794159900710156 0 0 0 0 47.713363235357974 -14.755582518098606 0 -14.755582518098606 15.528617133858489 0 0 0 0 -3.5857436861197129 15.704505203376357 0 15.704505203376357 16.778793544702694 0 0 0 0 46.310671853891108 -15.16896002570121 0 -15.16896002570121 -5.9537793203678007 0 0 0 0 -22.353993479312521 -4.1453608146796768 0 -4.1453608146796768 11.400042434315424 0 0 0 0 -0.16907700747431775 -0.19485808463958776 0 -0.19485808463958776 -0.091855200420426053 0 0 0 0 5.3611903783448724 -4.7766384984472552 0 -4.7766384984472552 1.1504575103149364 0 0 0 0 2.6355233296417282 -6.1420119947422336 0 -6.1420119947422336 0.47949259322746229 0 0 0 0 2.800572181098687 -3.9160639891751998 0 -3.9160639891751998 2.5362418356586574 0 0 0 0 0.90100695096043637 -3.7755870957949469 0 -3.7755870957949469 2.7334854476743686 0 0 0 0 3.7007945809782541 -3.4205392679934903 0 -3.4205392679934903 2.5795120531389557 0 0 0 0 4.8528422875460819 -2.4569886749529815 0 -2.4569886749529815 1.7267838614702526 0 0 0 0 3.7769573664162408 -2.2262551286567493 0 -2.2262551286567493 2.4798120367445335 0 0 0 0 5.9815987718666292 -0.87565346817962109 0 -0.87565346817962109 1.8795846722672422 0 0 0 0 4.7987567731761374 -0.69072396361593746 0 -0.69072396361593746 2.0785268842346341 0 0 0 0 4.0140448971578735 -1.2715677695569525 0 -1.2715677695569525 3.3908201614655127 0 0 0 0 3.725007142231334 -2.4493185418021994 0 -2.4493185418021994 2.3390173538704175 0 0 0 0 2.7977312082998651 -2.8741206595650794 0 -2.8741206595650794 2.2722844566869753 0 0 0 0 3.77487158842996 -1.9413758182932952 0 -1.9413758182932952 2.87845211162238 0 0 0 0 3.0219288912667253 -1.9298239177019241 0 -1.9298239177019241 3.2831294908049813 0 0 0 0 2.9300429805480235 -2.8757875247806055 0 -2.8757875247806055 2.6801377967503299 0 0 0 0 3.7677169838316331 -2.0066530747094191 0 -2.0066530747094191 1.7940810297475309 0 0 0 0 0.75842842163001478 -3.5539956238968671 0 -3.5539956238968671 2.7717514005172461 0 0 0 0 2.4454336141006934 -2.3944874898101602 0 -2.3944874898101602 2.7413829695383356 0 0 0 0 1.7499157719648792 -1.7965802025493716 0 -1.7965802025493716 1.3870508456413972 0 0 0 0 0.27561511797097182 -2.8931264523033624 0 -2.8931264523033624 2.4386755231456618 0 0 0 0 0.25138942522399788 -0.34631570544108214 0 -0.34631570544108214 0.78915850453001901 0 0 0 0 1.838348182556274 -0.90962125475171973 0 -0.90962125475171973 4.1352216849963952 0 0 0 0 6.323677515189047 -3.2747065659782493 0 -3.2747065659782493 5.2849869482034819 0 0 0 0 8.2462903267733054 0.28092889773915886 0 0.28092889773915886 3.1270801016003986 0 0 0 0 0.12754857673940023 -0.1768283096541392 0 -0.1768283096541392 2.698886449056431 0 0 0 0 5.4513325186271686 -1.3815047823359805 0 -1.3815047823359805 2.6596234279696773 0 0 0 0 4.4196172636166011 0.010711086751086896 0 0.010711086751086896 3.1707163448459141 0 0 0 0 6.0211299582515494 0.026865532132660519 0 0.026865532132660519 1.3064460308509069 0 0 0 0 5.7704169613498379 0.51496661302633129 0 0.51496661302633129 1.4389315324620213 0 0 0 0 5.2184665181830496 0.081695350894023022 0 0.081695350894023022 3.2874167028896863 0 0 0 0 5.1788159498428286 1.0882440559595921 0 1.0882440559595921 6.9750320836967603 0 0 0 0 4.7293346878868761 -0.23496161706952989 0 -0.23496161706952989 3.1390533055751462 0 0 0 0 3.6500378449472919 -1.4795661890812823 0 -1.4795661890812823 5.4242738143768747 0 0 0 0 4.2045016982829111 -2.5767819467718596 0 -2.5767819467718596 7.7614407585404024 0 0 0 0 4.2323917538160458 -1.9917362516823687 0 -1.9917362516823687 3.2223902159312274 0 0 0 0 4.1329141124660964 -2.7710445659507741 0 -2.7710445659507741 3.3810491785953047 0 0 0 0 5.2927139766725304 -1.2127959868995788 0 -1.2127959868995788 0.099169108470505307 0 0 0 0 -0.099199008880532347 -0.083431373982762125 0 -0.083431373982762125 -0.29599005041336568 0 0 0 0 0.75041869631531499 0.26408354868577888 0 0.26408354868577888 -0.2576425052768998 0 0 0 0 0.17401035827496969 -0.020602013177985157 0 -0.020602013177985157 -0.041088821624170713 0 0 0 0 0.19412906198786994 -0.013822959386018852 0 -0.013822959386018852 0.036732354934582157 0 0 0 0 4.0474869324170868 2.2863756152194128 0 2.2863756152194128 1.8761634806942311 0 0 0 0 6.5759203930392687 -3.3241263702456081 0 -3.3241263702456081 3.0400285424851745 0 0 0 0 -0.19451960990409134 1.1421261223449051 0 1.1421261223449051 9.9407586250340501 0 0 0 0 0.73589671513946087 1.651541554003046 0 1.651541554003046 2.0211865917409 0 0 0 0 0.46266010005274438 -0.037285290510379099 0 -0.037285290510379099 1.8652735138596013 0 0 0 0 1.597112999804267 1.3155660079360558 0 1.3155660079360558 1.6131103117753582 0 0 0 0 0.53661101694160607 0.181889216612106 0 0.181889216612106 2.3199781975519613 0 0 0 0 0.60742934155859984 -0.033224303391875765 0 -0.033224303391875765 1.4348240475590046 0 0 0 0 0.17939519022452544 0.41873791570962915 0 0.41873791570962915 1.3198341652275603 0 0 0 0 1.1364379540136724 0.20445728447654687 0 0.20445728447654687 1.6886443834730684 0 0 0 0 0.13832381318752596 0.26517100865063448 0 0.26517100865063448 1.8861513371183847 0 0 0 0 0.27006934700148122 0.12179848816564842 0 0.12179848816564842 1.9053611205708592 0 0 0 0 -0.19090048284760996 -0.49345267383757285 0 -0.49345267383757285 1.766212322528375 0 0 0 0 -1.1389134370037937 -0.080519945262153669 0 -0.080519945262153669 2.228258448947539 0 0 0 0 0.19285394479315965 -0.854350699328986 0 -0.854350699328986 1.5513565741809243 0 0 0 0 4.1038870330821737 -0.74296889613461303 0 -0.74296889613461303 0.90234360306106964 0 0 0 0 0.11209567059927394 0.32874849387112448 0 0.32874849387112448 0.31893586668434182 0 0 0 0 0.67772995468070718 0.32688489621127204 0 0.32688489621127204 0.32380668904396992 0 0 0 0 1.1159597893257072 0.18647751020776582 0 0.18647751020776582 0.48525451329808322 0 0 0 0 2.6166251210379414 0.022775876744617563 0 0.022775876744617563 1.0516169694475366 0 0 0 0 3.3046975519346233 -1.5118720958873269 0 -1.5118720958873269 2.2742209643008664 0 0 0 0 3.7261505246306115 -0.15074126391735376 0 -0.15074126391735376 1.3857159876951073 0 0 0 0 0.027809408404209535 -0.034238573768243796 0 -0.034238573768243796 1.7714734044333778 0 0 0 0 -0.40396654486721673 0.36214601224387089 0 0.36214601224387089 1.8713275216884995 0 0 0 0 0.51039043052151101 -0.35810067663453538 0 -0.35810067663453538 4.9855096366151486 0 0 0 0 0.13491721433274506 -3.0506367884889301 0 -3.0506367884889301 5.5903893209863327 0 0 0 0 1.7215254178299801 -1.4889906186665485 0 -1.4889906186665485 3.334413843231971 0 0 0 0 2.323801775026368 -2.437556778674093 0 -2.437556778674093 2.8516628065121949 0 0 0 0 2.2775003653223393 -1.0125710302508537 0 -1.0125710302508537 2.0445482685442471 0 0 0 0 0.67709278711836873 0.5057160448327096 0 0.5057160448327096 0.34436024808448962 0 0 0 0 0.83199691308982437 0.29798155126633219 0 0.29798155126633219 0.67648171749431185 0 0 0 0 0.77239574240383035 0.47611523852454951 0 0.47611523852454951 0.31034665093485803 0 0 0 0 1.7404228537980089 -0.11788526710773795 0 -0.11788526710773795 2.0465455767276666 0 0 0 0 1.1084070904144028 0.33262282961740652 0 0.33262282961740652 0.35473615406914405 0 0 0 0 1.3413548027419893 -0.77907542442963518 0 -0.77907542442963518 2.2261579303955159 0 0 0 0 1.1078405430642349 0.55898749305797679 0 0.55898749305797679 0.337475302176377 0 0 0 0 1.1895225232174198 0.49647549418600079 0 0.49647549418600079 0.46739761399248891 0 0 0 0 1.249721586966551 0.068214437888567403 0 0.068214437888567403 -0.075124947640517803 0 0 0 0 2.995435401739087 -0.72569070045769024 0 -0.72569070045769024 0.87618468589988652 0 0 0 0 0.56565248042589999 0.5621854611873438 0 0.5621854611873438 0.32726170524968401 0 0 0 0 4.7406965794070857 -1.0351003247049562 0 -1.0351003247049562 0.48559775162630103 0 0 0 0 3.2796682776215675 -1.7204133828414294 0 -1.7204133828414294 0.49041190913067112 0 0 0 0 3.0280581136903493 -2.8975114205142063 0 -2.8975114205142063 -0.25754676243332142 0 0 0 0 4.2533581063180463 -1.9092864335333388 0 -1.9092864335333388 0.49827005123544765 0 0 0 0 5.5510190441455052 -2.0270607924553588 0 -2.0270607924553588 -1.7154244592966279 0 0 0 0 0.70452426078554709 0.76921137133990669 0 0.76921137133990669 -1.7548059376365472 0 0 0 0 4.9760738647164544 -3.3289145552215587 0 -3.3289145552215587 -4.5379412722717234 0 0 0 0 0.28356131034654197 0.023866498976243378 0 0.023866498976243378 -0.12964485484214605 0 0 0 0 3.7137831496875151 -0.86208231651482947 0 -0.86208231651482947 -4.8500451262233923 0 0 0 0 2.6741595980201964 1.1382773990599162 0 1.1382773990599162 -1.1353674054149678 0 0 0 0 2.8614403937026509 -2.5747856907885023 0 -2.5747856907885023 -2.436069042663803 0 0 0 0 0.21969368520531773 0.10339154309991727 0 0.10339154309991727 -0.0099203371670182339 0 0 0 0 -1.005075538413621 0.64091682371366465 0 0.64091682371366465 2.3637950403233887 0 0 0 0 -2.6554203164287173 -0.89577008933201219 0 -0.89577008933201219 1.8595819087287995 0 0 0 0 4.1996513566755311 -1.1499996094117364 0 -1.1499996094117364 1.006484598891177 0 0 0 0 3.2940342750880518 -1.4745065788641227 0 -1.4745065788641227 1.4079990881829758 0 0 0 0 0.028764063127042716 -0.99952348728988483 0 -0.99952348728988483 1.6489583012488682 0 0 0 0 3.2599711769419173 -1.2027676311543676 0 -1.2027676311543676 1.491019469451544 0 0 0 0 2.4464109785658366 -1.9761022963731989 0 -1.9761022963731989 1.4880130271790541 0 0 0 0 -0.60912117799216503 -0.85537542777636144 0 -0.85537542777636144 1.3187904094005996 0 0 0 0 -4.238118066556126 -1.3442479967920598 0 -1.3442479967920598 3.4309147176217625 0 0 0 0 0.98986080430222501 -2.6195729439444966 0 -2.6195729439444966 1.3449048521557643 0 0 0 0 1.8179210657108342 -3.2678929979703639 0 -3.2678929979703639 1.6502404979510175 0 0 0 0 0.030788297956092281 -0.97393323828627842 0 -0.97393323828627842 1.7455572038779277 0 0 0 0 -1.7665025887054071 -2.2049900467814609 0 -2.2049900467814609 1.3867125396584612 0 0 0 0 -0.84003845430379442 -0.51620590471508154 0 -0.51620590471508154 2.4797147625209401 0 0 0 0 0.060756403880077414 -4.8807849242780073 0 -4.8807849242780073 3.6245820604756727 0 0 0 0 5.1371816486407624 -3.759888439703559 0 -3.759888439703559 -1.6991288179121398 0 0 0 0 5.5658572106003703 -5.5367989653746577 0 -5.5367989653746577 -1.4943791438701055 0 0 0 0 4.506007075211528 -2.8166187806341441 0 -2.8166187806341441 -2.756051167287751 0 0 0 0 6.0719631785614183 -3.5480701996931998 0 -3.5480701996931998 -3.9946161362468047 0 0 0 0 3.4782526572820416 -1.1322135792305712 0 -1.1322135792305712 -5.0382829870250134 0 0 0 0 4.1878016809023393 -4.0394470922166192 0 -4.0394470922166192 -2.4293812313593435 0 0 0 0 3.3875772933917574 -4.4402025802694194 0 -4.4402025802694194 -2.6180144500951883 0 0 0 0 4.2492924575490179 -3.6410131965519099 0 -3.6410131965519099 0.13780266670227093 0 0 0 0 4.173171043239563 -4.1317609522164389 0 -4.1317609522164389 -1.9570235754835323 0 0 0 0 1.4188871941369143 -4.3806904720560169 0 -4.3806904720560169 0.045690867656617229 0 0 0 0 3.754526424816504 -6.168764797382039 0 -6.168764797382039 1.2992779134696093 0 0 0 0 -0.75314191784855211 -5.9244945761129202 0 -5.9244945761129202 2.8474083762478699 0 0 0 0 3.875141667218486 -5.4831647430520434 0 -5.4831647430520434 4.3369952330739352 0 0 0 0 9.6251581449387231 -4.349635697932726 0 -4.349635697932726 -1.8344737326914924 0 0 0 0 5.5015057482632983 -7.4862751795337488 0 -7.4862751795337488 2.1208334421681911 0 0 0 0 3.9931825890726032 -5.5011892193218159 0 -5.5011892193218159 -0.48968774416016458 0 0 0 0 6.9602779201022713 -5.936573755796104 0 -5.936573755796104 5.3326217984945288 0 0 0 0 6.2710518041967589 -4.0068509689861003 0 -4.0068509689861003 -3.1364483369235359 0 0 0 0 1.5861157717954484 1.3562625225324041 0 1.3562625225324041 -5.6170204787811713 0 0 0 0 8.1753018438230356 -0.93635541582466431 0 -0.93635541582466431 -8.6687474296517166 0 0 0 0 1.4311412441165885 10.400308431710016 0 10.400308431710016 -16.384751286312213 0 0 0 0 3.9401721427129814 -2.7954236897428189 0 -2.7954236897428189 -1.8350630468084432 0 0 0 0 9.3828153591966839 -0.57790297697017934 0 -0.57790297697017934 -15.924374516820535 0 0 0 0 4.7666310187305498 4.1003158303377916 0 4.1003158303377916 10.559931854764557 0 0 0 0 12.201933696878768 -2.4409906585206613 0 -2.4409906585206613 -2.0218831973486999 0 0 0 0 2.745022138908098 -4.1576318108369037 0 -4.1576318108369037 -0.6737488202284112 0 0 0 0 9.3112810794118559 35.554538146280748 0 35.554538146280748 1.374998566097787 0 0 0 0 0.71177678544924561 0.34112656200255564 0 0.34112656200255564 0.13370791290388562 0 0 0 0 144.33169270999224 -39.611713772501744 0 -39.611713772501744 -6.5794723865315063 0 0 0 0 67.42227372985144 -32.818009405299165 0 -32.818009405299165 -5.9165788527473495 0 0 0 0 45.680228752072139 28.99830654228332 0 28.99830654228332 -19.541328939153573 0 0 0 0 51.66793012251344 -22.152989377657871 0 -22.152989377657871 -12.856660621180936 0 0 0 0 121.13770748671232 -31.271146845639805 0 -31.271146845639805 -17.794249954169999 0 0 0 0 -13.658399525093046 -15.486462171858875 0 -15.486462171858875 23.193205213205147 0 0 0 0 69.385665016347957 -54.856570202681496 0 -54.856570202681496 21.372833423930047 0 0 0 0 76.170098413911091 40.695863573403784 0 40.695863573403784 36.792055326252921 0 0 0 0 139.85719203473218 -58.979044568537589 0 -58.979044568537589 41.024738477074038 0 0 0 0 -16.730864124830987 28.294033566024098 0 28.294033566024098 9.1722020134282758 0 0 0 0 -13.099606209091689 -26.741237515276325 0 -26.741237515276325 14.951522139665371 0 0 0 0 1.823554773315422 1.1327349265965871 0 1.1327349265965871 0.71431430964252041 0 0 0 0 2.686792992751819 1.7810400365316594 0 1.7810400365316594 -4.9491574570603234 0 0 0 0 4.3692034759906164 0.036139050593021693 0 0.036139050593021693 -5.1116599843940662 0 0 0 0 24.9062814984336 -11.283380870866239 0 -11.283380870866239 -11.544848096839019 0 0 0 0 1.5083258449728802 0.95388803316478388 0 0.95388803316478388 0.4761556514256855 0 0 0 0 57.055727620880589 -11.063904283460616 0 -11.063904283460616 -6.4837854854807802 0 0 0 0 17.540406634883766 0.29421276952741948 0 0.29421276952741948 4.4781134521181585 0 0 0 0 70.659476008071579 -10.825375175719429 0 -10.825375175719429 -3.891898344153617 0 0 0 0 69.625458141023955 -4.8893619288052292 0 -4.8893619288052292 3.2707939334856349 0 0 0 0 64.25149585851068 -6.7683294107211793 0 -6.7683294107211793 1.0986213390113733 0 0 0 0 70.061608941239683 -5.7732707708914788 0 -5.7732707708914788 0.20079739165511512 0 0 0 0 54.656079917816896 -15.522923662626745 0 -15.522923662626745 2.878889801117051 0 0 0 0 63.049043598709432 -7.4889416699330695 0 -7.4889416699330695 9.8900661941294743 0 0 0 0 62.367814748822184 -0.78454257754832968 0 -0.78454257754832968 9.9925884483037066 0 0 0 0 55.789574597580213 -5.7434766848499041 0 -5.7434766848499041 9.6678031538097144 0 0 0 0 54.448280711012558 -3.6351657661348549 0 -3.6351657661348549 8.2948188789823938 0 0 0 0 51.11804815560572 -2.5548172171713408 0 -2.5548172171713408 19.815016448677724 0 0 0 0 51.833098171020538 -12.259155321689438 0 -12.259155321689438 13.797028300924495 0 0 0 0 0.19979701209530631 -0.18876234303675332 0 -0.18876234303675332 0.21886029223625475 0 0 0 0 57.678048905301694 -10.069314893004147 0 -10.069314893004147 -1.9338083198092337 0 0 0 0 13.257021388219073 -15.979822870596744 0 -15.979822870596744 27.77065383817914 0 0 0 0 3.243374899938317 -0.68724779113692724 0 -0.68724779113692724 6.2924487166940297 0 0 0 0 1.7041786673344177 3.4187693393966661 0 3.4187693393966661 8.290329741025122 0 0 0 0 -3.9516999838488118 -3.3807193661308812 0 -3.3807193661308812 10.832788797665835 0 0 0 0 3.2067054589097097 5.7894985907253327 0 5.7894985907253327 19.086369508070735 0 0 0 0 -1.2476347926385642 -4.3894351758966792 0 -4.3894351758966792 2.8294493962216882 0 0 0 0 0.32555487405079475 -3.0448962405432005 0 -3.0448962405432005 3.9390735829637915 0 0 0 0 -0.36908145598863484 -0.028549261345172106 0 -0.028549261345172106 3.6361689912248658 0 0 0 0 -0.50019867974060617 0.14903452705919684 0 0.14903452705919684 3.5209336730282836 0 0 0 0 0.84585274609889893 0.68946959372025951 0 0.68946959372025951 2.0211925016125303 0 0 0 0 2.4386063323618146 1.5404582853814732 0 1.5404582853814732 2.4748243949122823 0 0 0 0 0.81531243446079316 -0.018195671246253653 0 -0.018195671246253653 1.2485118994926694 0 0 0 0 4.4169934390802155 2.3246640189044809 0 2.3246640189044809 2.2277059064350069 0 0 0 0 0.34889599694194828 -0.45497967946820239 0 -0.45497967946820239 0.59682749180850947 0 0 0 0 2.2254981411060726 0.88889684311603734 0 0.88889684311603734 2.6193726758431608 0 0 0 0 6.2079602301464547 -12.715967534578247 0 -12.715967534578247 1.1905911497058526 0 0 0 0 10.918445969326058 3.2680174881742516 0 3.2680174881742516 2.3651010461901762 0 0 0 0 -1.6415123407487044 1.5456963598866196 0 1.5456963598866196 8.1504513710723359 0 0 0 0 -2.9483052681853223 -2.1309775409471996 0 -2.1309775409471996 1.1788600850095463 0 0 0 0 0.14060688694917189 0.4999072276116614 0 0.4999072276116614 1.8990692962706888 0 0 0 0 2.2222718818629801 1.0778798810787542 0 1.0778798810787542 1.5569207478463589 0 0 0 0 0.39140100076777529 -0.5577311741830755 0 -0.5577311741830755 0.76320751345036431 0 0 0 0 0.96214156150563213 0.61505002822232058 0 0.61505002822232058 1.8868847353844398 0 0 0 0 1.0071403972597182 0.19457393467722639 0 0.19457393467722639 2.0063162861334192 0 0 0 0 0.90259659482035204 0.39696938434650519 0 0.39696938434650519 1.6516791846174002 0 0 0 0 0.39739216533108035 -0.54802866262359728 0 -0.54802866262359728 0.95024144408851607 0 0 0 0 1.3825299980999262 0.40721625337489797 0 0.40721625337489797 1.9103730267993626 0 0 0 0 -1.4597585148389953 -0.73962901761005462 0 -0.73962901761005462 2.0676993253976264 0 0 0 0 0.16136645801081961 -0.12701838418321287 0 -0.12701838418321287 0.037258288619424346 0 0 0 0 -1.1154930111160866 0.82131113351540286 0 0.82131113351540286 3.6283315111298862 0 0 0 0 0.2055303424858721 0.35419597414319526 0 0.35419597414319526 1.9082294265949713 0 0 0 0 0.20044325978415145 0.54629002154366901 0 0.54629002154366901 1.0203386556602823 0 0 0 0 0.07308768697839696 0.27301880936192902 0 0.27301880936192902 1.9371176506850531 0 0 0 0 0.038282772209015548 -0.20487857301838019 0 -0.20487857301838019 0.96257932333857998 0 0 0 0 0.48937128518658568 0.2315435570276918 0 0.2315435570276918 0.85508026049212682 0 0 0 0 0.24945910371835645 1.0238409587840565 0 1.0238409587840565 0.67891936176751866 0 0 0 0 2.2395281589333536 1.0084468642168005 0 1.0084468642168005 -0.55155449199276063 0 0 0 0 7.6857955530613253 3.7695386510330309 0 3.7695386510330309 0.093844919705382779 0 0 0 0 1.7533728699709172 1.8479837805237054 0 1.8479837805237054 2.1073462346703309 0 0 0 0 2.0966106405548999 1.2553307453928788 0 1.2553307453928788 0.65232797855014724 0 0 0 0 11.057966439861048 -7.9450167673841463 0 -7.9450167673841463 2.7245970268963333 0 0 0 0 0.093763731417148222 -0.14955801092916232 0 -0.14955801092916232 0.1152484083803057 0 0 0 0 19.9515619078702 1.8145514989694789 0 1.8145514989694789 5.442559637200894 0 0 0 0 60.280915400568119 -16.640868657645839 0 -16.640868657645839 -1.899475444749811 0 0 0 0 52.989375933134298 -11.577518835397958 0 -11.577518835397958 10.77763300770502 0 0 0 0 -1.6242788898762228 -2.0133169676795859 0 -2.0133169676795859 14.585566573618763 0 0 0 0 52.924481501200205 -7.7462059055244854 0 -7.7462059055244854 -1.771477210016883 0 0 0 0 0.10040103835575565 -0.074065546261259385 0 -0.074065546261259385 0.071089218236214835 0 0 0 0 13.439672793199861 -15.946577289587495 0 -15.946577289587495 17.250232589812448 0 0 0 0 103.98400703052539 -18.458201672470693 0 -18.458201672470693 -1.609798147116777 0 0 0 0 0.14328016395690568 0.022618489392002061 0 0.022618489392002061 -0.020766011124213946 0 0 0 0 73.303954245420755 -15.912242527011699 0 -15.912242527011699 5.622460769371088 0 0 0 0 62.063149371419058 -12.199800029830527 0 -12.199800029830527 8.0031514349418771 0 0 0 0 90.58477115392634 -17.039422081665009 0 -17.039422081665009 1.9985301852027249 0 0 0 0 71.842692771457223 -19.003614592205306 0 -19.003614592205306 9.5032611769369169 0 0 0 0 75.651928504349144 -23.103503965073187 0 -23.103503965073187 1.1981555652059512 0 0 0 0 85.525062819821869 -12.011947896521256 0 -12.011947896521256 -0.079671931209844615 0 0 0 0 60.345650212064356 -33.737036722747312 0 -33.737036722747312 13.238957139904528 0 0 0 0 119.2645938309779 -15.512101540740886 0 -15.512101540740886 9.9110538166049764 0 0 0 0 0.16195916711353675 -0.21137342441298657 0 -0.21137342441298657 0.22706130333332974 0 0 0 0 -1.4801116093021847 -7.9391101884617541 0 -7.9391101884617541 17.310941750713269 0 0 0 0 0.035023821259528631 3.6132614743425222 0 3.6132614743425222 10.911527112503265 0 0 0 0 3.0190155614127434 2.8481945101187875 0 2.8481945101187875 -0.60097068089262962 0 0 0 0 8.7225682477546798 7.9044618426213731 0 7.9044618426213731 3.759391203019149 0 0 0 0 13.922162167758415 0.90413319946210891 0 0.90413319946210891 -2.6706769786758002 0 0 0 0 6.1081469467435454 -0.40027050310917289 0 -0.40027050310917289 -2.7945603728305741 0 0 0 0 2.4591481003171793 -0.49880784520544097 0 -0.49880784520544097 -1.8200894024861043 0 0 0 0 2.9895393925416371 1.5578475999971673 0 1.5578475999971673 0.49663743574409625 0 0 0 0 4.0934889297641348 3.2328510115301281 0 3.2328510115301281 -2.2443101148475044 0 0 0 0 3.2947281326273696 5.6849460050711293 0 5.6849460050711293 -2.3838937597636232 0 0 0 0 1.5128383886435586 2.4090539765014709 0 2.4090539765014709 -0.54695662915896293 0 0 0 0 2.5476153243951956 1.4905828793029912 0 1.4905828793029912 0.47586295963643654 0 0 0 0 1.7401155672633877 4.8658672407772627 0 4.8658672407772627 0.018915712416784913 0 0 0 0 -0.2547160024024322 -0.029834838663514773 0 -0.029834838663514773 0.31351536958283543 0 0 0 0 -7.5293283767459798 14.779126764461694 0 14.779126764461694 -4.3034021047068904 0 0 0 0 29.835632115693443 -13.372453195536764 0 -13.372453195536764 -1.1146706012372647 0 0 0 0 30.779301868680705 -11.679896519225537 0 -11.679896519225537 11.134094724264145 0 0 0 0 30.456525429388421 -6.4040709398229865 0 -6.4040709398229865 6.2601781205646603 0 0 0 0 41.272798422447522 2.7016285228457662 0 2.7016285228457662 8.2290283189100606 0 0 0 0 120.7030935291059 -13.795111661288644 0 -13.795111661288644 -10.251609997915807 0 0 0 0 69.271421176079741 -9.5839558338888367 0 -9.5839558338888367 -1.0491165756932332 0 0 0 0 111.89934971570437 7.0452690480901197 0 7.0452690480901197 -6.2417265554832397 0 0 0 0 53.653168495740829 10.791547594558253 0 10.791547594558253 8.3570827443063251 0 0 0 0 0.56667038520620139 -0.32449291971242999 0 -0.32449291971242999 0.49062886721477589 0 0 0 0 -1.607697044757515 -0.16625327975718562 0 -0.16625327975718562 1.0900384907151306 0 0 0 0 0.28725043335272193 -0.25802595334588929 0 -0.25802595334588929 0.75724226862790389 0 0 0 0 1.4443485841384245 -0.090499807472930627 0 -0.090499807472930627 0.84381521262406523 0 0 0 0 1.3855695967690735 -0.90727911081760704 0 -0.90727911081760704 1.8273953173279187 0 0 0 0 1.7196334307673169 -0.64008626831822157 0 -0.64008626831822157 1.1671723434525205 0 0 0 0 1.5974695657096163 -0.12326765811747009 0 -0.12326765811747009 0.79549039989443315 0 0 0 0 1.1129730959592052 -0.34549851555102329 0 -0.34549851555102329 1.2241771814461444 0 0 0 0 1.532893135775339 -0.12561094928140193 0 -0.12561094928140193 0.57127508377232061 0 0 0 0 1.5672750280739223 -0.62581466181073253 0 -0.62581466181073253 0.21280169945659783 0 0 0 0 2.0107167930400465 0.6152713624871069 0 0.6152713624871069 1.2403061462239862 0 0 0 0 2.3097941655723844 0.84716163105794351 0 0.84716163105794351 0.95910204298239421 0 0 0 0 1.2266167154151333 -0.22476551403946132 0 -0.22476551403946132 0.3352089799328366 0 0 0 0 2.6923059581212812 -0.72649724918202452 0 -0.72649724918202452 0.20775834929827025 0 0 0 0 1.006565423840577 1.1527938043660484 0 1.1527938043660484 0.52318539616403292 0 0 0 0 1.6189082391324519 0.15052933095864596 0 0.15052933095864596 -0.2591384228380918 0 0 0 0 1.2484750977964723 0.03886870389754904 0 0.03886870389754904 -0.41337388287672638 0 0 0 0 2.0109440091418946 0.9729846008721097 0 0.9729846008721097 0.70265036674886971 0 0 0 0 1.9554423941353889 0.6835229477655389 0 0.6835229477655389 0.52553750506899632 0 0 0 0 0.8629241893928139 0.53086633878639411 0 0.53086633878639411 0.58044268740551463 0 0 0 0 -0.93483180079056183 1.8527685332007309 0 1.8527685332007309 0.25815224021550875 0 0 0 0 0.41122737896395734 0.1679903728215919 0 0.1679903728215919 0.16974752354987732 0 0 0 0 2.2662989285345247 1.1378668374375422 0 1.1378668374375422 0.67365721168764026 0 0 0 0 -1.6388854620381608 0.10873361497023382 0 0.10873361497023382 3.632162448098029 0 0 0 0 -1.5258658015227411 -0.18729365633660677 0 -0.18729365633660677 2.4773699102910314 0 0 0 0 -1.490364346318529 1.321308559872449 0 1.321308559872449 4.7290378437082552 0 0 0 0 -0.077786787351215025 4.5850224948636793 0 4.5850224948636793 -0.4836394661235488 0 0 0 0 0.003530458066961728 5.3004392751011409 0 5.3004392751011409 2.7767218215454861 0 0 0 0 3.1488125711574497 1.6804860058268023 0 1.6804860058268023 0.66689855873063175 0 0 0 0 0.53243066748837009 2.1828933579233478 0 2.1828933579233478 0.321376393079845 0 0 0 0 3.9687262500336828 1.4579182917437099 0 1.4579182917437099 -0.92279902863536734 0 0 0 0 4.7032174491541809 0.97190398867077477 0 0.97190398867077477 -0.61015428890818413 0 0 0 0 7.1693309324673464 2.0891147293702375 0 2.0891147293702375 -1.5423005218495121 0 0 0 0 6.7186954175094797 -1.3865079937414833 0 -1.3865079937414833 -1.29515717013021 0 0 0 0 2.9107987253883039 -0.3508804751116763 0 -0.3508804751116763 -0.57333382457529147 0 0 0 0 4.6580800836984508 0.53436142043355006 0 0.53436142043355006 -0.29234507045273972 0 0 0 0 1.9890576873353893 -0.27780552185095075 0 -0.27780552185095075 0.52769857371835371 0 0 0 0 2.5105935763422167 -0.21816822973831052 0 -0.21816822973831052 0.52288523171307588 0 0 0 0 1.1302488472820116 -0.46087673819334718 0 -0.46087673819334718 0.21970527901757475 0 0 0 0 2.4738790135015734 -1.8419287019063972 0 -1.8419287019063972 4.3002206303910953 0 0 0 0 -0.70672135990753304 -2.1749596864909293 0 -2.1749596864909293 0.21083588397636532 0 0 0 0 2.2627731789680183 -2.4899411081282663 0 -2.4899411081282663 -0.092203738415783221 0 0 0 0 1.3211114168718083 -1.0052943990893581 0 -1.0052943990893581 0.33200579331315594 0 0 0 0 2.6728624895185931 -1.2939560948647966 0 -1.2939560948647966 0.7356526704374744 0 0 0 0 1.3080746371924761 1.8937738127333432 0 1.8937738127333432 2.3601935663720042 0 0 0 0 0.51157516946239134 -0.079343697406997649 0 -0.079343697406997649 0.032558542334557461 0 0 0 0 1.7506353622703088 -0.89519424573994222 0 -0.89519424573994222 0.48783370614581428 0 0 0 0 0.97187911000764871 -2.3556582978803116 0 -2.3556582978803116 -0.33228241762889388 0 0 0 0 1.0813281668688433 1.5027657411720932 0 1.5027657411720932 1.2965897375366062 0 0 0 0 -0.93183709319600894 -2.7640097111610578 0 -2.7640097111610578 0.58982539652408406 0 0 0 0 3.7169402991166862 0.039079187224267287 0 0.039079187224267287 -0.1650786821376613 0 0 0 0 0.46538370084086722 -0.18937613378538742 0 -0.18937613378538742 0.15055646350332269 0 0 0 0 4.9843916286627064 -2.5506988441383998 0 -2.5506988441383998 -2.1539745747314765 0 0 0 0 -0.09409995795613213 -2.1248897627664274 0 -2.1248897627664274 -3.7753770857802778 0 0 0 0 -0.43816545917843541 -1.3922746742538854 0 -1.3922746742538854 1.9185605337301581 0 0 0 0 0.13802633064245384 -0.47180115518732535 0 -0.47180115518732535 0.047024135131588443 0 0 0 0 2.7653150621190434 0.48627103970906704 0 0.48627103970906704 0.9461829931038781 0 0 0 0 5.7149255109543446 4.491672827841791 0 4.491672827841791 5.2977188306462031 0 0 0 0 3.55498643352621 -1.784559836570192 0 -1.784559836570192 6.869041822969681 0 0 0 0 4.9980770012280118 -0.883979870858429 0 -0.883979870858429 -0.48325271713589135 0 0 0 0 11.037304362116629 -3.4355970911811378 0 -3.4355970911811378 0.35253509315685205 0 0 0 0 13.513618131010389 4.786375626071754 0 4.786375626071754 0.19471529932269505 0 0 0 0 4.9162669167180866 1.8600731585949717 0 1.8600731585949717 -0.71251785385425492 0 0 0 0 12.051303379631975 -1.4647426299538213 0 -1.4647426299538213 -1.0343744323535167 0 0 0 0 6.4257355714671576 -3.1992516704020724 0 -3.1992516704020724 -2.9823381530824271 0 0 0 0 5.8751358432346024 1.7737531826128683 0 1.7737531826128683 -0.11929998979548313 0 0 0 0 8.7213920092749504 0.55098052272454756 0 0.55098052272454756 -0.0040182543914891282 0 0 0 0 12.297481367218495 3.1459407886696757 0 3.1459407886696757 0.018457712875659782 0 0 0 0 2.9474661261820074 0.35394712492049268 0 0.35394712492049268 0.58444925761533317 0 0 0 0 5.644049590206123 2.5717426064117017 0 2.5717426064117017 0.75310228250356248 0 0 0 0 2.1834769435045018 0.24177229877562226 0 0.24177229877562226 0.0024432631925495377 0 0 0 0 12.457904834845067 10.897080642130508 0 10.897080642130508 4.4313251659586967 0 0 0 0 1.2413391922210835 -0.0074123544934048269 0 -0.0074123544934048269 0.018827288186381387 0 0 0 0 41.07880576468051 -24.581809324090642 0 -24.581809324090642 8.7333951127908023 0 0 0 0 160.30664772604905 -57.929082437671212 0 -57.929082437671212 8.4282230854765139 0 0 0 0 147.46807787935177 -29.857870980179626 0 -29.857870980179626 -9.8333827563915719 0 0 0 0 69.39862950333395 -7.6806555701834851 0 -7.6806555701834851 -8.1158241675044565 0 0 0 0 27.076350841514795 -8.4954707399587477 0 -8.4954707399587477 15.841595682109187 0 0 0 0 3.958415723991493 15.02108836662596 0 15.02108836662596 0.62838024047647423 0 0 0 0 -1.2258571319325711 -0.06058616403145578 0 -0.06058616403145578 1.0538299252818319 0 0 0 0 -0.51563766296596469 1.278435705291173 0 1.278435705291173 0.6972343517212074 0 0 0 0 -0.1570253991339996 2.5485662020604409 0 2.5485662020604409 0.62138107529248854 0 0 0 0 -0.91678649889263397 -0.33171653773695731 0 -0.33171653773695731 1.2915799579540135 0 0 0 0 -0.45578434698109049 0.88656546184864027 0 0.88656546184864027 2.1426432852719053 0 0 0 0 1.1073172061878722 4.355018291120448 0 4.355018291120448 3.1929070302142843 0 0 0 0 6.2637749885761878 3.8320073929180891 0 3.8320073929180891 -0.2101267604641297 0 0 0 0 3.1288162191885931 -2.0686994141019692 0 -2.0686994141019692 3.1550919574732785 0 0 0 0 0.12309380260209224 0.19791707267851599 0 0.19791707267851599 0.056841142600483535 0 0 0 0 2.9893449274186423 5.1024848755619763 0 5.1024848755619763 7.2794166282596509 0 0 0 0 2.9020109038641095 0.38485051818489557 0 0.38485051818489557 -0.097345586182389837 0 0 0 0 9.8394238193295678 5.6925855216847401 0 5.6925855216847401 -5.9115907405178696 0 0 0 0 -1.3663879394953256 2.6537720455771066 0 2.6537720455771066 2.3176115879477592 0 0 0 0 -0.59833110883364071 1.4652368900067607 0 1.4652368900067607 0.22238258406636802 0 0 0 0 -5.1166732803576451 -8.9305748685664099 0 -8.9305748685664099 -0.67677216750822922 0 0 0 0 -6.0394094911534921 -0.22129072787583759 0 -0.22129072787583759 2.6553029365942193 0 0 0 0 7.8348225633035327 -6.5366990952553321 0 -6.5366990952553321 -17.834246202770036 0 0 0 0 7.7232576241985953 -1.1620397439721557 0 -1.1620397439721557 -0.98143343596768884 0 0 0 0 0.51401069942022914 0.15682383677707179 0 0.15682383677707179 -0.088081198107051756 0 0 0 0 -2.0657593528158031 -1.9634000100993463 0 -1.9634000100993463 -0.0073077305774937014 0 0 0 0 -2.6705631560689653 -5.1402923858438374 0 -5.1402923858438374 -2.5997511347087388 0 0 0 0 0.014738944826923728 0.0002793017584501456 0 0.0002793017584501456 -0.02688282794425708 0 0 0 0 -14.416164005688188 -8.7463565922716686 0 -8.7463565922716686 0.40919197444665922 0 0 0 0 4.5624434479577758 1.7146214113728666 0 1.7146214113728666 -2.3764779169524628 0 0 0 0 75.217657852912453 29.838196372137457 0 29.838196372137457 10.064613847186385 0 0 0 0 10.287323360129449 -5.4152702568638098 0 -5.4152702568638098 0.029578899364066359 0 0 0 0 -9.7404118779304554 -6.5705713502102023 0 -6.5705713502102023 8.8544739469289979 0 0 0 0 74.305567435437297 54.38006059300281 0 54.38006059300281 16.223418786794351 0 0 0 0 88.803967907735114 1.2036074954982179 0 1.2036074954982179 -0.02009007662639883 0 0 0 0 151.26064635106559 -28.877695721629383 0 -28.877695721629383 18.810225823279175 0 0 0 0 186.12798968933384 23.995117985247532 0 23.995117985247532 -20.78180824903772 0 0 0 0 125.32137187147237 -1.2752545855182198 0 -1.2752545855182198 -0.013133213568470562 0 0 0 0 182.34980723643639 39.086247369997153 0 39.086247369997153 -0.60811752552301357 0 0 0 0 152.96142275556394 21.670962383398891 0 21.670962383398891 6.5981072793789863 0 0 0 0 118.73417673750919 -7.5458771745831683 0 -7.5458771745831683 6.0124480144637289 0 0 0 0 132.95936337029707 19.220005704619879 0 19.220005704619879 56.374284353198469 0 0 0 0 151.43679361698923 9.9741125120735035 0 9.9741125120735035 -13.949363600491026 0 0 0 0 156.82506076107666 13.070753403270077 0 13.070753403270077 -18.579236788943746 0 0 0 0 61.947244546852744 -29.759660498239455 0 -29.759660498239455 2.0463079221937051 0 0 0 0 43.291623190807513 4.3206794882109705 0 4.3206794882109705 10.023262653301522 0 0 0 0 127.09874728521027 -0.75857721091625052 0 -0.75857721091625052 -10.748613440464309 0 0 0 0 128.21517877130827 -4.2178207689955833 0 -4.2178207689955833 -1.7784094488657018 0 0 0 0 166.03499518789795 14.363163688490829 0 14.363163688490829 -10.273783866541795 0 0 0 0 70.787497174702366 -10.52252515343433 0 -10.52252515343433 12.765953435957915 0 0 0 0 70.351626857130213 -13.084746218412558 0 -13.084746218412558 3.5134190556421885 0 0 0 0 92.701132560077895 -23.509146401761249 0 -23.509146401761249 11.184253323612547 0 0 0 0 109.00274668373095 4.6234682607444597 0 4.6234682607444597 7.449344646835609 0 0 0 0 72.019979630018042 4.5141501781362035 0 4.5141501781362035 0.0042972290774163108 0 0 0 0 35.461825901389602 -2.9063813132450367 0 -2.9063813132450367 -10.337777916618208 0 0 0 0 10.048288373842297 6.0263322235114858 0 6.0263322235114858 0.011123113141654182 0 0 0 0 4.2605123808589269 -2.7764786320672812 0 -2.7764786320672812 11.434932198390342 0 0 0 0 3.323051683650192 8.2387966442471594 0 8.2387966442471594 -9.3388833269412324 0 0 0 0 36.84104795224539 -13.806724919732174 0 -13.806724919732174 14.696074752167744 0 0 0 0 -12.453155407689337 5.8922032318611297 0 5.8922032318611297 0.0035590252632235258 0 0 0 0 -5.3432717011964996 6.1958700425342341 0 6.1958700425342341 -2.8089550190760004 0 0 0 0 0.0086364198750139565 0.011657155466917146 0 0.011657155466917146 0.003658393206482204 0 0 0 0 -18.332870236939925 7.423011162507982 0 7.423011162507982 0.74166419106623493 0 0 0 0 -10.542811229275685 -9.0776093983776107 0 -9.0776093983776107 -1.2781736948664033 0 0 0 0 0.21557223992433805 0.1220547564363379 0 0.1220547564363379 -0.035252720613147576 0 0 0 0 7.2020977876718462 0.35224491119185641 0 0.35224491119185641 -0.80864306570338229 0 0 0 0 0.38827493788812717 1.9517657392745642 0 1.9517657392745642 -6.3072727317083679 0 0 0 0 -12.418785548437882 9.6835628266684246 0 9.6835628266684246 -2.9792649050821804 0 0 0 0 0.12384375592212038 0.22968887870885624 0 0.22968887870885624 -0.0040093708545334422 0 0 0 0 2.0418203494100453 1.7688385103215793 0 1.7688385103215793 0.11622479843072142 0 0 0 0 2.2323175178717065 1.2291475612179141 0 1.2291475612179141 0.10694588783155723 0 0 0 0 1.7506383740717588 0.15047549524051718 0 0.15047549524051718 -0.43762527889027147 0 0 0 0 -16.963228331886057 3.4913599231698242 0 3.4913599231698242 3.695869643121874 0 0 0 0 0.77816866683939168 1.0733431764763637 0 1.0733431764763637 0.4397497584989013 0 0 0 0 -24.336815757636941 -5.5866702900217646 0 -5.5866702900217646 -0.797793616727688 0 0 0 0 -22.754010443188008 4.8850724112949093 0 4.8850724112949093 8.5435811797549377 0 0 0 0 -7.1215990128002886 12.418734749159754 0 12.418734749159754 5.6586193557853761 0 0 0 0 -15.587488841403683 10.451158476753193 0 10.451158476753193 1.5036849632163296 0 0 0 0 0.9201717854798197 1.0646440994133393 0 1.0646440994133393 0.25761551142509953 0 0 0 0 -7.9740454780585424 9.1762353295746433 0 9.1762353295746433 -2.3854570178302765 0 0 0 0 -16.961236667748381 3.7067966244129096 0 3.7067966244129096 2.7659194812570149 0 0 0 0 3.1328158175710996 1.2692805712071049 0 1.2692805712071049 -0.11521065022270705 0 0 0 0 0.14603667964183842 1.8314116768526674 0 1.8314116768526674 -0.0037897790758165684 0 0 0 0 1.1061412405797455 1.1702146293897044 0 1.1702146293897044 0.11757074311111637 0 0 0 0 1.4222832555069544 1.8086529202467929 0 1.8086529202467929 0.11479562765310902 0 0 0 0 2.2438425721523672 1.250915969627739 0 1.250915969627739 0.32142923664578338 0 0 0 0 30.85999357264609 -1.2254808076944226 0 -1.2254808076944226 2.8620691472523916 0 0 0 0 38.462246005936322 8.7866663080722773 0 8.7866663080722773 5.087721875300204 0 0 0 0 4.3911439429048187 7.4622942115477713 0 7.4622942115477713 13.135552300671783 0 0 0 0 4.4961866556768655 6.680114662687231 0 6.680114662687231 -1.027329583448477 0 0 0 0 -7.5451828603204376 5.2529709630896475 0 5.2529709630896475 4.9455235882087436 0 0 0 0 27.996454547732355 -8.083725156561588 0 -8.083725156561588 8.6449201023453099 0 0 0 0 23.329305760980787 6.8688436863165521 0 6.8688436863165521 1.52859546384434 0 0 0 0 12.102336979668962 5.7635337174336554 0 5.7635337174336554 10.07426240819359 0 0 0 0 10.97211440272622 15.560923386746111 0 15.560923386746111 -4.820587606422464 0 0 0 0 3.2257379962393316 11.115565225898507 0 11.115565225898507 5.2648802917594679 0 0 0 0 -4.120337303073029 13.00602234186249 0 13.00602234186249 3.1873020652633173 0 0 0 0 3.4750319302838761 10.996153737333799 0 10.996153737333799 -4.0429825295834689 0 0 0 0 -2.5687038367104833 13.718513730167132 0 13.718513730167132 -2.4641380551705083 0 0 0 0 5.4233149635006157 11.124071592480409 0 11.124071592480409 -4.9677930244987465 0 0 0 0 5.3656347696208968 10.268784420231064 0 10.268784420231064 -9.4434875233466187 0 0 0 0 4.6106837086940686 6.7163777419068182 0 6.7163777419068182 -8.5881299892868128 0 0 0 0 4.4545375190937193 7.2450435389080781 0 7.2450435389080781 -5.1128526739754463 0 0 0 0 0.77448331882442289 5.3071613575131948 0 5.3071613575131948 -4.009390883097808 0 0 0 0 6.6015537733273959 4.8399521261991083 0 4.8399521261991083 -6.8220700525920961 0 0 0 0 7.589724939798316 -9.0710642803694697 0 -9.0710642803694697 -29.47074062455647 0 0 0 0 1.1848736549288006 -0.66859428961848444 0 -0.66859428961848444 0.31112812059962636 0 0 0 0 2.8071735260782589 2.109633345926909 0 2.109633345926909 -0.10007689521626162 0 0 0 0 1.9619923003015174 1.7572153033937283 0 1.7572153033937283 -0.24580605760161234 0 0 0 0 1.9212895820792255 2.1041674612894106 0 2.1041674612894106 0.34337267694536422 0 0 0 0 1.1064725668276765 1.3469249785715505 0 1.3469249785715505 0.67842068714847326 0 0 0 0 2.076782090087363 2.4535323100358823 0 2.4535323100358823 0.2279045633438983 0 0 0 0 -8.82629085217377 6.3074211162447682 0 6.3074211162447682 -5.5047635358840807 0 0 0 0 -2.4619850567587491 13.974887411394768 0 13.974887411394768 -8.8281841015835312 0 0 0 0 -0.65138921383881154 0.3318457739646572 0 0.3318457739646572 0.264944174898748 0 0 0 0 1.8723327977959343 2.6339499922626146 0 2.6339499922626146 0.10864665989663536 0 0 0 0 -1.5595374029871891 5.5475786582017577 0 5.5475786582017577 4.6795776053536429 0 0 0 0 1.4304714270054504 1.8717932772390284 0 1.8717932772390284 0.35514302455556201 0 0 0 0 3.0363916379355942 2.9141429195083219 0 2.9141429195083219 -0.12268093097866029 0 0 0 0 2.0834356080781617 2.4402446010118837 0 2.4402446010118837 -0.23859506052303914 0 0 0 0 2.7146426554281788 2.7697337573133609 0 2.7697337573133609 -0.10762687423294892 0 0 0 0 1.76091096106029 2.7871100465716232 0 2.7871100465716232 1.2483284308626708 0 0 0 0 1.5994170118774491 1.945868985086264 0 1.945868985086264 -0.24793006049115718 0 0 0 0 0.68630589358690486 2.0882018053925009 0 2.0882018053925009 0.18423535756528509 0 0 0 0 1.6522569069152144 1.5720293065115136 0 1.5720293065115136 -0.52983541315971805 0 0 0 0 1.9226853685132497 0.46023853933764336 0 0.46023853933764336 -0.96283693827129913 0 0 0 0 5.0769832253990899 0.62972141393487391 0 0.62972141393487391 0.10511610492051204 0 0 0 0 1.1396304010049789 0.51220080829037329 0 0.51220080829037329 -0.69310009329820588 0 0 0 0 0.94955459790980967 1.5036219681548815 0 1.5036219681548815 2.0695219936069833 0 0 0 0 7.9391016253889575 -0.65954947423183086 0 -0.65954947423183086 -5.0617510045747167 0 0 0 0 6.5603419777507952 4.0846405313110949 0 4.0846405313110949 1.4181547862269213 0 0 0 0 4.9253961299873481 1.5541646015921629 0 1.5541646015921629 -4.0352732152932758 0 0 0 0 4.84819305855126 2.5421740763317757 0 2.5421740763317757 -9.038175487571408 0 0 0 0 2.0438282213397798 -0.36358862956344318 0 -0.36358862956344318 0.19716949521452276 0 0 0 0 1.4354623230159049 1.3948266903778404 0 1.3948266903778404 0.58588524546327925 0 0 0 0 3.6904029886172793 0.57253521321013068 0 0.57253521321013068 0.058564551781870477 0 0 0 0 4.3565929310771025 -0.004027990846651619 0 -0.004027990846651619 -0.59013919530491421 0 0 0 0 0.53626749089714032 0.095652891656584416 0 0.095652891656584416 -0.15940375142742114 0 0 0 0 0.67570327254361473 -1.6955788957081666 0 -1.6955788957081666 -0.49927237554146586 0 0 0 0 -2.6185507171958307 7.2024828501844809 0 7.2024828501844809 -10.057038314506542 0 0 0 0 1.7820012525501525 -0.68051391193049682 0 -0.68051391193049682 0.17128313785950933 0 0 0 0 54.73342637265705 15.160508233551951 0 15.160508233551951 9.024986625049479 0 0 0 0 -0.62375598975813773 8.3171578507600117 0 8.3171578507600117 9.8979682795244628 0 0 0 0 21.864271811220533 -23.727811340564756 0 -23.727811340564756 19.915533459220441 0 0 0 0 8.3887675343303272 16.496462644739523 0 16.496462644739523 -2.245017158193491 0 0 0 0 218.96950372724859 -17.090941749459034 0 -17.090941749459034 -23.655498061741497 0 0 0 0 34.529128791504263 -42.296730597993914 0 -42.296730597993914 3.2271654065015127 0 0 0 0 0.77678315259852582 -0.18870168610845539 0 -0.18870168610845539 0.069480569277758031 0 0 0 0 186.87187002772771 96.367969753616904 0 96.367969753616904 51.577791917715132 0 0 0 0 54.834404506093051 47.858016734771923 0 47.858016734771923 35.085373378667214 0 0 0 0 202.1219036460044 -10.193784028235763 0 -10.193784028235763 17.562573321618686 0 0 0 0 133.13043201991968 -0.10029359598661358 0 -0.10029359598661358 53.669557901042509 0 0 0 0 117.32039724069909 -11.725268611214943 0 -11.725268611214943 22.447782092947961 0 0 0 0 138.76527307793003 4.0337281060962482 0 4.0337281060962482 23.173434390679351 0 0 0 0 125.35919388014736 -18.763128893669176 0 -18.763128893669176 25.686747209160444 0 0 0 0 154.76716334117191 -3.8451508064736828 0 -3.8451508064736828 -1.6045359290185388 0 0 0 0 197.56006097397403 29.520328974760247 0 29.520328974760247 24.102673899524831 0 0 0 0 178.51025918019877 -22.757127817006591 0 -22.757127817006591 10.674682712653464 0 0 0 0 153.00315000929049 -1.9129016590180257 0 -1.9129016590180257 -1.8113382417044477 0 0 0 0 117.51472787508419 -13.643485943917788 0 -13.643485943917788 9.0930587000464129 0 0 0 0 149.32998839379798 -8.8884828368921234 0 -8.8884828368921234 -8.8704777297482167 0 0 0 0 152.00875816320331 6.8260455354399028 0 6.8260455354399028 -16.500912642040973 0 0 0 0 126.99823204981703 0.42208629945921672 0 0.42208629945921672 2.7443272073915068 0 0 0 0 153.36432851757445 13.170833401562113 0 13.170833401562113 12.366647729877798 0 0 0 0 141.22739034807546 -32.718135449503308 0 -32.718135449503308 -9.4287419666164567 0 0 0 0 12.242958775959778 -52.505995331198704 0 -52.505995331198704 2.8347280149181984 0 0 0 0 22.331944564268269 13.347748205799292 0 13.347748205799292 -14.540682046144752 0 0 0 0 199.21620283135599 27.38561731403567 0 27.38561731403567 -3.1659049150247256 0 0 0 0 64.348219222222724 18.511312102699236 0 18.511312102699236 0.13399500842683665 0 0 0 0 0.58352006777154486 -0.27927677382824001 0 -0.27927677382824001 0.15043150006202466 0 0 0 0 319.5857886351223 -74.813313979423526 0 -74.813313979423526 -77.421306884755552 0 0 0 0 126.54691517870555 106.64056589179343 0 106.64056589179343 -47.324393478204371 0 0 0 0 113.61660987149082 -143.85552321188626 0 -143.85552321188626 -13.730385850678999 0 0 0 0 499.15495747161822 -150.20578431309144 0 -150.20578431309144 -148.85558675707802 0 0 0 0 2.3239766067407288 0.051847652392745136 0 0.051847652392745136 -0.16626479107985082 0 0 0 0 315.3214685760031 -223.28650181018526 0 -223.28650181018526 -77.300634250074012 0 0 0 0 498.95846059885844 153.19344543234641 0 153.19344543234641 -101.80156655643282 0 0 0 0 268.47909720739881 35.113742203980401 0 35.113742203980401 32.254194914941266 0 0 0 0 257.16506384085005 232.59210096019146 0 232.59210096019146 -69.416744732225709 0 0 0 0 314.71373280321677 13.140022649212845 0 13.140022649212845 0.33691892715641475 0 0 0 0 -59.677848705445285 40.259796339177228 0 40.259796339177228 43.475799065788507 0 0 0 0 552.57862638223378 4.7602689756004395 0 4.7602689756004395 -62.286930009150353 0 0 0 0 327.76918513756209 -189.39487590077368 0 -189.39487590077368 -141.4396417042006 0 0 0 0 552.24500497121699 -34.303203378222292 0 -34.303203378222292 -92.681438585549273 0 0 0 0 496.37824098329475 -170.67044203913699 0 -170.67044203913699 51.02990663692394 0 0 0 0 490.50966512299601 -27.717959884285875 0 -27.717959884285875 -71.260919980601642 0 0 0 0 355.0112091107585 -11.672668852987194 0 -11.672668852987194 54.400113365169034 0 0 0 0 399.42166498600818 197.39404370897694 0 197.39404370897694 -139.94993246957227 0 0 0 0 2.3209256394409294 0.032685123386092862 0 0.032685123386092862 -0.19553618839059944 0 0 0 0 363.88535934482934 73.873181773107859 0 73.873181773107859 -46.162309294042188 0 0 0 0 319.8486566277752 30.7468319334181 0 30.7468319334181 -90.286958762863875 0 0 0 0 219.27799276965379 -33.182201912240686 0 -33.182201912240686 -8.7861094320165591 0 0 0 0 0.21578743972630932 0.20286845701001965 0 0.20286845701001965 -0.14912154139544165 0 0 0 0 324.12774978371999 -12.325117964369838 0 -12.325117964369838 -29.28929093497608 0 0 0 0 29.108787479197417 -8.1034749373274337 0 -8.1034749373274337 -3.6052061874413255 0 0 0 0 15.784922687695143 -3.5319419858067818 0 -3.5319419858067818 2.8346648233495557 0 0 0 0 15.979992025175306 -5.0409855964212511 0 -5.0409855964212511 -0.14376755198057367 0 0 0 0 9.8749297153826774 -11.036561565515953 0 -11.036561565515953 7.0691313385135572 0 0 0 0 346.36009409088547 -46.137441280392807 0 -46.137441280392807 -26.855587092397798 0 0 0 0 75.509886721498333 -80.997888214489649 0 -80.997888214489649 56.157895639614708 0 0 0 0 1.3969285029907041 2.4611533034753115 0 2.4611533034753115 -0.0037864553753726225 0 0 0 0 2.0297913153676532 0.42274699748476685 0 0.42274699748476685 0.015706439119171328 0 0 0 0 3.2404428821319016 3.1479703457429573 0 3.1479703457429573 -0.0003680461863963245 0 0 0 0 1.4326601194814543 1.6061963030923503 0 1.6061963030923503 -1.2930405372021276 0 0 0 0 3.294708735864333 4.1216022043358898 0 4.1216022043358898 -1.4940711890952563 0 0 0 0 3.6047955069640167 1.5209220237402548 0 1.5209220237402548 0.31465451338449074 0 0 0 0 86.474756498301417 15.622246079029662 0 15.622246079029662 -6.2425700309998717 0 0 0 0 2.7440241579733993 3.3521634572810939 0 3.3521634572810939 -0.10081275168625423 0 0 0 0 5.9410578065808295 1.1484447011456043 0 1.1484447011456043 -1.2375276715581354 0 0 0 0 4.5531323029790656 1.3015636736789387 0 1.3015636736789387 -0.1296888527697071 0 0 0 0 6.874835912767594 3.1995624489403114 0 3.1995624489403114 0.0036497393594613868 0 0 0 0 13.388757131181592 -0.78935677160272488 0 -0.78935677160272488 -0.87493561688402366 0 0 0 0 5.8358954592658847 1.2355991689607553 0 1.2355991689607553 -0.65314938681919665 0 0 0 0 5.2164644535514526 2.4122010320285305 0 2.4122010320285305 -1.644964978844949 0 0 0 0 3.9719713262883189 1.9020363630764425 0 1.9020363630764425 0.36911980698647223 0 0 0 0 4.8323866134523996 1.1140722514887447 0 1.1140722514887447 -0.26066250326304363 0 0 0 0 -6.2305811480800912 -0.037273290758520261 0 -0.037273290758520261 6.2242582695777173 0 0 0 0 -5.6154399895998495 10.322845604076031 0 10.322845604076031 -1.6493992542147566 0 0 0 0 3.6651871592039242 2.6755911541322916 0 2.6755911541322916 -1.1168745011584527 0 0 0 0 -15.923060866960441 3.8168238422164791 0 3.8168238422164791 3.529482938010176 0 0 0 0 3.7704893347658981 2.820477343503569 0 2.820477343503569 -2.7746613805736047 0 0 0 0 0.468983868004063 0.79624118431227231 0 0.79624118431227231 -0.44251117556915043 0 0 0 0 2.4123549315336277 2.3226206361472919 0 2.3226206361472919 -0.66595566247951865 0 0 0 0 3.2485514898177144 2.1177860586626842 0 2.1177860586626842 -0.62402862467001796 0 0 0 0 2.8587656933559629 2.1030855191735327 0 2.1030855191735327 -0.82625909195689928 0 0 0 0 53.1881821631614 -8.402573242445186 0 -8.402573242445186 -1.7298425225216256 0 0 0 0 7.7944519257525826 21.433854891132114 0 21.433854891132114 -2.5254004803931593 0 0 0 0 40.336179356629145 -7.6961906722567335 0 -7.6961906722567335 0.034250437597961536 0 0 0 0 4.1608150799856958 1.7325184189447214 0 1.7325184189447214 -1.7283943405628861 0 0 0 0 -0.11353271256802344 0.048760054583464552 0 0.048760054583464552 -0.1962957581294138 0 0 0 0 17.288293973717373 -7.4956606604244485 0 -7.4956606604244485 21.263106744328525 0 0 0 0 1.6073253983249742 -3.2317053734528187 0 -3.2317053734528187 -2.9136507550789474 0 0 0 0 0.084518169213879446 1.0987378215918397 0 1.0987378215918397 -0.79073130590688834 0 0 0 0 6.7434941194624116 -2.7925198424916573 0 -2.7925198424916573 -5.242171698799325 0 0 0 0 9.0582706350078297 -1.1298086172884112 0 -1.1298086172884112 -5.7030647336928268 0 0 0 0 8.0020168596311123 3.4152373919387742 0 3.4152373919387742 -1.2237654685514201 0 0 0 0 2.7529382957018242 0.76373474000462238 0 0.76373474000462238 -1.7402669547952883 0 0 0 0 3.0209074571575911 2.4483222220957828 0 2.4483222220957828 0.14169092214851275 0 0 0 0 2.9097152519225347 2.9019422775338626 0 2.9019422775338626 -0.15976999670135683 0 0 0 0 3.0595700354315341 2.5870708089239542 0 2.5870708089239542 -0.97156798814671674 0 0 0 0 3.6419577433753147 1.2129534427575521 0 1.2129534427575521 2.6166423212728631 0 0 0 0 3.1141431936375739 2.2427949240346692 0 2.2427949240346692 0.70462258946753309 0 0 0 0 4.4921638996056572 3.5462843061831109 0 3.5462843061831109 0.96046709443942291 0 0 0 0 9.1235647180037631 1.9934010233814945 0 1.9934010233814945 2.0394676119218929 0 0 0 0 7.3974358382220089 -0.79214595685772338 0 -0.79214595685772338 2.6981074892917931 0 0 0 0 10.474522515638455 -0.60241380743924822 0 -0.60241380743924822 4.4797048018760961 0 0 0 0 8.0438962849962365 -0.12839630137107827 0 -0.12839630137107827 5.1618423054261484 0 0 0 0 16.004243283918186 2.1708192109088884 0 2.1708192109088884 3.242226093371869 0 0 0 0 7.9879222087220114 3.2697639783300474 0 3.2697639783300474 2.2890984209462886 0 0 0 0 3.9077618846822588 1.9417643803866866 0 1.9417643803866866 4.4714793763698708 0 0 0 0 4.4491693210090375 2.053348234813126 0 2.053348234813126 2.1868796703299722 0 0 0 0 15.406280058286939 4.558108965735812 0 4.558108965735812 -1.1156152863796365 0 0 0 0 15.261765682527766 4.9894514232180995 0 4.9894514232180995 9.9044672939652827 0 0 0 0 17.757765281530737 -3.5391578560448806 0 -3.5391578560448806 6.7360600801918764 0 0 0 0 -0.034238574706435543 -0.0095176497928370907 0 -0.0095176497928370907 0.052617169486072313 0 0 0 0 27.078295683317265 -0.49061508381863916 0 -0.49061508381863916 0.18059488119337175 0 0 0 0 -1.2827171069452561 2.7269924389545395 0 2.7269924389545395 -0.24149757432218166 0 0 0 0 18.671605589237515 5.6990510749071603 0 5.6990510749071603 2.9027464160975569 0 0 0 0 6.6398543500290543 7.7240208823178449 0 7.7240208823178449 2.4276254824640233 0 0 0 0 10.636703681760991 1.9960201075884072 0 1.9960201075884072 3.6235283301249837 0 0 0 0 1.1832343360381508 1.7132101459192661 0 1.7132101459192661 -2.1189698002614241 0 0 0 0 4.554683037173163 -0.33921929539548046 0 -0.33921929539548046 28.571599499445256 0 0 0 0 80.849185513612611 123.66507261019144 0 123.66507261019144 92.83858827255321 0 0 0 0 -12.226780305345528 -20.465347855442111 0 -20.465347855442111 31.463068556869658 0 0 0 0 -0.092750690450454698 0.56846685581653489 0 0.56846685581653489 -1.4825142434114482 0 0 0 0 137.96242647405597 69.046351177053779 0 69.046351177053779 -4.2385795695084454 0 0 0 0 149.85306881341694 47.085600962663534 0 47.085600962663534 -4.2584134108570879 0 0 0 0 187.97459032407505 82.587108709956382 0 82.587108709956382 0.26247562722912221 0 0 0 0 161.35499923240241 -3.6046864527914551 0 -3.6046864527914551 -22.000463963941854 0 0 0 0 0.14857450970985475 0.64706099161948671 0 0.64706099161948671 -1.0610878274145958 0 0 0 0 54.828395127287877 45.4838922886739 0 45.4838922886739 22.75948232087282 0 0 0 0 0.46353330170562401 -0.33908947514143861 0 -0.33908947514143861 0.17145902995281004 0 0 0 0 4.0024799107941362 -1.2420762824845326 0 -1.2420762824845326 -4.0826123163714101 0 0 0 0 34.198281652566948 19.387730893870241 0 19.387730893870241 -35.820116189099053 0 0 0 0 0.032051848711763142 -0.037194109811114373 0 -0.037194109811114373 0.13658178523759346 0 0 0 0 -1.2977551684853097 0.94871865041903902 0 0.94871865041903902 2.0698165578794487 0 0 0 0 0.29713820065451824 0.51599679533751797 0 0.51599679533751797 -0.49427266747847143 0 0 0 0 10.262659884538152 -2.267334779631085 0 -2.267334779631085 2.6019850975498571 0 0 0 0 12.871506886729549 -4.9955233347949175 0 -4.9955233347949175 2.5818370530001857 0 0 0 0 7.2236477690639731 -12.029568683818525 0 -12.029568683818525 6.6124718356951462 0 0 0 0 -3.5386105709876574 -8.8751037995444904 0 -8.8751037995444904 6.1134885156866403 0 0 0 0 196.49615042625555 24.337443331356187 0 24.337443331356187 -12.182704814013391 0 0 0 0 292.43442499085904 43.197120471700643 0 43.197120471700643 -42.04232914443763 0 0 0 0 208.44256734877854 15.838912613903339 0 15.838912613903339 -29.095085518400538 0 0 0 0 292.22260425035893 52.45559443455145 0 52.45559443455145 -47.377258745997658 0 0 0 0 363.06442133723249 65.420590555264511 0 65.420590555264511 -63.031851309419253 0 0 0 0 374.56976718166175 38.417972942787515 0 38.417972942787515 -40.32052713605043 0 0 0 0 364.23528215408442 83.322651940096108 0 83.322651940096108 -51.065232062645528 0 0 0 0 304.91441151951221 149.11986825482506 0 149.11986825482506 -10.076987023436779 0 0 0 0 371.70284674862251 30.391963646793378 0 30.391963646793378 -20.971145834081383 0 0 0 0 1.1256476799687753 1.0792147189218362 0 1.0792147189218362 1.1160439862936458 0 0 0 0 368.24314672596302 121.99495557376125 0 121.99495557376125 48.021707138032014 0 0 0 0 373.61986547399738 55.920817895448778 0 55.920817895448778 -11.581990537245034 0 0 0 0 361.22207544243247 64.140679103223704 0 64.140679103223704 77.665234927533263 0 0 0 0 386.24653415528337 111.03973404608834 0 111.03973404608834 5.0697116309605708 0 0 0 0 414.60424268393581 89.603928483332453 0 89.603928483332453 14.833520441428893 0 0 0 0 499.97594220793599 104.93084370000983 0 104.93084370000983 -34.3609350644941 0 0 0 0 420.81002711798578 77.375680637419151 0 77.375680637419151 -42.000381034244903 0 0 0 0 499.90734730199165 62.403446305991068 0 62.403446305991068 -50.619939952437242 0 0 0 0 409.57970534547894 14.557207581781938 0 14.557207581781938 -70.497042692847756 0 0 0 0 400.83844102255534 62.588881966455773 0 62.588881966455773 -18.155418160406072 0 0 0 0 351.2296411802854 65.664577929433747 0 65.664577929433747 -50.822974166693072 0 0 0 0 368.15834601486131 -48.670301553406794 0 -48.670301553406794 -82.05638863527561 0 0 0 0 500.03214893735623 12.630173290366104 0 12.630173290366104 -78.718120531701373 0 0 0 0 500.03910987016934 257.49166080593108 0 257.49166080593108 46.602143704191391 0 0 0 0 368.11556950238253 182.42541553625185 0 182.42541553625185 45.378760211639381 0 0 0 0 369.51817767752652 177.67639363690785 0 177.67639363690785 2.4420209225803524 0 0 0 0 499.89874661381509 179.83297988875137 0 179.83297988875137 -19.077871123161326 0 0 0 0 438.13901008229914 134.2841153857616 0 134.2841153857616 -21.818405694962053 0 0 0 0 409.52207362580339 139.70799764914483 0 139.70799764914483 -22.794833492821926 0 0 0 0 400.08100419675338 155.19423607979508 0 155.19423607979508 -0.71800852908138779 0 0 0 0 308.8696240258505 130.92213357654981 0 130.92213357654981 25.627167379019546 0 0 0 0 327.52220836870401 112.99915561711832 0 112.99915561711832 5.7003697718978863 0 0 0 0 381.8938810904101 117.34274683663755 0 117.34274683663755 3.9608221652759354 0 0 0 0 204.93063214836275 7.6240094434986689 0 7.6240094434986689 5.5525563921404526 0 0 0 0 421.90402669980267 49.073711059694439 0 49.073711059694439 8.2231480585341572 0 0 0 0 3.1820627014074532 -0.89633596785184722 0 -0.89633596785184722 -1.2698787909144413 0 0 0 0 17.303917897290603 1.085651981118416 0 1.085651981118416 0.18441512479420652 0 0 0 0 18.061679710889962 9.1523202174635401 0 9.1523202174635401 0.45251052849152984 0 0 0 0 1.7559357249726268 -1.7697180687437211 0 -1.7697180687437211 0.024171510899315518 0 0 0 0 7.5616438345605275 3.3165200971916793 0 3.3165200971916793 1.89820867471086 0 0 0 0 13.838656610960243 4.999127035804463 0 4.999127035804463 -2.6270018918562528 0 0 0 0 269.18682525848089 88.989190204946141 0 88.989190204946141 4.0837755563279572 0 0 0 0 294.30387334535862 144.94914293349791 0 144.94914293349791 30.756130625663189 0 0 0 0 3.7572954112334251 -1.2944149188005412 0 -1.2944149188005412 1.3576056412793214 0 0 0 0 15.411551125107962 4.7855697237574475 0 4.7855697237574475 1.426143550566394 0 0 0 0 214.58225726741512 125.80003372370317 0 125.80003372370317 82.16033600758189 0 0 0 0 12.548907822078036 -2.2948969653506879 0 -2.2948969653506879 -1.6547484427431982 0 0 0 0 9.4213485193276263 -2.1322149739749063 0 -2.1322149739749063 -1.5607259861968943 0 0 0 0 1.9597531827044787 0.65441906444591424 0 0.65441906444591424 -0.05879390337794721 0 0 0 0 6.7109441766689315 1.4885157024304121 0 1.4885157024304121 1.3692206646255727 0 0 0 0 11.800832498580348 -3.0547820000079327 0 -3.0547820000079327 4.8668997427972727 0 0 0 0 11.560445523449744 6.405317173411504 0 6.405317173411504 7.0043987581844931 0 0 0 0 5.8326799378301075 4.5009661653657531 0 4.5009661653657531 -0.084257589168899472 0 0 0 0 5.4064564821073873 3.9540331336754946 0 3.9540331336754946 -0.18101794676204008 0 0 0 0 5.5024068921629805 3.3040682878015843 0 3.3040682878015843 -1.0042808665902001 0 0 0 0 6.1526769226038596 3.958205851443779 0 3.958205851443779 -0.7494885896799417 0 0 0 0 3.1746450712483476 2.1399298982355539 0 2.1399298982355539 0.01722933108278224 0 0 0 0 4.2552592771498894 0.69879356292847206 0 0.69879356292847206 -1.119984361071829 0 0 0 0 8.7770879306167444 4.3234694145294128 0 4.3234694145294128 6.3903253823528559 0 0 0 0 10.247989054914797 10.076182078365679 0 10.076182078365679 6.4629043745871506 0 0 0 0 13.281465661610127 -9.7419379707098415 0 -9.7419379707098415 -6.9820487663278641 0 0 0 0 7.6714634913912292 1.9099797371020486 0 1.9099797371020486 -1.4909839669204787 0 0 0 0 0.96268984051977924 -1.021233994117666 0 -1.021233994117666 -1.012132419205199 0 0 0 0 2.7446569847252249 6.465901158630345 0 6.465901158630345 1.3826334345217077 0 0 0 0 3.9774296328454142 1.7656510189362304 0 1.7656510189362304 -1.9164813154290985 0 0 0 0 6.8734556129677458 2.3997715488777578 0 2.3997715488777578 -0.58889599820852823 0 0 0 0 9.1865062790420779 2.1312428082631474 0 2.1312428082631474 -0.76428490249033665 0 0 0 0 12.75134223945679 7.0732857407771803 0 7.0732857407771803 0.6660802403679611 0 0 0 0 7.7309851695736143 1.6559628898965855 0 1.6559628898965855 4.3482294584950125 0 0 0 0 4.3532988211084991 3.4317085651350006 0 3.4317085651350006 0.51309954719520945 0 0 0 0 3.7783137042802259 4.2347422747163552 0 4.2347422747163552 1.3327855975716996 0 0 0 0 3.784257489565789 3.7909390876165929 0 3.7909390876165929 1.0354980788908676 0 0 0 0 4.9886951582320762 5.4078308901632042 0 5.4078308901632042 -0.44261721280716415 0 0 0 0 8.0037383763847174 5.1441252440734857 0 5.1441252440734857 -1.0212822142364217 0 0 0 0 13.605347088301642 4.794142320994446 0 4.794142320994446 -0.85887557288981498 0 0 0 0 7.9350412975145446 4.9377937719542402 0 4.9377937719542402 -0.56753878856050122 0 0 0 0 10.113414670851853 4.2608046182796677 0 4.2608046182796677 -1.7172619086127732 0 0 0 0 9.3486604666509265 2.4662067535488568 0 2.4662067535488568 -0.31968347659045548 0 0 0 0 7.2414819454770623 3.921930975510068 0 3.921930975510068 0.63321719594520687 0 0 0 0 8.3212346020791301 2.8636580114940102 0 2.8636580114940102 -0.83500710864288408 0 0 0 0 9.0491466081912222 4.320163036702926 0 4.320163036702926 -1.4447517173925881 0 0 0 0 10.952213306241902 2.8684352709668453 0 2.8684352709668453 -0.94186898265905938 0 0 0 0 8.0488953841213515 2.7693507984281149 0 2.7693507984281149 -1.2524947402616107 0 0 0 0 2.133909693405613 0.36893246388061129 0 0.36893246388061129 -0.78785207898544884 0 0 0 0 4.611707390871743 2.1253636915093068 0 2.1253636915093068 -0.61805044853053914 0 0 0 0 7.8004717066896774 3.8241414379452339 0 3.8241414379452339 -1.1454085119062754 0 0 0 0 2.6674771717553085 1.6482137110073314 0 1.6482137110073314 2.5094747847960779 0 0 0 0 10.574658136300059 3.5888737481377149 0 3.5888737481377149 -0.15564156475394952 0 0 0 0 3.3535552629546146 -1.0768096135776624 0 -1.0768096135776624 -1.0227423232875594 0 0 0 0 -1.0050277279660804 3.3047528677437867 0 3.3047528677437867 2.7154103100338318 0 0 0 0 1.5748493268196171 0.040385063492498929 0 0.040385063492498929 -0.93671179087272727 0 0 0 0 2.1243481525307288 -0.21160362157809232 0 -0.21160362157809232 1.9176656891242487 0 0 0 0 3.3485274069462321 1.5706378547968995 0 1.5706378547968995 -2.2460120120173315 0 0 0 0 4.6599550759910926 0.16174754044016026 0 0.16174754044016026 -0.7357937137397812 0 0 0 0 0.86718291390570812 0.99484359613489914 0 0.99484359613489914 0.81409748039845908 0 0 0 0 0.32905372786194675 -1.036326286466263 0 -1.036326286466263 -3.460197053007505 0 0 0 0 2.2028928366689797 -0.9640397587633327 0 -0.9640397587633327 -2.288305359542619 0 0 0 0 0.12288205330719393 0.12072396638025396 0 0.12072396638025396 0.011878156507466375 0 0 0 0 0.68411565924127515 0.77045228679213551 0 0.77045228679213551 0.56074653343001002 0 0 0 0 2.20638640028438 1.3444549061838895 0 1.3444549061838895 0.383872046473823 0 0 0 0 1.8636306986210229 0.49768429913565093 0 0.49768429913565093 -0.2868023245045308 0 0 0 0 1.1453859216744604 1.0733990197513776 0 1.0733990197513776 0.18028606984290718 0 0 0 0 3.5929982561938232 0.20822021897589593 0 0.20822021897589593 -1.6907624791635811 0 0 0 0 4.8087696837283147 1.6819194369345922 0 1.6819194369345922 -1.2650841266121233 0 0 0 0 3.308161297281913 1.2985403990884663 0 1.2985403990884663 -0.36299682283898704 0 0 0 0 3.0486860149071546 0.62490207644927231 0 0.62490207644927231 -0.15148501713035423 0 0 0 0 3.3503237555942178 4.1029129278163623 0 4.1029129278163623 0.16029405233155103 0 0 0 0 1.9779447615119743 1.0477315161662535 0 1.0477315161662535 -0.47853416891144929 0 0 0 0 0.37072683398625284 1.422655491376581 0 1.422655491376581 0.60477515056187237 0 0 0 0 4.6717201456340263 2.864802812950785 0 2.864802812950785 -5.2604851030180271 0 0 0 0 1.9667610685337422 2.2522873589551864 0 2.2522873589551864 4.6542681168641593 0 0 0 0 -0.58313999612528278 0.42855328806504644 0 0.42855328806504644 3.4394404143685051 0 0 0 0 -1.1355470694430778 -0.20723300799756039 0 -0.20723300799756039 1.1139344348069926 0 0 0 0 0.95074572708108462 2.7258455931726076 0 2.7258455931726076 0.43877664832513119 0 0 0 0 3.549180894940946 7.771501808925052 0 7.771501808925052 2.9615161784030306 0 0 0 0 0.93028734433807614 0.2543163104338042 0 0.2543163104338042 -0.036661161135643994 0 0 0 0 3.7288218580615649 2.0049643552360976 0 2.0049643552360976 -0.50562324339011866 0 0 0 0 1.9723773347423474 2.4210873417378238 0 2.4210873417378238 0.7357578679554031 0 0 0 0 -0.15984342788033246 2.6908919221326357 0 2.6908919221326357 0.49759575010557455 0 0 0 0 -0.14320228041469818 1.234026931115352 0 1.234026931115352 -0.11036626449572395 0 0 0 0 -2.5481651859863632 1.0837743294134441 0 1.0837743294134441 0.48883862602815498 0 0 0 0 0.62293265785862673 1.1198846215926181 0 1.1198846215926181 0.65491704889069124 0 0 0 0 1.7047621593646394 2.157398627349675 0 2.157398627349675 -0.33879978309209857 0 0 0 0 -0.35186354338499015 1.8039937190090081 0 1.8039937190090081 0.45649535645543771 0 0 0 0 -0.71218397815216505 0.68933791825365187 0 0.68933791825365187 0.16183336580302321 0 0 0 0 -0.36084175288574727 1.2828976658367388 0 1.2828976658367388 -1.6362599619492877 0 0 0 0 2.9852530495090832 1.2377254181842545 0 1.2377254181842545 -0.90408928526233012 0 0 0 0 -0.044102291440140107 2.2883429222468976 0 2.2883429222468976 -0.67980220844322048 0 0 0 0 -0.43387119711447752 1.3962527662101607 0 1.3962527662101607 0.89953869624820182 0 0 0 0 0.22315514917185553 1.4727135289950581 0 1.4727135289950581 0.42092170418521269 0 0 0 0 1.4845533877869457 2.3851636667255747 0 2.3851636667255747 0.083463329968026301 0 0 0 0 1.0507263896543009 1.9876510742071218 0 1.9876510742071218 0.35210074690252213 0 0 0 0 -2.2178020725360739 2.4879869757216513 0 2.4879869757216513 2.5063606271132244 0 0 0 0 1.0621888199743807 2.822630922179318 0 2.822630922179318 1.2817224734691308 0 0 0 0 -1.2916159582437103 2.6441066403196487 0 2.6441066403196487 0.22897067751614486 0 0 0 0 0.705663788006337 1.5202879502813573 0 1.5202879502813573 0.038660231805686784 0 0 0 0 -0.58443555491468402 1.2508920811286801 0 1.2508920811286801 1.5054291949650618 0 0 0 0 -0.42162269185428158 4.0894719770327583 0 4.0894719770327583 -0.28632539457089479 0 0 0 0 1.2945643773167266 1.5891544454529587 0 1.5891544454529587 0.44437381684724464 0 0 0 0 0.39735095659545472 2.0899088129435164 0 2.0899088129435164 0.22536692905962852 0 0 0 0 -0.060126701894660073 7.7956437047349141 0 7.7956437047349141 0.45418650871897626 0 0 0 0 -4.7292449636169067 7.5638291151883905 0 7.5638291151883905 7.013430474242341 0 0 0 0 0.99013133293726696 2.9699916420686332 0 2.9699916420686332 4.9030747663324483 0 0 0 0 1.2510288824587406 5.69326867447311 0 5.69326867447311 8.3137716859814645 0 0 0 0 -1.7888044310093392 7.5966819018364617 0 7.5966819018364617 8.8782219542372331 0 0 0 0 2.8042400205076774 7.0074097729831806 0 7.0074097729831806 4.3061077797815415 0 0 0 0 3.3407402573557192 7.2444848559514412 0 7.2444848559514412 -1.5822615541712146 0 0 0 0 0.29455918971679296 3.2230801966739611 0 3.2230801966739611 -0.61076644102288724 0 0 0 0 1.1314437194068887 2.6490714472341779 0 2.6490714472341779 -0.34591908764366508 0 0 0 0 0.42283166489505675 3.5844134366838034 0 3.5844134366838034 -1.2125111549896133 0 0 0 0 0.88911087765791308 3.7054955924038495 0 3.7054955924038495 -0.30786168779161471 0 0 0 0 3.2876806707627111 5.5665458922638607 0 5.5665458922638607 -1.4725398775676126 0 0 0 0 2.756565822891389 5.3488636421378679 0 5.3488636421378679 -1.2821007419847774 0 0 0 0 2.5931312640068427 4.082435029336267 0 4.082435029336267 0.82269652487673284 0 0 0 0 -0.7973866439324091 2.1555768879574231 0 2.1555768879574231 -1.3356112616935203 0 0 0 0 0.65385283724883791 0.59831770048526423 0 0.59831770048526423 0.24846065490610503 0 0 0 0 5.6526286828302545 2.9459586096133989 0 2.9459586096133989 -11.218114715362844 0 0 0 0 1.6129629173676605 2.3087444579770722 0 2.3087444579770722 -1.7419259149672721 0 0 0 0 5.3744832878292073 2.5978343252811555 0 2.5978343252811555 -4.6109411947111312 0 0 0 0 -8.2649677838962816 9.6882583679338268 0 9.6882583679338268 1.6686878636165261 0 0 0 0 1.1520983854838391 3.9316627313675312 0 3.9316627313675312 -2.6351924033891234 0 0 0 0 3.2849693500211288 5.7948292992613091 0 5.7948292992613091 -0.91237125337702096 0 0 0 0 -0.047780012420382434 4.3528099508896076 0 4.3528099508896076 -0.32595683371557327 0 0 0 0 4.8712867857535525 2.5805054198816926 0 2.5805054198816926 -4.3645001818082045 0 0 0 0 3.7450291742152331 5.6819338000929633 0 5.6819338000929633 -1.3772528469303325 0 0 0 0 3.293868489170336 5.5262349206943719 0 5.5262349206943719 -1.4309148859296954 0 0 0 0 -1.1881658449883616 6.1931311980915353 0 6.1931311980915353 -0.68552783704927833 0 0 0 0 2.9996258474090496 6.9516834039011677 0 6.9516834039011677 -2.2720641301564228 0 0 0 0 6.5685622836572293 5.762615168629452 0 5.762615168629452 -1.9196937250611654 0 0 0 0 3.0994079360166324 5.316570692032645 0 5.316570692032645 -1.073478770323959 0 0 0 0 9.3077698716169834 0.32658903641851111 0 0.32658903641851111 -0.86645226025726174 0 0 0 0 11.868258307113138 9.2991164949417566 0 9.2991164949417566 0.53674743727549412 0 0 0 0 7.8016642313195916 -0.49755492034439897 0 -0.49755492034439897 -4.3441509824741615 0 0 0 0 -0.028519329796836246 3.8679651957428405 0 3.8679651957428405 6.2253425466288945 0 0 0 0 2.2891685000773485 1.1687943057289392 0 1.1687943057289392 -2.1043820208695871 0 0 0 0 7.1149519176287868 4.8931016440145356 0 4.8931016440145356 0.0056054394273701291 0 0 0 0 2.5968591958435567 2.176905129417074 0 2.176905129417074 -2.6887677408389439 0 0 0 0 -0.18245960577337428 0.4778075256361527 0 0.4778075256361527 -2.5901853523511136 0 0 0 0 14.306165860697433 -0.50481369701873646 0 -0.50481369701873646 -6.4775289881603157 0 0 0 0 19.390804307030521 3.1401825241305659 0 3.1401825241305659 -5.7775630796948434 0 0 0 0 1.3768419075629195 4.1666718647835932 0 4.1666718647835932 -0.46762970763511069 0 0 0 0 7.2182323847685552 -1.8019603874837191 0 -1.8019603874837191 -1.0915457656265761 0 0 0 0 15.835440756407479 -7.2272694292701942 0 -7.2272694292701942 -13.471193293484617 0 0 0 0 4.5513568854257755 2.0750034219161364 0 2.0750034219161364 -3.652315670281439 0 0 0 0 -10.051272694725867 -32.885618129821005 0 -32.885618129821005 -28.311535358572542 0 0 0 0 42.901679300380238 7.1276462282504127 0 7.1276462282504127 -42.801883972858178 0 0 0 0 30.224476805687573 -5.1964185867252155 0 -5.1964185867252155 -11.453296481895592 0 0 0 0 36.770246560635314 -1.9346349773458513 0 -1.9346349773458513 -66.530781291428809 0 0 0 0 1.3690491057067717 0.81999496443476794 0 0.81999496443476794 -0.32920109800174624 0 0 0 0 30.0736956868177 30.141294824166891 0 30.141294824166891 11.702378688405425 0 0 0 0 14.40486372587111 3.6813332138169983 0 3.6813332138169983 -30.678636331339135 0 0 0 0 2.2851963277321943 8.7144055495496922 0 8.7144055495496922 -4.53194796458871 0 0 0 0 0.34771471847504387 4.1114974368953199 0 4.1114974368953199 -1.6700680555377057 0 0 0 0 5.6776680930124712 22.504554025986234 0 22.504554025986234 27.84146495708751 0 0 0 0 -1.2154375974951108 6.2472798744052795 0 6.2472798744052795 -5.0959268729105887 0 0 0 0 -9.6498961491020054 4.4999908222074261 0 4.4999908222074261 11.559758175241882 0 0 0 0 76.681856343127947 -23.687948532746319 0 -23.687948532746319 11.752182327871488 0 0 0 0 -2.4037361517257523 4.9853898303064241 0 4.9853898303064241 17.741240801894108 0 0 0 0 0.24557308429953295 0.58377215650946113 0 0.58377215650946113 -0.033346791540353637 0 0 0 0 36.859691172845487 -29.519603184286773 0 -29.519603184286773 12.286952821137099 0 0 0 0 0.21602191330844178 0.69756128561376141 0 0.69756128561376141 -0.23572089611876973 0 0 0 0 -2.1771705790288252 1.5649598090589905 0 1.5649598090589905 -11.352150614982293 0 0 0 0 -0.2487268244807197 4.6924601341582024 0 4.6924601341582024 -0.99010847232723742 0 0 0 0 1.1709554979921108 2.4057633597341725 0 2.4057633597341725 -1.0269322832504522 0 0 0 0 2.0446392842241039 3.1950452711668049 0 3.1950452711668049 -1.5963394044488552 0 0 0 0 74.193625603485998 4.4017397179570565 0 4.4017397179570565 0.86025375739015431 0 0 0 0 101.5319780207119 2.0029120582012681 0 2.0029120582012681 0.95117156156906901 0 0 0 0 124.75663180267929 -42.641646710893006 0 -42.641646710893006 65.448082230070654 0 0 0 0 13.021624344001793 -12.92472078467679 0 -12.92472078467679 60.607885910522846 0 0 0 0 60.640617628947439 45.150261433866902 0 45.150261433866902 -1.8746043065345077 0 0 0 0 92.916455071566816 -7.9738168092551547 0 -7.9738168092551547 -14.017257324098864 0 0 0 0 -0.29892615008670731 0.13035779771787226 0 0.13035779771787226 0.099034142725407504 0 0 0 0 175.58160309786058 -99.189658527781972 0 -99.189658527781972 126.29271071192483 0 0 0 0 -83.15625908907532 -64.221639032800709 0 -64.221639032800709 54.185599932415897 0 0 0 0 71.179627855985018 -116.42541822414567 0 -116.42541822414567 62.157208149225092 0 0 0 0 139.79097133752748 -50.064700188510812 0 -50.064700188510812 -18.51272948462146 0 0 0 0 250.58261016136021 -135.17673834012962 0 -135.17673834012962 30.250581821329533 0 0 0 0 227.94148356585174 -73.643017216446992 0 -73.643017216446992 -20.64711209078159 0 0 0 0 252.89495225473343 -136.31159419341725 0 -136.31159419341725 -52.874473418395446 0 0 0 0 375.67683003300772 -142.45041739239241 0 -142.45041739239241 -53.631192856776806 0 0 0 0 498.91012467713699 -265.60688537116113 0 -265.60688537116113 5.5220577247293701 0 0 0 0 139.03037507254157 -226.70114161577257 0 -226.70114161577257 223.27743170509589 0 0 0 0 58.374775773287183 -132.52384353796532 0 -132.52384353796532 223.36247025504031 0 0 0 0 2.9383487279151339 -0.78502378248994464 0 -0.78502378248994464 0.7770214067269644 0 0 0 0 499.45684885760511 397.96944049305108 0 397.96944049305108 286.97184413227831 0 0 0 0 2.3982306651808223 0.76318282322132092 0 0.76318282322132092 -0.94722422315504251 0 0 0 0 9.1026511885602304 26.521275887997234 0 26.521275887997234 -59.502828208657093 0 0 0 0 8.0782628605629725 65.21140692965804 0 65.21140692965804 -6.6282543240531595 0 0 0 0 7.1313483080629183 -2.8802787247306272 0 -2.8802787247306272 1.0338539638594935 0 0 0 0 309.30627933479718 191.33762436970238 0 191.33762436970238 122.63410171006115 0 0 0 0 303.65296339768463 230.88211749712934 0 230.88211749712934 144.38952112406332 0 0 0 0 83.679575400651629 12.103300384621285 0 12.103300384621285 -3.5693181108663907 0 0 0 0 89.553761177192428 20.630327024495273 0 20.630327024495273 3.0665927902272188 0 0 0 0 83.039064628734195 25.917342519367566 0 25.917342519367566 -0.6033727450349744 0 0 0 0 79.174152533994857 25.404563475543725 0 25.404563475543725 8.5516933453155843 0 0 0 0 82.303210639367535 21.184894813161648 0 21.184894813161648 8.787626766951746 0 0 0 0 83.899804666416458 21.323007969082767 0 21.323007969082767 7.1819502939337241 0 0 0 0 85.354359935834509 23.03112279215523 0 23.03112279215523 10.849251313844093 0 0 0 0 79.17068818529151 17.344827803938529 0 17.344827803938529 7.6653188428699366 0 0 0 0 76.679295717061905 12.767171600179296 0 12.767171600179296 6.1338455615687337 0 0 0 0 79.449026051433975 16.226243197349291 0 16.226243197349291 1.2017906837171495 0 0 0 0 84.576403616849348 10.043318688768693 0 10.043318688768693 -0.29761669125709034 0 0 0 0 77.602459151699804 4.8238833390634426 0 4.8238833390634426 -3.6437627665561365 0 0 0 0 48.731491715232551 2.2103909328617135 0 2.2103909328617135 2.4130174384517176 0 0 0 0 75.707269368323978 -7.9134613782966881 0 -7.9134613782966881 -2.6059948822819479 0 0 0 0 0.2614607838964691 0.1032159017735097 0 0.1032159017735097 -0.057094662700611809 0 0 0 0 91.856806206320471 -2.3784163350530179 0 -2.3784163350530179 -0.76212968899073985 0 0 0 0 110.42261035560296 14.252135758981524 0 14.252135758981524 -3.7976166310426436 0 0 0 0 90.30979876570018 -1.8365045835871499 0 -1.8365045835871499 0.84472818451669696 0 0 0 0 116.73901506195762 -7.3187390222682325 0 -7.3187390222682325 1.9284444431012986 0 0 0 0 74.87255587457912 -13.124339934947315 0 -13.124339934947315 22.824594754006483 0 0 0 0 0.2062329588853018 0.040073149470806868 0 0.040073149470806868 -0.021192505571731468 0 0 0 0 154.45399439109678 -2.100241208968221 0 -2.100241208968221 0.10917076329241127 0 0 0 0 130.67447290683776 0.91819647804925353 0 0.91819647804925353 16.048297999474521 0 0 0 0 83.314074215764776 33.257236600338075 0 33.257236600338075 5.6076609618404802 0 0 0 0 157.99702920650998 37.550612971167475 0 37.550612971167475 3.0281352974769788 0 0 0 0 89.716667748414693 24.409358924526643 0 24.409358924526643 -3.7809418728786568 0 0 0 0 124.19492780922519 27.161234344252513 0 27.161234344252513 -4.2909373706815472 0 0 0 0 76.018991551760337 28.854984267581798 0 28.854984267581798 0.9182913453134347 0 0 0 0 88.081021975660406 23.346948617993263 0 23.346948617993263 -1.7524675377173509 0 0 0 0 29.691634733178944 20.485060261559084 0 20.485060261559084 21.221518386210448 0 0 0 0 79.643478034411601 20.653136526082346 0 20.653136526082346 -1.3431951812490297 0 0 0 0 2.0783477599779872 -0.011453959170268035 0 -0.011453959170268035 0.15803553091308231 0 0 0 0 0.77382666630990826 -0.40306979652413588 0 -0.40306979652413588 0.24797054003570995 0 0 0 0 1.9565210755307376 -0.27618510235265248 0 -0.27618510235265248 0.029621749180483214 0 0 0 0 2.7905242841252402 2.9176877566993369 0 2.9176877566993369 1.9895867255744406 0 0 0 0 2.1495319069726975 -0.59744584563543413 0 -0.59744584563543413 2.4383171295902457 0 0 0 0 0.55357629259855301 0.21571507992866401 0 0.21571507992866401 0.21821760563014525 0 0 0 0 1.0353618784974969 0.78953246880686834 0 0.78953246880686834 0.85097378921909694 0 0 0 0 3.2954139750290778 -1.5272690466809422 0 -1.5272690466809422 0.68069926335737918 0 0 0 0 0.31670443985245988 -0.44636177199775418 0 -0.44636177199775418 0.15119259840042532 0 0 0 0 2.5946309930041025 0.086325470866768228 0 0.086325470866768228 0.1122791266836316 0 0 0 0 51.475212241850386 15.293532248756037 0 15.293532248756037 4.5743186746898346 0 0 0 0 1.2950583480933346 0.00034576836171140712 0 0.00034576836171140712 0.57952459384262056 0 0 0 0 2.6612485063997156 -0.22950297130842046 0 -0.22950297130842046 4.6500649442715485 0 0 0 0 2.978429251830562 1.9132805945881408 0 1.9132805945881408 0.8220729453128115 0 0 0 0 0.42638855507639306 0.233688795521239 0 0.233688795521239 -0.05381537691749938 0 0 0 0 6.0807327963429998 4.2359448567742959 0 4.2359448567742959 2.2787738251140013 0 0 0 0 11.792735623421322 -1.4520388432392792 0 -1.4520388432392792 1.6438531058798276 0 0 0 0 3.1229104274461861 -0.25110126302647018 0 -0.25110126302647018 -1.0874040579266762 0 0 0 0 7.9076528715850145 -3.6827344311739694 0 -3.6827344311739694 1.373738731966526 0 0 0 0 -1.5629394033167046 -2.4444314629739949 0 -2.4444314629739949 6.8512631762013143 0 0 0 0 10.652726907461329 5.1347039815742619 0 5.1347039815742619 -4.825408780375767 0 0 0 0 0.36792825434076804 3.0026117010055486 0 3.0026117010055486 -7.221672528094814 0 0 0 0 -6.2916830277972622 5.4600014964420325 0 5.4600014964420325 1.4509974944020314 0 0 0 0 1.4353285654403862 1.7150279873850067 0 1.7150279873850067 0.41958634969250852 0 0 0 0 0.2747516663781937 0.23810719636142075 0 0.23810719636142075 -0.031364957529653847 0 0 0 0 -2.7020373689083499 2.355357686434445 0 2.355357686434445 1.6940072208077197 0 0 0 0 -0.89657513931251742 6.4509636943039155 0 6.4509636943039155 -2.482983059160631 0 0 0 0 4.9644068478846748 2.9419112913421372 0 2.9419112913421372 -0.8470362021080291 0 0 0 0 3.4946456534926256 0.0063466147797015537 0 0.0063466147797015537 -0.98582385354217195 0 0 0 0 1.0254081007042259 2.7053848882881368 0 2.7053848882881368 -0.83482016898952693 0 0 0 0 1.8379172121976808 0.1650430830307279 0 0.1650430830307279 -0.75915824538617471 0 0 0 0 0.13978455901815323 -0.12535067114419007 0 -0.12535067114419007 -1.3439215014174692 0 0 0 0 0.86588289174848398 0.81057850919029129 0 0.81057850919029129 0.50761400290840164 0 0 0 0 0.3773391830327455 2.4435678131829448 0 2.4435678131829448 -0.049321492517748311 0 0 0 0 1.5685091797276982 0.026814936987548776 0 0.026814936987548776 -0.20224567332569166 0 0 0 0 0.31744439605540009 0.045381186374189753 0 0.045381186374189753 0.12896713712360663 0 0 0 0 0.36210015327079148 -0.32884286759076176 0 -0.32884286759076176 -0.23563027294549166 0 0 0 0 105.60826293775608 22.579995858092758 0 22.579995858092758 1.7293282726550956 0 0 0 0 87.694137204006438 14.988218768752191 0 14.988218768752191 -1.4525171823567007 0 0 0 0 0.37527538250977344 0.22620772207010376 0 0.22620772207010376 0.12119543346700445 0 0 0 0 1.8578719349461608 -0.52162341447572658 0 -0.52162341447572658 -0.020420803073278648 0 0 0 0 1.6543239893990176 -0.26879533295220881 0 -0.26879533295220881 -0.0044938169249917337 0 0 0 0 3.2734222115686862 -0.0043252008763374761 0 -0.0043252008763374761 -0.76022802305953974 0 0 0 0 1.6446076831180108 0.81143995238907962 0 0.81143995238907962 -1.1430175642203082 0 0 0 0 2.2867041816316487 0.063771124231706722 0 0.063771124231706722 -0.89933363229440033 0 0 0 0 58.395913560732879 28.018760821441575 0 28.018760821441575 4.3731298838609973 0 0 0 0 0.43268015366424706 -0.24161845965249285 0 -0.24161845965249285 -0.33843648307166863 0 0 0 0 6.7815101337873784 10.179193061236163 0 10.179193061236163 19.958977171902802 0 0 0 0 93.121996052585018 23.7679663820619 0 23.7679663820619 -10.160748995578956 0 0 0 0 97.800779953711753 13.240711174186458 0 13.240711174186458 3.2078921311931481 0 0 0 0 84.325975874396136 23.471658917297553 0 23.471658917297553 17.555320541166452 0 0 0 0 84.542405834021338 25.624367251197611 0 25.624367251197611 5.671296946878158 0 0 0 0 89.406468290202611 27.508155936532489 0 27.508155936532489 -0.14296029078290928 0 0 0 0 87.04317241454919 34.858602106845773 0 34.858602106845773 11.13675818759225 0 0 0 0 75.892113896523369 26.495031849991335 0 26.495031849991335 21.714542659794631 0 0 0 0 71.956234109577053 20.937425941034604 0 20.937425941034604 26.743237551984521 0 0 0 0 75.578926956062787 25.082489192223022 0 25.082489192223022 19.995854654457901 0 0 0 0 74.53585299678889 24.827894492624665 0 24.827894492624665 42.569026041013558 0 0 0 0 104.21975978343289 43.151803538887563 0 43.151803538887563 24.243425147247706 0 0 0 0 84.849535678175016 12.747930239569428 0 12.747930239569428 26.510523187545175 0 0 0 0 72.167031654898892 56.006036754886281 0 56.006036754886281 43.704079556674174 0 0 0 0 95.927831107770544 13.48803199584637 0 13.48803199584637 -1.2441963206693458 0 0 0 0 76.177987137008131 14.868215002500136 0 14.868215002500136 5.2610615126496896 0 0 0 0 0.12744654757705831 -0.003758288627542683 0 -0.003758288627542683 -0.018687953780988142 0 0 0 0 155.46714776458248 37.498296623700469 0 37.498296623700469 -8.2139017923271922 0 0 0 0 1.0714794192978658 0.59764342995335529 0 0.59764342995335529 0.26261573142347816 0 0 0 0 15.63890958848242 0.61838987569370829 0 0.61838987569370829 2.1032546417603726 0 0 0 0 -19.6362575563262 10.837420748442909 0 10.837420748442909 32.193038238580698 0 0 0 0 0.23944330039578254 0.05010920422006393 0 0.05010920422006393 0.061994536460517669 0 0 0 0 47.148737036928651 24.389364872329168 0 24.389364872329168 8.4224859365683784 0 0 0 0 30.556409167751553 20.921616087427822 0 20.921616087427822 11.221191480410255 0 0 0 0 70.706134308089531 26.567014402545425 0 26.567014402545425 5.7058270630164429 0 0 0 0 80.179337732433851 19.950343326901631 0 19.950343326901631 16.950099580606604 0 0 0 0 65.947868258153903 15.907236338958633 0 15.907236338958633 17.349776172017471 0 0 0 0 47.183639107279149 29.963311481444372 0 29.963311481444372 22.8136028196285 0 0 0 0 -2.4495147846537293 1.5224535927469276 0 1.5224535927469276 1.0338241595746513 0 0 0 0 -1.9065222598219407 -0.23624440409113845 0 -0.23624440409113845 5.8300086372884721 0 0 0 0 3.5385630940199917 4.3036665113526738 0 4.3036665113526738 0.98457791767116021 0 0 0 0 2.2314558921134449 -2.9285968050742497 0 -2.9285968050742497 2.2888623519897919 0 0 0 0 0.14235500108770793 1.9848376071856109 0 1.9848376071856109 9.6808444387215786 0 0 0 0 36.481755227741814 8.626860273740121 0 8.626860273740121 0.66132274488063558 0 0 0 0 1.4119195344710533 0.47917088245574746 0 0.47917088245574746 4.7479849004413381 0 0 0 0 -4.8851946670183679 0.92681574510640985 0 0.92681574510640985 7.7370777347481123 0 0 0 0 -4.3932547726071789 5.4404105914689467 0 5.4404105914689467 -0.64005256543000666 0 0 0 0 -3.7397149058888317 1.3922283811486125 0 1.3922283811486125 0.72753825157828089 0 0 0 0 1.1953967213387386 1.7198069598325301 0 1.7198069598325301 0.84156287382519812 0 0 0 0 -1.4903870452581032 4.8768844965651965 0 4.8768844965651965 -0.65455128879046942 0 0 0 0 -1.6552719232601021 9.6979291969291008 0 9.6979291969291008 -13.739967401388753 0 0 0 0 -13.860420250763127 8.5396775989907781 0 8.5396775989907781 3.4115350747063502 0 0 0 0 0.086032134013215966 0.27439994830768732 0 0.27439994830768732 0.1597427979487534 0 0 0 0 0.24093176109136039 0.26201455534737228 0 0.26201455534737228 0.33499627097329421 0 0 0 0 2.2531584417174599 -5.4954104054157185 0 -5.4954104054157185 -2.5372189965501377 0 0 0 0 48.28825657404559 10.711856749247424 0 10.711856749247424 -6.3683131078177801 0 0 0 0 1.9921291085356643 -1.1723125270924797 0 -1.1723125270924797 2.8576465536698983 0 0 0 0 56.716502101113292 33.070220908696896 0 33.070220908696896 12.642716637350112 0 0 0 0 7.0010707301398725 6.8256821419892049 0 6.8256821419892049 29.233277629898339 0 0 0 0 -14.306628734071637 7.0044806623303479 0 7.0044806623303479 10.517767019202282 0 0 0 0 -1.3102749068984849 -6.0002283924408317 0 -6.0002283924408317 10.640769205299364 0 0 0 0 -12.621881609176853 -0.26436730742563697 0 -0.26436730742563697 20.618262066661032 0 0 0 0 58.389670918145384 24.819131265671654 0 24.819131265671654 9.9609006751512368 0 0 0 0 53.679918209745665 28.883964961128697 0 28.883964961128697 7.4301831095733384 0 0 0 0 52.526712291004515 24.4971308195408 0 24.4971308195408 -0.26643882114079531 0 0 0 0 54.85791731981044 33.827537659896279 0 33.827537659896279 9.4446200359595309 0 0 0 0 46.454501470041578 25.667886634232527 0 25.667886634232527 25.542132856845434 0 0 0 0 44.610981574589459 20.120108544427403 0 20.120108544427403 9.5170536008288682 0 0 0 0 49.216495145004956 18.466370255345183 0 18.466370255345183 3.5754303690488314 0 0 0 0 37.792316582576859 7.6499313269826956 0 7.6499313269826956 8.5325009496544908 0 0 0 0 37.875272892562862 11.937626514786327 0 11.937626514786327 0.31747031484590593 0 0 0 0 34.514212326268535 -26.024870526257601 0 -26.024870526257601 -3.5435973544725172 0 0 0 0 53.866947738245926 -8.0567961177287817 0 -8.0567961177287817 6.0258670891730617 0 0 0 0 49.615732934425978 5.4621572646569518 0 5.4621572646569518 10.33237793779125 0 0 0 0 57.289188881102746 9.5215879676162274 0 9.5215879676162274 8.6931870981729169 0 0 0 0 50.620563838460839 14.534808091314346 0 14.534808091314346 9.1442021698642861 0 0 0 0 68.813226225973267 15.031616909987065 0 15.031616909987065 9.1573734104203073 0 0 0 0 61.186105071181373 10.20357672746556 0 10.20357672746556 15.54912929235428 0 0 0 0 64.845453308860669 5.9477878598881944 0 5.9477878598881944 11.00505431197351 0 0 0 0 65.754647530753573 5.3874748100002066 0 5.3874748100002066 8.7338651282886133 0 0 0 0 71.23925982736182 7.6682174930726319 0 7.6682174930726319 5.7279187605716402 0 0 0 0 75.757566485295683 12.562409931050667 0 12.562409931050667 6.9620187466240964 0 0 0 0 76.161264064376155 16.682668714124816 0 16.682668714124816 10.295046275405781 0 0 0 0 74.475606631096525 16.741568342023591 0 16.741568342023591 10.689750511155637 0 0 0 0 77.650591708632419 23.987600941963365 0 23.987600941963365 18.746495938564635 0 0 0 0 74.674700545547239 19.02981417598437 0 19.02981417598437 10.487550936503304 0 0 0 0 71.960549740797433 14.821593329868392 0 14.821593329868392 14.271323676925874 0 0 0 0 70.052958513811063 15.369833398740759 0 15.369833398740759 16.623811979639299 0 0 0 0 68.372000735223082 13.525611955873572 0 13.525611955873572 14.325445236932012 0 0 0 0 68.98202466726616 0.21496048633144937 0 0.21496048633144937 -4.6637109771312169 0 0 0 0 68.867638903246188 0.370568602368607 0 0.370568602368607 3.7772999814462622 0 0 0 0 65.536436939797568 -4.148780890485682 0 -4.148780890485682 6.2677698605565411 0 0 0 0 67.644997443793272 -0.83958466556348199 0 -0.83958466556348199 2.721883617949203 0 0 0 0 66.999097537698617 -4.5366327554313344 0 -4.5366327554313344 0.77757114537129723 0 0 0 0 69.314427064464326 -4.714791757880306 0 -4.714791757880306 -0.85977539539726422 0 0 0 0 67.848123355453936 -2.4146157802896866 0 -2.4146157802896866 6.3646721886157707 0 0 0 0 70.007625024740719 -4.8317559138048516 0 -4.8317559138048516 0.72580514635204452 0 0 0 0 72.693776748574237 -1.0507160564632798 0 -1.0507160564632798 4.6446936415518287 0 0 0 0 69.774138239002241 -10.667308248815289 0 -10.667308248815289 -0.55363809085920934 0 0 0 0 65.496120733139833 -4.3405151508984972 0 -4.3405151508984972 7.1218195437170868 0 0 0 0 66.74262896561595 -1.1091756452915469 0 -1.1091756452915469 15.209597721051367 0 0 0 0 75.90824506862009 -11.139808854520222 0 -11.139808854520222 12.27361933651262 0 0 0 0 118.86278141075854 29.087862593714473 0 29.087862593714473 11.358516405427517 0 0 0 0 0.36524526025815973 -0.1807848454563441 0 -0.1807848454563441 -0.071699491845458485 0 0 0 0 51.141048915811552 12.082323514186626 0 12.082323514186626 8.7196148132535409 0 0 0 0 61.763081423207495 -9.8765788488882809 0 -9.8765788488882809 5.594860856208463 0 0 0 0 72.488029900030142 8.0664665012332666 0 8.0664665012332666 0.036772811614653733 0 0 0 0 48.773487271389968 0.15005689288418012 0 0.15005689288418012 -2.4759547699892224 0 0 0 0 55.163447883024674 9.1306237353219544 0 9.1306237353219544 -6.1654812062921565 0 0 0 0 47.779415004102702 3.8225031677061452 0 3.8225031677061452 -19.283642809585757 0 0 0 0 25.346020067852805 3.6790560182247702 0 3.6790560182247702 -7.0839990093082861 0 0 0 0 46.763456318385579 -1.0132180677474025 0 -1.0132180677474025 -12.280859219110994 0 0 0 0 60.654031701775239 2.0213214912568276 0 2.0213214912568276 -12.081940322917035 0 0 0 0 38.448586813719885 6.5896695724573533 0 6.5896695724573533 -5.6019024806938233 0 0 0 0 144.70501391302787 -5.1583990443056535 0 -5.1583990443056535 -13.718269926154449 0 0 0 0 0.87212575717106233 -0.44770633748926869 0 -0.44770633748926869 -0.14021411239564885 0 0 0 0 42.419493230176158 23.993043638535596 0 23.993043638535596 -4.539940275981003 0 0 0 0 44.707230411866476 5.7248204688839337 0 5.7248204688839337 -6.4546558600861772 0 0 0 0 33.574342422623886 27.651799343682171 0 27.651799343682171 -21.369773407978435 0 0 0 0 42.208169246064699 13.080354000979771 0 13.080354000979771 -5.6381643411840514 0 0 0 0 39.087504778479342 12.508734696182756 0 12.508734696182756 -5.4908090636380926 0 0 0 0 32.948731791662794 20.069813969702899 0 20.069813969702899 10.260440849477021 0 0 0 0 58.969448610707332 23.922562632078971 0 23.922562632078971 0.93308726975500633 0 0 0 0 10.942068163608837 5.1177353101439849 0 5.1177353101439849 -6.4103280757129539 0 0 0 0 19.165136028026609 -7.2687719687530485 0 -7.2687719687530485 -15.574455391749355 0 0 0 0 32.368662531967857 7.3638159493997435 0 7.3638159493997435 -13.507867748742996 0 0 0 0 4.720320205697135 -11.335476466437731 0 -11.335476466437731 -9.3520798692745082 0 0 0 0 64.342842999547429 23.608804563464744 0 23.608804563464744 8.5411619063985142 0 0 0 0 0.76867865720219086 -0.42265948945621901 0 -0.42265948945621901 -0.15771014344931478 0 0 0 0 11.762141974869337 8.2826948027922178 0 8.2826948027922178 -8.1662556958043773 0 0 0 0 -14.312859212157491 -32.358095101336545 0 -32.358095101336545 -0.46073071008625277 0 0 0 0 34.548508395317185 -1.0177605680216533 0 -1.0177605680216533 -6.5288448660890985 0 0 0 0 32.434287400845278 11.917279392622032 0 11.917279392622032 5.1846957433202085 0 0 0 0 48.354611237951758 11.713463994219182 0 11.713463994219182 -6.0420487149518785 0 0 0 0 63.638058766346148 8.2595013655991263 0 8.2595013655991263 5.0270847083727723 0 0 0 0 46.186988714942345 19.721738376241696 0 19.721738376241696 -2.2795174833087728 0 0 0 0 68.270733556462801 27.212815747243923 0 27.212815747243923 -0.32213885915222473 0 0 0 0 22.802164960739901 29.708213008429048 0 29.708213008429048 19.713892798689223 0 0 0 0 28.087791905373024 0.48107603074429406 0 0.48107603074429406 -1.1233554399227046 0 0 0 0 32.961854703762583 3.7414894496927218 0 3.7414894496927218 0.57358840952647228 0 0 0 0 0.90294426069864997 1.6713790103876391 0 1.6713790103876391 3.334443131375179 0 0 0 0 -8.8994929556520219 11.309738222198007 0 11.309738222198007 -7.014281478320072 0 0 0 0 21.87983434162561 18.654285480839015 0 18.654285480839015 0.59905936471109555 0 0 0 0 25.905042096044781 14.265673960453009 0 14.265673960453009 -3.9832618409951159 0 0 0 0 22.326911490990824 16.437613998663522 0 16.437613998663522 4.8011377438152305 0 0 0 0 26.137307161238823 11.607593233497267 0 11.607593233497267 2.8615413042296067 0 0 0 0 59.053591078369209 9.0221057783678038 0 9.0221057783678038 -7.2606257267602246 0 0 0 0 -6.0322807202583135 17.551550228321304 0 17.551550228321304 -15.547360555995851 0 0 0 0 -12.087926321772102 4.854010426324578 0 4.854010426324578 -12.946555327803708 0 0 0 0 -10.554276665767247 23.415145859998901 0 23.415145859998901 24.714774343542743 0 0 0 0 -4.9378167226495862 30.48120661828413 0 30.48120661828413 22.862858851018999 0 0 0 0 137.32595315549406 10.343189630202161 0 10.343189630202161 -11.366591411382345 0 0 0 0 -22.571758713812414 18.426904984981611 0 18.426904984981611 44.281259112711254 0 0 0 0 0.20327409333659574 0.49223089125867858 0 0.49223089125867858 1.3113683946711543 0 0 0 0 126.92016774228978 -54.559903892435656 0 -54.559903892435656 -17.830948133110098 0 0 0 0 63.633428462979282 70.587610227846767 0 70.587610227846767 5.8553250993529673 0 0 0 0 -7.6799207481926715 52.510978083272221 0 52.510978083272221 57.460203841379709 0 0 0 0 6.9763709886519791 10.089958612919759 0 10.089958612919759 -32.866216962121484 0 0 0 0 -4.123341806269309 22.484230583118801 0 22.484230583118801 19.97315329867439 0 0 0 0 -6.5936560539448692 27.750244823933315 0 27.750244823933315 15.739717938361991 0 0 0 0 -16.359006208217579 36.076586719961853 0 36.076586719961853 36.284276075262937 0 0 0 0 41.478825946752295 -12.926200202501875 0 -12.926200202501875 -25.512552853974199 0 0 0 0 4.0255779518920463 -13.064133583513495 0 -13.064133583513495 -2.4107126031096247 0 0 0 0 -5.2751158000137366 14.044187811509317 0 14.044187811509317 15.543447022186434 0 0 0 0 58.094200351491963 64.905383497491442 0 64.905383497491442 31.372914239472777 0 0 0 0 -42.801133628207026 -30.666496260780946 0 -30.666496260780946 53.022509196300291 0 0 0 0 -43.424318009596391 -27.831872296898496 0 -27.831872296898496 48.740683846568345 0 0 0 0 7.0540231290488009 34.76753674274056 0 34.76753674274056 -83.26182596508346 0 0 0 0 -7.517440861383875 -61.542194372852819 0 -61.542194372852819 -127.27262751353419 0 0 0 0 1.2442271117011785 0.83156451344853366 0 0.83156451344853366 -1.5427053094953886 0 0 0 0 -36.223381971787603 -92.711860808813981 0 -92.711860808813981 -57.350467686403704 0 0 0 0 0.61240456611336924 0.24975225440458182 0 0.24975225440458182 0.10076454822127479 0 0 0 0 80.893862137560973 109.97736022545344 0 109.97736022545344 64.391305470802081 0 0 0 0 -0.4782937636882707 -12.027534765379301 0 -12.027534765379301 13.676974798840149 0 0 0 0 80.443925669524106 96.395118101932155 0 96.395118101932155 62.167917262830436 0 0 0 0 0.49101476105051844 -0.20471356450455502 0 -0.20471356450455502 -0.063570459783580557 0 0 0 0 41.009629239288188 -7.4373407305035357 0 -7.4373407305035357 2.8288113358237865 0 0 0 0 0.11966790111302572 -0.096775871966334748 0 -0.096775871966334748 0.66753368312454997 0 0 0 0 90.947627242177759 10.032487267561956 0 10.032487267561956 25.257182876166439 0 0 0 0 6.5100091037420498 4.2389131280662298 0 4.2389131280662298 7.4335307908913251 0 0 0 0 25.915590385224277 36.480107512036412 0 36.480107512036412 32.814556265492399 0 0 0 0 14.290421254760986 22.049719178580204 0 22.049719178580204 19.011826899584889 0 0 0 0 38.27458474552077 -3.0623687695287742 0 -3.0623687695287742 4.4802555685338348 0 0 0 0 61.63648286638545 15.756526988529856 0 15.756526988529856 4.2855410587451956 0 0 0 0 11.270695372664704 15.599124542921913 0 15.599124542921913 -44.613435411584533 0 0 0 0 -37.208716042572632 10.902708561167287 0 10.902708561167287 -18.155873111127335 0 0 0 0 40.762834902434406 -58.882268541310168 0 -58.882268541310168 -107.06444004790507 0 0 0 0 0.56216479394606722 8.8741550925010131 0 8.8741550925010131 5.6518875149380392 0 0 0 0 1.9916366989285734 1.0206519418398639 0 1.0206519418398639 -1.9731682902853123 0 0 0 0 -1.0817566665982596 0.70908418146051666 0 0.70908418146051666 -0.60113693254682266 0 0 0 0 11.984280861917796 25.209471638830564 0 25.209471638830564 23.625603241093359 0 0 0 0 7.9277681824551109 -0.86109250698200412 0 -0.86109250698200412 8.245940474982433 0 0 0 0 8.8457687223399262 -9.1983629939049933 0 -9.1983629939049933 -43.394160589822675 0 0 0 0 1.1260006636148319 13.434879576174978 0 13.434879576174978 0.39645808330374166 0 0 0 0 1.8288795219720626 1.2660650214895703 0 1.2660650214895703 -2.4470212629189221 0 0 0 0 -1.2409513464608608 8.3128832608126118 0 8.3128832608126118 15.667827543481735 0 0 0 0 23.700362453273556 8.7485776114403109 0 8.7485776114403109 5.1040675198998997 0 0 0 0 2.5402046142698964 1.484615227368181 0 1.484615227368181 4.5441043663116716 0 0 0 0 16.856407470596839 20.957533609290351 0 20.957533609290351 -1.7868333061085764 0 0 0 0 -1.3752434711242216 2.4885943612326322 0 2.4885943612326322 -1.1921663545311014 0 0 0 0 19.597788398528792 25.594260506338571 0 25.594260506338571 -38.366221097965877 0 0 0 0 12.22149669602004 24.984507457918255 0 24.984507457918255 -0.11057925957788939 0 0 0 0 9.3759872686860035 22.266497908743418 0 22.266497908743418 -1.5363747733975401 0 0 0 0 16.850899168454241 10.652444867215904 0 10.652444867215904 16.31038926526503 0 0 0 0 19.514016765482666 25.313946606093907 0 25.313946606093907 -4.0810518681039412 0 0 0 0 16.013968430272143 15.929065387379154 0 15.929065387379154 2.9761208042946237 0 0 0 0 7.2458073716752551 19.383283181715548 0 19.383283181715548 -5.5967343127641698 0 0 0 0 10.81599358353742 19.917188803789315 0 19.917188803789315 -6.1670102791725867 0 0 0 0 -32.620135134053271 36.059885103621752 0 36.059885103621752 3.6511210699611922 0 0 0 0 -32.676381500194111 -3.1177545409315712 0 -3.1177545409315712 -3.9985430975873442 0 0 0 0 4.5078758793601992 34.85919777691241 0 34.85919777691241 -13.131285325044018 0 0 0 0 7.636389899875212 44.308600516945376 0 44.308600516945376 5.027361405168449 0 0 0 0 -22.612967374778236 48.993877700459677 0 48.993877700459677 20.077825714571162 0 0 0 0 3.8792708766141004 58.954848938270274 0 58.954848938270274 -47.193239006403473 0 0 0 0 -8.4908437969133956 91.817198949074623 0 91.817198949074623 13.919319453656385 0 0 0 0 117.83882372916742 42.25962955930882 0 42.25962955930882 -10.101076505000975 0 0 0 0 122.83118705410106 -29.620711618898753 0 -29.620711618898753 -116.06955186442667 0 0 0 0 26.068742793759156 11.78072371339681 0 11.78072371339681 3.8795742565196534 0 0 0 0 33.431352974963374 9.054374000928874 0 9.054374000928874 0.097813282957304182 0 0 0 0 33.113215802740342 19.066852554485621 0 19.066852554485621 -0.10512409987347837 0 0 0 0 20.340313948472613 25.407345397964377 0 25.407345397964377 16.799772862750274 0 0 0 0 20.839956604835606 15.031133340627321 0 15.031133340627321 -1.3854748770979199 0 0 0 0 20.365513526123323 21.444180605286192 0 21.444180605286192 -8.9512168793050364 0 0 0 0 24.186879735338152 21.783963821139082 0 21.783963821139082 -9.6045058141519917 0 0 0 0 21.545242521666296 14.699558639363772 0 14.699558639363772 -20.786060040518009 0 0 0 0 19.288064860986992 10.817945882927031 0 10.817945882927031 -2.5138174353809291 0 0 0 0 18.863167505529418 12.094244387914273 0 12.094244387914273 0.090965511941446198 0 0 0 0 18.465746413510715 2.7779209048390499 0 2.7779209048390499 -0.87435591921905598 0 0 0 0 18.255195253027864 -3.0555961880458433 0 -3.0555961880458433 1.7906919929622518 0 0 0 0 21.599256039713509 -0.24228197765381765 0 -0.24228197765381765 4.1290203454786933 0 0 0 0 31.917501259238634 -2.5060578156469546 0 -2.5060578156469546 7.6887287920574181 0 0 0 0 28.487783312278225 -5.0828214158012912 0 -5.0828214158012912 5.8451671080674146 0 0 0 0 26.059181669314967 -11.093182427654511 0 -11.093182427654511 7.7542566633007937 0 0 0 0 30.77859906663798 -15.241317658725478 0 -15.241317658725478 9.7833152325791559 0 0 0 0 12.040039313815214 -7.3303017093024891 0 -7.3303017093024891 6.650308882454695 0 0 0 0 26.121714867135779 -12.146651241831748 0 -12.146651241831748 5.5573634228975379 0 0 0 0 27.729519545984658 -17.45521525250831 0 -17.45521525250831 5.6669109108239439 0 0 0 0 30.113273755430782 -16.637785117658098 0 -16.637785117658098 5.4546170309821704 0 0 0 0 29.624424159074181 -22.447493714186034 0 -22.447493714186034 14.349651747853386 0 0 0 0 99.780860931095958 -49.95665683430687 0 -49.95665683430687 19.377707897317379 0 0 0 0 194.63314473167338 -49.424820624064807 0 -49.424820624064807 5.9543364264819729 0 0 0 0 70.121018334629298 -14.718865337091103 0 -14.718865337091103 -2.2702917064945609 0 0 0 0 0.46265427527757197 0.22242292180928303 0 0.22242292180928303 -0.066319523750808296 0 0 0 0 22.594307377731639 6.0038488964690941 0 6.0038488964690941 -9.9671381036698392 0 0 0 0 70.325397388702186 -2.0195419295410773 0 -2.0195419295410773 -18.154353616015953 0 0 0 0 49.098697563054884 -12.787234932253369 0 -12.787234932253369 -1.3365576101499954 0 0 0 0 45.201125475607114 2.6107681065349766 0 2.6107681065349766 -15.49119481549306 0 0 0 0 59.137610996060289 1.729668279399041 0 1.729668279399041 -20.740217554174137 0 0 0 0 42.692212303226825 -2.7031961467680432 0 -2.7031961467680432 -17.762174653266015 0 0 0 0 7.7128982036392699 0.25802527806908415 0 0.25802527806908415 -13.016988206559148 0 0 0 0 -12.073278675477923 38.687642779369384 0 38.687642779369384 -14.363499873705038 0 0 0 0 0.13602009953449112 0.083714591048433817 0 0.083714591048433817 0.028175995584402314 0 0 0 0 97.561297564034248 -18.880253534557184 0 -18.880253534557184 -4.4117971460798344 0 0 0 0 41.530526233236742 -14.119287256604707 0 -14.119287256604707 12.135410588012974 0 0 0 0 40.490009086319333 -6.2298383211847295 0 -6.2298383211847295 9.0035488405832496 0 0 0 0 32.036122662977505 -9.2754437905503835 0 -9.2754437905503835 10.998012747530481 0 0 0 0 42.819984602813747 -13.772719797632391 0 -13.772719797632391 9.1988984017283428 0 0 0 0 0.39558328184559599 0.23558628835803574 0 0.23558628835803574 -0.061049625237127314 0 0 0 0 500.24361640260122 116.37677880878886 0 116.37677880878886 -92.530094719359639 0 0 0 0 257.65182800283947 80.07943861835497 0 80.07943861835497 -10.942705683347123 0 0 0 0 184.53792091618652 63.961189096162506 0 63.961189096162506 -12.020444402857287 0 0 0 0 333.94688715883154 35.699544063319898 0 35.699544063319898 -60.030897459285072 0 0 0 0 334.31920354759859 61.577264373192506 0 61.577264373192506 -106.03586899758781 0 0 0 0 377.48573878357683 -31.142701927819793 0 -31.142701927819793 -130.63983560509394 0 0 0 0 499.70175219177196 -2.6384378957527805 0 -2.6384378957527805 -131.37241735670833 0 0 0 0 500.20671770690302 -102.31143302585276 0 -102.31143302585276 -128.67521394530925 0 0 0 0 342.29220659533439 -75.650351471981338 0 -75.650351471981338 -72.424445134855333 0 0 0 0 245.7005780505242 -58.687906012388154 0 -58.687906012388154 -63.050490290322401 0 0 0 0 271.63787642064926 -1.3817395720952064 0 -1.3817395720952064 -59.74673397821357 0 0 0 0 197.94953352054381 1.2477226068605773 0 1.2477226068605773 -49.63688140707221 0 0 0 0 191.71482361772723 -19.38413439299292 0 -19.38413439299292 -40.171694552207668 0 0 0 0 109.57302707730946 31.181528106800243 0 31.181528106800243 -5.3036197160905942 0 0 0 0 203.6456317801194 -51.208603334236869 0 -51.208603334236869 -40.081074490683676 0 0 0 0 156.62545469214456 -0.35914823033479593 0 -0.35914823033479593 -42.00087883776856 0 0 0 0 97.58170431601684 -28.191968088022406 0 -28.191968088022406 -29.214868108898713 0 0 0 0 151.52670865518667 -34.748850334118274 0 -34.748850334118274 -38.600777012130649 0 0 0 0 60.640028749250632 -8.7489474611845424 0 -8.7489474611845424 -25.065545606663193 0 0 0 0 161.67283121911896 -15.580084031801789 0 -15.580084031801789 -37.923895946577488 0 0 0 0 -35.511073993737227 34.772689424898203 0 34.772689424898203 -22.511021697186862 0 0 0 0 1.2770031883337651 17.923094324374844 0 17.923094324374844 -14.852042791962901 0 0 0 0 12.538686112919095 -0.30965154124771743 0 -0.30965154124771743 -31.005280992994528 0 0 0 0 61.83213447808339 9.1988824407378615 0 9.1988824407378615 -44.422339991760282 0 0 0 0 78.657049034137799 13.325853923174705 0 13.325853923174705 -33.657970761536944 0 0 0 0 35.552423553035624 0.46741528610291994 0 0.46741528610291994 -26.627664485905001 0 0 0 0 32.862959198435647 26.373641369524318 0 26.373641369524318 -59.153163928010713 0 0 0 0 -24.221813651371122 9.3885340170475615 0 9.3885340170475615 -21.903776401912666 0 0 0 0 46.354159138127216 20.001723041609097 0 20.001723041609097 -22.187720272148681 0 0 0 0 26.454876994866936 -0.5411403389426539 0 -0.5411403389426539 -10.352944586485876 0 0 0 0 98.899163104568288 2.1133643188325237 0 2.1133643188325237 -19.296299713343402 0 0 0 0 34.188649194819618 15.369072378794147 0 15.369072378794147 9.6551204379910587 0 0 0 0 93.163797591261755 26.320113967294851 0 26.320113967294851 1.9293228940145681 0 0 0 0 99.903979581798012 8.0449352457198771 0 8.0449352457198771 8.1874046910427332 0 0 0 0 185.82920988283195 58.065800561111061 0 58.065800561111061 -2.0911908163174644 0 0 0 0 93.945450221204737 47.100368533267691 0 47.100368533267691 24.105484275685559 0 0 0 0 86.791006371444382 55.160334640812664 0 55.160334640812664 32.392591322886162 0 0 0 0 28.036162847333799 31.323154173832901 0 31.323154173832901 33.894938560741934 0 0 0 0 48.197729111450826 15.430273114988548 0 15.430273114988548 23.195106777476894 0 0 0 0 -13.677878812996823 9.8931218564798584 0 9.8931218564798584 27.370571982837248 0 0 0 0 9.8604805909035349 5.1778087336895737 0 5.1778087336895737 12.635163466207416 0 0 0 0 -11.110794678143975 9.9623709492778723 0 9.9623709492778723 4.2395243568831873 0 0 0 0 -13.654985183840381 8.3470833562142204 0 8.3470833562142204 5.49135903855462 0 0 0 0 -5.4907329087027392 17.197137014388204 0 17.197137014388204 -11.384163330495227 0 0 0 0 -17.046675710592353 18.370522117910166 0 18.370522117910166 3.8229891035407917 0 0 0 0 -7.7947383642658679 20.768780468404401 0 20.768780468404401 18.613058009459024 0 0 0 0 24.255158200053188 12.971259753791344 0 12.971259753791344 11.214583097679821 0 0 0 0 -9.4094735320995824 17.384463064702459 0 17.384463064702459 -1.7542770612877518 0 0 0 0 34.663667626404617 17.82929974461134 0 17.82929974461134 -6.9179784997029401 0 0 0 0 -3.7978200389252379 17.37420717710792 0 17.37420717710792 -23.230966425575048 0 0 0 0 1.5676140227490123 18.487658938508332 0 18.487658938508332 -48.272084645581117 0 0 0 0 7.9909410610780469 35.721768044730666 0 35.721768044730666 -36.550052685422656 0 0 0 0 -1.4071721067448379 -5.6911935679349881 0 -5.6911935679349881 -15.453262570910852 0 0 0 0 5.6541647543520348 2.3972781379929309 0 2.3972781379929309 -2.1138568401981912 0 0 0 0 1.6216544164242452 -0.4004295146570751 0 -0.4004295146570751 -0.10920376197814541 0 0 0 0 6.7221414380583155 10.617881951915479 0 10.617881951915479 -5.5010431130194775 0 0 0 0 7.6621330561974901 9.1483920104109302 0 9.1483920104109302 -8.0395691276503385 0 0 0 0 8.0378512337701977 8.1196865543126933 0 8.1196865543126933 -17.187414349533469 0 0 0 0 4.4787511293272928 18.921604473410994 0 18.921604473410994 -12.039901904699263 0 0 0 0 5.2635419042835565 9.4667427867802303 0 9.4667427867802303 -2.8188938718697898 0 0 0 0 -20.874963018976359 37.742352441261311 0 37.742352441261311 -10.218303183085453 0 0 0 0 7.2950017282066746 2.9697122181673423 0 2.9697122181673423 -0.634743282206083 0 0 0 0 4.0527798112052551 11.415912198427463 0 11.415912198427463 -7.9311128260666806 0 0 0 0 5.5176462890165112 10.101385585424694 0 10.101385585424694 -7.4443563877093766 0 0 0 0 6.6493885422023595 9.806886828060442 0 9.806886828060442 -7.408309885688368 0 0 0 0 1.9721840460442763 10.281906183056208 0 10.281906183056208 -1.5402426397573006 0 0 0 0 -8.4168033456098783 7.5741628444925482 0 7.5741628444925482 0.69225579010600313 0 0 0 0 0.41070812777707033 13.047098706979057 0 13.047098706979057 -6.4307786546576153 0 0 0 0 3.6007604747096593 9.7098556134275782 0 9.7098556134275782 -8.9970908449572562 0 0 0 0 -3.8242451473142864 17.606843208338205 0 17.606843208338205 -17.066144200626809 0 0 0 0 5.4567284959921381 3.2977222117627889 0 3.2977222117627889 -14.994421634652879 0 0 0 0 -5.1196755306193609 0.46623344611627537 0 0.46623344611627537 4.0162085710043485 0 0 0 0 1.5644275541671107 0.57112407997938597 0 0.57112407997938597 -0.62842254998172331 0 0 0 0 35.249177750923991 21.380019094223258 0 21.380019094223258 2.3739493801545493 0 0 0 0 5.7590805601157626 0.11543092764875951 0 0.11543092764875951 -4.1437740882850989 0 0 0 0 6.7646905317943293 4.7579091384071699 0 4.7579091384071699 0.52785357577819436 0 0 0 0 -5.8504197791727997 4.3284994103325314 0 4.3284994103325314 0.49849035244020173 0 0 0 0 4.441375250751662 20.764237601554612 0 20.764237601554612 17.934018062028031 0 0 0 0 33.42485387186025 22.625262451851938 0 22.625262451851938 7.6152118892618859 0 0 0 0 5.326380667317153 26.963352366876023 0 26.963352366876023 50.956880818109539 0 0 0 0 4.8020702048652311 44.758479793383572 0 44.758479793383572 43.222062241312756 0 0 0 0 -2.6567468521016053 15.528285012674985 0 15.528285012674985 52.854477050471132 0 0 0 0 -1.8470901541005809 0.77942481547487397 0 0.77942481547487397 1.0047897072215093 0 0 0 0 15.794371587584465 17.092996336553028 0 17.092996336553028 -14.649757839033555 0 0 0 0 0.96829136470478261 4.9473051758869815 0 4.9473051758869815 -20.00906082783672 0 0 0 0 7.4420615014823852 21.611152119929443 0 21.611152119929443 8.1887820868238919 0 0 0 0 17.205614244536264 21.770596244736225 0 21.770596244736225 -23.555516218632874 0 0 0 0 13.513024769705225 14.724295579785917 0 14.724295579785917 -11.05464161825671 0 0 0 0 12.647543101960764 14.389240603673329 0 14.389240603673329 -0.48760150364751098 0 0 0 0 9.9499155900921323 23.029034969919394 0 23.029034969919394 17.992904341757665 0 0 0 0 9.3759488692967352 12.063652347690891 0 12.063652347690891 -6.91970380574503 0 0 0 0 11.455695530912635 7.5497879663394087 0 7.5497879663394087 -10.162710925123065 0 0 0 0 7.7658216654608623 11.846720754836781 0 11.846720754836781 2.5313114988789494 0 0 0 0 8.4117626824408944 5.3737941783275573 0 5.3737941783275573 -2.1348959847193782 0 0 0 0 -5.4957225769812794 -1.7986365465339986 0 -1.7986365465339986 -13.903304347896189 0 0 0 0 0.80523561083828099 6.9192775527999402 0 6.9192775527999402 -9.5344963543784615 0 0 0 0 0.41864523090407602 -3.5921216416741117 0 -3.5921216416741117 8.6526981554467284 0 0 0 0 0.169759985248779 1.2432854824384165 0 1.2432854824384165 0.17437446237117715 0 0 0 0 -1.1307333242146029 1.9497887139223957 0 1.9497887139223957 0.32507486180495038 0 0 0 0 -57.75146992518512 3.1423729077910707 0 3.1423729077910707 62.725679396737974 0 0 0 0 11.685208591487026 6.9041669620885386 0 6.9041669620885386 1.2053661295976781 0 0 0 0 3.3330819390463113 6.6110292456341977 0 6.6110292456341977 0.65840743672559754 0 0 0 0 -24.484292523178738 45.315961832881896 0 45.315961832881896 80.300369865625157 0 0 0 0 6.9489856337939528 2.1590951656946409 0 2.1590951656946409 -1.4823238665130354 0 0 0 0 6.6241463840906363 4.2690567789959459 0 4.2690567789959459 -1.7642121180845152 0 0 0 0 6.2620918708071258 4.1436323515139311 0 4.1436323515139311 -1.7076562081789071 0 0 0 0 3.5773912766676403 3.0417097712744976 0 3.0417097712744976 -3.4848079056917527 0 0 0 0 4.1319435479814146 2.8036205553732056 0 2.8036205553732056 0.62903817356731428 0 0 0 0 10.222755984508694 5.4303851061293926 0 5.4303851061293926 -0.0014597149698829526 0 0 0 0 4.3479505087494061 5.4065149447925105 0 5.4065149447925105 0.21416417790443865 0 0 0 0 3.2521472232690485 4.7686956712220336 0 4.7686956712220336 1.156900985336506 0 0 0 0 2.2387325863128602 2.7236250213743585 0 2.7236250213743585 -1.7400379184396386 0 0 0 0 9.0018070040223392 1.3953619229362175 0 1.3953619229362175 -8.8839146453133253 0 0 0 0 4.5487920275736293 3.3800714613363061 0 3.3800714613363061 -0.11969084961684884 0 0 0 0 8.6360272340962183 13.77131151125883 0 13.77131151125883 -2.3507543067713641 0 0 0 0 7.4087904632534745 4.2413064957760964 0 4.2413064957760964 0.041891449546985093 0 0 0 0 9.0236197327030823 9.1111508440058628 0 9.1111508440058628 -5.8760260272382538 0 0 0 0 9.4367315534709633 8.677586415137057 0 8.677586415137057 -3.4963121332759783 0 0 0 0 4.3280395132123886 4.3864549713600809 0 4.3864549713600809 -0.6807872540102835 0 0 0 0 4.5898249358007916 4.6654758847149527 0 4.6654758847149527 0.6373246943969898 0 0 0 0 3.8906521697940981 1.6796712925571962 0 1.6796712925571962 0.88010291914472227 0 0 0 0 7.0194366487930893 3.3763548603006281 0 3.3763548603006281 1.4482373125721253 0 0 0 0 3.533490539106424 5.3685586894572452 0 5.3685586894572452 -0.20862341168549392 0 0 0 0 7.9667435475876118 2.2052290386776807 0 2.2052290386776807 1.6651590254129225 0 0 0 0 5.6618429640748822 4.2522352652847442 0 4.2522352652847442 0.78127678058149042 0 0 0 0 12.229125933165506 9.9771075728226037 0 9.9771075728226037 1.60528352473656 0 0 0 0 7.5454779787610278 3.8041120757780442 0 3.8041120757780442 2.015024677051894 0 0 0 0 2.7571569577317021 1.084631663005462 0 1.084631663005462 0.02624383607708286 0 0 0 0 8.30525913656993 -9.1543200430618139 0 -9.1543200430618139 -11.004764285466024 0 0 0 0 6.0046737655542763 2.7717142605951688 0 2.7717142605951688 0.77312609678276589 0 0 0 0 10.724873719321238 13.382887846669734 0 13.382887846669734 7.1549289293088805 0 0 0 0 10.131703480845317 5.6355034798588122 0 5.6355034798588122 -0.5357228576798434 0 0 0 0 7.1297558833446928 4.7464452286615781 0 4.7464452286615781 1.7506909138078468 0 0 0 0 8.5693625203966803 21.158470664782953 0 21.158470664782953 22.904999951219452 0 0 0 0 1.8932023824313902 -1.0349892181482492 0 -1.0349892181482492 -1.6637820010612816 0 0 0 0 -3.6339063700249454 1.5688070323874035 0 1.5688070323874035 3.3910871838128012 0 0 0 0 10.587830339023924 5.7171836942408731 0 5.7171836942408731 0.73483998410483764 0 0 0 0 6.9657619896333927 7.5256364785207097 0 7.5256364785207097 9.1290628780850511 0 0 0 0 11.178572013548546 8.9345532930794889 0 8.9345532930794889 -1.0075411282119688 0 0 0 0 -26.18932764008332 -17.055645765920978 0 -17.055645765920978 7.3528961001586879 0 0 0 0 -6.0063249054758412 2.2618969714392705 0 2.2618969714392705 1.9135764084833666 0 0 0 0 14.282321683226655 22.612667456928193 0 22.612667456928193 12.431866284762236 0 0 0 0 4.2735087671453584 12.922705972777692 0 12.922705972777692 2.5147148523136877 0 0 0 0 -27.305941305594104 2.494027265176709 0 2.494027265176709 24.287847384125257 0 0 0 0 21.752016502841798 -2.882719695202475 0 -2.882719695202475 16.807127013456068 0 0 0 0 12.909078753654057 25.212174967192723 0 25.212174967192723 37.764486326280711 0 0 0 0 23.197093547635035 25.613724770893739 0 25.613724770893739 55.549245909357417 0 0 0 0 174.20785830571322 127.70174032769556 0 127.70174032769556 61.571186634988379 0 0 0 0 54.00069828473346 68.442324395201041 0 68.442324395201041 105.90381871172399 0 0 0 0 48.01835522699912 5.75806143072748 0 5.75806143072748 22.1754714933667 0 0 0 0 50.134352865545225 25.387271396884188 0 25.387271396884188 -16.937848049111949 0 0 0 0 5.1751073292089131 -22.260771705431125 0 -22.260771705431125 -10.366609903786525 0 0 0 0 -3.5937225112702436 -12.525365732842147 0 -12.525365732842147 7.070265440368587 0 0 0 0 -12.860981856096259 -26.414680680546155 0 -26.414680680546155 -4.5842940950421394 0 0 0 0 12.693937488751544 16.73623890601732 0 16.73623890601732 20.907852411970623 0 0 0 0 3.1182481612104311 1.9149640339405778 0 1.9149640339405778 -1.2332438113805892 0 0 0 0 -2.2770441158645554 1.1606186626402177 0 1.1606186626402177 2.9673946753327414 0 0 0 0 -0.3318547860668879 0.73871957443661329 0 0.73871957443661329 1.0588525591506111 0 0 0 0 -1.2810200539261132 -0.14420610158433078 0 -0.14420610158433078 -42.398843840231166 0 0 0 0 6.73914380373472 3.5984991493841401 0 3.5984991493841401 2.2939762370121977 0 0 0 0 4.9414867719932545 -4.0936999256179973 0 -4.0936999256179973 4.7436522333017024 0 0 0 0 -43.545459712605407 0.011873917761175523 0 0.011873917761175523 7.8754102529909584 0 0 0 0 1.1731449744489417 1.1383042161195398 0 1.1383042161195398 0.061672656955858794 0 0 0 0 -24.300812334297007 43.608557615941926 0 43.608557615941926 -20.144838687416197 0 0 0 0 10.218229124920981 3.0949277172336451 0 3.0949277172336451 -18.737879751026526 0 0 0 0 6.4300322259394154 2.2002316774544779 0 2.2002316774544779 0.7036739928632697 0 0 0 0 -37.973618475477451 44.470163431000834 0 44.470163431000834 68.595159712794583 0 0 0 0 14.785251233521194 -26.066482575812834 0 -26.066482575812834 56.537668771098929 0 0 0 0 105.20950233992244 38.966512494532253 0 38.966512494532253 47.999603678868453 0 0 0 0 -7.8120002196301357 -32.037929958868489 0 -32.037929958868489 42.766170864183913 0 0 0 0 -31.641146650422343 19.616759279996153 0 19.616759279996153 23.424448516513422 0 0 0 0 6.8334590690083132 -46.547957068241359 0 -46.547957068241359 -7.9490803659779488 0 0 0 0 500.37980762718553 33.832030631922173 0 33.832030631922173 119.56002411970758 0 0 0 0 431.24486507383062 119.927260763296 0 119.927260763296 -20.802068756718761 0 0 0 0 107.60622644604427 90.708857453349964 0 90.708857453349964 30.085527172694242 0 0 0 0 148.64273467411294 -42.78025761682887 0 -42.78025761682887 -21.447538025767976 0 0 0 0 496.27093697392002 -10.95901447728995 0 -10.95901447728995 -62.027846422916753 0 0 0 0 2.7877929320610342 1.0083790288305265 0 1.0083790288305265 0.59347041859681759 0 0 0 0 460.12342932841511 -17.801570812640239 0 -17.801570812640239 -40.252435895009349 0 0 0 0 216.23587761266822 -119.3190526034227 0 -119.3190526034227 24.586135804435166 0 0 0 0 498.80689025996071 28.923115853839924 0 28.923115853839924 -81.295255924652693 0 0 0 0 105.4246589094173 215.03590518358092 0 215.03590518358092 289.68808895083208 0 0 0 0 41.687475507280851 3.9350100125217295 0 3.9350100125217295 31.217439503833518 0 0 0 0 498.74075131119707 242.59803369478539 0 242.59803369478539 13.140832897974077 0 0 0 0 294.19289663719314 166.883969555096 0 166.883969555096 -14.511553567795541 0 0 0 0 -7.5423706799361412 1.0124922942401327 0 1.0124922942401327 6.4275089703718322 0 0 0 0 327.30175347810587 -6.5603163011908814 0 -6.5603163011908814 -6.8007834445072781 0 0 0 0 499.73834526231826 -86.441861252596027 0 -86.441861252596027 -16.951736177682591 0 0 0 0 -2.3029272921280608 -2.9710582590697641 0 -2.9710582590697641 3.0391505893144881 0 0 0 0 -2.7649066684889192 1.4009130105478107 0 1.4009130105478107 46.329365555487584 0 0 0 0 30.864478130723001 -46.178490805400884 0 -46.178490805400884 26.386584905551786 0 0 0 0 5.5236410438947701 -14.735020679161607 0 -14.735020679161607 -6.1634669884238065 0 0 0 0 3.1733646994632068 -20.381498629654061 0 -20.381498629654061 -0.65302591909141938 0 0 0 0 -8.2058022417650136 -7.1222504704219318 0 -7.1222504704219318 15.383413020614057 0 0 0 0 412.65037948457393 -173.59932348528432 0 -173.59932348528432 74.812544360993172 0 0 0 0 -0.21730723905122762 -3.8138998580475545 0 -3.8138998580475545 4.3587027106205394 0 0 0 0 470.19841310228549 265.31500014135287 0 265.31500014135287 159.50533793816862 0 0 0 0 -3.3037752997711411 -1.6777030693792494 0 -1.6777030693792494 5.0443359243490411 0 0 0 0 428.0604443574598 32.649172732174492 0 32.649172732174492 -84.635913695082408 0 0 0 0 499.36759898211153 276.39436156731102 0 276.39436156731102 31.935576823705798 0 0 0 0 0.74579987519915214 -0.79815027304240349 0 -0.79815027304240349 0.40197318295838275 0 0 0 0 9.310359925680542 -5.6374856802395694 0 -5.6374856802395694 3.1617723412837 0 0 0 0 323.80533235585744 120.04630272992799 0 120.04630272992799 5.9732424523473284 0 0 0 0 23.090590247175101 34.488810206527305 0 34.488810206527305 111.10702670871265 0 0 0 0 101.03371818341384 55.659385362735151 0 55.659385362735151 6.0221407507552254 0 0 0 0 372.01851869378243 32.916816941836672 0 32.916816941836672 -41.356747827978694 0 0 0 0 379.28659150888234 -0.030967237856268426 0 -0.030967237856268426 -64.681784959414529 0 0 0 0 176.65327908530662 -117.94689513118895 0 -117.94689513118895 30.527699455424923 0 0 0 0 1.2942367244644917 0.37940773709586395 0 0.37940773709586395 0.21445835052709733 0 0 0 0 77.54087180152419 -47.910345601059873 0 -47.910345601059873 76.617463462476564 0 0 0 0 346.28078935955318 -128.74148476001946 0 -128.74148476001946 94.029742154628096 0 0 0 0 537.31454608420336 16.176913232013597 0 16.176913232013597 -54.578417559939766 0 0 0 0 13.165462028823185 -40.577682031214337 0 -40.577682031214337 -7.4419752759247331 0 0 0 0 3.8090358556173669 -42.384642069772156 0 -42.384642069772156 -5.5815293050456063 0 0 0 0 157.32761190684141 -80.28445212748133 0 -80.28445212748133 3.2395360043305317 0 0 0 0 -96.60525782455079 77.735021938957573 0 77.735021938957573 -12.193143176202405 0 0 0 0 -38.30778560878116 -14.974051369589912 0 -14.974051369589912 59.158611031645421 0 0 0 0 -27.094543129202748 2.2070909160292285 0 2.2070909160292285 -2.7562422172429919 0 0 0 0 -18.367540082649612 -23.046251356895922 0 -23.046251356895922 -4.4558818606369073 0 0 0 0 4.0065773855537863 0.47368511823875803 0 0.47368511823875803 0.67210068957224245 0 0 0 0 5.9900898059568135 -5.4906909760360634 0 -5.4906909760360634 8.039550533496481 0 0 0 0 1.2588411619897748 -2.2063170268953836 0 -2.2063170268953836 0.8114135569263764 0 0 0 0 16.321366694774838 -22.930793896248588 0 -22.930793896248588 -14.712985996952852 0 0 0 0 11.701104190818613 -5.615263620425079 0 -5.615263620425079 2.6065498126221822 0 0 0 0 1.5075892010836469 -58.707688994606613 0 -58.707688994606613 34.583700598512621 0 0 0 0 -12.584621471471337 -33.265015256211015 0 -33.265015256211015 -0.074766289959413257 0 0 0 0 4.6033685975116647 0.19701288868749867 0 0.19701288868749867 0.69523932759049167 0 0 0 0 5.8585404668226602 -0.6066604829792368 0 -0.6066604829792368 -0.074102399395542307 0 0 0 0 27.236024148373161 5.7637648005612334 0 5.7637648005612334 -36.942947910445355 0 0 0 0 12.64641483563355 0.2723451116319211 0 0.2723451116319211 -3.134215898104685 0 0 0 0 9.4986563635916035 -0.70438452980666511 0 -0.70438452980666511 -0.54072304801758486 0 0 0 0 6.2224046637118136 -6.7165265457757641 0 -6.7165265457757641 -19.476810074215678 0 0 0 0 3.766294099619957 -0.57040737660100715 0 -0.57040737660100715 -0.15467917098937634 0 0 0 0 -7.6661625855758757 29.410419610018124 0 29.410419610018124 10.341126586933971 0 0 0 0 7.9217746853993525 1.357951986861694 0 1.357951986861694 -0.69334850411005355 0 0 0 0 -1.4952657470967097 -46.089039700140859 0 -46.089039700140859 -4.1644540041857567 0 0 0 0 5.0782609955235785 0.76672382473839207 0 0.76672382473839207 1.5165728305145194 0 0 0 0 4.5310283448459359 1.6914192936603314 0 1.6914192936603314 2.049267275865418 0 0 0 0 0.94618391825815706 2.0521312192863093 0 2.0521312192863093 0.71437349091957003 0 0 0 0 7.0092666244381689 2.4119257902856361 0 2.4119257902856361 -3.126638547440507 0 0 0 0 16.58389994565681 36.816248131932966 0 36.816248131932966 -43.739805872959096 0 0 0 0 6.7695701800081842 2.2054111192554124 0 2.2054111192554124 -0.034793498434804837 0 0 0 0 7.9143125252929254 1.3978454583185718 0 1.3978454583185718 -1.270835749925245 0 0 0 0 10.983599908822953 5.5583893467257894 0 5.5583893467257894 -26.598913935401924 0 0 0 0 5.1499371889522081 18.853966727360557 0 18.853966727360557 8.0547085759053516 0 0 0 0 22.486069066126674 24.059892536974303 0 24.059892536974303 -8.0929872237340987 0 0 0 0 12.475719089854465 6.7748258172057376 0 6.7748258172057376 5.8050555519548652 0 0 0 0 64.513677202144891 5.1828849710744862 0 5.1828849710744862 -18.453706870150882 0 0 0 0 22.213326168298678 0.033884301390649796 0 0.033884301390649796 9.113077181975541 0 0 0 0 53.629824296421702 -9.9466908949866593 0 -9.9466908949866593 8.4399651297090088 0 0 0 0 99.240684237581036 4.758321824554173 0 4.758321824554173 2.2815355279051346 0 0 0 0 86.273791089056658 -113.02477805081747 0 -113.02477805081747 -7.2415571553121936 0 0 0 0 -0.079312543704652683 -0.13280252364088962 0 -0.13280252364088962 0.36284982121918175 0 0 0 0 -1.5186779437588029 55.385551284691473 0 55.385551284691473 49.195704666312622 0 0 0 0 54.401100436288061 22.629639299795485 0 22.629639299795485 29.192362704797233 0 0 0 0 1.6909646423989271 -0.18147692498167678 0 -0.18147692498167678 -0.047224826401634168 0 0 0 0 18.021284440902946 11.039262310972049 0 11.039262310972049 39.38499611165048 0 0 0 0 -1.6665368696039877 -3.4916278703703938 0 -3.4916278703703938 29.078421251866587 0 0 0 0 10.671709489979776 14.30168996729418 0 14.30168996729418 20.997187407861475 0 0 0 0 -1.5039230325037352 7.3746813076893432 0 7.3746813076893432 17.056834057322249 0 0 0 0 17.270386628544202 3.6134740588038312 0 3.6134740588038312 22.683695030105355 0 0 0 0 26.160550824370716 19.36265449186817 0 19.36265449186817 17.331680534668521 0 0 0 0 -0.4878019841639798 10.606320647285884 0 10.606320647285884 2.9876517322607015 0 0 0 0 -4.6211813815523328 4.1600263709721048 0 4.1600263709721048 13.743110042261605 0 0 0 0 -2.0007175483540323 -0.90929212165121953 0 -0.90929212165121953 9.1401190315898475 0 0 0 0 2.4575517468043699 6.0087241959300854 0 6.0087241959300854 -1.0256832311133621 0 0 0 0 3.3268971317769456 -0.085049592125983509 0 -0.085049592125983509 1.4047662023110661 0 0 0 0 -0.035284565238214327 6.0716886644634087 0 6.0716886644634087 -8.3977848635972805 0 0 0 0 6.8663775346502307 1.1274380864522939 0 1.1274380864522939 -0.05307161124249804 0 0 0 0 10.496783089792586 1.0130261141642904 0 1.0130261141642904 -6.4690767556522815 0 0 0 0 -5.0968527500058372 25.826285746030408 0 25.826285746030408 -13.788579528157015 0 0 0 0 6.935594386847697 1.6956421281879557 0 1.6956421281879557 -3.3286619347625219 0 0 0 0 1.0224683465980888 18.046254836240678 0 18.046254836240678 -16.415618552450383 0 0 0 0 9.2633045834517738 0.99805550172535829 0 0.99805550172535829 -0.69128690149304273 0 0 0 0 -6.8020592841398866 15.24284915468138 0 15.24284915468138 5.8320694111794182 0 0 0 0 1.4395524409014797 11.629148798202095 0 11.629148798202095 -3.5121011986692565 0 0 0 0 -12.817729531049281 13.836011650881119 0 13.836011650881119 -3.8259450776810127 0 0 0 0 8.6896898089134815 4.2232065539911998 0 4.2232065539911998 1.6890685217471173 0 0 0 0 3.6507379093634533 0.69730583446987549 0 0.69730583446987549 -1.712602181342783 0 0 0 0 8.6884956256672012 1.5419498872282134 0 1.5419498872282134 1.1698443101042812 0 0 0 0 9.0083455676621647 3.756650591099004 0 3.756650591099004 -2.0061220524615884 0 0 0 0 7.215063026851567 3.4610323057216021 0 3.4610323057216021 1.6076259571483433 0 0 0 0 7.2658716980122335 3.2545425609002905 0 3.2545425609002905 2.0188831205741087 0 0 0 0 6.7765243118619765 2.9222213885589667 0 2.9222213885589667 1.5096122703386214 0 0 0 0 3.7482695964159376 0.11741912979891289 0 0.11741912979891289 -1.0151218701178188 0 0 0 0 6.2550212729141776 4.1658647809790423 0 4.1658647809790423 2.2301551125377728 0 0 0 0 6.9558211195922013 5.4863156621232818 0 5.4863156621232818 -2.2404109213323053 0 0 0 0 10.242473638951651 1.2231794860986298 0 1.2231794860986298 -1.6184309276947033 0 0 0 0 10.607052839277458 4.5100267365465925 0 4.5100267365465925 2.1780095099350092 0 0 0 0 10.587371556126925 4.8044134274235688 0 4.8044134274235688 3.0436653173591992 0 0 0 0 7.7135050134156309 5.5989571846430417 0 5.5989571846430417 1.4724566509063501 0 0 0 0 50.367858590288961 -12.024912268774401 0 -12.024912268774401 -41.77594328029204 0 0 0 0 16.258329187292475 4.7612647612709509 0 4.7612647612709509 0.0053842255276776996 0 0 0 0 4.3464641179690506 0.64578870497777174 0 0.64578870497777174 -1.1717320756562843 0 0 0 0 23.540584628888382 5.0565756266307931 0 5.0565756266307931 -10.827030561216532 0 0 0 0 1.8032814480945143 0.3692395264944448 0 0.3692395264944448 -2.4094612586713033 0 0 0 0 16.264665914776458 -2.3980484098311918 0 -2.3980484098311918 0.2937248123550944 0 0 0 0 5.004871021964675 6.4425613365602032 0 6.4425613365602032 -2.2654026277556341 0 0 0 0 8.1324711236905447 2.6973031645286842 0 2.6973031645286842 -0.63270823330077608 0 0 0 0 12.037969265474203 4.1972087398357303 0 4.1972087398357303 -4.8259197020760212 0 0 0 0 8.1987441348555876 3.4026366878738372 0 3.4026366878738372 -3.7515252394127856 0 0 0 0 5.7950699432717556 7.366740931493041 0 7.366740931493041 -6.1052944020938185 0 0 0 0 8.9514243585999012 2.2459603596805904 0 2.2459603596805904 -0.86194548029570806 0 0 0 0 21.269643615593235 5.9883764851135322 0 5.9883764851135322 -0.73931055760210374 0 0 0 0 14.114448581110025 16.068147743530727 0 16.068147743530727 -16.711810124177362 0 0 0 0 0.31403031475497301 1.5986411836089718 0 1.5986411836089718 0.056744154615975761 0 0 0 0 43.90112669553082 6.1066750536846115 0 6.1066750536846115 -52.862026935170292 0 0 0 0 15.562803015778922 3.9134451120399527 0 3.9134451120399527 -3.4987110243028727 0 0 0 0 8.1510062052388434 0.50020594789651263 0 0.50020594789651263 -2.5625864729753971 0 0 0 0 0.77099999946503495 -0.16059706619524466 0 -0.16059706619524466 -0.79430361022027818 0 0 0 0 6.2194598646807453 -0.79363187737428875 0 -0.79363187737428875 -3.3001598527849558 0 0 0 0 32.957766661726055 22.626900159689136 0 22.626900159689136 5.2550624875063932 0 0 0 0 20.464382581818882 -36.726247764010267 0 -36.726247764010267 31.446644718364425 0 0 0 0 -17.354197484627093 19.772191369277778 0 19.772191369277778 -17.512821074356793 0 0 0 0 9.5109980264060709 3.5600629922004572 0 3.5600629922004572 -2.7994890311238123 0 0 0 0 4.6499947056886413 3.4247675800734214 0 3.4247675800734214 0.79237581581060113 0 0 0 0 4.8326219966188191 0.6491880136314645 0 0.6491880136314645 -0.65820081826847909 0 0 0 0 -2.3394368156587007 1.5670875390674155 0 1.5670875390674155 0.0045733655256299244 0 0 0 0 -10.885137136774347 -2.3746059599205864 0 -2.3746059599205864 3.5415606648024891 0 0 0 0 0.63146581251288125 0.37151621808861179 0 0.37151621808861179 -1.8103510931163735 0 0 0 0 6.0817804111391069 9.654056235154556 0 9.654056235154556 12.712489821328319 0 0 0 0 27.872688048938244 -1.7493209233212212 0 -1.7493209233212212 -1.6388071899008025 0 0 0 0 41.851808989016718 12.058204222807973 0 12.058204222807973 -3.1942323788795193 0 0 0 0 44.683638671878185 -0.37254525235487534 0 -0.37254525235487534 -7.1378239678365958 0 0 0 0 35.653397875835594 13.768755667647557 0 13.768755667647557 0.25487952915301548 0 0 0 0 40.494348630679042 4.3783557707377128 0 4.3783557707377128 2.7405787266153538 0 0 0 0 26.917196698574571 5.5787680347816746 0 5.5787680347816746 -5.2970883187515625 0 0 0 0 44.318437892971815 14.319071888283162 0 14.319071888283162 -22.767362204247604 0 0 0 0 -11.061212854558107 3.0938014411974351 0 3.0938014411974351 -3.589033278497368 0 0 0 0 26.882863736560921 11.981181770082543 0 11.981181770082543 -33.072577535255704 0 0 0 0 -0.099361622480932721 0.13481041498286217 0 0.13481041498286217 -0.54760731092958759 0 0 0 0 16.006103779783189 -10.752302914276754 0 -10.752302914276754 0.2814262096539295 0 0 0 0 29.811176031836567 -3.903566436482123 0 -3.903566436482123 -17.883839380022948 0 0 0 0 43.985753981480343 -14.164798458384638 0 -14.164798458384638 -14.483799942567714 0 0 0 0 36.119974586278204 -16.615902936236964 0 -16.615902936236964 -7.2853811189982025 0 0 0 0 34.722352459734338 -11.636820043834518 0 -11.636820043834518 -10.482186520076539 0 0 0 0 35.165005113765687 -11.666700027935192 0 -11.666700027935192 -10.787530421333145 0 0 0 0 68.089143014362207 -15.983549874401007 0 -15.983549874401007 -11.820131912931231 0 0 0 0 113.69764901238577 37.828997181056522 0 37.828997181056522 8.7860006517892089 0 0 0 0 128.35975650966338 -40.747926587246923 0 -40.747926587246923 -12.003714633728691 0 0 0 0 23.430749241197191 -19.24245181796033 0 -19.24245181796033 -3.5703285838110332 0 0 0 0 19.749490756591513 -26.118855722359115 0 -26.118855722359115 16.706611499654628 0 0 0 0 6.0719032381152829 -70.411987126108613 0 -70.411987126108613 25.63047328706898 0 0 0 0 -53.740676659867404 -0.62790038996752173 0 -0.62790038996752173 21.537569858008055 0 0 0 0 -3.9652217130567351 0.68726200068488197 0 0.68726200068488197 8.0810352493253959 0 0 0 0 200.83760310459547 57.348122721127766 0 57.348122721127766 -52.851610409392833 0 0 0 0 3.9499565184288459 0.38936294480585931 0 0.38936294480585931 0.057816190497858799 0 0 0 0 -101.2976616195408 -47.306772093461177 0 -47.306772093461177 55.723181955804762 0 0 0 0 8.2506728815706083 -70.709272159460625 0 -70.709272159460625 49.967031222430649 0 0 0 0 -17.31511741621307 -35.624863022426695 0 -35.624863022426695 56.604587193704404 0 0 0 0 14.641269895781306 -12.044670005490673 0 -12.044670005490673 -0.56929240938833914 0 0 0 0 178.57110799797806 -7.8794232600134819 0 -7.8794232600134819 -3.3978590213644111 0 0 0 0 9.3761290798627215 0.52448855787847037 0 0.52448855787847037 -14.23523451496547 0 0 0 0 1.2578770846678253 -19.21481128998299 0 -19.21481128998299 -21.831091551552298 0 0 0 0 2.2621990618008398 -1.8602354092801854 0 -1.8602354092801854 1.5967183195145782 0 0 0 0 30.211361299343025 13.432845080505786 0 13.432845080505786 3.986468578683656 0 0 0 0 0.59646861291411213 -0.72156010632552015 0 -0.72156010632552015 0.84049446872348743 0 0 0 0 13.924062906092786 1.0191447072162418 0 1.0191447072162418 -0.25438802589968645 0 0 0 0 19.663545539064103 -1.8901148093543299 0 -1.8901148093543299 -1.4950869711094583 0 0 0 0 13.015550156303561 -7.9850053846743663 0 -7.9850053846743663 -0.03176580107844984 0 0 0 0 34.418727286348826 -7.8450026172355471 0 -7.8450026172355471 -1.2824089400365892 0 0 0 0 3.8731177632967047 -7.94466215593269 0 -7.94466215593269 4.3243866727053302 0 0 0 0 4.0766638662512378 -3.9276242522232678 0 -3.9276242522232678 5.5927339473803386 0 0 0 0 35.043739964710539 52.17599478363212 0 52.17599478363212 81.956371187691332 0 0 0 0 4.0470786039250015 -7.7295835373912354 0 -7.7295835373912354 0.86171702635635938 0 0 0 0 0.85981029933414233 -2.249273528215082 0 -2.249273528215082 -0.86308277084435614 0 0 0 0 4.0146108630866024 -4.0618988223233004 0 -4.0618988223233004 -9.8897011773300534 0 0 0 0 2.8226016270077849 -3.2770082344400855 0 -3.2770082344400855 2.1451177374788379 0 0 0 0 0.40023762754299241 -3.4338096060947692 0 -3.4338096060947692 2.3623501207428319 0 0 0 0 2.2968425741986693 -3.2477457336179922 0 -3.2477457336179922 0.10838458035687493 0 0 0 0 2.0001604664819865 -2.670339410329845 0 -2.670339410329845 -0.010376896243428746 0 0 0 0 1.9380369393497783 -2.6430395373140274 0 -2.6430395373140274 0.88341797797734622 0 0 0 0 6.7540450120504829 34.449139810015197 0 34.449139810015197 -74.034218785048097 0 0 0 0 2.4456264426623062 -2.9366109243394414 0 -2.9366109243394414 0.10823497916927094 0 0 0 0 0.95625819898629327 -0.99908431004715315 0 -0.99908431004715315 0.04265309157458963 0 0 0 0 3.4382145555139232 -5.5065212131697905 0 -5.5065212131697905 3.6621425561354499 0 0 0 0 497.73108842247404 -2.6946064605091307 0 -2.6946064605091307 0.67317916175159154 0 0 0 0 1.2229050366282368 -0.78804833562623 0 -0.78804833562623 0.71877939402603364 0 0 0 0 73.680303870288299 66.438841908991776 0 66.438841908991776 -11.008898028761735 0 0 0 0 -11.663145489857925 -45.913048020707222 0 -45.913048020707222 -44.463125462111357 0 0 0 0 1.3446703538971325 -0.38681098736048714 0 -0.38681098736048714 0.33170656759120293 0 0 0 0 497.77461625846314 92.294561799053469 0 92.294561799053469 -74.008361391054351 0 0 0 0 227.08338105156264 -141.69660292288728 0 -141.69660292288728 -52.499123171115997 0 0 0 0 10.16220350027379 -32.618454741290861 0 -32.618454741290861 78.20274118257062 0 0 0 0 -0.41877098342621055 -1.3599529118225966 0 -1.3599529118225966 0.76758401964662837 0 0 0 0 -0.061810161693220955 -0.82549346250672095 0 -0.82549346250672095 0.87526810992799897 0 0 0 0 -5.1655260884945022 7.5154444107044469 0 7.5154444107044469 -3.4605788578481906 0 0 0 0 10.584268387405935 3.9976657419190245 0 3.9976657419190245 -5.5235805331305201 0 0 0 0 -72.939572597464846 -11.088968354466402 0 -11.088968354466402 22.755312784927924 0 0 0 0 24.221421194841781 21.716164265546311 0 21.716164265546311 3.267387236611853 0 0 0 0 -1.6570060892322402 -0.2541711725293887 0 -0.2541711725293887 1.2621424236321444 0 0 0 0 499.49191067705078 91.99841979570725 0 91.99841979570725 3.813906307771378 0 0 0 0 -0.81771888506464263 -3.1829500959811945 0 -3.1829500959811945 2.9764620356534182 0 0 0 0 26.432104262936718 25.499137697398247 0 25.499137697398247 -6.5710550855945371 0 0 0 0 74.146081841174237 19.581081243533049 0 19.581081243533049 -22.081845792180502 0 0 0 0 15.123507637301373 4.9714678687113576 0 4.9714678687113576 -17.844107748861575 0 0 0 0 -10.662933743551548 13.43984979229532 0 13.43984979229532 -11.260860289386869 0 0 0 0 -30.201886010466296 24.415929011928235 0 24.415929011928235 -10.807542894048652 0 0 0 0 2.1869397101327195 18.049495720861614 0 18.049495720861614 -15.999571560627999 0 0 0 0 -18.460260979418763 24.677917578344385 0 24.677917578344385 -18.542529712535838 0 0 0 0 -8.7990876141993795 16.211648222631311 0 16.211648222631311 -25.090991011870074 0 0 0 0 -3.7817624787705881 6.193280713832749 0 6.193280713832749 -10.112779840381677 0 0 0 0 -15.315440164178199 9.8945603708594092 0 9.8945603708594092 -12.954314672958617 0 0 0 0 -4.9271802599359944 15.856145355850686 0 15.856145355850686 -12.609000193636348 0 0 0 0 -1.4430046157322067 9.4261214072943176 0 9.4261214072943176 -24.648608149856159 0 0 0 0 -2.7761347220239259 -3.3919761180135595 0 -3.3919761180135595 6.5711375701874317 0 0 0 0 -0.54191494623810854 0.55953781330504881 0 0.55953781330504881 0.23741418090890654 0 0 0 0 -27.037086247881234 2.8731429337893815 0 2.8731429337893815 -14.252486007086873 0 0 0 0 7.3023682881676528 5.5615047600665299 0 5.5615047600665299 1.7900729843119023 0 0 0 0 -9.6559328355651814 12.85952394013043 0 12.85952394013043 -8.3313474488190877 0 0 0 0 8.8106907289168817 2.2642573488991289 0 2.2642573488991289 -1.3649174652072396 0 0 0 0 -2.1137120301592773 5.3474586267831103 0 5.3474586267831103 5.8670040894416573 0 0 0 0 -6.2259065880016351 50.818146460288546 0 50.818146460288546 -14.12057776652091 0 0 0 0 20.773262705843081 -18.403034145883126 0 -18.403034145883126 40.404339277851733 0 0 0 0 -0.88128355671148384 1.4752638738878403 0 1.4752638738878403 1.4657446053792618 0 0 0 0 7.9640953697598889 27.786250233682949 0 27.786250233682949 -8.7659722315819408 0 0 0 0 9.9157393840068835 24.325523824004904 0 24.325523824004904 -19.370987395856218 0 0 0 0 21.279506923470763 16.824995875802699 0 16.824995875802699 -14.73844329955125 0 0 0 0 13.450739328305644 22.195465809303982 0 22.195465809303982 -13.882670407492952 0 0 0 0 14.530609750614531 9.330075615599128 0 9.330075615599128 0.20462512053950377 0 0 0 0 4.5032046081323642 20.132118224674116 0 20.132118224674116 1.1730798823068653 0 0 0 0 -84.283388618319805 36.167432754777607 0 36.167432754777607 35.556983002955619 0 0 0 0 99.559694607745769 -14.348900598971582 0 -14.348900598971582 -24.411632365953324 0 0 0 0 0.2041739908131186 0.32456093434765521 0 0.32456093434765521 -0.5354750795033143 0 0 0 0 -2.6621373289490293 -6.6365764270287357 0 -6.6365764270287357 -0.6463538573735832 0 0 0 0 23.974902341876259 43.572508987096185 0 43.572508987096185 -34.730752912338119 0 0 0 0 13.198840503625433 4.113391067011321 0 4.113391067011321 26.335110688434952 0 0 0 0 14.988646041305174 14.974213970980252 0 14.974213970980252 0.95065060170145443 0 0 0 0 58.527678064767315 -12.771430270498513 0 -12.771430270498513 -25.846678801169446 0 0 0 0 71.861511890385373 6.8342365757211496 0 6.8342365757211496 2.6317727517620142 0 0 0 0 112.60116976567588 10.772035249668079 0 10.772035249668079 6.774338679663515 0 0 0 0 95.173698802947911 -1.8429337332790965 0 -1.8429337332790965 -0.25449197877142637 0 0 0 0 0.27589907375278599 0.053693155379942681 0 0.053693155379942681 0.015715959373483468 0 0 0 0 29.21423268286344 -8.8354964383667607 0 -8.8354964383667607 40.128590683818175 0 0 0 0 61.246022783561784 29.139439354704564 0 29.139439354704564 55.475898047223609 0 0 0 0 217.46482867832674 44.41517670914061 0 44.41517670914061 16.717224481533435 0 0 0 0 38.462376088207293 19.187131513180532 0 19.187131513180532 59.656595570477975 0 0 0 0 195.14653980195271 -37.726839504068863 0 -37.726839504068863 203.39967568435804 0 0 0 0 36.25125005269706 5.2688635927174516 0 5.2688635927174516 17.151219851711176 0 0 0 0 20.003224098440114 -14.573200645022609 0 -14.573200645022609 32.529526669029224 0 0 0 0 20.826286346737106 -13.912838908922652 0 -13.912838908922652 14.573468375003756 0 0 0 0 18.921623361823549 -9.7432696252043201 0 -9.7432696252043201 11.245088564685489 0 0 0 0 20.011738609067152 -9.0116394013309531 0 -9.0116394013309531 4.0900757168407154 0 0 0 0 11.993268545795218 -0.0080631866886449188 0 -0.0080631866886449188 -5.2745380237339532 0 0 0 0 10.467004175610782 2.4429678605935123 0 2.4429678605935123 7.3081072805863698 0 0 0 0 14.163601185480729 -4.4672926078156934 0 -4.4672926078156934 18.591986238664049 0 0 0 0 16.251804355621061 10.662772842213542 0 10.662772842213542 -9.7458684784480312 0 0 0 0 10.872218712409449 15.042097381902323 0 15.042097381902323 -5.2743890836931087 0 0 0 0 8.76812969770981 9.3986738456615058 0 9.3986738456615058 -20.252527897438597 0 0 0 0 -7.7666166043109115 10.072241539571593 0 10.072241539571593 -4.8886319785704586 0 0 0 0 6.5883993641973575 9.3562425069238202 0 9.3562425069238202 -9.1420221933194625 0 0 0 0 3.5811507429752965 -0.95005967200359009 0 -0.95005967200359009 -0.082401364973634372 0 0 0 0 3.384663619017374 20.826328368384338 0 20.826328368384338 -6.5183021851175624 0 0 0 0 -25.759267273260775 38.05181089141638 0 38.05181089141638 -20.219511007475834 0 0 0 0 13.890367725214674 19.026194720024932 0 19.026194720024932 -20.263631270161795 0 0 0 0 8.7985021506246994 24.946898371280327 0 24.946898371280327 -9.6780988763570122 0 0 0 0 35.105199563585757 22.816376617548642 0 22.816376617548642 -18.739238951541211 0 0 0 0 32.382269825881849 39.319012548922068 0 39.319012548922068 -6.5324339828673601 0 0 0 0 42.110960716983755 45.854206932653597 0 45.854206932653597 -17.166995166497827 0 0 0 0 24.760655219914042 37.593096981014241 0 37.593096981014241 -6.6381778084262706 0 0 0 0 0.97530943357621425 0.8921448486697372 0 0.8921448486697372 0.61027367116461362 0 0 0 0 5.2575016505688836 -32.860651882286348 0 -32.860651882286348 26.719524426013905 0 0 0 0 23.607284038404032 50.542434967764507 0 50.542434967764507 -8.6507537794369682 0 0 0 0 51.309096570748807 -8.8671833778692388 0 -8.8671833778692388 -14.302469694310162 0 0 0 0 -0.044286121956986335 0.060371284295978711 0 0.060371284295978711 -0.01168406360740315 0 0 0 0 -44.163441414875706 39.070963792650673 0 39.070963792650673 -11.023043388376266 0 0 0 0 -44.113290043722373 -44.501747348959157 0 -44.501747348959157 -6.6622897421818834 0 0 0 0 -38.000512234208145 12.929570038711006 0 12.929570038711006 -13.429224564061087 0 0 0 0 -1.3502368820245465 16.92564637184276 0 16.92564637184276 -21.476747076048923 0 0 0 0 0.74886467919749578 1.0769841727516187 0 1.0769841727516187 0.74114623526515011 0 0 0 0 60.033753296196664 32.535524431011055 0 32.535524431011055 -37.327679004184773 0 0 0 0 95.002731200992002 -39.835945507703194 0 -39.835945507703194 -1.1467957845569927 0 0 0 0 -105.08205485195504 34.514296534337063 0 34.514296534337063 32.983725418781205 0 0 0 0 18.751094687233081 6.5253147465434154 0 6.5253147465434154 -0.29642463953865517 0 0 0 0 -27.054902156469325 -8.0604722450663644 0 -8.0604722450663644 50.879673129555499 0 0 0 0 -90.434381330027009 -108.07020804340635 0 -108.07020804340635 52.909243516153765 0 0 0 0 40.140321929389756 21.214884803340397 0 21.214884803340397 -18.510173389196893 0 0 0 0 11.578718902987021 -31.174517149865324 0 -31.174517149865324 -22.655297757552717 0 0 0 0 26.931005808026384 -16.958190442001865 0 -16.958190442001865 -13.268957448459219 0 0 0 0 102.74837392486734 44.974153440046962 0 44.974153440046962 -19.39542466741284 0 0 0 0 174.39905034589174 -67.707760906319891 0 -67.707760906319891 -38.756240521789096 0 0 0 0 22.25490324346174 -169.70916134050947 0 -169.70916134050947 21.150295110409843 0 0 0 0 4.9655159702797498 1.1960010876466605 0 1.1960010876466605 1.3823437570615373 0 0 0 0 137.48516306120109 69.944916377133538 0 69.944916377133538 -61.768423250664107 0 0 0 0 40.947891357347544 -9.7082250818606326 0 -9.7082250818606326 -13.618072011156812 0 0 0 0 15.563154793599512 4.3779869946428915 0 4.3779869946428915 -0.86861068874249381 0 0 0 0 29.337471525428555 -3.0757133757719686 0 -3.0757133757719686 -6.7965635143731831 0 0 0 0 29.639100032417446 -12.404073559952593 0 -12.404073559952593 7.2852617776298416 0 0 0 0 13.856498497156281 12.013081761819851 0 12.013081761819851 -6.8098473103862318 0 0 0 0 54.276004382300016 10.176830945246223 0 10.176830945246223 -8.1895936375305567 0 0 0 0 4.3978452016344818 11.934228504245766 0 11.934228504245766 -5.2171992288745912 0 0 0 0 20.327238494703352 20.525073683829042 0 20.525073683829042 -13.928115673233886 0 0 0 0 20.283737983154424 15.274960861533891 0 15.274960861533891 3.5355919471096513 0 0 0 0 20.425433471507404 14.942189388003218 0 14.942189388003218 -5.660018199294484 0 0 0 0 -1.5859408384303606 23.85022356461991 0 23.85022356461991 9.9638437132343256 0 0 0 0 -66.210287792890085 14.098457839980256 0 14.098457839980256 37.387448176252747 0 0 0 0 51.236429850775494 -19.73990751082971 0 -19.73990751082971 6.7993381033408973 0 0 0 0 82.350833245585818 37.962422956132627 0 37.962422956132627 8.2671641800229736 0 0 0 0 10.194428110433105 4.6621577005879642 0 4.6621577005879642 0.55070337443059658 0 0 0 0 1.1666032321489332 0.18724011225139137 0 0.18724011225139137 -0.34141145237468518 0 0 0 0 25.722067357448395 22.886728777161522 0 22.886728777161522 -3.357866063489837 0 0 0 0 12.808128855194809 6.0298542567797995 0 6.0298542567797995 -0.48435100303322542 0 0 0 0 21.568924073806556 -6.3623180015724756 0 -6.3623180015724756 12.450358747306268 0 0 0 0 28.629402214675792 -14.718041093257682 0 -14.718041093257682 -8.0490385932576487 0 0 0 0 1.6199455090172705 -2.4069285711262296 0 -2.4069285711262296 -2.1678630796652669 0 0 0 0 4.3031591759118726 2.1300776332399991 0 2.1300776332399991 1.5955304102994377 0 0 0 0 36.898581246800404 26.802755399471167 0 26.802755399471167 -29.335043953825647 0 0 0 0 10.297031157070958 2.2479532345699518 0 2.2479532345699518 -0.8300140682047159 0 0 0 0 10.491099974758825 1.3019308484429954 0 1.3019308484429954 -1.4574072068990604 0 0 0 0 6.2446375415747752 -1.4653637066953706 0 -1.4653637066953706 -0.48518249120115797 0 0 0 0 38.104473988518293 -19.472364557470655 0 -19.472364557470655 -60.202767362625764 0 0 0 0 4.0744999115333265 0.36763891425449557 0 0.36763891425449557 -0.78202070669951751 0 0 0 0 3.6152739374656448 12.677603108765645 0 12.677603108765645 -4.8472381663216026 0 0 0 0 13.125503028417018 0.73995500862947772 0 0.73995500862947772 -0.83150679289621898 0 0 0 0 1.0607635592753795 2.0645044228028837 0 2.0645044228028837 -2.8994086360409455 0 0 0 0 -7.5955156388927207 7.6996920142183569 0 7.6996920142183569 0.72990964385223833 0 0 0 0 4.6062585030931587 3.0204398666525236 0 3.0204398666525236 9.6103190670168601 0 0 0 0 1.033068905060933 0.028331339535792921 0 0.028331339535792921 0.15519851186660971 0 0 0 0 57.934871277693674 -5.2754482414962354 0 -5.2754482414962354 -17.740860383349286 0 0 0 0 5.5948180975719879 12.066011942070531 0 12.066011942070531 -0.025842337621344136 0 0 0 0 39.967567163979766 12.501789182583991 0 12.501789182583991 -0.061553038872602883 0 0 0 0 8.0198839622826199 10.945072410174088 0 10.945072410174088 -0.52605717796396689 0 0 0 0 11.716697097569067 21.313417510940386 0 21.313417510940386 -5.6552229163895902 0 0 0 0 11.17813250861218 18.424558793229679 0 18.424558793229679 11.421038199473644 0 0 0 0 10.849871766956312 9.1167073194543491 0 9.1167073194543491 -4.987567840876352 0 0 0 0 12.277258825116675 6.9753812205204371 0 6.9753812205204371 2.2935090627847701 0 0 0 0 24.193988184890486 57.985776053301578 0 57.985776053301578 -22.225467569717736 0 0 0 0 161.91878437711148 37.13460973496808 0 37.13460973496808 -81.244378916436801 0 0 0 0 4.3330192728219572 40.447042723825426 0 40.447042723825426 75.173214896150967 0 0 0 0 70.919902272093623 -45.920053572831065 0 -45.920053572831065 -36.478497894891632 0 0 0 0 -12.895797187114113 -1.3477137843361788 0 -1.3477137843361788 38.235928605288706 0 0 0 0 4.411272742021346 3.0164343462842567 0 3.0164343462842567 -1.8212380850655596 0 0 0 0 22.672869861276375 7.9076598330968926 0 7.9076598330968926 -0.10315065877493501 0 0 0 0 -17.837235585479903 -21.216466044797585 0 -21.216466044797585 5.2591827979963099 0 0 0 0 11.582766188854066 9.9125891096630028 0 9.9125891096630028 -3.8928027710871902 0 0 0 0 -0.98917096886171185 7.3301375380915648 0 7.3301375380915648 -3.811387467021488 0 0 0 0 36.893889891636718 5.7718738932332485 0 5.7718738932332485 0.10366340049284872 0 0 0 0 40.377821000291533 6.3347581234952486 0 6.3347581234952486 -4.3306740640360459 0 0 0 0 11.582241111858531 9.8265578272444287 0 9.8265578272444287 -4.7965611848289882 0 0 0 0 39.483406574135529 3.2590819283276957 0 3.2590819283276957 0.14320849929879387 0 0 0 0 56.471065825547612 6.6532224698248967 0 6.6532224698248967 -7.7237656613452828 0 0 0 0 55.12003264613395 4.7422347741918713 0 4.7422347741918713 -2.2333842507322004 0 0 0 0 65.414049824257745 -17.819789993195343 0 -17.819789993195343 14.660371624417465 0 0 0 0 68.948793279470465 14.24593295390531 0 14.24593295390531 -4.1242651015142542 0 0 0 0 61.715853918772154 -10.202569248442217 0 -10.202569248442217 24.202106308246414 0 0 0 0 47.697460111248802 13.575085611919803 0 13.575085611919803 11.0784848346442 0 0 0 0 64.562659550173521 -6.2594506512691339 0 -6.2594506512691339 4.7200776933844892 0 0 0 0 45.870636223024292 8.2877202935799854 0 8.2877202935799854 -4.5372675503459732 0 0 0 0 62.644590131385542 27.453951611955652 0 27.453951611955652 -3.5850836701922617 0 0 0 0 37.389027781337973 12.962024739966864 0 12.962024739966864 -1.8505512506454238 0 0 0 0 1.5862404309052458 -0.24479674942260488 0 -0.24479674942260488 -0.57541092725069221 0 0 0 0 155.95877787888639 15.858280025601971 0 15.858280025601971 -5.1321044600756522 0 0 0 0 9.6334320284099704 -3.9443703401896499 0 -3.9443703401896499 11.471937841422431 0 0 0 0 11.668434459978016 8.0781393158091817 0 8.0781393158091817 -3.2049150687611956 0 0 0 0 11.780952144574087 8.601152387247458 0 8.601152387247458 -5.6746968916449987 0 0 0 0 7.7598116218972883 4.4966733514298722 0 4.4966733514298722 0.036921948618373057 0 0 0 0 14.410223911698267 7.5151078347408884 0 7.5151078347408884 -5.1563869735110757 0 0 0 0 23.041204582773844 -0.1412782803039363 0 -0.1412782803039363 -1.1769637959853867 0 0 0 0 1.2282006045977596 9.7890909556025534 0 9.7890909556025534 -4.2264483956537333 0 0 0 0 3.7374302757323314 -0.82091829116450032 0 -0.82091829116450032 0.14461916579769973 0 0 0 0 48.696320104983442 -2.7476079717391144 0 -2.7476079717391144 -0.91572286265892444 0 0 0 0 41.922451190122047 15.925018365384588 0 15.925018365384588 -9.3596396184211699 0 0 0 0 45.729389025825071 11.308372134815514 0 11.308372134815514 0.97385929833251339 0 0 0 0 51.396353729172915 13.205332689914769 0 13.205332689914769 -11.86419606901859 0 0 0 0 9.582106709142522 9.5881207745824355 0 9.5881207745824355 -5.0413811833943782 0 0 0 0 9.8713914257782562 9.6728459936605304 0 9.6728459936605304 -8.5813489058558616 0 0 0 0 10.401255532999585 8.6200726263684899 0 8.6200726263684899 -6.1632039214716485 0 0 0 0 10.409084022336174 8.7127280703530516 0 8.7127280703530516 -4.3886270246712513 0 0 0 0 10.456665544448015 8.8505402353494986 0 8.8505402353494986 -5.3744955599284054 0 0 0 0 10.205093029282125 8.0101645982929313 0 8.0101645982929313 -5.5139383806382511 0 0 0 0 9.8336372694016063 8.2988619735459679 0 8.2988619735459679 -5.7381172773773415 0 0 0 0 10.457901295460488 9.518409005819251 0 9.518409005819251 -6.3089460951100023 0 0 0 0 10.300196908883663 7.2160386263078067 0 7.2160386263078067 -3.5390339178518389 0 0 0 0 12.236816651949084 9.094436716326129 0 9.094436716326129 -4.9380060091064024 0 0 0 0 10.337052064986153 9.1154877870433779 0 9.1154877870433779 -4.1642676272876997 0 0 0 0 8.0240215478415848 8.3638031843183853 0 8.3638031843183853 -4.2460783397771138 0 0 0 0 9.2228739329984819 7.9291512783956932 0 7.9291512783956932 -5.4250649543766372 0 0 0 0 9.1056569240807903 8.1235118407547873 0 8.1235118407547873 -4.480354641428562 0 0 0 0 7.6865765948327862 7.6171937034194173 0 7.6171937034194173 -4.9928697021931754 0 0 0 0 8.1177041701762391 10.591663604605117 0 10.591663604605117 -6.7631616381567525 0 0 0 0 11.977605592973759 12.024226681965047 0 12.024226681965047 -10.819859060069035 0 0 0 0 8.393394542792155 5.1201008476870387 0 5.1201008476870387 1.8897532490160129 0 0 0 0 8.868922305423439 8.36962008346228 0 8.36962008346228 -6.2157229347600378 0 0 0 0 11.453333324393983 4.9563891714119857 0 4.9563891714119857 2.4239696033841827 0 0 0 0 9.0095395370447022 7.0773366361139267 0 7.0773366361139267 -7.2980289054741547 0 0 0 0 10.232840355693043 8.2011502891676624 0 8.2011502891676624 -8.2174913264308742 0 0 0 0 -39.126795242596927 51.647421108964025 0 51.647421108964025 56.691886454032044 0 0 0 0 6.6778861811206411 6.2140661579814918 0 6.2140661579814918 0.15288643816223679 0 0 0 0 11.417779988734765 2.3839373173096945 0 2.3839373173096945 -1.2357705944058939 0 0 0 0 15.913365857568351 -17.894625798082878 0 -17.894625798082878 -31.346202237048487 0 0 0 0 -36.107920688769809 10.124337763313576 0 10.124337763313576 27.762237717183666 0 0 0 0 0.5971026597133644 0.27344213195254596 0 0.27344213195254596 0.074452600247376322 0 0 0 0 50.873615594726289 14.501142479401068 0 14.501142479401068 -14.917254935365037 0 0 0 0 48.941327524476947 -5.0366627204063832 0 -5.0366627204063832 -12.660062791871951 0 0 0 0 56.196140323798318 -8.4913364951414394 0 -8.4913364951414394 -21.957539049562968 0 0 0 0 -42.414672895949479 19.237582177749417 0 19.237582177749417 21.536248074638422 0 0 0 0 9.314766375385366 6.2666066409726646 0 6.2666066409726646 0.84152533280085784 0 0 0 0 20.255389346050833 -1.9532640134577148 0 -1.9532640134577148 -0.98185864587199134 0 0 0 0 -0.47000742311593058 10.449259950647448 0 10.449259950647448 6.5798528558147993 0 0 0 0 51.533835861348052 41.275293508530922 0 41.275293508530922 -19.050782362714855 0 0 0 0 8.4428687106135385 26.557042501155806 0 26.557042501155806 -20.724034403638996 0 0 0 0 -0.15192159168644803 0.69171666020556799 0 0.69171666020556799 -1.7789619447391938 0 0 0 0 60.229991509169849 3.2615775450540454 0 3.2615775450540454 6.2860936197899093 0 0 0 0 51.957161221447677 4.5477216706685226 0 4.5477216706685226 10.597620222123822 0 0 0 0 50.739384418948504 9.0691398145568876 0 9.0691398145568876 42.963029727773687 0 0 0 0 69.220278000979306 -16.152451905483446 0 -16.152451905483446 -45.727258607620911 0 0 0 0 51.53250380110876 -33.537926937548221 0 -33.537926937548221 -6.4230817992072957 0 0 0 0 29.62606791163671 10.666321113531993 0 10.666321113531993 -11.913928300736906 0 0 0 0 25.261209583550226 -11.492847565358829 0 -11.492847565358829 -10.254182262764402 0 0 0 0 38.493951617240782 -0.074813832239357225 0 -0.074813832239357225 -20.914999859641807 0 0 0 0 34.641951315754341 -6.4411074735259604 0 -6.4411074735259604 -12.285967130375525 0 0 0 0 3.5718909050775647 -0.10599416456175703 0 -0.10599416456175703 -2.8706428269789286 0 0 0 0 22.984175964644237 25.97872006105791 0 25.97872006105791 -34.544955176691715 0 0 0 0 9.9917098615088431 4.5474416693708175 0 4.5474416693708175 -1.8967455246400875 0 0 0 0 48.965016391335666 16.664919285390084 0 16.664919285390084 -56.340407941810412 0 0 0 0 38.134764674348844 -4.2088848364666802 0 -4.2088848364666802 -11.741853627723266 0 0 0 0 19.855459962070654 -4.0226810319211399 0 -4.0226810319211399 6.0872259292082447 0 0 0 0 18.296452175368358 13.62449444744135 0 13.62449444744135 -14.994682087868 0 0 0 0 7.1623799794706429 21.426628244178346 0 21.426628244178346 -11.664862544150083 0 0 0 0 2.8870421899011856 0.32058012201646324 0 0.32058012201646324 -1.3720471841758068 0 0 0 0 15.938925751085662 14.775883062091339 0 14.775883062091339 -12.625466139720174 0 0 0 0 17.909887276520976 12.691028039677654 0 12.691028039677654 -14.044195763599419 0 0 0 0 17.645123803713432 10.476423187159817 0 10.476423187159817 -10.196262711261625 0 0 0 0 14.775731779056514 13.152910669150685 0 13.152910669150685 -10.531079350612799 0 0 0 0 12.076183323073565 10.558464335726171 0 10.558464335726171 -8.5303454685961242 0 0 0 0 23.867821267353065 -0.78302429861878409 0 -0.78302429861878409 6.4487908288290328 0 0 0 0 17.6552788755323 6.3303259637522107 0 6.3303259637522107 -1.8393115937299451 0 0 0 0 16.674341671983711 14.510269121850115 0 14.510269121850115 -14.057331177826313 0 0 0 0 6.8276357691429439 16.598073214505803 0 16.598073214505803 -12.936425901572647 0 0 0 0 4.4519042549116135 -0.96643628271250037 0 -0.96643628271250037 0.18006084904435071 0 0 0 0 20.083230989227921 0.0012186524817341393 0 0.0012186524817341393 -2.9737175323076181 0 0 0 0 28.962638288006019 -1.4928592260495748 0 -1.4928592260495748 -5.7282798454868953 0 0 0 0 5.969008479129851 -0.93389070331459578 0 -0.93389070331459578 1.8329178999239966 0 0 0 0 22.981673442676538 -6.4068858971900298 0 -6.4068858971900298 -6.8196565974485566 0 0 0 0 1.1714735098357778 13.175175994173564 0 13.175175994173564 4.4254389279141222 0 0 0 0 73.871772338561641 48.844542700549695 0 48.844542700549695 -6.9060913445161205 0 0 0 0 16.63289182364224 38.815247220645198 0 38.815247220645198 46.435640474876607 0 0 0 0 39.465573333107386 -40.636483290005025 0 -40.636483290005025 40.806995978648203 0 0 0 0 0.38828644854086392 -1.3385017523112879 0 -1.3385017523112879 2.0210188232419255 0 0 0 0 18.292235733679263 -0.16636527141264423 0 -0.16636527141264423 -8.3814241479731209 0 0 0 0 49.363008051985162 -38.618478090226574 0 -38.618478090226574 -67.260221648704999 0 0 0 0 1.668641974954042 -0.01896445661243007 0 -0.01896445661243007 0.17167137029373108 0 0 0 0 78.537786320372106 -62.338934953947849 0 -62.338934953947849 44.875247293409032 0 0 0 0 30.023790559416739 -17.598715846958285 0 -17.598715846958285 22.666689689066629 0 0 0 0 2.0178689176802607 -0.90689756734317051 0 -0.90689756734317051 1.4569897545752064 0 0 0 0 99.80167644166977 -74.932808161517528 0 -74.932808161517528 -31.582115609390311 0 0 0 0 139.9674003511027 14.666067432278453 0 14.666067432278453 -5.0464817173684651 0 0 0 0 161.34436614647348 -35.161658518598614 0 -35.161658518598614 -99.08710255987404 0 0 0 0 89.676073252692731 25.57832659519087 0 25.57832659519087 -11.81822925354205 0 0 0 0 7.5265448158697836 11.334237012119569 0 11.334237012119569 22.682047859727565 0 0 0 0 -6.0957028372049535 38.354267887110083 0 38.354267887110083 -20.180847835221741 0 0 0 0 -15.739312293471812 0.60454544576288072 0 0.60454544576288072 -8.3627005024743291 0 0 0 0 107.25611589056234 -1.9656672696558766 0 -1.9656672696558766 -24.505174984077769 0 0 0 0 2.241918692016867 0.59545657951200504 0 0.59545657951200504 -0.0066902708870689442 0 0 0 0 0.77414586557279108 109.1313176131554 0 109.1313176131554 40.851124363064486 0 0 0 0 133.88521807582265 33.509266641580069 0 33.509266641580069 -30.607928751277282 0 0 0 0 103.93343011731258 -7.6040574402925092 0 -7.6040574402925092 -49.876327529063218 0 0 0 0 35.972706972574088 -3.4412901600348107 0 -3.4412901600348107 -34.442705440140344 0 0 0 0 9.6544837637056844 -11.719418816386607 0 -11.719418816386607 9.2085979475677959 0 0 0 0 26.574397489495823 -5.4133043633141256 0 -5.4133043633141256 -38.123834187260364 0 0 0 0 -7.9217626898334856 -25.233239711561922 0 -25.233239711561922 -21.781903120020615 0 0 0 0 0.42554552094789955 -0.52997164008872133 0 -0.52997164008872133 0.6967489050539184 0 0 0 0 -23.012102816539482 -110.08198587749618 0 -110.08198587749618 11.868712339541645 0 0 0 0 19.031981545493181 -134.36142259704496 0 -134.36142259704496 3.4609509387355075 0 0 0 0 10.752919071959241 1.1741915301603179 0 1.1741915301603179 -29.233434286426274 0 0 0 0 52.885654887177225 -16.82756607440237 0 -16.82756607440237 -24.464740589090127 0 0 0 0 208.85978397339568 0.59437479965578177 0 0.59437479965578177 -22.693150342659806 0 0 0 0 42.525463057594607 44.12224366227224 0 44.12224366227224 53.873997661893043 0 0 0 0 110.5035248584154 -29.063302330247751 0 -29.063302330247751 -13.483419600243792 0 0 0 0 114.86691772552967 -12.109624550632049 0 -12.109624550632049 9.9528165068024919 0 0 0 0 55.315469530591145 -36.527289850803491 0 -36.527289850803491 38.317413141071825 0 0 0 0 42.084069145264039 16.871672738430902 0 16.871672738430902 60.383949090706722 0 0 0 0 81.41249682911166 23.106756459453663 0 23.106756459453663 9.25384278111801 0 0 0 0 18.008626545679363 54.794131627733435 0 54.794131627733435 -1.3870017725369905 0 0 0 0 62.974582288237798 -101.98967788017654 0 -101.98967788017654 -1.7953258814965807 0 0 0 0 1.4523647351209377 0.22082525095570915 0 0.22082525095570915 -0.10003658561263085 0 0 0 0 30.137191520307169 -35.600524651392305 0 -35.600524651392305 -25.98524491371802 0 0 0 0 40.952256797889277 -26.370759867182187 0 -26.370759867182187 -18.980712711173339 0 0 0 0 13.715863961315335 -3.209438622053483 0 -3.209438622053483 32.213792034562857 0 0 0 0 -12.705209964964524 -27.43002489198625 0 -27.43002489198625 10.031546617012339 0 0 0 0 33.097355504619372 -27.322035482091536 0 -27.322035482091536 11.171267958845704 0 0 0 0 24.299613334749665 -30.967978841624472 0 -30.967978841624472 45.178867362650408 0 0 0 0 -7.844778836799378 4.8268503934687601 0 4.8268503934687601 38.645917652163973 0 0 0 0 0.95124965213916823 0.27259334546505443 0 0.27259334546505443 0.14781945719383982 0 0 0 0 50.763597842062154 -66.351659235837019 0 -66.351659235837019 65.530954978566825 0 0 0 0 79.11980642607341 -11.756569580344205 0 -11.756569580344205 30.857167251515605 0 0 0 0 76.676840839825672 -50.908848600765126 0 -50.908848600765126 -38.454047571472188 0 0 0 0 -1.0639450410453719 37.8994822198338 0 37.8994822198338 19.85417206141878 0 0 0 0 0.74668831831765203 0.26142640195256739 0 0.26142640195256739 -0.15806238576622106 0 0 0 0 2.3275657529738965 8.5594129297541883 0 8.5594129297541883 -30.477835532145832 0 0 0 0 4.748839215215412 20.754250134805432 0 20.754250134805432 -1.1089298624264785 0 0 0 0 19.345722827638383 -15.540589640072938 0 -15.540589640072938 -52.413530544982933 0 0 0 0 -10.805155182109957 61.641066614441456 0 61.641066614441456 27.439490793338337 0 0 0 0 0.29967369504125685 0.068756708170744751 0 0.068756708170744751 -0.045724030592901421 0 0 0 0 64.252731414543632 -68.30222162091016 0 -68.30222162091016 36.056286256408725 0 0 0 0 3.8470339943505678 -87.567210282191752 0 -87.567210282191752 30.315460406801208 0 0 0 0 77.871416108529957 -100.16501756439209 0 -100.16501756439209 -2.739720430647651 0 0 0 0 1.3323474600566456 -0.26320544331952078 0 -0.26320544331952078 0.01291804931758922 0 0 0 0 115.99817271614666 56.92184297193586 0 56.92184297193586 -4.4147974472853093 0 0 0 0 155.6118935172999 -87.202979540610954 0 -87.202979540610954 -1.207708096713759 0 0 0 0 290.57244052663009 -41.320813453609844 0 -41.320813453609844 -43.024098490764345 0 0 0 0 153.85586801849422 -42.576422443631827 0 -42.576422443631827 -29.716220277228217 0 0 0 0 83.233204200081673 -89.48093377525322 0 -89.48093377525322 2.2427965276539226 0 0 0 0 150.99251921480027 -56.066687335154199 0 -56.066687335154199 -10.83528240830185 0 0 0 0 97.265036745004181 -44.753227180078795 0 -44.753227180078795 -8.2315904746909325 0 0 0 0 150.18279261937914 -51.658379943009919 0 -51.658379943009919 -7.8360715018768587 0 0 0 0 96.39569876673977 -40.605719415521364 0 -40.605719415521364 -0.98129912147840059 0 0 0 0 92.440216036342463 -36.580783656648066 0 -36.580783656648066 -0.64462523832537499 0 0 0 0 32.143335507407755 -17.910017068784896 0 -17.910017068784896 65.318662942773528 0 0 0 0 53.182989562867078 -51.144093512093264 0 -51.144093512093264 29.066217391529221 0 0 0 0 0.067000177445812881 0.076089210103180704 0 0.076089210103180704 0.1444063801844786 0 0 0 0 33.104230314198503 -20.90034186514626 0 -20.90034186514626 -14.04597190236791 0 0 0 0 -11.861753597893767 23.76753274755373 0 23.76753274755373 0.016093511052730491 0 0 0 0 -9.4972618858209898 28.174153427420435 0 28.174153427420435 -16.668680714133984 0 0 0 0 0.010766022247414853 -0.044804099226915639 0 -0.044804099226915639 -0.16891472163800825 0 0 0 0 6.0512262192833077 1.7773466188478295 0 1.7773466188478295 -9.715171629097199 0 0 0 0 36.170621827197465 7.8108941489938957 0 7.8108941489938957 -29.397059542366918 0 0 0 0 -3.6742899162491085 9.7815367181704005 0 9.7815367181704005 11.246747330286553 0 0 0 0 22.442274495673701 -8.4237886427530526 0 -8.4237886427530526 3.9376330071305574 0 0 0 0 38.356478762290863 -16.905025484843094 0 -16.905025484843094 26.625651636206612 0 0 0 0 33.150833575800789 -5.1711501096164056 0 -5.1711501096164056 4.9255684579572687 0 0 0 0 65.34094620225369 30.236595758948908 0 30.236595758948908 15.257249437823148 0 0 0 0 11.980597077139464 42.886734276548481 0 42.886734276548481 48.365723334973609 0 0 0 0 22.794351967879265 36.526514715772095 0 36.526514715772095 2.7483909811625153 0 0 0 0 10.018361229069342 18.244094043818222 0 18.244094043818222 25.718922967217338 0 0 0 0 0.81761687935085092 0.27336934526564693 0 0.27336934526564693 -0.16805227804057921 0 0 0 0 16.720735598775718 1.9419943834309379 0 1.9419943834309379 -1.4648573111412873 0 0 0 0 3.6071887370408149 18.155589403701214 0 18.155589403701214 16.307311924493092 0 0 0 0 10.533544181023899 14.947397025621342 0 14.947397025621342 8.0270953722382501 0 0 0 0 -4.8009374135835969 8.7084487949827007 0 8.7084487949827007 13.022489064068054 0 0 0 0 47.685534273483427 -10.812223196508882 0 -10.812223196508882 4.4153646267182012 0 0 0 0 18.719747357299639 24.274456645680232 0 24.274456645680232 11.134067996808596 0 0 0 0 3.0240831658575189 -4.7455198967631986 0 -4.7455198967631986 -0.09491339232295104 0 0 0 0 6.2064397778831335 0.50755837560086547 0 0.50755837560086547 7.2483788062928625 0 0 0 0 -8.2866127456128424 8.7686523561516729 0 8.7686523561516729 6.4421306082371075 0 0 0 0 2.7405053908514532 1.0033283682710845 0 1.0033283682710845 0.35884301349628078 0 0 0 0 2.9045806424837792 20.277444440734996 0 20.277444440734996 -3.540132259912923 0 0 0 0 28.407283088186887 -26.814235449186853 0 -26.814235449186853 17.406378379742264 0 0 0 0 28.041379013312508 -35.645363964313454 0 -35.645363964313454 24.056035626041876 0 0 0 0 4.3349102119671699 1.7157966075436963 0 1.7157966075436963 0.5517444085552321 0 0 0 0 12.541300707081973 -4.3477451318950671 0 -4.3477451318950671 -14.154441086833003 0 0 0 0 15.673632386216923 -5.9429654741872753 0 -5.9429654741872753 -1.4343209093116229 0 0 0 0 11.303472643927307 12.734843530972341 0 12.734843530972341 -20.15165287348961 0 0 0 0 43.975116227229591 -3.9369218061299591 0 -3.9369218061299591 -24.824479075508236 0 0 0 0 -4.3631786521546019 -1.8574038091992406 0 -1.8574038091992406 9.5918485118151011 0 0 0 0 25.99261065376686 -13.576492780607651 0 -13.576492780607651 -3.079976775035675 0 0 0 0 0.11319536120183571 0.25286346263907689 0 0.25286346263907689 0.22699256311415672 0 0 0 0 18.560114366709968 4.1647689474173717 0 4.1647689474173717 -3.0061035368474904 0 0 0 0 6.9550939098862727 1.9941375329771347 0 1.9941375329771347 -7.2180008315650639 0 0 0 0 3.5177009743638337 21.971401268342731 0 21.971401268342731 2.0200426383839556 0 0 0 0 -0.076606055053808575 -0.051855779872120422 0 -0.051855779872120422 -0.37069730979776638 0 0 0 0 13.617835861952699 9.7758191039747544 0 9.7758191039747544 3.2807041368643866 0 0 0 0 19.711975391343003 -20.132000391758027 0 -20.132000391758027 -13.14450015450825 0 0 0 0 1.4370937653693545 16.879210441205174 0 16.879210441205174 0.32597048891087432 0 0 0 0 15.892426785083444 -0.61678688776180479 0 -0.61678688776180479 -8.9852134157798673 0 0 0 0 5.0091241161744158 2.1793437777209501 0 2.1793437777209501 1.1975298136029537 0 0 0 0 1.6376840256248428 0.045031576172384291 0 0.045031576172384291 -0.062761329986813053 0 0 0 0 6.8022585629551031 -3.4256215882038816 0 -3.4256215882038816 -1.2613932283497888 0 0 0 0 -0.64622708786191652 -3.8944981482500793 0 -3.8944981482500793 0.9561959339661712 0 0 0 0 6.2360732656670734 -2.8973248424972695 0 -2.8973248424972695 8.1144505533299593 0 0 0 0 8.5516987568262266 -1.7288255672542334 0 -1.7288255672542334 0.11618297240414677 0 0 0 0 -23.529670559095393 14.157697535618638 0 14.157697535618638 36.630216920468172 0 0 0 0 -26.783435512417782 -29.625211300180226 0 -29.625211300180226 80.28441742125699 0 0 0 0 78.461075325007187 -33.969264445926342 0 -33.969264445926342 15.360032250808146 0 0 0 0 29.989336969935266 -9.7029026644427994 0 -9.7029026644427994 8.0545716774864786 0 0 0 0 19.406451039671083 -16.096219093739364 0 -16.096219093739364 20.59110688567236 0 0 0 0 30.478846736052219 -12.367082015386472 0 -12.367082015386472 12.06745471759848 0 0 0 0 11.590253997201216 -12.250324826181384 0 -12.250324826181384 18.698767156956592 0 0 0 0 22.5176579923791 -11.292574967942841 0 -11.292574967942841 6.564135109265294 0 0 0 0 20.946215805281099 -7.0361441493126762 0 -7.0361441493126762 9.1036294838623348 0 0 0 0 27.154090096335494 -7.7227321514034486 0 -7.7227321514034486 5.2099484030832741 0 0 0 0 22.256579942368262 -10.050328792894277 0 -10.050328792894277 7.9501248401101066 0 0 0 0 21.75605935187923 -8.550801912770936 0 -8.550801912770936 3.4627197281185431 0 0 0 0 16.844323956560402 -10.197916898362053 0 -10.197916898362053 8.5173985008727016 0 0 0 0 58.090688891294121 -1.3426410752931304 0 -1.3426410752931304 1.943340743166118 0 0 0 0 41.912121554254554 -12.102808092914614 0 -12.102808092914614 8.0160067318886803 0 0 0 0 26.489180073758689 -6.3388237363969466 0 -6.3388237363969466 8.8546446847299194 0 0 0 0 41.307128042000841 -5.4230186454112754 0 -5.4230186454112754 3.0275873085373632 0 0 0 0 41.751762049099852 12.129729838921225 0 12.129729838921225 4.8935565729589712 0 0 0 0 55.065213729739298 9.4114698837100015 0 9.4114698837100015 0.8502777237078476 0 0 0 0 39.482282456199755 -3.4578509796782839 0 -3.4578509796782839 2.1973993203623436 0 0 0 0 26.516678260974004 -3.284856311899091 0 -3.284856311899091 4.0016786195885032 0 0 0 0 29.056725373578956 -4.457539838491499 0 -4.457539838491499 1.5954651613358521 0 0 0 0 20.757014608592726 -2.0431847490859099 0 -2.0431847490859099 1.8058110056171586 0 0 0 0 32.902402921820794 4.8266828523944589 0 4.8266828523944589 1.4503729799457972 0 0 0 0 17.387669391646341 -10.010554207671248 0 -10.010554207671248 5.268646562709165 0 0 0 0 17.672610219056878 -9.7972990245574749 0 -9.7972990245574749 2.5150564894818217 0 0 0 0 28.383547701510906 -7.38244879722631 0 -7.38244879722631 1.5388923540780297 0 0 0 0 22.315875828775461 -5.7415622684825962 0 -5.7415622684825962 1.9540453335760617 0 0 0 0 21.577213353597472 -7.8816666751559694 0 -7.8816666751559694 0.72611868078087127 0 0 0 0 9.9943855025653647 -7.1351347643247429 0 -7.1351347643247429 1.4452714385816421 0 0 0 0 13.739363232911273 -9.5403522368797269 0 -9.5403522368797269 0.77018518312277706 0 0 0 0 13.553225139585265 -9.6340473698924711 0 -9.6340473698924711 2.8549270105537943 0 0 0 0 7.0613611067871993 -2.5691194327515134 0 -2.5691194327515134 -0.040842685624765229 0 0 0 0 11.920726728123554 -10.301029838589528 0 -10.301029838589528 6.258066276657928 0 0 0 0 11.767360208286846 -9.6544814023339143 0 -9.6544814023339143 4.0532694509044518 0 0 0 0 8.8252665993131814 -9.0577783904080889 0 -9.0577783904080889 4.1687039204051644 0 0 0 0 8.5608603728180697 -7.0089700777689288 0 -7.0089700777689288 2.4033605464321397 0 0 0 0 6.7168401086676113 -4.8719637125727733 0 -4.8719637125727733 0.9316444029415436 0 0 0 0 0.38629215919354465 -1.6702599686930455 0 -1.6702599686930455 0.62240443585278626 0 0 0 0 7.6206239374873803 -3.8976511498441688 0 -3.8976511498441688 0.0040709564672738452 0 0 0 0 7.8671803603388071 -6.5575613160517943 0 -6.5575613160517943 5.066925375486278 0 0 0 0 10.495887566365127 -11.111133095269167 0 -11.111133095269167 9.4693619486849983 0 0 0 0 16.730302085182302 -9.5413130512463127 0 -9.5413130512463127 4.74599199246029 0 0 0 0 7.5714260667277813 -9.5003958784903517 0 -9.5003958784903517 5.8444350312836377 0 0 0 0 8.9407162243442144 -6.9420079648950832 0 -6.9420079648950832 3.9041423317861756 0 0 0 0 31.339706363343794 -46.022596720469792 0 -46.022596720469792 30.122903159455667 0 0 0 0 23.665840272591595 -27.127107053701152 0 -27.127107053701152 19.484379548837154 0 0 0 0 40.188233577031497 -28.663417172744666 0 -28.663417172744666 -3.8436536132557837 0 0 0 0 -11.197828349449992 -61.386244714392831 0 -61.386244714392831 95.56272179896277 0 0 0 0 0.12310070905251536 -0.31024258634835533 0 -0.31024258634835533 0.39780027372958815 0 0 0 0 36.453697185828787 20.107398108918964 0 20.107398108918964 11.307339927750718 0 0 0 0 58.773231340815073 15.841819266119597 0 15.841819266119597 4.5562607454850337 0 0 0 0 22.247286450952743 18.899225581728061 0 18.899225581728061 15.335937192583799 0 0 0 0 25.10799662808131 8.6865593484946118 0 8.6865593484946118 5.9920252788857056 0 0 0 0 37.52748008108756 9.5971103673630296 0 9.5971103673630296 3.689812222125866 0 0 0 0 28.939952998669469 9.4980097534771772 0 9.4980097534771772 4.6895158690586527 0 0 0 0 14.063294359366409 14.226641725832167 0 14.226641725832167 16.557423919089175 0 0 0 0 0.96970975272838444 0.21352752637667294 0 0.21352752637667294 -0.0046985544383019023 0 0 0 0 -18.413100968078652 43.440395271828777 0 43.440395271828777 8.7920642558809732 0 0 0 0 3.3092814584888401 56.85977932196306 0 56.85977932196306 -47.108469652831403 0 0 0 0 -20.216639304739886 93.677245673584608 0 93.677245673584608 -19.068725646109158 0 0 0 0 4.605038477135281 -4.9171889431688314 0 -4.9171889431688314 -32.865463673700845 0 0 0 0 1.2165518450210335 -0.27793142022323636 0 -0.27793142022323636 0.22247104559524383 0 0 0 0 9.991950712603284 4.3822768300888981 0 4.3822768300888981 -2.1545566399548264 0 0 0 0 7.3632238013524329 3.1535371564770074 0 3.1535371564770074 1.1011625633077529 0 0 0 0 10.48615363893623 5.7792690667619802 0 5.7792690667619802 1.7314977420676456 0 0 0 0 17.275106897341175 6.2640869447320995 0 6.2640869447320995 0.6999727970033689 0 0 0 0 6.8693281289270089 7.1140644790560117 0 7.1140644790560117 11.425922230757045 0 0 0 0 16.574686291678518 6.3655959120627159 0 6.3655959120627159 6.1255150786404755 0 0 0 0 24.468106745818659 4.6998937217422707 0 4.6998937217422707 -1.0512846320212361 0 0 0 0 15.696443346854721 2.6953739247272992 0 2.6953739247272992 -0.64811658231354841 0 0 0 0 14.200625683351973 1.6787922412693987 0 1.6787922412693987 -3.973324826301436 0 0 0 0 16.970639208491775 2.3630511751727497 0 2.3630511751727497 -4.7004395361984876 0 0 0 0 15.68489887384203 -3.2084931182691472 0 -3.2084931182691472 -9.4869660463591714 0 0 0 0 -12.418123464668497 3.5705309496961632 0 3.5705309496961632 -14.240692189243532 0 0 0 0 6.968596583674497 -1.3411460728319495 0 -1.3411460728319495 -0.62931898147049337 0 0 0 0 13.334274660324809 -4.0975629813282719 0 -4.0975629813282719 -10.614021014069049 0 0 0 0 7.3893356712360401 -2.7096052324898352 0 -2.7096052324898352 -4.3343016954843563 0 0 0 0 1.3715699650326663 -3.4722679833597483 0 -3.4722679833597483 -1.0210603452536913 0 0 0 0 7.4025729277454957 -2.4728132257793582 0 -2.4728132257793582 -6.085684799700914 0 0 0 0 11.240204547896383 16.98344476831431 0 16.98344476831431 2.6998670650383616 0 0 0 0 7.8702672437648289 3.5015080687937683 0 3.5015080687937683 -1.3509409566521384 0 0 0 0 -0.56610780314847631 0.50940174001412952 0 0.50940174001412952 0.17101788816415717 0 0 0 0 6.6377983496574409 -0.24506269064491004 0 -0.24506269064491004 -0.24572882141533101 0 0 0 0 10.996557757592434 -3.1429985967295204 0 -3.1429985967295204 -1.136154392491924 0 0 0 0 15.65228497289354 -6.1063897348756768 0 -6.1063897348756768 -9.5423976680724678 0 0 0 0 14.720380575534364 -9.6077624904586258 0 -9.6077624904586258 -7.7422779621459057 0 0 0 0 11.111818449589009 -6.4707105260689772 0 -6.4707105260689772 -4.8135338643414798 0 0 0 0 12.985795163756848 -9.9509589029184298 0 -9.9509589029184298 0.92228398712526882 0 0 0 0 13.763788135623145 -7.4852792497078564 0 -7.4852792497078564 -1.9633963386811786 0 0 0 0 17.866422868399241 -10.464880238793199 0 -10.464880238793199 0.048688160221530552 0 0 0 0 15.989638106744678 -7.4368282886625252 0 -7.4368282886625252 -1.0746556027708039 0 0 0 0 17.038982823045444 -5.506921138397006 0 -5.506921138397006 -0.29886282912377737 0 0 0 0 13.511621175392065 -5.7698551378868927 0 -5.7698551378868927 -2.1918501351481439 0 0 0 0 16.940745539628551 -4.8876728442728137 0 -4.8876728442728137 -5.0578304688798283 0 0 0 0 14.819996095218812 -9.8370243105426525 0 -9.8370243105426525 -5.2292640807760051 0 0 0 0 20.765631607377145 1.8949044555006793 0 1.8949044555006793 1.42679667262709 0 0 0 0 24.960474932897341 -1.7686368506512409 0 -1.7686368506512409 -2.17865967725362 0 0 0 0 16.453642093281815 -1.1042607610744284 0 -1.1042607610744284 -1.9900964788880202 0 0 0 0 18.764601924103772 -6.1287610858114263 0 -6.1287610858114263 -4.2220965276433446 0 0 0 0 20.750629067644695 -0.92599540406499159 0 -0.92599540406499159 -6.3296605180767784 0 0 0 0 13.618314916988311 -1.8996828014853939 0 -1.8996828014853939 -10.285815799653779 0 0 0 0 14.41581057732401 -0.26052916704657036 0 -0.26052916704657036 -6.2112259349722549 0 0 0 0 16.855515271936383 -2.3553508741895577 0 -2.3553508741895577 -10.069300501298486 0 0 0 0 5.0327025035730912 -3.9419120531466163 0 -3.9419120531466163 -9.2699263296626437 0 0 0 0 12.621843422453821 -8.980575780221038 0 -8.980575780221038 -5.5257964314640304 0 0 0 0 8.8609302171971649 -5.4567366038096026 0 -5.4567366038096026 -5.0974579647414568 0 0 0 0 13.664361352472042 -7.2260932502239896 0 -7.2260932502239896 -10.286290042899708 0 0 0 0 -1.1873692847439088 -17.8442603479313 0 -17.8442603479313 -16.946497658620089 0 0 0 0 2.3522190560862377 0.50178822196693318 0 0.50178822196693318 -0.59946782473457194 0 0 0 0 11.173929648832654 -1.9713685595762058 0 -1.9713685595762058 -2.3272893280716289 0 0 0 0 8.2737519387390037 0.086594948175759967 0 0.086594948175759967 -1.3065940517026056 0 0 0 0 26.936205156649521 3.4761194935259709 0 3.4761194935259709 3.2907769102630482 0 0 0 0 11.736590649644768 -0.98674019025190773 0 -0.98674019025190773 -0.7655599393204966 0 0 0 0 7.4336346727424409 -3.265639006985344 0 -3.265639006985344 -0.86024718049735327 0 0 0 0 26.718133660494345 2.585250903168145 0 2.585250903168145 3.3707337614262087 0 0 0 0 25.63700807333862 16.622692889132622 0 16.622692889132622 15.569227440314421 0 0 0 0 20.21521224862181 7.2090532920166197 0 7.2090532920166197 7.2955280698486149 0 0 0 0 7.4889608860439694 6.5593835651521886 0 6.5593835651521886 14.692453636345135 0 0 0 0 11.021742410427578 -0.041992324047782859 0 -0.041992324047782859 7.1640536710358447 0 0 0 0 14.984028210833458 7.158293745536298 0 7.158293745536298 7.2965360711995544 0 0 0 0 16.299069785754909 -0.32873359628126764 0 -0.32873359628126764 3.4497285611706729 0 0 0 0 10.607033046155266 0.30930005014791107 0 0.30930005014791107 0.95095031967979082 0 0 0 0 12.809069243906363 -2.2401011667278672 0 -2.2401011667278672 -1.3821169853346591 0 0 0 0 14.366978863447002 1.0268779487032589 0 1.0268779487032589 7.1632303461526474 0 0 0 0 13.509638499628675 -0.9804665258958476 0 -0.9804665258958476 -2.069152106366146 0 0 0 0 26.4486961210564 -10.651216723871016 0 -10.651216723871016 -3.5740730331870054 0 0 0 0 11.37475019356998 -4.6139195479150032 0 -4.6139195479150032 7.0711309055927813 0 0 0 0 8.7047391662267728 -20.332673859754095 0 -20.332673859754095 24.420917068538529 0 0 0 0 -11.072765924243868 -5.0644960925575333 0 -5.0644960925575333 20.601903873623996 0 0 0 0 8.608730133573772 -0.010739582494522892 0 -0.010739582494522892 11.582253980383939 0 0 0 0 -1.193362780652933 -6.0462862697527271 0 -6.0462862697527271 9.6053749821234078 0 0 0 0 -2.5708482153509067 0.49195052490279068 0 0.49195052490279068 11.614677329838287 0 0 0 0 0.22981688950956336 -0.20664116359335605 0 -0.20664116359335605 0.18830257665811967 0 0 0 0 45.526854927284148 -19.132280897967917 0 -19.132280897967917 13.918137419135292 0 0 0 0 -7.6359310555444608 1.4457239036720466 0 1.4457239036720466 24.907890201814411 0 0 0 0 12.368370568867249 -27.018548464835419 0 -27.018548464835419 3.8128789245696879 0 0 0 0 1.9758594474282063 10.38588384431873 0 10.38588384431873 0.68599552639346939 0 0 0 0 71.569157651233581 -8.2839791884977103 0 -8.2839791884977103 -18.205338587166807 0 0 0 0 24.40157084272596 12.082330041594673 0 12.082330041594673 -21.926901292381046 0 0 0 0 13.003085968180294 3.0802489253161833 0 3.0802489253161833 0.43023568178169502 0 0 0 0 0.32208959433182827 -1.9560123259148838 0 -1.9560123259148838 -0.51447401991384822 0 0 0 0 11.706081798792979 1.0347654910804964 0 1.0347654910804964 -0.76467577659634101 0 0 0 0 18.801999196111865 4.0307727984463781 0 4.0307727984463781 0.53087543356315336 0 0 0 0 40.893531689211159 -6.8147187772011648 0 -6.8147187772011648 -3.4648009021634287 0 0 0 0 53.76538799971695 0.59879925554776037 0 0.59879925554776037 -5.4805312454988098 0 0 0 0 52.68435003419745 -9.8188836334159078 0 -9.8188836334159078 3.1598131609333677 0 0 0 0 22.912343119171055 22.908704698896656 0 22.908704698896656 -2.2796252705799134 0 0 0 0 13.349243185242813 1.2186094127450815 0 1.2186094127450815 -0.62080430024047928 0 0 0 0 10.37543036981004 -0.22358669317786894 0 -0.22358669317786894 -1.6809071073032658 0 0 0 0 12.273970839647518 2.7594837167052901 0 2.7594837167052901 -1.5240189339261576 0 0 0 0 14.840267349693022 2.8803004768191727 0 2.8803004768191727 0.22090621798861321 0 0 0 0 14.662359522610132 0.4832887064990814 0 0.4832887064990814 0.28084480981473803 0 0 0 0 3.3173459682437123 -2.0580846428486765 0 -2.0580846428486765 -0.54440088369173933 0 0 0 0 13.224264353721082 -0.47282508860662631 0 -0.47282508860662631 -0.43882610971650138 0 0 0 0 2.0011571891256708 -0.20839605264787764 0 -0.20839605264787764 -0.43759424527417945 0 0 0 0 10.484457231834313 -6.2924163046618276 0 -6.2924163046618276 -1.5803182582326372 0 0 0 0 13.316770403773717 -0.76069566750790329 0 -0.76069566750790329 0.3728650240901743 0 0 0 0 12.105019777672489 2.5340979750639754 0 2.5340979750639754 -0.74708348952206505 0 0 0 0 5.4738766498267069 0.38437973046495699 0 0.38437973046495699 -0.47776948706632538 0 0 0 0 5.063293322082103 0.94688777380836697 0 0.94688777380836697 0.05583569985428749 0 0 0 0 13.117849148757159 0.1908249915976441 0 0.1908249915976441 -0.4466142948586338 0 0 0 0 11.758616704439646 -0.84033413506725196 0 -0.84033413506725196 -2.3900916345466783 0 0 0 0 5.7358951270143024 -0.88734278609223516 0 -0.88734278609223516 -0.53172427315693438 0 0 0 0 17.983063785196464 -4.8077996763711042 0 -4.8077996763711042 1.4847137207900687 0 0 0 0 -3.6895102798971493 -0.9217335193367191 0 -0.9217335193367191 1.9416946417782981 0 0 0 0 5.3339098050027971 0.27239634683731495 0 0.27239634683731495 0.58395513732384963 0 0 0 0 5.0532721322742873 1.7402853781092062 0 1.7402853781092062 -0.18440529142935702 0 0 0 0 8.1397093675731398 0.9912377326014834 0 0.9912377326014834 1.4142075905182612 0 0 0 0 7.4717809589857325 1.253253647161733 0 1.253253647161733 -0.79873245885845501 0 0 0 0 17.054512320430149 0.20994938959012188 0 0.20994938959012188 0.16932693039754554 0 0 0 0 10.532568992306853 0.69860868632505735 0 0.69860868632505735 -0.72818690076459269 0 0 0 0 14.198039500220787 -0.54057881039061151 0 -0.54057881039061151 -0.76495034606985879 0 0 0 0 11.682161865347553 -2.0553217479056158 0 -2.0553217479056158 -2.1287457642501124 0 0 0 0 -27.396338819031371 -27.741874493596924 0 -27.741874493596924 5.1747505396976976 0 0 0 0 0.37476390455170261 0.64972317555488956 0 0.64972317555488956 1.2403543478127794 0 0 0 0 0.69810558309298898 1.0793524615603438 0 1.0793524615603438 1.1536020694510198 0 0 0 0 -91.296847045696722 51.638437157243857 0 51.638437157243857 3.6589692766487474 0 0 0 0 9.0608361555423471 -29.371154982057618 0 -29.371154982057618 15.66548521257856 0 0 0 0 -115.58062908752254 -5.221054006309231 0 -5.221054006309231 77.614222461341569 0 0 0 0 11.392324726641164 1.7509344978471972 0 1.7509344978471972 4.24960415952701 0 0 0 0 8.5345301080899247 3.4004032950834837 0 3.4004032950834837 0.92199380918222562 0 0 0 0 161.33626235373958 60.165582659638019 0 60.165582659638019 -80.131991824112617 0 0 0 0 3.865189553587232 0.70292835915136465 0 0.70292835915136465 0.8898892174845483 0 0 0 0 27.38404236590759 2.4059283760065 0 2.4059283760065 -11.934385201133807 0 0 0 0 10.465430742291574 1.1955837607510489 0 1.1955837607510489 5.1606572792754974 0 0 0 0 11.266837416427734 0.55007295927592281 0 0.55007295927592281 4.149914078529946 0 0 0 0 18.325585762011542 -36.303185092291223 0 -36.303185092291223 18.107152785154994 0 0 0 0 33.053608464228091 16.649856055941513 0 16.649856055941513 -25.476743525085737 0 0 0 0 9.8392294058339758 -0.21909552127942789 0 -0.21909552127942789 4.2464205147874985 0 0 0 0 8.8086610233879803 3.0427425373853518 0 3.0427425373853518 0.29700261497225777 0 0 0 0 6.1730665632167074 1.7463018443879719 0 1.7463018443879719 4.9388812826730373 0 0 0 0 5.7894404792241403 0.88120120231758392 0 0.88120120231758392 5.3704243446793498 0 0 0 0 9.1089338671354199 -1.147424634835204 0 -1.147424634835204 3.893937469481898 0 0 0 0 10.297364196465423 -0.41245365340105877 0 -0.41245365340105877 3.7739718775800384 0 0 0 0 10.111318775145447 3.4319537869786956 0 3.4319537869786956 0.70861758445058887 0 0 0 0 8.2538172190706973 30.07473440297349 0 30.07473440297349 -17.897187373175484 0 0 0 0 11.065517279469077 1.9034847852946086 0 1.9034847852946086 -5.9971137884215295 0 0 0 0 41.687791138852845 9.8066631672835456 0 9.8066631672835456 -5.8676092943640725 0 0 0 0 5.9302762858587812 1.2863874706320644 0 1.2863874706320644 6.4884405010180899 0 0 0 0 11.042227597609637 4.0929991027414205 0 4.0929991027414205 1.1337099202150729 0 0 0 0 6.5918269659159705 2.6355275115780614 0 2.6355275115780614 5.2242933253732673 0 0 0 0 6.431634388070961 2.4327472754357586 0 2.4327472754357586 6.7518745775044522 0 0 0 0 1.3020367017093424 0.23406896138718913 0 0.23406896138718913 0.22198424453433518 0 0 0 0 6.7649697422220925 3.0299271411606696 0 3.0299271411606696 6.121005700540934 0 0 0 0 7.2184252574144878 3.2078091986768538 0 3.2078091986768538 0.26206918297153003 0 0 0 0 -35.051319485480235 0.42612236615156007 0 0.42612236615156007 -3.2580330496473948 0 0 0 0 0.82106137166482718 4.5682261791081888 0 4.5682261791081888 0.28606660800301364 0 0 0 0 -3.5159206947773782 3.5029212243525194 0 3.5029212243525194 5.0322183116159067 0 0 0 0 -1.0827753649730703 0.67325443476263036 0 0.67325443476263036 0.85271778464707726 0 0 0 0 1.8415913860137696 0.94463505711184936 0 0.94463505711184936 -0.4465411628638698 0 0 0 0 6.3753426377115829 34.57687444896186 0 34.57687444896186 19.228705408458325 0 0 0 0 1.9549421878102393 2.107363649463565 0 2.107363649463565 -0.88938683283561271 0 0 0 0 5.5928874332876148 3.1328393049430474 0 3.1328393049430474 -0.049091933406941735 0 0 0 0 34.91337762690091 -27.975821903606345 0 -27.975821903606345 -10.309714843644514 0 0 0 0 79.145492685485806 18.040578417007623 0 18.040578417007623 -8.6224889980093735 0 0 0 0 1.8710837159596849 44.184560545899842 0 44.184560545899842 -11.715950559776957 0 0 0 0 -18.15660271662091 22.491637790134604 0 22.491637790134604 12.38169456984167 0 0 0 0 0.18601682932082042 0.28089159702895472 0 0.28089159702895472 0.50473153477165822 0 0 0 0 -37.079421346968957 18.179300572664971 0 18.179300572664971 7.7058889233884997 0 0 0 0 78.455705421027602 -49.119365089736327 0 -49.119365089736327 0.21883232688992393 0 0 0 0 -31.825853572378037 33.625132380276966 0 33.625132380276966 16.991800321784922 0 0 0 0 1.2579056318538697 1.987459828383388 0 1.987459828383388 2.943046450253223 0 0 0 0 -18.100665509861983 14.505784450349914 0 14.505784450349914 14.609979252694188 0 0 0 0 -3.6361303619232785 -39.269419593049861 0 -39.269419593049861 67.700242628215733 0 0 0 0 78.356592000483943 9.7520245787933391 0 9.7520245787933391 -6.421390124526198 0 0 0 0 120.43635367342449 -5.518133996062943 0 -5.518133996062943 -36.107683116467683 0 0 0 0 87.520503372635517 9.9557332802952505 0 9.9557332802952505 -8.4024971761817255 0 0 0 0 -9.8409482419083361 20.071291089909266 0 20.071291089909266 -40.311595419450555 0 0 0 0 5.5712464947337139 5.2732857278070639 0 5.2732857278070639 -5.2424803711642198 0 0 0 0 3.2301036426965766 5.0712138403538347 0 5.0712138403538347 1.5606492582578539 0 0 0 0 21.086498962588394 -8.974769173942299 0 -8.974769173942299 -10.656689047114128 0 0 0 0 9.2823655230095028 10.367499858816302 0 10.367499858816302 -3.2853073537174282 0 0 0 0 1.358233373379548 0.21045867266186757 0 0.21045867266186757 0.5683967654008335 0 0 0 0 3.4394439656389295 2.2000801214647367 0 2.2000801214647367 -7.5614322957482614 0 0 0 0 1.8599286725061575 5.3524681004475667 0 5.3524681004475667 -2.088906982348874 0 0 0 0 2.9342614581005364 7.7996988476750317 0 7.7996988476750317 0.1724118012387521 0 0 0 0 0.83609079570131328 0.39053039968077385 0 0.39053039968077385 -0.66656988940834105 0 0 0 0 2.0531248205698809 2.1031027935963813 0 2.1031027935963813 0.094955956956007448 0 0 0 0 3.2749356724216341 3.5206864225877155 0 3.5206864225877155 0.45088123500315191 0 0 0 0 10.655896827180186 2.4747601002812019 0 2.4747601002812019 -0.86006769284495022 0 0 0 0 8.09596731477086 1.3024311363276979 0 1.3024311363276979 -0.11460299753741765 0 0 0 0 10.054636179133013 0.54589026041981015 0 0.54589026041981015 0.4840859354044369 0 0 0 0 5.1806076941866195 1.5318999663276145 0 1.5318999663276145 0.83569945329031725 0 0 0 0 10.656093090701233 -0.36625469272949829 0 -0.36625469272949829 1.4529512029606053 0 0 0 0 8.5468678400357021 2.093881202729392 0 2.093881202729392 1.3416439031360312 0 0 0 0 0.60950676930357872 0.83690448509894466 0 0.83690448509894466 1.2739891733335944 0 0 0 0 -6.658174348056491 10.318612598244357 0 10.318612598244357 -2.0931969369004264 0 0 0 0 9.6597086066740303 7.4588588118505754 0 7.4588588118505754 -0.012908603034020416 0 0 0 0 1.0952455746082705 0.45419927611783351 0 0.45419927611783351 -1.3658939284915839 0 0 0 0 0.42931943888087787 1.2614555020138383 0 1.2614555020138383 -2.2043581735288766 0 0 0 0 0.87315171965853722 1.678514140851302 0 1.678514140851302 1.8092291823958417 0 0 0 0 2.1419983618106926 8.1863122193735194 0 8.1863122193735194 -1.000900532852711 0 0 0 0 8.4558314959540439 4.3294097394110338 0 4.3294097394110338 -4.2557711250560715 0 0 0 0 -3.6211623144463374 1.7969681024248416 0 1.7969681024248416 2.3323492716251621 0 0 0 0 -15.616123976527888 1.6876201617455422 0 1.6876201617455422 3.95958159550662 0 0 0 0 -0.22744036720509087 0.47843695830673028 0 0.47843695830673028 -1.3780779420474611 0 0 0 0 36.57804891278829 3.4537298518315538 0 3.4537298518315538 -7.7853621522165781 0 0 0 0 34.761449580053522 -4.5448089105876761 0 -4.5448089105876761 -0.52408510471094871 0 0 0 0 8.2569824245056225 6.5985531941719078 0 6.5985531941719078 3.1609025472480425 0 0 0 0 6.2511432246474214 -5.036847032875869 0 -5.036847032875869 -6.4292785289356971 0 0 0 0 17.605457513978763 3.9678449908000459 0 3.9678449908000459 0.065929905040491121 0 0 0 0 1.8549012275455752 -2.4020947777577497 0 -2.4020947777577497 -0.35517478592507601 0 0 0 0 12.191039286521118 -0.5804723600049897 0 -0.5804723600049897 -9.2841754502364893 0 0 0 0 13.040608756040456 -6.0050955496145662 0 -6.0050955496145662 -7.7491182684385649 0 0 0 0 8.2903195867047543 -1.1825853464623606 0 -1.1825853464623606 -0.014532843605593371 0 0 0 0 16.684453520423631 2.225731526669037 0 2.225731526669037 -0.02031170321282616 0 0 0 0 16.509766701183253 3.7176369386640147 0 3.7176369386640147 0.61681444085746762 0 0 0 0 15.080959411788172 2.6281233229334475 0 2.6281233229334475 0.45064385915793537 0 0 0 0 11.952101250574742 1.193229554325697 0 1.193229554325697 -0.29863016374383733 0 0 0 0 14.666029576314031 3.3087333214773764 0 3.3087333214773764 -0.63305929948643169 0 0 0 0 10.44291300069824 2.6269724769353751 0 2.6269724769353751 0.45960002250478738 0 0 0 0 16.905353626627402 2.9927384606147882 0 2.9927384606147882 0.13540362420425822 0 0 0 0 14.572031143939057 5.6011361855006214 0 5.6011361855006214 1.6613093234215626 0 0 0 0 16.148167561071659 4.854387720325029 0 4.854387720325029 2.0132804170858662 0 0 0 0 16.75227931761583 1.5975828670383123 0 1.5975828670383123 -0.38875850720907579 0 0 0 0 26.593050723859051 0.1562336933025108 0 0.1562336933025108 1.3584572960737944 0 0 0 0 19.648187801941731 5.6794353764534264 0 5.6794353764534264 10.640691349897224 0 0 0 0 20.149325197282451 5.8123607453778874 0 5.8123607453778874 -0.34483311274834705 0 0 0 0 0.79494817399972817 3.1972063784719467 0 3.1972063784719467 4.2467246916895647 0 0 0 0 -3.0343083736224798 -6.7347864713102013 0 -6.7347864713102013 16.921025796422327 0 0 0 0 -6.5896161628425034 1.9177499084472061 0 1.9177499084472061 0.28311828024999386 0 0 0 0 -2.5407720595903811 -4.630715217102761 0 -4.630715217102761 -4.1745708529238073 0 0 0 0 1.4231041980083319 -4.0383711027343736 0 -4.0383711027343736 -6.380369325169795 0 0 0 0 -9.1873316155488283 -13.629704686124967 0 -13.629704686124967 8.5300913715660727 0 0 0 0 2.018727157794693 -2.3909577156395407 0 -2.3909577156395407 -0.19454091131362961 0 0 0 0 25.144480900275084 -22.661352191270737 0 -22.661352191270737 8.005645916381809 0 0 0 0 30.18388743115429 1.5901043928520266 0 1.5901043928520266 -16.57696422869941 0 0 0 0 0.064502093373747016 -0.09276914679843884 0 -0.09276914679843884 0.13987597183180145 0 0 0 0 17.155494837197693 -19.439352458915522 0 -19.439352458915522 19.227066701135982 0 0 0 0 35.072483794632717 -6.6720448476844467 0 -6.6720448476844467 -0.65225981056653382 0 0 0 0 13.171456998559734 6.3503575560564229 0 6.3503575560564229 -7.8651008944605394 0 0 0 0 0.09720029210054193 -0.078964763701637963 0 -0.078964763701637963 0.062453589318810954 0 0 0 0 34.463011219912005 5.995328717885144 0 5.995328717885144 -11.570125746351437 0 0 0 0 -4.9054770420999319 -4.5579088494088928 0 -4.5579088494088928 -1.5311460723587516 0 0 0 0 5.3869267347090499 7.3176411767795457 0 7.3176411767795457 3.9818460225487229 0 0 0 0 -3.3239389579866838 -1.2867052027466457 0 -1.2867052027466457 1.5708936984549382 0 0 0 0 -5.8705041684493153 -3.7587209318160006 0 -3.7587209318160006 5.3574892408448704 0 0 0 0 -8.2094730050193903 4.8176448921053634 0 4.8176448921053634 11.810866132965828 0 0 0 0 0.079995773809450554 -0.17542824706881532 0 -0.17542824706881532 0.33638853813768055 0 0 0 0 -3.3815475905066705 -0.21306911490330549 0 -0.21306911490330549 0.0093825496628596738 0 0 0 0 -0.052248836740091065 -1.3657067873086461 0 -1.3657067873086461 -1.1689826965425709 0 0 0 0 16.726177177419231 -3.5524272815153495 0 -3.5524272815153495 9.0671829309798113 0 0 0 0 -8.1015415868359923 -3.9784410268694685 0 -3.9784410268694685 0.51394296638773085 0 0 0 0 1.890134540707102 -2.3447631117543359 0 -2.3447631117543359 -0.16666680506258191 0 0 0 0 -1.8434180393396673 -3.3962640830901023 0 -3.3962640830901023 -3.1265998395924726 0 0 0 0 -3.212188669985153 -2.4901257120991147 0 -2.4901257120991147 -1.8701914312373447 0 0 0 0 -10.295153263110706 4.8473292353534951 0 4.8473292353534951 23.017883063456111 0 0 0 0 0.16797397014239124 0.22838739727377799 0 0.22838739727377799 0.48009533679798011 0 0 0 0 111.95628614008456 -28.507353198071598 0 -28.507353198071598 -77.569635489081293 0 0 0 0 16.199325497240352 -4.0548724183620948 0 -4.0548724183620948 18.413419344390491 0 0 0 0 39.38870284517543 -15.128910024837126 0 -15.128910024837126 99.894407773153034 0 0 0 0 2.2808821569253777 -1.9218837877777801 0 -1.9218837877777801 -0.65960557222185856 0 0 0 0 15.370466383350504 35.280774010580558 0 35.280774010580558 12.940073338286993 0 0 0 0 -4.8215597254966269 20.082889546645788 0 20.082889546645788 33.631576683116464 0 0 0 0 -4.2078988697521709 -0.10473093315525261 0 -0.10473093315525261 12.05997797452801 0 0 0 0 -2.0068913060931663 -3.057871375127263 0 -3.057871375127263 0.51570237539516484 0 0 0 0 -1.460221880050085 -0.87909811285771866 0 -0.87909811285771866 -0.43409756853270665 0 0 0 0 0.099486717579566175 -2.5226653275210538 0 -2.5226653275210538 -2.9944216842818037 0 0 0 0 0.41098543148109457 -0.02273858929436301 0 -0.02273858929436301 -1.1801658347055763 0 0 0 0 0.15441171176053103 -4.698164845926792 0 -4.698164845926792 1.4286408779338444 0 0 0 0 7.5556149617568735 6.2792975143117928 0 6.2792975143117928 -9.3674399839110265 0 0 0 0 -0.3917859050796153 -0.43505153757192261 0 -0.43505153757192261 0.027332317247692361 0 0 0 0 6.0296930622334912 4.3065284460604403 0 4.3065284460604403 0.80649272231062241 0 0 0 0 6.7440708612120943 -1.8175277632230973 0 -1.8175277632230973 -4.2192581260417796 0 0 0 0 0.013204091146235442 3.766595655033079 0 3.766595655033079 2.9836142708996931 0 0 0 0 10.115920745693074 23.165751787869638 0 23.165751787869638 -14.804022231297381 0 0 0 0 3.6766620380185486 -3.175112965691028 0 -3.175112965691028 1.9319751162933017 0 0 0 0 4.2693367116298759 -1.0260930982967693 0 -1.0260930982967693 -0.22806930177773665 0 0 0 0 6.7084484727092786 -1.8817582923101099 0 -1.8817582923101099 -0.21123636764809817 0 0 0 0 0.23966271154131391 -2.345305154678158 0 -2.345305154678158 1.8140686997887769 0 0 0 0 2.8371791950796563 -0.35953984208010858 0 -0.35953984208010858 -0.70072034534415473 0 0 0 0 7.6808076411762158 1.2253211624954758 0 1.2253211624954758 -34.290328707056659 0 0 0 0 0.77087552641387447 -0.44945638416777456 0 -0.44945638416777456 -0.69091944710908137 0 0 0 0 1.5339418612237985 -0.17388071559998508 0 -0.17388071559998508 -0.24194592373093737 0 0 0 0 1.3745088949125304 -0.35977566885946999 0 -0.35977566885946999 -0.3466734145247149 0 0 0 0 0.22355368877459725 0.05889913234769395 0 0.05889913234769395 -0.047663413633998175 0 0 0 0 0.24832833014625066 -0.38284777715975338 0 -0.38284777715975338 0.21411271278111599 0 0 0 0 0.11357260450429152 -0.18062954754080351 0 -0.18062954754080351 -0.080426644889871279 0 0 0 0 1.364808823884232 0.72269764676329373 0 0.72269764676329373 -0.23247382379713599 0 0 0 0 2.1223098274131189 0.66022438433560637 0 0.66022438433560637 -0.54495348275031574 0 0 0 0 1.6614869039549376 -0.89903349390294807 0 -0.89903349390294807 -0.059476030605765118 0 0 0 0 0.57076419746226748 3.5458645660353341 0 3.5458645660353341 3.0234729579073019 0 0 0 0 4.3361990607772896 -2.1140731723328372 0 -2.1140731723328372 0.13924173141731444 0 0 0 0 0.06052171379828053 -0.11787025066179879 0 -0.11787025066179879 0.2429017552341306 0 0 0 0 -0.081166008372747456 3.3569069483357765 0 3.3569069483357765 3.1355412185739624 0 0 0 0 0.45035084521441604 2.8155587501719879 0 2.8155587501719879 3.2912845787237757 0 0 0 0 0.069011498430882057 2.9720565624417503 0 2.9720565624417503 3.2711537905693149 0 0 0 0 0.64359093996972661 3.074753764123443 0 3.074753764123443 3.193601837419294 0 0 0 0 -0.010342045111755738 -0.11627745187003669 0 -0.11627745187003669 0.41555334138655509 0 0 0 0 -4.0000199378864636 10.488898003731606 0 10.488898003731606 16.996931586009055 0 0 0 0 -15.595095018189568 -3.3378493576244921 0 -3.3378493576244921 10.259098426163121 0 0 0 0 -3.8323214937154262 8.6357252186269875 0 8.6357252186269875 30.159523129679485 0 0 0 0 12.942973064245393 -0.37111075429781737 0 -0.37111075429781737 -6.7513367232010069 0 0 0 0 39.022191770474819 -28.238665264609125 0 -28.238665264609125 20.654863645872922 0 0 0 0 0.072344637799709233 -0.15223827016579961 0 -0.15223827016579961 0.29528495311879155 0 0 0 0 -5.0924609134485195 -18.603638973948151 0 -18.603638973948151 -5.9707693870495291 0 0 0 0 6.1021456488670083 -1.5272527978849553 0 -1.5272527978849553 -3.1371262375312767 0 0 0 0 13.128199377242566 -16.136894176106303 0 -16.136894176106303 -13.95812528657541 0 0 0 0 19.058850430506936 13.484129059324871 0 13.484129059324871 69.892586832973024 0 0 0 0 0.70946602607560294 0.18389956606659386 0 0.18389956606659386 0.10727262856346137 0 0 0 0 -10.257866707182984 41.331946301734519 0 41.331946301734519 24.36956918762894 0 0 0 0 49.333634070047992 0.24239903438024157 0 0.24239903438024157 -3.9980243394461183 0 0 0 0 52.523764923108502 5.6874676896340191 0 5.6874676896340191 -13.252342306677861 0 0 0 0 8.8913454332214314 9.6266818511923589 0 9.6266818511923589 0.15483846015189329 0 0 0 0 -0.028161842066966258 0.098846820518062373 0 0.098846820518062373 -0.47562923852352457 0 0 0 0 12.739394714557875 6.8766770943379072 0 6.8766770943379072 -5.0109483406237132 0 0 0 0 -45.678143697909036 -9.8603811280680702 0 -9.8603811280680702 12.7154039362741 0 0 0 0 9.2296806289036795 8.4720073224935177 0 8.4720073224935177 -10.294914334719465 0 0 0 0 10.752570126267528 14.045392963841664 0 14.045392963841664 -10.77785467244064 0 0 0 0 -12.122290351158881 32.98568901702717 0 32.98568901702717 16.721653560121354 0 0 0 0 1.8760432534181746 -30.227947490118936 0 -30.227947490118936 -14.693855358780979 0 0 0 0 3.0922182398953737 7.9790550376021088 0 7.9790550376021088 3.648437623327311 0 0 0 0 3.4668433635688416 4.5291050332209437 0 4.5291050332209437 14.12007655231821 0 0 0 0 10.452412991978576 11.698726991541157 0 11.698726991541157 1.4232393000938828 0 0 0 0 11.998676313033684 5.1035938556728127 0 5.1035938556728127 -0.96957732875659985 0 0 0 0 4.7300458900035665 1.4665826293543205 0 1.4665826293543205 1.0855969940733985 0 0 0 0 2.4745311814926936 6.3370505033042122 0 6.3370505033042122 4.924024063540628 0 0 0 0 -0.15158131796488306 1.1404735599212472 0 1.1404735599212472 -4.6398854383255923 0 0 0 0 -9.1254901160857571 -1.7664401970689951 0 -1.7664401970689951 7.7687097988271034 0 0 0 0 -4.1989207642254769 7.8806466495724408 0 7.8806466495724408 17.374041856525878 0 0 0 0 -4.859197161744305 5.4187097773478854 0 5.4187097773478854 8.4355655269063163 0 0 0 0 0.80740335355949355 9.1231662982158355 0 9.1231662982158355 10.281300082957756 0 0 0 0 -0.92589714374116738 19.946701551460421 0 19.946701551460421 17.919169440940578 0 0 0 0 -8.1541905537742423 11.791376150805661 0 11.791376150805661 13.51082127218001 0 0 0 0 3.2118549044686304 0.95916929487515201 0 0.95916929487515201 0.15155657419679688 0 0 0 0 -4.4909723792516161 4.6522238740687953 0 4.6522238740687953 0.56239775887303267 0 0 0 0 3.4257449985816493 8.4572774530189037 0 8.4572774530189037 3.1439437882580421 0 0 0 0 6.6644225167256081 8.4389072878207401 0 8.4389072878207401 -1.3368087564926512 0 0 0 0 -1.9849885185303719 14.326566483754164 0 14.326566483754164 0.58714899139658883 0 0 0 0 2.4820006948821174 0.15345747508925456 0 0.15345747508925456 -6.2566674357674401 0 0 0 0 0.46593629781698809 0.23253647525546484 0 0.23253647525546484 0.10388097647939953 0 0 0 0 7.0422667567181634 1.1779761725669573 0 1.1779761725669573 -6.3704565174950147 0 0 0 0 1.1703224649681943 -0.095379661749973366 0 -0.095379661749973366 0.73309809118518388 0 0 0 0 -0.19653538366401335 2.6969246471061865 0 2.6969246471061865 -2.7439477430165198 0 0 0 0 2.3233554102425842 5.2071179377223871 0 5.2071179377223871 -3.5535425880143521 0 0 0 0 -4.1293607057434656 -0.94145099687571587 0 -0.94145099687571587 9.2266006624854526 0 0 0 0 1.9227863000516265 0.76828134433945827 0 0.76828134433945827 0.29947619083511817 0 0 0 0 -8.3518854172216379 9.3329958121427978 0 9.3329958121427978 41.632671424502348 0 0 0 0 13.299363337057002 16.659833027625552 0 16.659833027625552 -18.802340435283895 0 0 0 0 -2.9650947663667466 13.449360766230058 0 13.449360766230058 20.712767574087593 0 0 0 0 49.014486750087599 -24.207503932565061 0 -24.207503932565061 11.822284092282828 0 0 0 0 25.681555716498224 5.0851776392784416 0 5.0851776392784416 2.8670046353506677 0 0 0 0 0.020614405664339586 -0.096251577643002406 0 -0.096251577643002406 0.052948760446090426 0 0 0 0 51.070096957559144 -19.017297940392353 0 -19.017297940392353 12.63289935485534 0 0 0 0 96.091454887011423 -58.834797821800564 0 -58.834797821800564 13.627628898183161 0 0 0 0 104.53330195129024 -12.754000602260383 0 -12.754000602260383 12.007759478039247 0 0 0 0 53.239165154900547 -44.269009611182184 0 -44.269009611182184 6.8704214521839901 0 0 0 0 63.154010930797085 -13.094880755961981 0 -13.094880755961981 10.187040726073192 0 0 0 0 60.157789463457448 2.7434041391866231 0 2.7434041391866231 7.8977517071331889 0 0 0 0 52.280854965374601 -6.7073860304294897 0 -6.7073860304294897 -2.7512325632344528 0 0 0 0 85.112899595607587 -19.465307756574987 0 -19.465307756574987 2.1145461379821882 0 0 0 0 36.70712235915471 -14.733936811608601 0 -14.733936811608601 6.4775377497406339 0 0 0 0 39.584447734709101 -8.6618396082640743 0 -8.6618396082640743 2.8719245895965173 0 0 0 0 49.602987279649824 -3.790971609921499 0 -3.790971609921499 2.6586339465835636 0 0 0 0 10.070860519233975 -9.3466252523024309 0 -9.3466252523024309 11.914491615084728 0 0 0 0 0.98559569537974312 -10.300584917604738 0 -10.300584917604738 11.211767903394588 0 0 0 0 8.872047010908318 3.8521605301171746 0 3.8521605301171746 -3.3075777113233471 0 0 0 0 3.9049116159530968 3.1578711844412055 0 3.1578711844412055 7.7901281943582035 0 0 0 0 4.6700111679019756 0.10313185606651132 0 0.10313185606651132 -2.9856358286716755 0 0 0 0 9.39628112657374 -0.92644499426674543 0 -0.92644499426674543 8.8832146118220976 0 0 0 0 3.4850771691126283 -3.7934181929051078 0 -3.7934181929051078 9.049147153635225 0 0 0 0 14.597977242921814 -2.5119267452829708 0 -2.5119267452829708 10.896635710990154 0 0 0 0 6.0169894422106154 -2.2610781311148287 0 -2.2610781311148287 12.577026795511358 0 0 0 0 11.148133306860473 0.21192590376239195 0 0.21192590376239195 8.9727003400411149 0 0 0 0 14.620095750174528 -1.8653168718162818 0 -1.8653168718162818 7.9435400106455063 0 0 0 0 34.685193428398634 -2.1713529437974728 0 -2.1713529437974728 7.2672886738772604 0 0 0 0 39.421509017995049 6.2915474038845218 0 6.2915474038845218 6.5772704186094444 0 0 0 0 85.531956640441422 -24.873825907073922 0 -24.873825907073922 -6.6034290997852167 0 0 0 0 103.19166447560383 22.420552379948674 0 22.420552379948674 -9.7928156040580348 0 0 0 0 39.364747113820215 4.0638574120251594 0 4.0638574120251594 -4.9877325256167069 0 0 0 0 50.363328781539167 -1.3824922619794222 0 -1.3824922619794222 -0.4009510703642718 0 0 0 0 68.353280011395327 -3.860404758749894 0 -3.860404758749894 -3.0982908799044253 0 0 0 0 -11.117306649013699 7.2765941337872562 0 7.2765941337872562 4.4897454437766555 0 0 0 0 0.76269778434289037 6.4810888887518843 0 6.4810888887518843 -6.3597141478360868 0 0 0 0 -6.8354311121147475 -3.3607263774099465 0 -3.3607263774099465 1.3405549496884532 0 0 0 0 6.6683120802497342 -2.6328609327899102 0 -2.6328609327899102 -1.0712948713277797 0 0 0 0 7.1472600029519526 3.7127582124055607 0 3.7127582124055607 -11.055045103199063 0 0 0 0 14.572314028325309 17.351749699633046 0 17.351749699633046 11.783863949660372 0 0 0 0 3.1970128767952701 4.927537222817989 0 4.927537222817989 4.8335486303546986 0 0 0 0 -3.1918197247614444 7.5382454446968552 0 7.5382454446968552 7.9227634717902333 0 0 0 0 -0.10473349067069648 -2.1368728393313177 0 -2.1368728393313177 2.1787508016865544 0 0 0 0 1.6155036491900319 9.8663515630490366 0 9.8663515630490366 3.365220321173922 0 0 0 0 -0.034677375185466985 -0.049365562882563552 0 -0.049365562882563552 0.32082901187628954 0 0 0 0 4.2259746024454898 1.9177871026147848 0 1.9177871026147848 2.1829740260753852 0 0 0 0 -1.2504381596954772 7.1811835331890848 0 7.1811835331890848 -2.3979201719573666 0 0 0 0 0.019912064337763269 -0.023675871229677625 0 -0.023675871229677625 0.069267037809814802 0 0 0 0 3.1170989792117325 8.3737599003098921 0 8.3737599003098921 2.0667116729962345 0 0 0 0 -0.78525629524301621 6.0628530039325028 0 6.0628530039325028 6.7342228912547739 0 0 0 0 8.5428046500383061 1.8397376491737418 0 1.8397376491737418 1.6839875479873854 0 0 0 0 -6.7950845680479688 5.5741954091984098 0 5.5741954091984098 7.532032889528864 0 0 0 0 14.328854866914298 13.645472517528688 0 13.645472517528688 8.2714541899304095 0 0 0 0 2.979313108657152 -0.96558513089371445 0 -0.96558513089371445 18.968768538509892 0 0 0 0 -0.0074302341221468282 -0.010899121753542573 0 -0.010899121753542573 0.11970919376680822 0 0 0 0 1.7338715845453407 -9.5195950292834084 0 -9.5195950292834084 6.2470369486745767 0 0 0 0 10.879449535722415 -8.899206797318163 0 -8.899206797318163 5.7652477830334874 0 0 0 0 3.9149812643738926 -7.6936962718302286 0 -7.6936962718302286 3.133953826393622 0 0 0 0 -6.604708885150103 -7.9583759094430775 0 -7.9583759094430775 5.6624238059317804 0 0 0 0 3.9200130680055736 -2.0708263659425938 0 -2.0708263659425938 -3.8253431642687019 0 0 0 0 0.14061556794998553 -1.084317340489136 0 -1.084317340489136 1.790300127546562 0 0 0 0 -3.5192955486400024 -1.6364606454683326 0 -1.6364606454683326 3.5258515916056581 0 0 0 0 -8.0762068821168214 1.6311998765999185 0 1.6311998765999185 1.5353569698124829 0 0 0 0 0.30083681344725122 -0.15776409726891316 0 -0.15776409726891316 -0.12695494470992696 0 0 0 0 -0.094425607099658748 -0.3100552092745717 0 -0.3100552092745717 0.34324470383055011 0 0 0 0 -8.1716818097477244 -4.87410675874753 0 -4.87410675874753 -0.26825728733865617 0 0 0 0 -5.0349652296563363 -3.9897203703461024 0 -3.9897203703461024 -1.2159032781698897 0 0 0 0 -6.0369337746014935 -5.3760539801014602 0 -5.3760539801014602 -3.1259234145526236 0 0 0 0 1.6151260075724991 -1.1760116867089749 0 -1.1760116867089749 0.17197992824490305 0 0 0 0 2.0926937420899776 1.155869877102333 0 1.155869877102333 -4.8137630754856673 0 0 0 0 -3.6270283119209239 4.9526504394824844 0 4.9526504394824844 -4.8888939259875315 0 0 0 0 -1.8650824526896486 -3.285534127773392 0 -3.285534127773392 2.7761804447121889 0 0 0 0 3.9364152237212693 -4.6663800898799348 0 -4.6663800898799348 0.63362892425170259 0 0 0 0 1.6187308642929565 -2.47998159986984 0 -2.47998159986984 -0.83022350299338932 0 0 0 0 5.0251741171441608 0.25596146686472609 0 0.25596146686472609 -1.4261807366829178 0 0 0 0 0.14579725498153095 -0.10411740867603925 0 -0.10411740867603925 -0.13195362883824316 0 0 0 0 -5.0463518231008493 -7.1178495732598828 0 -7.1178495732598828 3.7641240821013944 0 0 0 0 -1.0759073374101717 -6.4439625581603757 0 -6.4439625581603757 -11.388372236511852 0 0 0 0 -0.14928130437475318 -0.18597716368130235 0 -0.18597716368130235 0.23456610020034444 0 0 0 0 -0.97948948097010202 -11.193050137812708 0 -11.193050137812708 -1.9064133603075106 0 0 0 0 0.67869057390305443 -1.0130559015176459 0 -1.0130559015176459 1.1393734002342466 0 0 0 0 -1.1841132645458856 -2.3780515272420075 0 -2.3780515272420075 -6.5756854820622621 0 0 0 0 4.1167838028377446 2.2259600056354856 0 2.2259600056354856 -6.8981385307603773 0 0 0 0 9.1799307544115436 -6.6936134380292316 0 -6.6936134380292316 -6.4951737444420132 0 0 0 0 1.2351645946238108 -1.1619072112548383 0 -1.1619072112548383 0.32058416362641251 0 0 0 0 -0.28899665591416124 -5.6997404875826589 0 -5.6997404875826589 0.77307603670516301 0 0 0 0 0.056977691614520154 -6.1779589313580061 0 -6.1779589313580061 -6.5010128029945236 0 0 0 0 23.966044102209707 -26.23956762035715 0 -26.23956762035715 18.149438009956867 0 0 0 0 33.415871580361454 -0.65578612983618711 0 -0.65578612983618711 -3.6737388476084618 0 0 0 0 40.80528435413953 -28.017881781938634 0 -28.017881781938634 21.474337104459153 0 0 0 0 0.22804537261473712 -0.31713254161424231 0 -0.31713254161424231 0.53833167156041373 0 0 0 0 -11.390378431309728 -1.4442461306966266 0 -1.4442461306966266 41.11165187122451 0 0 0 0 4.9579515776113112 1.4676074006615529 0 1.4676074006615529 3.4157878199892355 0 0 0 0 51.67416328496347 -13.816931763861312 0 -13.816931763861312 2.0387304825125341 0 0 0 0 0.013282693641315291 0.038017864198010898 0 0.038017864198010898 -0.03021794876307116 0 0 0 0 35.303907484750653 -20.544954038483969 0 -20.544954038483969 8.4923707685849266 0 0 0 0 2.4783100469230703 -2.8736806460581512 0 -2.8736806460581512 2.2384541455209472 0 0 0 0 -4.5581399406719356 -7.9375613444479995 0 -7.9375613444479995 8.9837425900967034 0 0 0 0 28.557423683636443 -1.3518946044672324 0 -1.3518946044672324 -29.479530023316855 0 0 0 0 52.859698159520121 -8.4311580560766046 0 -8.4311580560766046 -1.0984537643181866 0 0 0 0 35.029313223224563 -15.624211162222343 0 -15.624211162222343 1.0087038728934896 0 0 0 0 49.617286230485661 -8.3709490634332333 0 -8.3709490634332333 7.1024167712258635 0 0 0 0 41.796008144381631 -16.207585411239251 0 -16.207585411239251 -0.26861228527297687 0 0 0 0 37.881268005480706 -16.347828887999363 0 -16.347828887999363 5.2868039547877288 0 0 0 0 57.223918960007722 -7.5637761255461093 0 -7.5637761255461093 10.270584687906947 0 0 0 0 56.613728010021987 -5.5481696654505743 0 -5.5481696654505743 4.1175887685134214 0 0 0 0 49.849573304010846 -8.7526849605553139 0 -8.7526849605553139 5.4503617959010846 0 0 0 0 66.029524926372687 -0.48679680827600968 0 -0.48679680827600968 8.6946646084199912 0 0 0 0 56.8240073842735 -3.1693131057443509 0 -3.1693131057443509 -2.3770885090239773 0 0 0 0 56.469855470787422 -8.3847556935558387 0 -8.3847556935558387 1.5384660952727245 0 0 0 0 56.30843520083431 1.9782930976859454 0 1.9782930976859454 -10.555937989683628 0 0 0 0 47.776044749025459 -1.880697045951905 0 -1.880697045951905 -2.5669089846113309 0 0 0 0 59.290216122830088 -6.1373106165194997 0 -6.1373106165194997 -5.7613052064139367 0 0 0 0 56.821381572932296 0.28336108673303784 0 0.28336108673303784 -12.618887887721513 0 0 0 0 38.143938491644803 -15.046003330867165 0 -15.046003330867165 5.9469379407686631 0 0 0 0 37.698864358635547 -9.6007448566087277 0 -9.6007448566087277 3.562190881093116 0 0 0 0 51.003529851172061 -9.9164981772524143 0 -9.9164981772524143 2.0449268873178283 0 0 0 0 48.044848133125015 -3.5613636012386678 0 -3.5613636012386678 7.0853376728537256 0 0 0 0 23.884061896440471 -9.6439805684569535 0 -9.6439805684569535 39.081918403676681 0 0 0 0 27.538282520077473 10.806147473550112 0 10.806147473550112 -1.9053367092938345 0 0 0 0 46.183949709639819 4.4671333557378716 0 4.4671333557378716 -2.3624888584620543 0 0 0 0 36.64945252090547 21.9208894488645 0 21.9208894488645 -34.140437357134772 0 0 0 0 59.120413495791922 1.7846937277859585 0 1.7846937277859585 -11.640555838761657 0 0 0 0 59.334928826052419 6.8723364479244538 0 6.8723364479244538 -9.2680625369221659 0 0 0 0 49.279702372008614 10.640613131584075 0 10.640613131584075 2.3026171514590033 0 0 0 0 58.960370378679727 5.113422873826579 0 5.113422873826579 -16.408850722786468 0 0 0 0 66.793814572444489 11.482833324513752 0 11.482833324513752 -11.229858854348265 0 0 0 0 61.29214193829921 40.484506782709886 0 40.484506782709886 -13.133020507114111 0 0 0 0 82.662451829366546 9.6706340193695439 0 9.6706340193695439 -12.649038373137017 0 0 0 0 42.897849860610222 31.15737187927752 0 31.15737187927752 -3.4133151558692703 0 0 0 0 44.065038020837164 22.488432271208737 0 22.488432271208737 10.35123416119535 0 0 0 0 16.602676673847782 57.578689188267134 0 57.578689188267134 10.350734724295194 0 0 0 0 -16.109661373226118 -17.184525088741083 0 -17.184525088741083 -26.070211368319406 0 0 0 0 122.60843703031242 17.332165745588398 0 17.332165745588398 -25.34699151440384 0 0 0 0 97.515207582371659 29.493628864152299 0 29.493628864152299 -13.307513200516894 0 0 0 0 214.51690825200876 1.322578250616786 0 1.322578250616786 -16.264844603448068 0 0 0 0 97.267440476598495 28.505976906429055 0 28.505976906429055 -17.236081389679498 0 0 0 0 -12.568277380401923 -29.303467769467005 0 -29.303467769467005 2.5260981497091564 0 0 0 0 0.51665921063408149 -0.1675094129501753 0 -0.1675094129501753 0.035467940811493348 0 0 0 0 -16.063124872141998 -8.61451220440631 0 -8.61451220440631 16.4381114577929 0 0 0 0 2.5223262095244081 -0.4913538907986803 0 -0.4913538907986803 -0.049523481353825449 0 0 0 0 35.156255283936844 -31.166981973823169 0 -31.166981973823169 -70.689041251221909 0 0 0 0 45.434263295215771 -6.4590069951316389 0 -6.4590069951316389 -54.601233947125081 0 0 0 0 1.7321437057895253 -0.35361307759500615 0 -0.35361307759500615 -0.0051670990943997741 0 0 0 0 -2.9620972725106185 -31.868720642904499 0 -31.868720642904499 -36.672631574312675 0 0 0 0 8.1463073841914593 10.125388472454745 0 10.125388472454745 -16.598464279066775 0 0 0 0 -4.163645201093459 -9.4820003866616105 0 -9.4820003866616105 -19.139049386767113 0 0 0 0 -6.5133014394314159 -11.534754239322695 0 -11.534754239322695 -17.341479809438169 0 0 0 0 -9.1095136638332406 -16.542191330577509 0 -16.542191330577509 9.1656631727450417 0 0 0 0 0.55475794156499347 -0.10837844767138183 0 -0.10837844767138183 0.022481861486333021 0 0 0 0 0.42958040014491417 -33.635849410295691 0 -33.635849410295691 -8.682554789806602 0 0 0 0 38.26759480185865 18.896128367653603 0 18.896128367653603 5.3321047353770865 0 0 0 0 -26.520665697638833 -3.2314451926698666 0 -3.2314451926698666 -1.4087857314656844 0 0 0 0 14.670811388905349 -0.025356301491854083 0 -0.025356301491854083 -28.781676205240629 0 0 0 0 39.178116672990654 -11.885054137328098 0 -11.885054137328098 -31.714172388134699 0 0 0 0 61.706179590226384 -22.103663288010267 0 -22.103663288010267 -41.760881502904965 0 0 0 0 0.40325925172758303 0.1581844580391798 0 0.1581844580391798 -0.074554353539114104 0 0 0 0 25.034332954728598 -24.258599447588722 0 -24.258599447588722 15.89570796825376 0 0 0 0 41.676771850519799 -1.4403347471713346 0 -1.4403347471713346 -0.50675790523234809 0 0 0 0 34.437820638004268 -6.8864040590263755 0 -6.8864040590263755 31.537142788903353 0 0 0 0 36.209291162538648 -3.1960851866745656 0 -3.1960851866745656 -1.0655786904661113 0 0 0 0 30.936840938620662 7.8762137859897337 0 7.8762137859897337 -18.460063095914734 0 0 0 0 30.640734086435259 8.6589736994036457 0 8.6589736994036457 24.205123497633991 0 0 0 0 33.824603473645766 24.36490980999271 0 24.36490980999271 -18.622806138156307 0 0 0 0 47.728280336891657 8.7116519686669136 0 8.7116519686669136 -41.979293551260525 0 0 0 0 47.999961533032547 1.1686874982471522 0 1.1686874982471522 -19.373563624863127 0 0 0 0 -10.501612329741874 -34.77382576833233 0 -34.77382576833233 26.757201996987362 0 0 0 0 0.59174734937794682 -0.27313341112146006 0 -0.27313341112146006 0.074973815307367908 0 0 0 0 -18.875938054150538 -23.479586820517042 0 -23.479586820517042 49.193626852859325 0 0 0 0 0.55499007058824645 15.970044549495285 0 15.970044549495285 21.49400493625258 0 0 0 0 43.779008171599344 -26.265198245646623 0 -26.265198245646623 -46.778915781853954 0 0 0 0 3.8249528672677116 -28.405892430403213 0 -28.405892430403213 -31.972120984801791 0 0 0 0 1.0931861902774216 -0.4711964860582043 0 -0.4711964860582043 0.086923123577984929 0 0 0 0 
</DataArray>
<DataArray type="Float64" Name="cross_section_updated" format="ascii">
1 1 1 1 1 1 1 1 1 1 1 1 1 1 1 1 1 1 1 1 1 1 1 1 1 1 1 1 1 1 1 1 1 1 1 1 1 1 1 1 0.010144436555071273 1 1 1 1 1 0.011068300998631778 0.010080974178369596 1 1 1 0.010427951886183909 1 0.010364117999396412 1 1 1 1 0.010265546661054732 1 0.0099959226732942892 1 1 0.0099979600802734513 1 1 1 0.010087011022464402 1 1 0.011003561031266967 1 1 1 1 1 1 0.010211468592474486 0.010878469644920275 1 0.010743831756140304 1 1 1 1 0.010005138462979905 1 1 1 0.010590251129935476 1 1 0.0099822108926763201 1 1 1 1 1 1 1 1 1 1 1 1 0.009923719270057552 1 0.0099830886955654119 1 0.01011499782660503 1 1 1 1 1 1 0.01062026604753942 0.01043137072052161 1 1 1 0.010168120449815628 1 1 1 1 1 1 1 1 1 1 0.010119971318520252 1 1 1 1 1 1 1 0.010131267615002177 1 1 1 1 1 1 1 0.010032013394137968 1 1 0.010096949747941644 1 1 1 1 1 1 1 1 1 1 1 1 0.010062505179887866 1 1 1 1 1 1 1 1 1 1 0.010205143833745078 1 0.011700293013948196 1 1 1 1 1 1 1 1 1 1 0.010139587761952647 1 1 1 1 1 1 1 1 1 1 1 0.010035260248682464 1 1 0.010077082582064779 1 1 1 1 1 1 1 1 1 1 0.010061699383940168 0.011721521241229473 1 1 1 1 1 0.011474302190250828 1 1 0.011402615720677764 1 0.010005093163144827 1 1 1 1 1 0.010033845687203845 1 1 1 1 1 1 1 1 1 1 1 1 1 1 1 1 1 1 1 1 1 1 1 1 1 1 1 1 0.010278915981255562 1 1 1 1 1 0.01026925608848385 1 1 1 1 1 0.0099781544765277803 1 1 1 1 1 1 0.0099632668752098891 1 1 1 1 1 1 0.0099855716563496053 1 1 1 1 1 1 1 1 1 0.010116514102985256 1 0.012297811277729017 1 1 1 1 1 1 1 1 1 1 0.010003047210924841 1 1 0.0098546033688992514 1 1 0.0096457392544628488 1 1 0.011029889322360971 1 1 1 1 1 1 1 0.0095432311189885231 1 1 1 1 1 1 0.011127370853141848 1 1 1 1 1 0.010231717915604366 1 1 0.010658275708010857 1 1 1 1 1 1 1 1 1 1 1 1 1 1 1 0.01002118948316353 1 0.010009606997820256 1 1 1 1 1 1 1 0.010084570519769135 1 1 0.010022209581345512 0.010726908138680689 1 1 1 1 1 1 1 1 1 1 1 1 1 1 1 1 1 1 1 0.0098163852913282987 1 1 0.0099435494578238998 1 1 1 1 1 1 1 1 1 1 1 1 1 1 1 1 0.010110311425748541 1 1 1 1 1 1 1 1 1 1 1 1 1 1 1 1 0.010645523230927536 1 1 1 1 0.010517203610857014 1 1 1 1 1 1 1 1 1 1 1 1 1 1 1 0.010013090327018477 1 1 1 0.010157707193494458 1 1 1 1 1 0.010038441458124535 0.0095962955096644299 0.012088558560587661 1 1 1 0.0099955985629714642 1 1 1 1 1 0.010015090687423806 1 1 1 1 1 0.010246497534199964 0.010993066803262435 1 1 1 1 1 1 1 1 1 1 1 1 0.011241886498814952 1 1 1 1 1 1 1 1 1 1 1 1 1 1 1 1 1 1 1 1 1 1 1 1 1 1 1 1 1 1 1 1 0.010488465884002988 1 1 1 0.010077871863218036 1 1 1 1 1 1 1 1 0.010015380913794069 1 1 0.011101593899887251 1 1 1 0.010584109803622732 1 1 1 1 1 1 0.010031312922425855 1 1 1 1 0.010270241846012322 1 1 1 1 1 1 1 1 1 0.010246484941220274 1 1 1 1 1 1 1 1 1 1 1 1 1 1 1 1 1 1 1 1 1 1 1 1 1 0.010453447516104886 1 1 1 0.010162680491024142 1 1 1 1 1 1 1 1 1 1 1 1 1 1 1 1 1 1 1 1 0.010196271923182253 1 1 1 1 0.010036282213939348 1 1 1 1 1 1 1 1 1 1 1 1 0.010121488180306629 1 1 1 1 1 1 1 1 1 1 1 0.010083448139071003 1 1 1 1 1 1 1 1 0.010038040041235626 1 1 1 1 1 1 1 1 1 1 1 1 1 1 1 1 1 1 1 1 1 1 0.0098702743621981275 1 1 1 1 1 1 0.0099534843812575137 1 1 1 0.01036680128860386 0.010459299911247727 1 1 1 1 1 1 1 1 0.010296254023150306 0.010501227403945282 1 1 1 1 1 1 1 1 1 1 1 1 0.010557342129512847 1 0.010538598149009697 0.009959662908863999 1 1 0.010087011521163133 0.011390666860266723 1 1 1 0.010331696167429882 1 1 1 1 0.011922604598222501 1 1 1 1 1 1 1 1 1 0.010068668866431147 1 1 1 0.01014605836187687 1 1 1 1 1 1 1 1 1 1 1 0.0099416621116738321 0.010342906740523083 1 1 1 1 1 1 1 1 1 1 1 0.0098946363641243939 1 1 1 1 1 1 1 1 1 1 1 1 1 1 1 1 1 1 1 1 1 1 1 1 1 1 1 1 1 1 1 1 1 1 1 1 1 1 1 0.010000852715983553 0.01032295680192929 0.010118494911626639 1 1 1 0.010008971395312947 1 1 1 1 1 1 1 1 1 1 0.010243381332924271 1 1 1 1 1 1 1 1 0.010090765343255526 1 1 1 1 1 0.010014823514315154 1 1 0.0099062328628098245 1 0.010033575300946642 1 1 1 1 0.0099701121557776908 1 1 1 1 1 1 1 1 1 1 1 1 0.010006292701040797 1 1 1 1 1 1 1 1 1 0.010037256597946262 1 1 1 1 1 1 1 1 1 1 0.010122119514022473 1 1 1 1 1 0.010092710063328144 1 1 1 1 1 1 0.010064074241311153 1 1 1 1 1 1 1 1 1 1 1 1 1 0.010174141497164921 1 1 1 1 0.01024294558219797 1 1 0.010012108014787123 1 1 1 1 1 1 1 1 1 0.010275197294732823 1 1 1 1 1 1 1 1 1 1 1 0.010038839829138767 1 1 1 1 1 1 0.010105641188854184 1 1 1 1 1 1 0.011270738672616396 1 1 1 1 0.010021900625525106 1 0.011372482442342437 1 1 0.010402234762127219 1 1 1 1 1 0.010127831913131333 1 1 1 1 1 1 1 1 1 1 1 1 0.0099951375041286289 1 0.010730669426271679 0.010964046371281434 1 1 1 1 0.010152595758483875 1 0.011035435792821704 0.010917336836408983 1 1 1 1 1 1 1 1 1 1 1 1 0.0096036781988050549 1 1 1 1 1 1 1 1 0.0099200029077566292 1 1 1 1 1 1 1 1 1 0.010208755573222875 1 1 1 0.010112066225725698 1 1 1 1 1 1 1 1 1 1 0.010498615329686002 1 1 0.010000213648616009 1 1 1 1 1 1 0.010237939773907414 1 1 1 0.010705689212355962 0.010390096261088205 1 1 1 1 1 0.0109357071811632 1 1 1 1 0.01000071657829781 0.010361439422344864 1 1 1 1 1 1 1 1 1 1 1 1 1 0.010081404915574506 1 1 1 1 1 1 0.010445910943987613 1 1 1 1 0.010070029344050256 1 1 0.010029089455267114 1 1 1 1 1 1 1 1 1 1 0.0099992783398647044 1 1 1 0.010006513241487909 1 1 1 1 1 1 1 0.009975839545676898 1 1 1 1 0.0099795795219206011 1 1 1 1 1 0.010015588751491633 1 1 0.0098977867910067015 1 1 1 1 0.010202985501664602 1 1 0.010313133396456941 0.0097286657827339116 1 1 1 1 1 0.010555162676597916 1 1 1 0.010220256642353518 1 1 1 0.0099085065554457806 1 1 1 1 1 1 1 1 1 1 1 1 0.010097972436798773 1 1 1 0.010284436587650884 1 1 1 1 1 1 1 1 1 1 1 0.010132807902615889 1 1 1 1 0.010353987340404248 1 1 1 0.0099814384892238355 1 1 1 1 0.011059882036352161 1 1 1 0.010328947791154851 1 1 1 1 1 0.010212760658212774 1 1 1 1 1 1 1 1 1 0.010289096082665461 1 1 1 0.010001461099069334 1 1 1 0.010923782560707028 1 1 1 1 1 1 1 1 1 0.010951984664146626 0.010127103342240493 1 1 1 1 0.010038714852783574 1 1 1 1 1 1 1 1 0.010335880748076957 0.010155823766020162 0.010356524580377301 0.010128616175894126 1 0.010121550257273154 1 1 0.01043407595307917 1 1 0.0099640863100372307 0.010120390990702983 1 1 1 1 1 1 0.011014222688434286 0.010004219907891743 1 1 0.0098390524266521659 1 1 0.010503530843183848 1 0.010469890230896117 1 1 1 1 1 1 1 1 1 1 1 1 0.010388861527464311 1 1 1 1 1 1 1 0.010041960830431683 1 1 1 1 1 1 1 1 1 1 1 1 1 1 1 1 0.010209426119491306 1 1 1 1 1 1 1 1 1 0.010107785132564683 1 1 1 1 1 1 1 1 1 1 1 1 1 1 1 1 1 1 1 1 0.010276434431336022 1 0.010094230821812022 1 1 1 1 1 1 1 0.0099568698234678947 0.010387045888553109 1 1 1 1 1 1 1 1 1 1 0.010294429048775153 1 0.010117268893794952 1 0.010001630659440736 1 1 1 1 1 1 1 0.010935509297461298 1 1 1 1 1 1 1 1 1 1 1 1 1 1 1 1 1 1 1 1 1 1 1 1 1 1 1 1 1 1 1 1 1 1 1 1 1 1 1 0.01010774650842511 1 1 1 1 1 1 1 1 1 1 1 1 1 1 1 1 1 1 1 1 1 1 1 0.0099261419271289703 0.010311075627185065 1 1 1 1 1 0.010022829701630986 1 0.010102810637982655 1 1 1 1 1 1 1 1 1 1 1 1 0.010007875988299414 1 1 1 1 1 1 1 1 1 1 1 1 0.011078790791239515 1 0.010007967280970829 1 0.010940244547289557 1 1 1 1 1 1 1 1 1 1 1 1 0.011083714234700441 1 1 1 1 1 0.01008900830956321 1 1 1 1 1 1 1 0.010146690638587929 1 1 0.010027185452733489 0.010232124431113553 1 1 1 1 0.010138058819534172 1 1 1 1 0.012166964973337512 1 1 0.012065550618749712 1 1 0.0096601826604488673 1 1 1 1 0.011059526619883065 1 1 0.009938381896672701 1 1 1 1 0.010101151245527275 1 0.010176802194730682 1 1 1 0.010048771640035668 1 1 0.0097388258870219468 1 1 1 0.010888672334768854 1 1 0.0095772272002406927 1 1 1 1 1 1 0.0098348056259260439 1 1 1 1 1 1 1 1 1 1 1 1 0.0099949892141622775 1 1 1 0.010365828654621875 1 0.010085604289886124 1 1 0.0098907408721957881 1 0.011376185939359226 1 1 0.0098806263164323664 1 1 0.010433555228526559 0.010782641003764915 1 1 0.010599355296617366 1 1 0.0098518222380161377 0.012049245978922193 1 0.011824693389951948 1 1 1 1 1 1 1 1 1 1 1 0.010167501450519055 1 1 0.010024973896157825 0.010383588348886441 1 1 0.010006372104191939 1 1 1 1 1 1 1 1 0.010001143077426609 1 1 1 1 0.0099311846253436181 0.009984058327845529 1 1 1 0.010332076631872151 1 0.010678508142218742 1 1 0.010008278675319731 1 1 1 1 1 1 1 1 1 1 0.010570217472126789 1 1 1 1 1 0.011061612129165304 1 0.010003206258982145 1 1 1 1 0.010127446669138758 1 1 1 0.011613151506356667 1 1 1 1 1 1 1 1 1 1 1 1 1 1 1 1 1 1 1 1 1 0.010071574500106904 1 1 1 1 1 1 1 1 1 1 1 1 1 1 1 1 1 1 1 1 1 1 1 1 1 1 1 1 1 1 0.0099954823952078092 1 1 1 0.010209791874279305 1 0.010238330565731929 1 1 0.010265250272458126 1 1 1 1 1 0.010238821054062321 1 1 1 1 1 0.010465843302707944 1 1 1 0.0099812765925557535 0.009961489757777834 1 1 1 1 1 1 1 1 1 0.0099754968453354947 1 1 1 1 1 1 1 1 1 1 1 1 1 1 1 1 1 1 1 1 1 1 1 1 1 1 1 0.010009940222455976 0.010034301199237249 1 0.010005422123052402 1 1 1 1 1 0.01003139091413615 1 1 1 1 1 1 1 1 1 1 1 1 1 1 1 1 1 0.0099835672127586896 1 1 1 1 1 1 0.010175515405037666 0.009949376187612281 1 1 0.010003886645651097 1 1 0.0099993611541750911 0.0099146003344954565 1 1 1 1 1 0.010031750634893016 1 1 1 1 1 1 1 1 1 1 1 1 1 1 1 1 0.010056962040984045 1 1 1 1 0.010136414618872913 1 1 1 1 1 1 1 1 1 1 0.010145915303236681 1 1 1 1 1 1 1 1 1 1 1 1 1 0.0099973212950841307 1 1 1 1 1 0.01037130597133752 1 1 1 1 1 1 1 0.01000187800310072 1 0.010187189998214125 1 1 1 1 1 1 1 1 1 1 1 1 1 1 0.0099938523898091963 0.010208787382235724 0.010004619751723353 1 1 1 1 1 1 1 1 1 1 1 1 0.010166906666056155 1 0.010196650483195919 1 1 1 0.010187694796829756 1 1 1 1 0.010676452014801515 1 1 1 1 0.0099987289593254942 1 0.010136616928099876 1 1 1 1 1 1 1 1 1 1 1 1 1 1 1 1 1 1 1 0.01007453712658927 1 1 0.01101056980999896 1 0.010860371131940745 1 0.010322756065244397 0.011077217388768565 1 1 1 0.010184154393861358 1 1 1 0.010023882538509414 1 1 1 1 1 1 1 0.010218731862036163 1 0.010507869612317908 1 1 1 1 1 0.010012878164037191 1 1 1 0.010366594220376108 1 1 1 1 1 0.010938113834723585 1 1 0.010845812402121752 1 0.010229072510269395 1 1 0.010217764872391427 1 1 1 1 1 1 1 0.01045787183095769 1 0.010497968698346027 1 1 1 1 1 1 1 1 1 1 0.010288152604970532 1 0.010061661079590464 0.010062124738573312 1 1 1 0.01033515073135279 1 1 1 1 0.010196168454873866 1 1 1 1 0.010002361806152464 1 1 1 0.010064831329256755 1 0.0099807218994645459 1 1 0.010008736304961258 1 0.010035426525158972 1 0.010336439655873667 1 1 1 1 1 1 0.010007356670315286 1 0.010623520298549877 1 0.010000598988550682 1 1 1 1 0.010186690582321047 1 1 1 0.010386935388875276 1 1 1 1 1 1 1 1 1 1 1 1 1 1 1 0.010200603863468868 1 1 1 0.010351386632927152 0.010018639570591386 0.010335309324834507 1 1 0.01019694687890488 1 1 1 1 0.010197597944432672 1 1 1 0.010127681804538045 1 1 0.010031447066222296 1 0.010328847049691628 1 1 1 0.010496106067134876 1 0.0099431538387145697 0.010041450051473631 1 1 1 1 1 1 0.010439015634570201 0.010165935733139274 1 0.010000391953402301 1 1 1 1 1 1 1 0.010380119503088371 1 1 1 0.010583305214119147 1 0.0099969075677126384 1 1 0.010020276003111409 1 1 1 1 0.010981370828437073 1 1 0.010654282032299423 1 1 1 0.010056557270803202 1 1 1 0.010166757087450051 1 1 1 0.010479769159904661 1 0.010239399607122134 1 1 1 1 1 1 1 1 1 1 1 1 1 1 1 1 1 1 1 1 1 1 0.0099970252793651036 1 1 1 1 1 1 1 1 1 1 1 1 1 1 1 1 1 1 0.010466334927325779 1 1 1 1 0.010536528318892829 1 0.010679699254250673 1 1 1 0.010023790872671575 1 0.010755718979565464 1 1 1 0.010118599794848634 1 1 1 0.01001030305273394 1 1 1 1 1 0.010249234658628655 1 0.010426014184187222 1 1 0.010247226827902856 1 0.010277227295438427 1 1 1 0.010257583282034168 0.010292565267896694 1 1 1 0.010011646459035154 1 1 0.010000169028356046 0.010312178640741403 0.010327523047834599 1 1 1 1 0.011012947279848168 1 0.010398486648762938 1 1 1 0.011177069246591027 1 1 1 1 0.010011582485343272 1 1 1 0.011255349349281813 1 1 1 1 1 1 1 1 1 1 0.010127187789509853 1 1 1 1 1 1 1 1 1 1 1 0.011227989528379384 0.009954050704091803 1 1 1 1 0.010000397116953844 0.011757501707640425 1 0.011646504498643994 1 1 1 1 0.010053340538703964 1 1 1 1 1 1 1 1 1 1 1 1 0.011488077998054593 1 1 1 0.010482580288439125 1 1 0.010470450215852889 1 1 1 1 1 1 1 1 1 0.010442888418565248 1 1 1 1 1 1 1 1 1 1 1 1 1 1 1 1 1 1 1 1 1 1 1 1 1 1 1 1 1 1 1 1 1 1 1 1 1 1 1 1 1 1 0.010298089954841747 1 0.010174836011971639 1 1 1 1 1 1 1 1 1 0.010388932957010757 1 1 1 1 1 1 1 1 0.010042643159319412 1 1 1 1 1 1 1 0.010550091480534167 0.010001647043787953 1 1 1 0.011064255908458945 0.010049481759764953 1 1 1 1 1 1 1 1 1 1 1 1 0.010015443691450476 1 1 1 1 1 1 1 0.011046428331678395 1 1 0.010000526194592367 1 1 1 1 1 1 1 0.010516330677618875 0.010288483703031504 1 1 1 1 1 1 0.0099998599358858929 1 0.010284154493617749 1 1 1 1 1 0.0099923318157078694 1 0.01056689659785014 0.010001898471009558 1 1 1 0.009999041840572577 1 1 0.010066500788801204 1 0.010000392340277022 1 0.010401058024367842 1 0.010566300215612098 1 1 1 1 0.010484954025610893 0.01000748799049197 1 0.010053134498478382 1 1 1 1 1 1 0.010577043660912139 1 1 0.010180316756784725 1 1 1 1 1 1 1 1 1 1 1 0.011408306192690131 1 0.010130488474893836 0.010609461094301753 1 1 1 1 1 1 0.01017627747712236 1 1 0.01000417442667606 1 1 1 1 1 1 0.009993164437410532 1 0.010378645273992378 1 0.010856457523646411 1 0.0099282349326191531 0.010448127541164599 1 1 1 1 1 1 1 1 1 1 1 0.010413115011724497 1 1 1 1 1 0.010584431616378599 0.010116645151634794 1 0.010679156335354954 1 1 1 1 0.0105395408729658 1 0.010050007366916202 1 0.010061682992285444 1 1 1 1 1 1 1 0.010033239870222928 1 1 1 1 1 1 1 1 1 1 1 1 1 1 1 1 1 1 1 1 1 0.010008743573146243 1 1 1 0.0099965884434736248 1 1 1 0.010039240938572138 1 0.0099849641901207514 1 1 0.010003876348049761 1 1 1 0.01000553045954161 1 0.0099749577747324653 1 1 1 1 1 1 1 1 1 0.010014445455358527 1 1 1 1 1 0.009967378023823607 1 1 1 1 1 0.01007493226221319 1 1 1 1 1 1 1 1 1 1 1 1 0.0098654840644373729 1 1 1 1 1 0.01001089320360584 0.011166144708611455 1 1 1 0.0097331235272278584 1 0.01090417319058426 1 1 1 0.010195067862388574 1 1 1 1 1 1 1 1 1 0.010307973310644543 0.009876062374129092 1 1 1 1 0.010002912139892009 1 1 1 0.0099785076700496661 1 1 1 0.0099383039505599336 1 1 1 1 1 1 1 1 1 1 1 1 0.011296420093658876 1 1 1 1 1 1 0.010151567704673563 1 1 1 1 1 1 1 1 1 1 1 1 1 1 0.010278865573428443 1 1 1 0.010060707737569589 1 1 1 1 0.010099330857026098 1 1 1 1 1 1 1 1 1 1 1 1 1 1 1 1 1 1 0.010051427352879212 1 1 1 1 1 1 1 1 1 1 1 1 0.010091136588646167 0.010084633138643342 1 1 1 1 1 1 1 1 1 0.010029212946818503 1 1 1 1 1 1 1 1 1 1 1 0.010791085619282687 1 0.010071847042979464 1 1 1 1 1 1 1 1 0.010599697880124097 1 1 1 1 1 1 0.010216659530308616 1 1 1 1 1 1 1 1 1 0.010350329689412225 0.010303675073521694 1 1 1 1 0.010000105875235352 1 1 0.011103736696641789 0.010000256569672237 1 1 0.010003379772283107 0.011115291930617244 1 1 1 1 1 0.0098215934140134294 0.010912834084993665 1 1 0.0099913492220598116 1 1 1 1 1 1 1 1 0.010601769648535176 1 1 1 1 1 1 1 1 1 1 0.0099059716353269937 1 1 1 1 1 1 1 1 1 1 1 0.010081388975520623 1 1 1 1 0.010214739471715289 1 1 1 1 1 0.010163203996670686 1 1 1 1 0.01013060609914714 1 1 0.010024082821162857 0.010037062822022491 1 1 1 1 1 1 1 1 1 1 1 1 1 1 1 1 1 1 1 1 1 1 1 0.0098407111887821655 0.010242574475675857 1 1 1 1 0.0099671369687793603 0.01000314845598867 1 1 1 0.010089822158834465 1 1 1 1 1 1 1 1 1 1 1 1 1 1 1 1 0.0099715208005897518 1 1 1 1 1 1 1 0.010324178261834828 1 1 1 1 1 0.010426383479979881 1 1 1 1 1 1 1 0.010127312262527558 1 1 1 1 1 1 1 1 0.010056781916858723 1 1 1 1 1 1 1 1 1 1 0.0099458692019258263 1 1 1 1 1 1 1 0.011095430417946518 1 0.010376715374670244 1 1 1 1 1 1 1 0.010197175416132874 1 1 0.011189953377298535 1 0.011133772334853352 1 1 1 1 1 1 1 0.011080697692731557 1 1 1 1 1 1 1 1 1 1 1 1 0.0099000569195580659 1 1 1 1 1 1 0.010009770080936438 1 1 1 1 1 1 1 1 1 1 1 1 1 1 1 1 0.010320953381098084 1 1 1 0.010035839545886044 1 0.011196498459024085 1 1 0.010185606031003304 1 0.011046818873830196 0.010601495096749942 1 1 0.010657313526685501 1 1 0.010148555384271184 1 1 1 1 1 1 1 1 1 1 1 1 1 1 1 1 1 0.01152480229592035 1 0.010970085631799447 1 1 0.01216864652223773 1 0.010887106544758926 1 1 0.011117760014065448 1 0.0099616281118709554 1 1 1 1 1 1 1 1 0.0101023470313508 1 1 1 1 1 0.011167455305867484 1 1 1 1 1 1 1 1 1 1 1 1 1 1 1 1 1 1 1 1 0.010439858313943 1 1 1 0.010552642318596928 1 1 1 0.010372980409390721 0.012113323872142708 1 1 1 1 1 1 1 1 1 1 1 0.010195561846835309 1 1 1 1 1 1 1 1 1 1 1 1 0.010384928262913661 1 1 1 1 1 1 1 1 1 0.010023912837868052 1 1 1 0.010048254599080335 1 1 1 1 1 1 1 1 1 1 0.010024341761212283 1 1 1 1 1 1 1 1 1 1 1 1 1 1 1 0.0099618185934689935 1 1 1 1 0.0098713326889350445 1 1 1 0.010110725137512997 1 1 1 1 1 1 0.010318055705307048 1 1 0.0099262771261446042 1 1 1 0.010030588824336549 1 1 1 0.010125525067089192 1 1 1 0.010022652968445367 1 1 1 1 1 1 1 1 0.0099528978336694413 1 0.010055335555570186 1 1 1 1 1 1 1 0.010350500790815731 1 0.0098089337548046378 1 0.010812831105382168 0.010466013310609123 1 1 1 1 1 0.010025742034357939 1 1 1 1 1 1 0.010231783422529306 1 1 0.0098116526183709574 1 1 1 1 1 0.0099558888882724673 1 1 1 1 1 1 1 0.0099053966662113902 1 1 1 1 1 1 0.0099438326255159026 1 1 1 1 1 1 1 1 1 1 1 1 1 0.0099495077779389214 1 1 1 1 1 1 1 1 1 1 1 0.010143149328577954 1 1 1 0.010000667957381184 0.01037025041538038 1 1 0.01054530288895373 1 0.010026158430195591 1 1 1 1 1 1 1 1 1 1 1 1 1 1 1 1 1 1 1 1 1 1 1 1 0.010270319787920991 1 1 1 1 1 1 0.010385392213371286 1 1 1 0.010718246730985048 1 1 0.010973517053113387 0.010704300424966515 1 1 1 1 1 1 0.010646165932026032 1 1 1 1 1 1 1 1 1 1 1 1 0.0099525026029096617 1 1 1 1 1 1 0.0099872490069901863 1 1 1 1 0.010001630891172061 1 1 1 0.010005617041063782 1 1 1 0.010020085421490334 1 1 1 1 1 1 1 1 1 1 1 1 1 1 1 1 1 1 1 1 1 0.011301295901376343 1 1 0.011444779543127465 1 1 1 1 1 1 1 1 0.011417501838208281 0.0099815824341547826 1 1 1 1 1 1 0.010513358353369931 1 1 1 1 1 1 1 1 1 1 1 1 0.01008399390434148 1 0.010287449133165283 1 1 1 1 1 1 1 1 1 1 1 1 1 1 0.0097100235962428155 1 1 1 1 1 1 0.011368003045983377 1 1 1 1 1 1 1 0.010000149272786111 0.010209630773171042 1 1 1 1 1 1 1 1 1 1 1 1 1 1 1 1 1 1 1 1 1 1 1 1 1 1 1 1 1 1 1 1 1 1 1 1 1 1 1 1 1 0.0098310212115179582 1 1 1 1 0.010103305905664696 1 1 1 1 1 1 1 1 1 1 1 1 1 1 1 1 1 1 1 1 1 1 1 1 1 0.011137649208089571 1 1 1 1 1 1 1 1 1 0.010753153408438286 1 1 1 1 1 0.010272802786406949 1 1 0.010165700790160739 1 1 1 1 1 1 1 1 1 1 1 1 1 1 1 1 1 1 1 1 1 1 1 1 1 1 1 0.009998405793642088 0.0096242472766028299 1 1 1 0.010006088454074299 1 1 0.0099044903413644369 1 1 0.0099905862020634763 1 1 0.0099980122738101817 1 1 1 1 1 1 1 1 0.010229120511023612 1 1 0.0099217625230505826 1 1 1 1 0.0099745331052518253 0.010171737669627331 1 1 1 1 1 1 1 1 1 1 1 1 0.0099930443036670997 1 1 1 0.0101219889450861 1 1 1 1 1 1 1 0.010973038271978531 1 0.011215298948944933 1 1 1 1 1 0.011212699064627856 1 1 1 1 1 0.011027305387130261 1 1 1 1 1 1 1 1 1 1 1 1 1 0.01001540514910108 1 1 0.010023999606705868 1 1 1 1 1 0.0099487007245734199 1 1 1 1 1 1 1 1 1 1 0.0098905784007206933 1 1 1 1 1 1 1 1 1 0.0099349006778011485 1 1 1 1 1 1 1 1 0.010028573721130222 1 1 0.0099992388355452759 1 1 1 1 1 1 1 1 1 1 1 0.010216714077109059 1 0.0099162366323514751 1 1 1 1 1 1 1 1 1 1 1 0.0097270311074844438 1 1 1 1 1 1 1 1 1 1 1 1 0.0099728469246728978 1 1 1 1 1 1 0.010217034074910831 1 1 1 1 1 1 1 1 1 1 1 1 1 1 1 1 1 0.010442259212840092 1 1 1 1 1 1 1 1 1 0.010036355818525232 1 1 0.010074011705098669 1 1 1 0.010032725776935904 1 1 0.01035904413941215 0.010019912767071402 1 1 1 1 0.010150811455909518 1 1 1 1 1 1 1 1 1 1 0.010472750324886877 1 1 1 1 1 0.010461060190670638 1 0.010010448832664165 1 1 0.010539062558233335 1 0.0099686751945809483 1 1 0.010024196030057414 1 1 1 1 0.0099878011548858205 1 1 1 1 0.010045850741620482 1 1 1 1 1 1 0.01013316116502188 1 0.01018893725266321 1 1 1 1 1 1 1 1 1 1 1 1 1 0.0099728173839631166 1 1 1 1 0.01002560913828846 1 1 1 1 1 0.01016147063089444 1 1 0.010919218009657479 1 1 1 0.010050684191377918 1 1 1 1 1 1 1 0.010058420563904493 1 1 0.010181433533831833 1 1 1 1 0.010063879068819431 1 0.010502445325826443 1 0.0098764041062963173 0.0099849472405683197 1 1 0.010816600100023796 0.010622311077829898 0.010142206263788166 1 1 1 1 1 1 1 0.009847024527083293 1 1 0.0099680001199865028 1 1 0.01021607175127646 1 0.010483147629296967 0.01025400843647706 1 1 0.0099004449188411954 0.010085854760846717 0.010449412654626154 1 0.009922944243469135 1 1 1 1 0.0098458759216343266 1 0.009801886952385052 1 1 0.010863597985320545 1 1 1 0.010007447426595102 1 1 1 1 0.010416832780959017 1 0.010016703823026491 1 1 1 1 1 0.010297651528892676 0.010052895935026765 0.010853730142107741 1 1 1 1 1 1 1 1 1 1 1 0.0097388808905206851 1 1 1 1 1 1 1 0.010198166472764775 1 0.0094438875410253753 1 1 1 1 1 0.010224718092245538 1 1 1 1 1 1 1 0.0099614309910698463 1 1 1 1 1 1 0.0098894105722551057 1 1 1 1 0.011380446395652184 1 1 1 1 0.010165203945123829 1 0.010968479975968838 1 1 1 1 1 0.011139006929625477 1 0.01083327457713097 0.0096013093287465219 1 1 1 1 0.0096918187421002142 1 1 1 1 1 1 1 1 1 1 0.010002659743621281 0.0097244330618835861 1 1 0.0099956732843847155 1 1 1 0.010531742962841397 0.0098591180503375241 1 0.010452535991734442 0.010307056982734646 0.010588302588488162 1 1 1 1 1 1 0.010509320240810402 1 1 0.010446210203530515 1 0.0098965970301620465 1 1 0.010214016675167008 0.010900790639968978 0.0098621122745556015 1 0.0099380605026117303 0.0098835770303282635 1 1 1 0.010080024118930359 1 0.009910989504448289 0.010131792966733869 1 1 1 1 1 0.010057455387015619 1 1 1 1 1 1 0.0099952717635302495 1 1 0.0098820002225968283 1 1 0.010032556777435661 1 1 1 1 1 1 1 1 1 1 1 1 1 1 1 1 1 1 1 1 1 0.010743772211064904 1 1 1 1 0.011097644281429987 1 1 1 1 1 1 0.010001413422774292 1 1 1 1 1 1 1 0.010013041335121245 1 1 1 1 1 1 1 1 1 1 1 1 1 1 1 1 1 1 1 1 1 1 1 1 1 1 1 1 1 1 0.010277194812942468 1 1 1 1 1 1 1 1 1 1 0.0099699183797044323 1 1 1 1 1 1 1 1 1 1 1 1 1 1 1 1 1 1 1 1 0.0099160439599294062 1 0.010000748532165786 1 1 1 1 1 1 1 1 1 1 1 1 1 1 0.0088788764226628032 1 1 1 1 1 1 1 1 1 1 1 1 1 1 1 1 0.010814398207173967 1 1 1 1 1 1 1 0.010025078304991145 1 1 1 1 0.010910557462059951 1 1 1 1 1 1 1 1 1 1 1 1 1 0.010273987344567097 1 1 1 0.010820821429939474 1 1 0.011322932982084264 1 1 1 1 1 1 1 1 1 1 1 0.01026846266174289 1 1 1 0.011871905883616134 1 1 0.0099829205512197115 0.010243558832747151 1 1 1 1 0.01012556512166944 1 1 1 0.010180346494327771 1 1 0.010019171411332265 1 1 0.0099857246055940173 1 1 1 1 1 1 1 1 1 1 1 1 1 1 1 1 1 1 1 1 1 1 1 1 1 1 1 1 1 1 1 1 1 1 1 1 1 1 1 1 1 1 1 1 1 1 1 1 1 1 1 1 1 1 1 1 1 1 1 1 1 1 1 1 1 1 1 1 1 1 1 1 1 1 1 1 1 1 1 1 1 1 0.01012693791187586 1 1 1 1 1 0.0099440701617279862 1 1 1 1 1 1 1 1 1 1 0.010063758828599801 1 1 1 0.011251795001778924 1 1 1 1 1 1 1 1 1 1 1 0.010108934157755267 1 1 1 1 0.010056289785860657 1 1 1 0.010110822605031993 1 1 1 1 1 1 0.010452983764876158 1 1 1 0.0098399445652067267 1 1 0.011051375726913214 1 1 0.011028149582212682 1 1 1 1 1 1 0.0099938940435594509 1 1 1 1 1 1 1 0.0095755485454925449 1 1 1 1 0.01004715396441902 1 1 1 1 1 1 1 1 1 1 0.0099155068016625152 1 1 1 1 1 1 1 1 1 1 1 0.010000520042345471 0.01006317908327606 1 1 1 1 1 1 1 1 1 1 1 1 0.0098222048797243656 1 1 1 1 1 0.0099988029312852479 1 1 1 1 1 1 0.010001649017628199 1 1 1 1 1 1 1 1 1 1 0.009735344256066078 1 1 1 1 1 1 1 1 1 0.010052624936888096 1 1 1 1 1 1 0.0099947396918892654 1 1 1 0.0099810996506996211 0.010025391964459462 0.0096861151829585289 1 1 0.010142674409557444 1 1 1 1 0.0096192282481452618 1 1 1 1 1 0.0099978999073661225 1 1 1 1 1 1 1 1 1 1 1 1 1 1 1 1 1 1 1 1 0.0098977838959164646 1 1 1 1 1 0.009892521202447822 1 1 1 0.0096268372167772186 0.010448641445358486 1 0.010175170787131005 1 1 0.0098132576559944607 1 1 1 1 1 1 1 0.010158943870527593 1 1 1 1 0.0099581961256136747 0.010034743164555852 1 1 1 0.010027882921984536 1 1 0.0095649182840818921 1 0.0098904176714562173 1 1 1 1 1 1 1 1 1 1 1 1 1 0.010756545158070861 1 1 1 1 1 1 0.01071946792775182 0.0099970983801903144 1 1 1 1 0.010020424240704174 1 1 1 1 1 1 1 1 1 0.010468468854191386 1 1 0.010024814521967839 0.0099763039337744091 1 1 1 1 1 1 1 1 1 0.010124044490423017 1 1 0.0097342330239180621 1 1 0.01089684304494461 0.010099653290885068 0.010317732478231582 1 1 1 0.010672217441047006 1 1 0.010866324134730739 0.010196402391148142 0.010000891822720494 1 1 0.010459052485110042 0.010477343735516998 1 1 1 0.010452600159610336 0.010597604616223092 1 0.010005248453930126 0.010673982982679955 1 1 1 1 0.012592207989330048 0.0099934235474575892 1 0.010027445889436958 1 1 1 1 1 1 1 0.0099897495549577699 1 1 0.0097162708254342669 1 1 1 1 1 0.0096503127345801531 1 1 1 1 0.010030429610828381 1 1 1 1 0.010634848803867343 0.00977655854529242 1 1 1 1 1 1 1 0.010739367761267877 1 1 1 1 1 1 1 1 1 1 1 0.01073544607311939 1 1 1 1 1 1 1 0.010027057506474566 1 1 1 1 1 1 1 1 1 1 0.010102938603163372 1 0.010022905786923185 1 1 1 1 1 1 1 1 1 1 1 1 0.010155324039463348 1 1 0.010511005917636141 1 1 1 1 0.010713001547511831 1 1 0.0099973855004812286 1 0.010017936852584659 1 1 0.010487900669272202 1 1 1 1 1 1 1 1 0.010014900164631413 0.010986611453480353 1 1 0.01016749036079086 1 1 1 1 1 0.010643623605775556 0.010227909530721849 0.010468447468891693 0.010593803719670183 1 1 1 0.010603562645624773 1 0.0099857749712304652 1 0.010091623276418387 1 1 1 0.010154870128292753 1 0.010960329520318644 1 0.010080662613850745 1 1 1 1 0.010260637692203711 1 0.010331039597745095 1 1 1 1 1 0.010383646163145341 1 1 1 1 1 1 1 1 1 1 1 0.01004824295708235 1 1 1 1 1 1 1 1 1 1 1 1 0.010611402253522152 1 0.010607995039921558 1 1 1 1 1 1 0.010543821154196876 1 1 1 1 1 1 1 1 1 1 1 1 1 1 1 1 1 1 1 1 1 1 1 1 1 1 1 1 1 1 1 1 1 1 1 1 1 1 1 1 1 1 1 1 1 1 0.010048374020745723 1 1 0.011362478605650556 1 1 1 1 1 0.011132495401451014 1 1 0.0098053619068903808 1 1 1 1 1 1 1 1 0.0099348549627292174 1 1 1 1 1 0.010135938819923748 1 1 1 1 1 1 1 1 1 1 0.011505788646204468 1 1 0.01159789120654282 1 1 0.0087727557489768633 1 0.010382590878307433 1 1 0.010009213091308268 1 0.010007156836317926 1 1 1 1 1 1 1 1 1 1 1 1 1 1 1 1 1 1 1 1 1 1 1 1 1 1 1 0.011600191055438818 1 1 1 1 1 1 1 1 1 1 1 1 1 1 1 1 1 1 1 1 1 1 1 1 1 1 1 1 1 1 1 1 1 1 0.01008768277090678 1 0.01021777013752832 1 0.010006915508641362 1 1 1 1 1 1 1 1 1 1 1 1 1 1 1 1 1 1 1 1 1 1 1 1 1 1 1 1 0.0099890569567402492 1 0.010068775336842679 0.010015826846096051 1 1 1 1 0.01004819296789097 1 1 1 1 1 1 1 1 1 1 1 1 1 0.010230069178173427 1 0.0100956942925168 1 1 1 1 1 1 1 1 1 1 1 1 1 1 1 1 1 1 1 1 1 1 0.010283754145573141 1 1 1 1 1 1 1 1 1 1 1 1 0.010084890711739984 1 1 1 1 1 1 1 1 1 1 0.0099771503444527915 1 1 1 1 0.010265110795731704 0.0099282171368988582 1 0.010101587102045723 1 1 1 1 1 1 1 1 1 1 1 1 1 1 0.010701418677930879 1 1 1 1 1 1 0.010081813097567041 1 1 1 1 0.010040191408697014 1 1 0.010242288161431256 1 0.010264031683847145 1 1 1 0.0099796991947370683 1 1 0.010007003347851026 1 1 1 0.010022668763273783 1 1 1 1 0.010200279777142763 1 1 1 1 1 1 0.010108995788379241 1 0.010072870061262139 1 0.01007801301578983 0.010007196486786126 0.010080938830062119 1 1 1 1 1 0.010152013567744251 1 1 0.010051486541554704 1 1 1 1 1 1 1 1 1 1 0.010100374788326108 0.010041974966077146 1 1 1 1 1 1 1 1 1 1 0.010218776169057964 1 1 0.010016846191910626 1 0.010198928630068944 1 1 1 1 1 1 1 1 1 1 1 1 1 1 1 1 1 1 1 1 1 1 1 1 1 0.010110300649483673 1 1 0.010033560351489884 1 1 1 1 1 1 1 1 1 1 1 1 1 1 1 1 1 1 1 1 1 0.010282902784831403 0.010332663504989025 1 1 1 0.010092476766688622 1 0.010124092387567266 0.010023009654919472 1 1 1 0.010000421291686967 1 0.010217438566555841 1 0.010395042131017117 1 1 0.010202743615667384 0.010003728561161825 1 1 0.010118860079227045 0.010021038060495886 1 0.01019604970917367 1 0.0099946978372198875 1 1 1 0.010487118115579949 0.010267760005177144 1 0.010000784703768091 1 1 1 0.010542504594831191 1 1 1 1 1 1 0.010493481698034011 1 1 0.01040178598982669 1 1 1 1 1 0.010398787120841028 1 1 0.010000386122245939 1 0.010261810084596906 1 0.010297177435794275 1 1 1 1 1 1 1 0.010205362811014944 1 1 0.010006300935684125 1 1 1 1 0.009943476582624575 0.010358537638735909 1 1 1 0.010385381076867865 1 0.01017239733792551 1 1 1 1 1 1 1 1 1 1 1 1 1 1 1 1 1 1 1 1 1 1 1 1 1 1 1 0.010344274981677039 1 1 1 0.010432932337072759 1 1 1 1 0.010525809122332346 1 0.0099763121616586511 1 0.01000745218254911 0.01030787660842631 1 1 1 0.010974944983682863 1 1 1 1 0.010509772385034548 1 1 1 1 1 1 1 0.01057666478332845 1 1 0.0099995706551303243 1 0.010663545624080091 0.010334337882401861 1 1 1 1 0.0099999345823111995 0.01036108449618295 1 1 0.010867317009523814 1 0.010857753554452716 1 0.010534940258799931 0.010535544784980923 1 1 0.010331477818949572 1 1 1 1 1 1 1 1 1 0.010202139822705871 1 1 1 1 1 0.010373076152292087 1 1 1 0.011099774734930144 1 1 0.010928182363518323 1 1 1 0.01004799391649702 1 1 1 1 1 1 1 1 1 1 0.010090731648111358 1 1 1 1 1 1 0.01004444174513211 1 1 1 1 1 1 1 1 1 1 1 1 1 1 1 1 1 1 1 1 1 1 1 0.010004296837128649 1 1 1 1 1 1 1 1 1 1 1 1 1 1 1 1 1 1 1 1 1 1 1 1 1 1 1 1 1 1 1 1 1 1 1 0.010842765859231961 1 1 1 1 0.010672600765126329 0.010515706384056646 1 1 0.011608751357873162 1 1 0.0099964511295099704 1 1 1 0.010795295992386921 1 1 1 1 1 1 1 1 1 1 1 1 1 1 0.011446148649941017 1 0.010000926218933125 1 1 1 1 1 0.010140360040032839 1 1 0.010984854971764709 1 1 1 0.010882630589938894 1 1 1 1 0.010959836756257398 1 1 1 0.010001788386467959 1 1 0.010041621688870029 1 1 1 1 1 1 1 1 1 1 1 1 1 1 1 1 1 1 1 1 1 1 1 1 1 1 1 1 1 1 1 1 1 1 0.0099861818213177155 1 0.010817020929092451 1 1 1 1 1 1 1 1 1 1 1 1 1 1 1 1 0.0099782996486663389 1 1 1 1 1 1 1 1 1 1 1 1 1 1 1 1 1 1 1 1 1 1 1 1 1 1 1 1 1 1 1 1 1 0.0099949454605622167 1 1 1 1 0.010233959358847836 0.010211775555922911 1 1 0.0098670387038604906 1 1 1 0.010062518472532854 1 1 0.010237271431315115 1 1 1 1 0.01047932166496804 1 1 1 1 1 1 1 1 1 0.010453396728920535 1 1 1 1 1 1 1 0.010015469452488093 1 1 1 1 1 0.01054230392722131 1 1 1 0.010911755300149043 1 1 1 1 0.0099992262011629803 1 0.0099887079007107745 1 0.011033319968257712 1 0.0099718971122236284 1 1 1 1 0.010465537706430959 1 1 1 0.010323634326368129 1 1 0.010000377860051302 1 1 0.0099634132363739299 1 1 1 0.010197678206897556 0.010049793531147093 1 1 0.010333441637815105 1 0.0099572672960179711 1 0.010064385109067306 1 0.010214467385889742 1 0.010526852538911129 1 1 0.010437708848354477 1 1 0.010000695446449541 1 0.010125443867944605 0.01054857900549034 1 1 1 0.010507527718558894 1 1 0.010015530450084738 1 1 0.010005517040356458 1 1 1 1 1 1 1 0.0099994422886871374 1 0.010410101025744758 0.010028183012275099 1 1 0.0099261066742980745 1 1 0.009913880616863666 1 0.010321549650324922 1 0.0098005223006773865 1 1 1 1 0.010276112857697937 1 1 1 1 1 1 1 1 1 0.0098072134669768673 0.010287307443320452 1 0.0099903141692672844 1 0.0099477501360423562 1 0.0099580737193597172 1 0.010430976786327826 1 1 1 1 1 1 1 0.01008759245486176 1 1 1 1 1 0.010009425733007268 1 1 0.010000314201638225 0.010422182007336966 1 0.0099222614120750997 1 1 1 0.010007748310146463 1 0.010409053962820627 0.010559849805098855 1 1 1 1 0.010011384580674756 1 1 0.010232118458607727 1 0.010340660720220635 1 1 1 0.010443032861612718 1 0.010035472243542771 1 1 1 1 1 1 1 1 1 1 1 1 1 1 1 1 1 1 1 1 1 1 0.0099614479621732231 1 1 1 1 1 0.0099802408205952094 1 0.010026599876702211 1 1 1 0.0099381927054062822 1 0.0099878930438690432 1 0.0099927198325673924 1 1 1 1 0.010267411129191861 1 1 1 0.010010235223004564 1 1 0.010028500055957585 1 0.010178755719211273 1 1 1 0.0099761087220112867 1 0.010094788878836709 0.010214162784357061 1 1 1 1 0.010155054936528829 0.010276253193869843 1 1 0.010481916870395474 1 1 1 1 0.0098635095856681402 1 1 1 1 1 1 0.010281574736364535 1 0.010095394471257051 1 1 1 1 1 1 0.0098423329867063265 1 0.010009507240452704 0.010015739233203967 1 0.0098506774574712644 1 1 1 0.010453798515526261 1 1 0.009743540766997523 1 1 0.010403011617897272 1 0.0099942734671582163 1 1 1 1 1 1 1 1 1 1 1 1 1 1 1 0.0099901227795893329 1 1 1 1 1 1 1 1 1 1 1 1 0.010187323592457017 1 1 1 1 1 1 1 1 1 1 0.010063160662027493 1 1 1 1 1 1 1 1 1 1 1 1 1 1 1 1 1 1 1 1 1 1 1 1 1 1 1 1 1 1 1 1 1 1 1 1 1 1 1 1 1 1 1 1 1 1 1 0.010119408979241325 1 1 1 1 1 0.010087850472760264 1 1 1 0.010051409274004143 1 1 1 1 1 1 0.010101381781556382 1 1 1 1 1 1 0.0099993561935553654 1 1 1 1 1 1 1 1 1 0.0099931027889097971 1 1 1 1 1 1 0.010045117035678668 1 1 1 1 1 1 1 1 1 1 1 1 1 0.010123184352635648 0.0099675064772301175 1 1 1 1 1 0.010038439597119232 1 0.0099968090304398041 1 1 1 1 1 1 1 1 1 1 1 1 1 1 0.010029580686696977 1 0.010211755385291283 1 1 1 1 1 1 0.010082426348455437 1 0.010710169056039167 1 0.010290474679563202 1 1 1 1 1 1 0.0098884675762566446 1 1 1 0.010218381773324334 1 1 1 0.0096931563395486996 1 1 1 1 1 1 1 1 1 0.0098420038699718118 1 1 1 1 1 1 1 1 1 1 1 1 0.010006867527366323 1 1 1 1 1 1 1 1 1 1 0.0098408749286053709 1 1 1 0.0098390931735489254 0.010411019769872189 1 1 1 0.010304127900641807 0.010100367670353862 1 1 0.0098856530006840478 1 1 1 1 0.010032498371161979 1 1 1 1 1 1 0.0098668973887648011 1 0.010003647970821594 1 1 1 1 0.010223665887073579 1 1 0.0098598115871846824 1 0.0097471513815556906 1 1 1 1 0.010389751194194097 1 1 1 1 1 1 1 1 1 0.010154029530104322 1 1 1 1 0.00999971557004279 1 0.010003587840864281 0.01000040751542901 1 1 1 1 1 1 1 1 1 0.01004777675303857 0.010424105666966013 1 1 1 0.010526423662041011 1 0.010006138682859799 1 1 1 1 1 1 1 1 1 1 1 1 1 1 1 1 1 0.009955237952754532 1 1 0.010001622218192235 1 1 1 1 1 0.010000644852136892 1 0.0098447588994695374 1 1 1 1 1 1 1 0.010228294561331576 1 1 1 0.010231261626033947 1 1 0.0099140806164200145 1 0.0099961481909838605 1 1 1 1 1 1 1 1 1 1 1 1 1 1 1 1 1 1 1 1 1 1 1 0.010046536622342003 1 1 1 1 1 1 1 1 1 1 1 1 1 1 1 1 1 1 1 1 1 1 1 1 1 1 1 1 1 1 1 1 1 1 1 1 1 1 1 1 1 1 1 0.01008554575159709 1 1 1 1 1 1 1 1 1 1 1 1 1 1 1 1 1 1 0.010030967085156927 1 1 1 1 1 1 1 1 1 1 1 0.010101115288782166 1 1 1 1 1 1 1 1 1 1 1 1 0.01009818039320123 1 1 1 0.010320562340459104 1 1 1 0.010111695305284175 0.010032422186336374 1 0.01002752795288522 0.010206611762862226 1 1 1 1 1 1 0.010245508046789613 1 1 1 1 1 0.010091257235053904 1 1 1 1 0.010231532985567754 1 1 1 0.010306331060523971 1 1 1 0.010023030152930429 0.010008761023575057 1 0.010084640675957855 1 0.0099537372860781757 1 1 1 1 1 0.010000232290637089 1 1 1 1 1 1 0.010123532739306424 1 1 0.010043410974678518 0.010001298797918577 1 1 1 1 1 1 1 1 1 1 1 1 1 1 0.010013192426065038 1 1 1 1 1 1 1 0.010013074909577044 1 1 1 1 1 1 0.010015049811126124 1 1 1 1 1 1 1 1 1 1 1 1 1 1 1 1 1 1 1 1 0.010226895213808269 1 1 1 1 1 1 1 0.010099348301520161 1 1 1 1 1 1 1 1 1 1 1 1 1 1 1 1 1 1 1 1 1 1 1 1 1 1 1 1 1 1 1 1 1 0.0099993936263372343 1 1 1 0.0099846082084041055 1 1 1 1 1 1 1 1 1 1 1 1 0.010138987548581573 1 1 1 1 1 1 1 1 1 1 1 0.010001176624964837 1 1 0.010895921792899874 0.0099999013026533974 0.0096900100343293213 1 1 1 0.010902555140301896 1 1 1 1 1 1 1 1 1 0.010051658643191217 1 1 1 1 1 0.010198340710682784 1 1 1 1 0.010578260037240914 1 1 1 1 1 1 1 1 1 1 1 1 1 1 1 1 1 1 1 1 1 1 1 1 1 1 1 1 1 1 1 1 1 1 1 1 1 1 1 1 1 1 1 1 1 1 1 0.009951485403553794 1 1 0.010087902529170814 1 1 1 1 0.011115813546641607 0.0099056824083871304 0.0095145678327972875 1 1 1 1 1 1 1 1 1 1 1 1 1 1 1 1 1 1 1 1 1 0.0097463701713258587 0.0099663765562324237 1 1 1 1 1 1 1 1 1 1 1 1 1 1 1 1 1 1 1 1 1 1 1 1 1 1 1 1 1 1 1 1 1 0.0099261207381290163 1 1 1 1 1 1 1 1 1 1 1 1 1 1 1 1 1 1 1 0.010856581937566927 1 1 0.010349579623293794 1 1 1 1 1 1 1 1 1 1 1 1 1 1 1 0.0098388803265121658 1 1 1 1 1 1 1 0.009976383240761293 1 1 0.010200326996070444 1 0.0099012010871582009 1 1 1 0.010005230247730878 0.0098059051687301238 1 1 1 1 1 1 1 1 1 1 1 1 1 1 0.010283187789232599 1 0.010182579494442403 1 1 1 1 1 0.010486517042062875 1 1 1 1 1 1 1 1 1 1 1 1 1 1 1 1 1 1 1 1 1 1 1 1 1 1 1 1 1 1 1 1 1 1 1 1 1 1 1 1 1 1 1 1 1 1 1 1 1 1 1 1 1 1 1 1 1 1 0.011018734778231181 1 1 1 0.010372585765080983 1 1 1 1 1 1 1 1 1 1 1 1 1 1 1 1 1 1 1 1 1 1 1 1 1 0.011485517726520348 1 1 1 1 0.011687283098694264 1 1 1 1 1 0.010466910971275662 1 1 0.010159009880557159 1 1 1 1 0.010122323220697291 1 1 1 1 1 1 1 1 1 1 1 1 1 1 1 1 1 1 1 1 1 1 1 0.010325064995362839 1 1 1 1 1 1 1 1 1 1 0.010470226795270999 1 0.01059511170757026 1 1 0.0099512805962133355 1 1 1 0.010414394066908542 1 0.010012728964927064 1 1 1 1 1 1 0.010194209299573903 1 1 1 0.010156311372136457 1 1 1 0.010549733466597214 1 1 1 1 1 0.010309372470371055 1 0.010116144735126941 0.010036510318180881 1 1 1 1 1 1 1 0.010293696311900536 1 1 0.010221354386235318 1 1 1 1 1 0.010068623563870104 1 1 1 1 0.010069160682619215 1 1 1 1 1 0.01005338201940356 0.010086336628078476 1 1 0.0099999983778630321 1 1 1 1 0.010005286572143897 0.010435110653727445 1 1 0.010181182570239091 1 0.010253932059452036 1 0.010039278011393329 0.010916315175840239 1 1 1 1 1 0.011108226441387269 1 1 1 0.010712429838734484 1 0.010018683321699237 1 1 1 1 1 1 1 1 1 1 0.010289940914879437 1 1 1 1 1 0.010176686155592956 1 1 1 1 1 1 0.0098792194037889657 1 0.010000658955341855 0.0099719096456502548 1 1 1 1 1 1 0.0099299673545978923 1 1 0.0099779948573510916 1 1 0.0099983215421498711 1 1 1 1 1 0.010000187920850714 1 1 1 1 1 1 1 1 1 1 1 1 0.010057256971316323 1 1 1 1 1 1 1 1 1 0.0100931123418687 1 1 0.010203017795385485 1 1 0.010215771525129107 1 1 1 1 1 1 1 1 1 1 0.010401312253666891 1 0.010178358601826098 1 1 1 1 0.010020619014809136 1 1 1 0.010352896243367393 1 1 1 1 0.010167388718053973 1 0.011610521440859809 1 1 1 1 1 1 1 1 1 1 1 1 1 1 1 1 1 1 1 1 1 1 1 1 1 1 1 1 1 1 1 1 1 1 1 1 1 1 1 1 1 1 1 1 1 1 1 1 1 1 1 1 1 1 1 1 1 1 1 1 1 1 1 1 1 1 1 1 1 1 1 1 1 1 1 1 1 0.011166791958287105 1 1 1 1 0.01100544596277906 1 1 1 1 1 1 0.010417217367042559 1 1 1 1 1 1 1 1 1 1 1 1 1 1 1 1 1 1 1 1 1 1 1 1 1 1 0.010067739812919987 0.010067918744043471 1 1 1 1 1 1 1 1 1 1 1 1 1 1 0.010943775278661545 1 1 1 1 1 1 1 1 0.010096369861119562 1 0.010180564859966521 1 1 1 0.010286240936367531 1 1 1 1 1 1 1 1 0.01036521191611094 1 1 0.010014528423187719 1 1 1 1 1 0.010030404637020578 1 1 1 1 1 1 0.01017492060612408 1 1 1 1 1 1 1 1 0.010000987927934156 1 0.010095993921566678 1 1 1 1 1 1 1 1 0.010106932183496569 1 1 1 0.010084490363221043 1 0.010278211317864699 1 0.010263547857047875 1 1 1 1 0.009998496531318235 1 1 1 1 1 1 1 1 1 1 0.010165459632634601 1 1 1 1 1 0.01011569056486413 1 1 1 1 1 1 0.010040965963611571 1 1 1 1 1 1 1 1 1 1 1 1 0.010193121652581304 1 1 0.0099993884383325262 1 1 1 1 1 1 1 1 0.010074403560739291 1 0.010254351658636113 1 0.010095282416633895 1 1 1 1 1 1 1 1 1 1 1 1 1 1 1 1 1 1 1 1 1 1 1 1 1 1 1 0.009990551114652628 1 1 1 0.01010887887163639 1 1 1 1 1 1 1 1 1 1 1 1 0.010031585726882548 1 1 1 1 1 1 1 1 1 1 1 1 1 1 1 1 1 1 1 1 1 1 1 1 1 1 1 1 0.010032475926199939 1 1 1 1 1 1 1 1 1 1 1 1 0.010189810882867953 1 0.010250682441586464 0.010003033931227964 1 0.010087294219267309 0.010217464773882436 1 1 1 1 1 0.010191493993585465 0.01022125137664983 1 1 1 1 1 0.010093749135327814 1 1 1 1 0.0099943789164112957 1 1 0.0099856375401486258 0.0099625611425452724 0.010018413859911946 1 1 1 0.01014868499960166 1 0.0099861079849282944 0.0099187453669340973 1 0.010023602679746115 1 1 1 0.0099006227229816932 1 0.0099839890619610773 0.010115131596295568 1 1 0.010190962759823584 1 0.010002628062997241 1 1 1 1 1 1 1 1 1 1 1 1 1 1 1 1 1 1 1 1 1 1 1 1 1 1 1 1 1 1 1 0.010085395343257223 1 1 1 1 1 1 0.010097140508191034 1 1 1 1 1 1 1 1 1 1 1 1 1 1 1 1 1 1 1 1 0.010012607864074305 1 1 1 1 1 1 1 1 1 1 1 1 1 0.010038976936392637 1 1 0.010145056469053667 1 0.010000282230958885 1 1 1 0.0099996011436067206 1 1 1 0.0099829040903947133 1 1 1 1 1 1 1 1 0.010229596289474912 1 1 1 0.010404492611109425 0.0095241545474984493 1 1 1 1 0.010313155771630372 0.010031847033008046 0.010271967325240603 1 0.010000389791345144 1 1 0.009979713078734789 1 1 1 0.010242368478236358 1 1 1 0.010045097251914756 1 0.010133117139155707 1 1 0.0099297605406878636 1 1 1 1 1 0.0099810611026370597 1 0.010254893231566831 1 1 1 1 1 1 1 1 1 1 1 1 1 1 1 1 1 0.010219634897811351 1 1 1 1 1 0.010007296522909286 0.010574150180477034 1 1 1 1 1 0.010003612560041095 0.0099537204193365161 1 1 1 1 1 1 1 0.010349502385052639 1 1 1 1 1 1 1 1 1 1 1 1 1 1 1 1 1 0.010393694648813253 1 1 1 1 1 1 1 1 0.010395538910084812 1 1 0.010090269374056243 1 1 1 1 0.010039502021902824 1 1 1 0.010169292111773127 1 0.010169753402579296 1 1 1 0.010045193912108797 0.010005398147853544 0.010009683638179459 0.010015448690070088 1 1 1 1 1 0.0099991248766446977 1 1 1 1 1 1 1 1 1 1 0.010000107976695866 1 1 1 1 1 1 1 1 1 1 1 1 1 1 1 0.010005658158748362 1 1 1 1 1 1 1 1 1 1 0.010015931782242273 1 1 1 1 0.010131917191859633 1 0.010009652899008806 1 1 1 1 0.01011234303313919 1 1 1 0.010003157808964741 0.010052189217719394 1 0.010009692415128772 1 1 1 1 1 1 1 1 1 1 0.010023837432234943 1 1 0.010072235953493922 1 0.01000350429120136 1 1 1 0.010121828399845902 1 0.010131698221977858 1 0.010050305054714341 1 1 1 1 1 1 0.010052995162916214 1 1 1 1 1 1 0.010029879956243954 0.0099932954620070655 0.01006282049646863 1 1 1 1 1 0.01007935725486472 1 1 1 0.010053510719789997 1 1 0.01012673509916839 1 1 1 1 1 1 1 0.010017854454981431 1 1 1 1 1 1 1 1 1 1 1 1 0.010193194398727507 0.0099964330359586882 1 1 1 1 1 1 1 1 1 0.0099418112413619478 0.010046234019075997 1 1 1 1 1 1 1 0.0099816845910704055 1 1 0.010083999917009459 1 1 1 0.010157860497702693 1 1 0.0099988966453825392 1 1 1 1 1 1 1 1 1 1 1 1 1 0.010022930621063849 1 0.010001579718284409 1 1 1 1 1 1 1 0.010041765422089999 1 1 0.010008940543056562 1 1 1 1 1 0.010024064307758821 1 1 1 0.010008103894993292 1 1 0.010002150190633595 1 1 1 1 1 1 1 1 1 1 0.010017131731342745 1 1 1 1 1 1 0.010043719952576975 1 1 1 1 1 1 1 1 1 1 1 1 1 1 1 1 1 1 1 1 1 1 1 1 1 1 1 1 1 1 1 1 1 1 1 1 1 0.010116075449590312 1 1 1 1 0.010073276769227686 1 0.010101389661440467 1 1 0.010025396260295878 0.010102990049703317 1 1 1 1 1 1 1 1 1 1 1 1 1 1 1 1 0.009964564081260556 1 1 1 1 1 1 0.010000722643052433 1 1 1 1 1 1 1 1 0.010008502930988167 1 1 1 1 1 1 1 1 0.010121217427315268 1 1 1 1 1 1 0.010054196880796971 1 1 0.010026588221234232 1 1 1 1 1 1 1 1 1 1 1 1 1 1 1 1 1 1 1 1 1 1 1 0.01007209797122513 1 1 0.010145629877339697 1 1 1 1 0.010113540678332436 1 1 0.010046520131814139 1 0.010023318206629706 1 1 1 1 0.010006567764650099 1 1 1 0.010007148846839217 1 1 1 1 1 1 0.010000325379817633 0.010003869651390435 1 0.010000179834333614 1 1 1 1 1 1 0.0099858763531379246 0.010066593921591432 1 1 1 1 1 0.0099995078171830343 1 1 0.010095890125246426 1 1 1 1 0.01010123315638424 1 1 1 1 1 1 1 1 0.0099991747591809226 1 1 0.010208372541086034 1 0.010040098407902258 1 1 1 0.010172494530172421 1 0.010070265767928924 1 1 0.010000020822234897 1 1 1 1 1 1 1 1 1 1 1 1 1 1 1 1 1 1 1 0.010259327084907094 1 1 1 0.0099854686489540753 1 0.010033383449679432 1 1 0.01024153730338084 1 0.009998201773348243 1 1 0.010233090317462522 1 1 1 0.0099482239422708525 1 1 0.0099818313417548606 0.0099892696630730776 1 1 1 1 1 1 1 1 1 1 1 1 1 1 1 1 0.010032201670731785 1 1 1 1 1 1 1 1 1 1 1 1 1 1 0.010073531906114569 1 1 1 0.010076411936448567 1 1 1 1 1 1 1 1 1 0.010145600247820482 1 1 0.0099259257192546371 1 0.010061305427495636 1 1 1 1 1 1 1 1 1 1 1 1 1 1 0.01004491873737429 1 0.010108412203123411 1 1 1 1 0.010041838945321098 1 1 0.010087736508773475 0.010241154622632372 1 0.010064061353611799 1 1 1 1 1 1 1 1 1 1 1 0.0099746974712565453 1 1 1 1 1 1 1 1 1 1 1 1 1 1 1 1 1 1 1 1 0.010091875755637096 1 1 1 1 1 1 1 1 1 1 1 1 1 1 1 1 1 0.0099730784944059812 0.0099992209805923431 0.010003744849602602 1 1 1 1 1 1 1 1 0.010106611677618484 1 1 1 1 1 0.010158979504696587 1 1 0.010068506356810527 0.010103762882158068 1 1 1 1 1 1 1 1 1 1 0.01010372650978578 1 0.010082390285072738 1 1 1 0.010133863123436761 1 0.010054559721059888 1 0.010086110988154099 1 1 1 1 1 1 1 0.0099988213593879133 1 1 1 0.010000616332760604 1 1 1 1 0.010169391210086658 1 1 1 1 1 1 0.010178928860639421 1 1 1 1 1 1 1 1 1 1 1 1 1 1 1 1 1 1 1 1 1 1 1 1 1 1 1 1 1 1 0.010080775353231129 1 1 1 1 1 1 1 1 1 1 1 0.010247902038352342 1 1 1 0.010201954168130627 1 1 1 1 1 1 1 1 1 1 1 1 1 0.010039114815184103 1 1 1 1 1 1 1 1 1 1 1 1 1 1 0.010094354927982914 1 1 1 1 1 1 1 0.010116519402447455 1 1 1 0.010128159735376792 1 1 0.010000033004303055 1 1 1 1 0.010087425756041806 0.010086958992442194 0.010099118277100284 1 1 1 1 1 0.010024785262273971 1 1 1 1 1 0.010014952155605696 1 1 0.010000068860464926 1 1 1 1 1 1 1 1 0.010036972768426286 1 1 1 1 1 1 1 0.010348894267079035 1 1 1 0.010315575693747723 1 0.0099952045532000905 1 1 1 1 1 1 1 1 1 0.010073679963688761 1 0.010066375909503036 1 1 1 1 1 1 0.010122908896164339 1 1 0.010118552971367867 0.01009436003983436 0.0099602587096075945 0.010097823814256805 1 1 1 0.010126877141795221 1 0.010009023339248708 1 1 1 1 1 1 0.010377366209597139 1 1 1 1 1 1 1 1 1 0.01012936361021468 1 1 1 0.010158545102868021 1 1 0.010001975842475823 0.010220454876253622 1 1 1 1 0.01004277293184714 1 1 1 0.0099994312275604319 1 1 1 1 1 1 1 1 1 1 1 1 1 1 1 1 0.010122714574443286 1 1 1 1 1 1 1 0.0099586451569890558 1 1 1 1 1 1 0.01001625265311919 1 0.010294888912708355 1 1 0.0099037151196332898 1 1 1 1 0.0099891520922340236 1 1 0.00999793376508867 1 1 1 1 1 1 1 1 1 1 1 1 1 1 1 1 1 1 1 1 1 1 1 1 1 1 1 1 1 1 1 1 1 0.010001123107230347 1 1 0.010006435333921877 1 1 1 0.0099821593164903851 1 1 0.010024694870352895 1 0.010112474752780933 1 1 1 1 0.010097048492598966 1 1 1 1 1 1 0.010274384296448452 1 1 1 1 1 1 1 1 1 1 1 1 1 1 1 1 1 1 1 1 0.010153139435922366 1 1 1 0.01022478593238732 1 1 1 0.010000508368662921 1 1 0.010159931195556837 1 1 1 1 1 1 0.010064585690159654 0.010059199305029973 1 1 1 1 1 1 1 0.010180269957751361 0.010151795229094093 1 1 0.0099830624845984369 1 1 0.010198872419010154 1 1 1 1 1 1 0.010077574756362763 1 1 1 1 1 1 1 1 1 1 1 1 1 1 1 1 1 1 1 1 1 0.010070692886568363 1 1 1 1 0.010232374092127903 1 1 1 1 1 1 1 1 1 1 1 1 1 0.010231896410818044 1 1 1 0.0099891435100580486 1 1 1 1 1 1 1 1 0.010169767198156536 1 1 1 0.010386279888024609 1 1 1 1 1 1 1 1 0.010448256698363658 1 1 1 1 1 1 0.0099130670198683025 1 1 1 1 1 1 1 0.0099787794619241935 1 1 1 1 1 1 1 1 1 1 1 1 1 1 1 1 1 1 1 1 1 1 1 1 0.010005011597885095 1 1 1 1 1 0.0097168202097461139 1 1 1 0.0098338644931123195 1 1 1 1 0.0099068662724353315 1 0.010049806556074913 1 1 0.010014561523388704 1 0.0099607709877355347 1 1 1 1 1 1 1 1 1 1 1 1 1 0.010201157531449026 1 1 1 1 1 1 1 1 1 1 1 1 1 1 1 1 1 1 1 1 1 1 1 1 1 0.010031537198473259 1 1 0.010176943191365776 1 1 1 1 0.010285640806269841 1 1 1 0.010795948683928077 0.0099992070529403201 1 1 1 1 1 1 1 0.01024818828527637 1 1 1 1 0.010302999493186268 0.010001771782565439 1 0.010049358002403298 1 1 1 1 0.010419703226958635 0.010537534526736987 1 1 1 1 1 1 1 1 1 1 1 1 0.010087656215959574 1 1 1 1 1 1 0.010075074095992533 1 1 1 1 1 1 0.0099999643517765836 0.010048108484396887 0.01028741132471404 0.010061678310160357 1 1 1 1 0.010305239023632099 1 0.010009418558920083 0.010045643014401863 1 1 1 1 1 1 0.0099957311159631339 1 0.010301150937967187 1 1 1 0.010157498727760311 0.0098336252894631916 0.010137211965177965 0.01000801694764706 0.0097588312838667816 1 1 0.010106775949874348 0.010026747728314163 1 1 1 1 1 0.010140146122963959 0.0098921603187047385 1 0.010028167148710455 0.010000883912088214 1 1 0.010650252931648955 1 1 1 1 0.009857574485398736 1 1 1 1 1 1 0.0097029590512212847 0.0099847638489216177 1 0.010018982605375424 1 1 0.0098865149997186073 1 0.0099994559023931211 0.0095837796698188572 1 1 1 1 1 1 1 1 1 1 0.0099596023407927045 1 0.0098617870953824332 1 1 1 0.0099841317119501397 0.01062870183051175 1 1 1 1 1 1 0.0099975022388178528 1 1 1 0.0098635055508546829 1 1 1 1 1 0.010069922491617801 1 0.0099825883875236058 1 0.0097289757979203279 0.010255850735874312 1 1 1 1 1 1 1 0.0099917431762357838 1 1 1 1 1 1 1 1 1 1 1 0.010298958513517486 1 0.0099102953072316043 1 1 0.010789329099506906 1 1 1 1 1 1 1 1 1 1 1 1 1 1 1 1 0.010001349146953326 1 1 1 1 1 0.010001280286488397 1 1 1 1 1 1 1 1 1 1 1 0.010042385996367672 0.010175536979539355 1 1 0.010038322086874898 1 1 0.010032983371358601 1 1 1 1 1 0.010012405331918207 1 1 1 1 1 1 1 1 1 0.0099936895386998209 1 1 1 1 1 1 1 0.010136496611894443 1 1 0.01001757376626569 0.009991440112392504 1 1 0.01002842460289243 1 1 1 1 1 1 0.0099784652340567069 1 1 1 1 1 1 1 1 1 1 1 1 1 1 1 1 0.010010587159295876 1 0.010136846848527167 1 1 0.010004953047403523 1 1 1 1 1 1 1 1 1 1 1 1 1 1 1 1 0.010257311750729078 1 1 1 0.009995039221616351 0.010048580758357614 1 1 1 1 1 1 1 1 1 1 1 1 1 1 1 1 1 1 1 1 1 1 1 1 1 1 1 1 1 1 1 1 1 1 1 1 1 1 1 1 1 1 1 1 1 1 1 1 1 0.010024178951321076 1 1 1 1 1 1 1 1 1 1 1 0.01006132038342184 1 1 1 1 1 1 1 1 1 1 1 1 0.010054392074230206 1 1 1 1 1 1 1 1 1 1 1 0.010418431943266608 1 1 1 1 1 1 1 1 1 1 1 1 0.010147560852415201 1 1 1 1 1 1 1 1 1 1 1 1 1 1 1 0.0099806754745361305 1 0.01002638148674447 1 1 1 0.010031107260512711 1 0.010047500169415007 1 1 1 1 1 1 1 1 1 1 0.010008826097565393 0.0098429320476270399 1 1 1 1 0.0099631940951291735 1 1 1 1 0.0096230546546070758 1 1 1 1 1 1 1 1 1 1 1 1 1 1 1 1 1 1 1 1 1 1 1 1 1 1 1 1 1 1 1 1 1 1 1 1 1 1 1 1 1 1 0.010028069356309149 1 1 1 1 1 1 1 1 0.010013333553447972 1 1 1 1 1 0.010027759501780214 1 1 1 1 1 1 1 1 1 1 1 1 1 1 1 1 1 1 1 1 1 1 1 1 1 1 1 1 1 1 1 1 1 1 1 1 1 1 1 1 1 1 1 1 1 1 1 1 1 1 1 1 1 0.010447262104900722 0.0099863689409083294 1 1 1 1 1 1 0.010660968486139849 1 1 1 1 1 1 1 1 1 1 0.0099777564229385808 1 1 0.010863999944400363 0.0093378692083035588 1 1 1 1 1 0.010024083335093845 1 1 1 1 1 1 1 1 1 1 1 1 1 1 0.0099961638261013754 0.0099517233329723745 1 1 0.0099584476982088437 1 0.010100741306451602 1 1 1 0.010529077076626009 1 0.0097103296694790783 1 0.0098846286554892353 1 0.010547913630099817 1 0.010854404817598336 1 1 1 0.0099510216506417913 0.010458002323410341 1 1 1 0.01081229580134101 1 1 0.010111324803574195 1 0.010694863394107463 1 1 0.010847109235582186 1 0.010005482087850383 0.0098713439648335181 1 1 1 1 0.0096149915661999565 1 1 1 1 1 1 1 1 1 1 1 1 1 1 1 1 0.0099932011423981976 1 0.010069158240592166 1 1 0.0099423979407714403 1 1 0.010714397264878562 1 1 1 1 1 1 1 1 1 1 1 0.010314323562354635 1 1 1 1 1 1 1 1 1 1 1 1 1 1 1 1 1 0.010263007567344076 1 0.010029274026931816 1 1 0.010009525620490331 0.011265688549200514 1 1 1 1 1 1 0.010139204960015051 1 1 1 1 1 1 1 1 1 1 0.010377402518206602 1 0.0099402238732500623 1 0.011427551064689956 1 1 0.010405647336840435 1 1 1 0.010692117211296485 1 0.0103261997632128 1 0.010453595249513862 1 1 1 1 1 1 0.010724388527329031 0.010719165974524067 1 1 1 1 1 1 1 1 1 0.010029449664475059 1 1 0.010158990838635262 1 1 1 1 1 1 1 1 1 1 1 1 0.010649447011403419 1 1 1 1 0.010806617879554298 1 1 1 1 0.010053810638242514 1 0.010030264654566036 1 1 1 0.010148328636044562 1 1 1 1 1 0.011100246109005585 1 1 0.0098759178149827754 1 0.0097558456479721802 1 1 0.010863344709786997 1 1 1 0.010878197228943384 0.012165138379793893 1 0.010149257181975483 1 0.009598172204609479 1 0.0100680884311921 0.0096899123876037097 1 1 1 1 1 0.010489754805438749 1 1 0.0098144760858763381 1 1 1 1 1 1 1 1 1 1 0.009943303250042777 1 1 1 1 1 1 1 1 1 1 1 1 1 1 1 0.010397372695447715 1 1 1 1 1 1 1 0.010381774840192695 1 0.010139700234466137 1 1 1 1 1 1 1 1 0.0098304440807389561 1 0.010575715385109093 1 0.010460957517751276 1 0.0099864187979134492 1 0.0099574491166028942 0.0099954804849426652 1 1 0.010179463578547165 1 1 0.010081970282175494 1 1 1 0.010017002768981566 0.010127210731414255 1 1 1 1 0.010019096871391473 1 0.010153485797343504 1 1 1 1 1 1 1 1 1 1 1 1 1 0.01001532368879491 1 0.0110126196370323 1 0.010322477656506495 0.010466894557532753 1 1 0.010175954232204409 1 1 1 1 1 1 1 1 0.0099584820696977296 1 1 1 1 1 1 1 1 0.01001364340797691 1 1 1 1 1 1 1 1 1 1 1 1 1 1 1 1 1 1 1 1 1 1 1 1 1 1 1 0.010168614766182204 1 1 1 0.01000326874901509 1 1 1 1 0.01018009758006741 1 1 1 0.011950893015315815 1 1 1 1 1 1 1 1 0.010400147727290069 1 1 0.011511763028222474 1 1 1 1 1 1 1 1 1 1 1 1 0.011177157404819534 0.010020920646495067 1 1 1 1 1 0.010508850903167621 1 0.01093656866909023 0.010464068048698962 1 1 0.0099964958153981043 1 0.010157583234985248 0.0096256982452598006 1 1 0.010053717594799425 1 1 1 1 1 1 1 0.011586106919368172 1 1 1 1 1 0.0097042633394707131 0.012443778248177712 1 1 0.0090764380465213432 1 1 1 1 1 1 1 1 1 1 1 1 1 1 0.010009329525086982 1 1 1 1 0.010833653049658743 1 1 1 0.0099996002114190064 1 1 1 1 1 1 1 1 1 1 1 1 1 1 1 1 1 1 1 1 1 0.011118938787389026 1 0.011361168911251555 1 1 1 0.010725609124691626 1 1 1 0.010061097687294147 1 1 1 1 0.010849066594542222 1 1 1 1 0.0098478692415162033 1 1 1 1 1 1 1 1 1 0.0097258308714555375 1 0.010512711670322479 1 1 1 1 1 0.01000011474589348 1 1 1 1 1 1 0.011881511565896841 1 1 0.0099984815887619056 0.011546013838316539 1 0.01036674992590308 1 1 1 1 1 0.010277213920852265 1 1 0.010154303204690211 1 1 0.010255872720502122 1 1 1 1 1 1 1 1 0.010227967052532941 1 1 1 1 1 1 1 0.010108737658450681 1 1 1 1 1 1 1 1 1 1 1 1 1 0.010132863933895373 1 1 1 1 1 1 1 0.010100301528608951 1 1 1 1 0.010060686142017168 1 1 1 1 0.010025854111919389 1 1 1 0.010137186579253464 1 1 1 1 1 1 1 1 1 1 1 1 0.0100191063462747 1 1 1 0.0099823032900722124 1 1 1 1 1 1 1 1 1 1 0.010066979677984885 1 1 1 1 1 1 1 1 1 0.010305405470435607 1 1 1 0.010493304257436513 1 1 1 1 1 1 0.010042045459556469 1 1 1 0.0099629731683529947 1 1 1 1 0.010598124693602089 0.010043243645180513 1 1 1 1 1 1 1 1 1 1 1 1 1 1 1 1 1 1 1 1 1 1 1 1 1 1 1 1 1 1 1 1 1 1 1 1 0.010277793714539234 1 1 1 1 1 1 1 1 1 1 1 1 1 1 1 1 0.010059354019270828 1 1 1 1 1 1 1 0.010095103118637568 1 1 1 1 0.01008793461457478 1 1 1 1 1 1 1 1 1 1 1 1 0.010682033557445869 1 1 0.0099333989182849042 1 1 1 0.0099182598843129827 0.010597596375943064 0.011146124610677391 1 1 1 1 1 1 1 1 1 1 1 1 1 1 1 1 1 1 1 1 1 1 1 1 0.0099995338217842913 1 0.010210896747897307 1 1 0.01026175404024867 1 1 1 1 1 1 1 1 0.011198752391973685 1 0.0099072876554626727 1 1 1 1 1 1 1 0.010040052153566211 1 1 1 1 1 1 0.011284111595586767 1 0.010919600835185672 1 1 1 1 1 1 0.010880611248236954 1 1 1 0.010145166535071989 1 0.0099706388802374944 1 1 0.010231328697143124 1 0.010476929190848505 1 1 0.0099615423620047425 1 1 0.010209705379499416 1 0.010168362446934134 0.010252568118093735 1 0.010905703660359409 0.01128670510704621 1 1 0.010158467653064131 0.01020273075040116 1 1 1 1 0.010938977786500284 1 0.010266969350714913 1 1 1 1 1 1 0.010907231323194544 1 1 1 1 0.011091534761247048 1 1 1 1 0.011228013404571179 1 1 0.010019195259989292 1 0.01080916382461701 1 0.0097539732517855048 1 0.010010254657930373 0.0099214528620392012 1 0.010007163056599237 1 1 1 1 1 0.010065802897736214 1 1 1 0.010425019801231098 1 1 1 1 1 1 1 1 1 1 0.010109774536014551 1 1 1 0.0099251847715290022 0.010246493451552378 1 1 1 1 1 1 1 0.010183632056403233 1 1 1 0.0097298677935954928 0.010304166116198343 1 1 1 1 0.0098449393682561032 1 1 1 1 1 0.010164522012104793 1 1 1 1 1 1 1 1 1 1 1 1 1 1 1 1 1 1 1 1 1 1 0.010179850592807937 1 1 0.010020177739806737 1 1 1 0.010013840885179238 1 1 1 1 1 1 0.010042331475843769 1 1 1 1 0.010177157282815813 1 1 1 0.010059905842304748 1 1 1 0.010110893195792539 1 1 1 1 1 1 1 1 1 0.010006814356876306 1 1 1 1 1 1 1 1 0.010233432805293333 1 1 0.01001345087734291 0.010109116914585946 0.00999499366710274 1 0.0100013555424772 1 1 1 1 1 0.010029863215291998 1 1 1 1 0.010041229442387651 1 1 1 1 1 0.01003717672014119 1 1 1 1 0.01007608909985384 1 1 1 1 0.0099510780330562595 1 1 1 1 1 1 1 1 1 1 1 1 1 1 1 1 1 1 1 0.010348515179122528 1 1 1 1 1 0.01001887250827152 1 1 1 1 1 0.010219387618557068 1 1 1 1 1 0.010010864202653808 1 1 1 1 1 1 1 1 1 1 1 1 1 1 1 1 1 1 1 1 1 1 1 1 1 1 1 1 1 1 1 1 1 1 1 1 1 1 1 0.01002772957534398 1 1 0.010007709479254966 1 1 1 1 1 1 0.010009835967918282 1 1 1 1 1 0.010183912426025076 1 1 0.0099880499584807988 0.0099925211488773105 1 1 1 0.010168662490256457 1 1 1 1 1 1 0.010004850665645236 1 1 0.0099862614028311258 1 0.01019315642971391 1 1 1 0.01013062974004756 1 1 1 1 1 0.010073572901360106 1 1 1 0.010001088463371686 1 1 1 1 1 1 1 1 1 1 1 1 1 1 1 1 1 1 1 1 1 1 1 1 1 1 1 1 1 1 1 1 1 1 1 1 1 1 1 1 1 1 1 0.010056862932035816 1 0.010258790393397811 1 1 0.010178789870320349 1 1 1 1 1 0.010057186056176001 1 1 1 1 1 1 0.010032147647887107 1 1 1 1 1 1 1 1 1 1 0.010069583615885922 1 1 1 1 0.010126446547921737 
</DataArray>
</CellData>
</Piece>
</UnstructuredGrid>
</VTKFile>
